    42
 dasa-rec
C      12.64589600      0.43291500      2.53010300
C      13.19858300      1.21395000      4.72040900
C      11.76435800      1.37191600      4.93122600
C      10.88765900      1.49939600      3.74551000
C      13.25888500      0.60310600      1.15486800
C      12.33083100     -1.02137400      2.86184100
C      11.13058600      1.53298300      6.14410700
C      11.56177300      1.48785500      7.49694200
C      10.65873800      1.68829600      8.51304300
C       9.25985700      1.96648300      8.46689900
C       8.56475300      2.11045500      9.62969700
C       6.39370700      2.58549000      8.61662700
C       5.98309300      1.28424400      7.92578100
C       6.67482600      2.57206900     11.10252000
C       5.63817900      1.51377700     11.47321800
N       7.25062200      2.38333200      9.77750900
O      14.06758500      1.34311700      5.56141000
O       9.74060600      1.86241800      3.76372300
O      11.46002000      1.21541700      2.54472800
O      13.59991400      0.95318600      3.45844100
O      12.84291200      1.22389100      7.87263600
H      13.43041800      1.28742800      7.08947000
H      10.07138500      1.72014600      6.01355300
H      11.09675300      1.62016400      9.50800300
H       8.74889300      2.06772000      7.51874500
H       9.10700000      2.00693700     10.56704900
H       6.07346300      0.51161300     11.42670300
H       5.27215000      1.68663600     12.48966600
H       7.49280000      2.56152800     11.82737700
H       6.21868800      3.57015400     11.15231600
H       5.50661200      3.12861700      8.95650700
H       5.40884300      0.64494200      8.60135500
H       6.91003000      3.24568100      7.90925700
H       6.85859200      0.72258100      7.59180800
H       5.36323400      1.50328500      7.05077700
H      13.24765600     -1.61370400      2.82203700
H      11.89680900     -1.11592600      3.85988600
H      11.61722100     -1.41321400      2.13378100
H      13.46597800      1.65930800      0.97423600
H      12.56181500      0.23784000      0.39820100
H      14.18999600      0.03628400      1.09473900
H       4.77719100      1.54620200     10.79954400
    42
 dasa-prd
C      11.86758800      2.09284800      3.86660200
C      11.33317400      0.13017300      5.03160600
C      11.07229900      0.84937900      6.16566900
C      11.69889800      2.16214400      6.26135300
C      12.92577900      2.47108800      2.85146400
C      10.47609800      2.58093600      3.48378300
C      10.24513900      0.22025900      7.27171300
C      10.89836700     -0.98673300      7.94998100
C      10.68685100     -0.88645500      9.39736500
C      10.02850300      0.24376700      9.66528200
C       9.75311900      1.10276200      8.45930800
C       7.35437500      0.53089000      8.37418600
C       6.33662900      0.64933500      9.50762200
C       8.20341600      2.63458100      7.41539300
C       6.91071500      3.42156500      7.59674000
N       8.38092000      1.58063500      8.41392600
O      11.09102000     -1.15239800      4.86293900
O      11.81030300      2.84725500      7.24873200
O      12.27196600      2.63393700      5.10820300
O      11.87745300      0.65732800      3.93776100
O      11.44229100     -1.89977200      7.34789800
H      11.16916000     -1.60688500      5.74882300
H       9.34919700     -0.20460900      6.79522300
H      11.02624100     -1.64032500     10.09674300
H       9.72491400      0.57575700     10.65359400
H      10.39597000      1.97938900      8.54044000
H       6.85334300      3.83483800      8.60736500
H       6.87595700      4.24956100      6.88207900
H       9.05249700      3.31783300      7.50559400
H       8.23739900      2.22529900      6.38758100
H       6.83635900      0.54133300      7.40348700
H       5.81208300      1.60693100      9.47728000
H       7.83224800     -0.45144100      8.45059500
H       6.83628200      0.57091800     10.47792900
H       5.59202200     -0.15069200      9.43886100
H      10.19234800      2.16218500      2.51566000
H       9.73748500      2.28045800      4.22819000
H      10.48397800      3.67106700      3.41538900
H      13.89640700      2.09347300      3.17715100
H      12.97266000      3.55830600      2.76405600
H      12.67557700      2.03960300      1.88018000
H       6.02438900      2.80376000      7.42598300
    42
 dasa-ts-up
C      11.63603800      2.01320000      3.63358200
C      12.14921600      0.88943300      5.66327800
C      10.77189000      0.71625000      5.87382100
C       9.83443600      1.49756900      5.11512900
C      12.13639300      3.26802700      2.94417700
C      11.56161700      0.81495300      2.69075100
C      10.19051900     -0.16749900      6.87249000
C      10.82366900     -1.05812500      7.75017200
C       9.95004100     -1.58560100      8.80437600
C       9.11753200     -0.63103200      9.22894400
C       9.38710500      0.71185500      8.64774500
C       7.07821800      1.15166500      8.01524500
C       6.09704800      1.12669800      9.18724600
C       8.78418700      2.99391100      8.09187000
C       8.08515100      3.98924700      9.01290100
N       8.42867300      1.59781000      8.37173100
O      13.07513100      0.34654700      6.30185600
O       8.62847100      1.52962900      5.29274000
O      10.34752700      2.31605300      4.14626800
O      12.55406200      1.74087400      4.68938500
O      12.09607800     -1.29541700      7.83011400
H      12.60243400     -0.64743500      7.15324600
H       9.15377500     -0.39914000      6.67298700
H      10.05677900     -2.57971800      9.22095100
H       8.35604800     -0.76018700      9.99155700
H      10.33467000      1.14392900      8.96013800
H       8.26623400      3.75489300     10.06625000
H       8.46448000      4.99611100      8.81460100
H       9.86847800      3.08351400      8.19574700
H       8.54357500      3.20547700      7.04606600
H       6.72051500      1.81133200      7.22197000
H       5.98451800      2.11251200      9.64280900
H       7.15435600      0.15495300      7.57095800
H       6.41157200      0.42827200      9.96730300
H       5.11457400      0.80519300      8.82892600
H      12.55281100      0.60886900      2.27970900
H      11.20908900     -0.07313000      3.21938300
H      10.87010000      1.03536400      1.87403100
H      12.17045300      4.09051700      3.66122800
H      11.46096600      3.53015500      2.12716100
H      13.13811100      3.09450800      2.54554400
H       7.00592300      4.00737200      8.83990900
    42
 dasa-ts-down
C      11.73188400      2.82353300      4.32740900
C      12.16433000      0.83261700      5.56028800
C      10.80668900      0.82187500      5.93376700
C       9.86163800      1.60187200      5.18222700
C      11.91626000      3.87014400      5.42378500
C      12.13540000      3.33978100      2.95934200
C      10.22737300     -0.09212300      6.90033300
C      10.84955100     -0.99716100      7.76681800
C       9.98268300     -1.53678300      8.81524700
C       9.11677200     -0.61269600      9.24572000
C       9.35083800      0.74702600      8.70583000
C       7.04343800      1.12172300      8.03620300
C       6.04809900      1.05401600      9.19415200
C       8.68997200      3.01389900      8.15610900
C       7.92096100      3.97961900      9.05176200
N       8.37551300      1.60457700      8.41773300
O      13.06444500      0.09130700      5.99684500
O       8.64895400      1.56190100      5.30582600
O      10.36674900      2.44661500      4.23282100
O      12.55965700      1.69672600      4.59212600
O      12.12068700     -1.27309100      7.81937800
H      12.60550700     -0.75747100      7.04223400
H       9.18413100     -0.29637400      6.70718700
H      10.10573500     -2.53348600      9.22219000
H       8.34596700     -0.78179800      9.99084300
H      10.29120300      1.19412400      9.01684500
H       8.07228100      3.74896800     10.11047500
H       8.26989900      5.00027400      8.86893100
H       9.76506900      3.14190300      8.30470400
H       8.48067400      3.22027500      7.10221200
H       6.67845800      1.77943000      7.24458300
H       5.89642200      2.03110500      9.65692100
H       7.15752400      0.13281300      7.58302500
H       6.37578500      0.35911300      9.97180000
H       5.08203000      0.70304800      8.81952100
H      13.18851600      3.62830500      2.97045600
H      11.98325900      2.55652100      2.21443600
H      11.52380200      4.20667000      2.70048900
H      11.64421000      3.46000600      6.39824400
H      11.28440300      4.73647600      5.21445800
H      12.96145500      4.18605100      5.45836000
H       6.84907900      3.95828300      8.83879500
