    42
 dasa-rec
C      11.85906100      2.09422600      3.87934700
C      11.34458700      0.12519000      5.03249000
C      11.07579400      0.84194100      6.16518700
C      11.70478800      2.14926500      6.27173800
C      12.90012200      2.48764100      2.85305400
C      10.45834000      2.57546600      3.51767100
C      10.24595500      0.20856700      7.26991500
C      10.90520300     -0.98573600      7.95741400
C      10.68351300     -0.88136200      9.40221900
C      10.00514100      0.23951300      9.65983900
C       9.74777900      1.09582000      8.45038900
C       7.34999100      0.53488000      8.35922200
C       6.34823500      0.65146900      9.50672800
C       8.20525300      2.62234800      7.38616800
C       6.93346900      3.44031400      7.58043600
N       8.37863400      1.57933200      8.39372900
O      11.11892400     -1.16168100      4.87148400
O      11.82695000      2.82266100      7.26677500
O      12.28154300      2.62544900      5.11950600
O      11.88243600      0.65651600      3.93900600
O      11.47140000     -1.89547000      7.36990300
H      11.20674100     -1.60654300      5.75993800
H       9.35053700     -0.21856300      6.79503100
H      11.02245000     -1.62911100     10.10798600
H       9.66669600      0.56149000     10.63954700
H      10.39650500      1.96940200      8.53434300
H       6.90907700      3.87695800      8.58282600
H       6.89837500      4.25179100      6.84704300
H       9.07181000      3.28688900      7.45001900
H       8.20586000      2.19342400      6.36566100
H       6.81987900      0.55453400      7.39574600
H       5.83423100      1.61502800      9.48996700
H       7.82577100     -0.45099100      8.41847600
H       6.86128500      0.56510400     10.46904800
H       5.59616600     -0.14276800      9.44533200
H      10.17460200      2.17728200      2.54107200
H       9.72449800      2.25507900      4.25895700
H      10.45822600      3.66659600      3.47344800
H      13.87804000      2.11705900      3.16496500
H      12.93804000      3.57555300      2.77126200
H      12.64370500      2.05969400      1.88172400
H       6.03180600      2.83602500      7.44511600
    42
 dasa-prd
C      12.63529900      0.44172800      2.53846300
C      13.19913800      1.23427000      4.72621800
C      11.75781800      1.38094000      4.94016000
C      10.87891800      1.50909500      3.75551700
C      13.24724000      0.61376700      1.16414200
C      12.31479600     -1.01091200      2.87087200
C      11.13261900      1.52627700      6.15343200
C      11.56572600      1.45639900      7.50405800
C      10.66713100      1.66715000      8.51882800
C       9.26850300      1.94212000      8.46260600
C       8.56984900      2.10839100      9.62057900
C       6.40673100      2.57723500      8.59012700
C       5.97695900      1.26671600      7.92916900
C       6.67509700      2.59188900     11.07960100
C       5.65714100      1.52160100     11.46777900
N       7.25852700      2.39545200      9.75882300
O      14.06778500      1.40175000      5.55822800
O       9.73145700      1.87150300      3.77922700
O      11.45179800      1.22965900      2.55398000
O      13.59454000      0.95636100      3.46646900
O      12.83843500      1.14711400      7.87558200
H      13.43675100      1.27228700      7.10859600
H      10.07300700      1.72262500      6.04058400
H      11.10266000      1.60234600      9.51559100
H       8.76561000      2.02401500      7.50781000
H       9.10517800      2.01114300     10.56252800
H       6.10960900      0.52631000     11.43628600
H       5.29120100      1.70500900     12.48257200
H       7.49285500      2.60612900     11.80472700
H       6.20470500      3.58325300     11.11330200
H       5.52638300      3.14175500      8.91150500
H       5.36495100      0.66606200      8.60652600
H       6.93777600      3.20854000      7.86821700
H       6.84345900      0.66880100      7.63776900
H       5.39079300      1.47609300      7.02949800
H      13.23006600     -1.60541600      2.83328800
H      11.87966100     -1.10000700      3.86916700
H      11.60098100     -1.40070500      2.14211300
H      13.45445700      1.67085400      0.98843800
H      12.55091900      0.25262400      0.40479500
H      14.17920300      0.04851700      1.10164300
H       4.79317700      1.52840600     10.79743400
    42
 dasa-ts-up
C      11.61566100      2.01579600      3.63674400
C      12.13562800      0.94818400      5.69136400
C      10.76565100      0.74068700      5.90076500
C       9.81025500      1.47085800      5.10203400
C      12.09691900      3.26942100      2.93577800
C      11.58212500      0.79796700      2.71906000
C      10.20096500     -0.10913600      6.95104100
C      10.91092700     -1.01734400      7.79287300
C      10.09969300     -1.50801900      8.89018900
C       9.20066300     -0.58526000      9.27680600
C       9.35337700      0.71519700      8.61213800
C       7.00748200      0.94418000      7.96585500
C       5.83836500      1.40850900      8.82918100
C       8.52632100      2.92933400      8.08259200
C       8.51409100      3.80666800      9.33189600
N       8.28496200      1.51603000      8.38352300
O      13.08402300      0.44320100      6.34889400
O       8.60560000      1.45968700      5.25370200
O      10.31739500      2.29592700      4.13244400
O      12.53232900      1.78197600      4.71040400
O      12.16628000     -1.27654500      7.74825300
H      12.66726600     -0.51676700      7.06582700
H       9.19835100     -0.44688600      6.71164500
H      10.28694400     -2.45837400      9.37495400
H       8.41887100     -0.74905600     10.01379600
H      10.25357500      1.26105600      8.88235700
H       9.29089300      3.49277000     10.03653500
H       8.70358200      4.85089600      9.06424000
H       9.48584600      3.02168000      7.56459500
H       7.76591300      3.25425300      7.36844700
H       6.84230600      1.19836800      6.91346200
H       5.69891200      2.49126600      8.75974900
H       7.09444700     -0.14531700      8.01898300
H       5.99691400      1.15175700      9.88111800
H       4.91235300      0.93392200      8.49077900
H      12.58230400      0.60718700      2.32386800
H      11.24113200     -0.08761200      3.25996000
H      10.89611500      0.98825800      1.89078100
H      12.10183700      4.10208400      3.64169500
H      11.42728600      3.50571600      2.10635200
H      13.10806400      3.11527000      2.55343500
H       7.55084100      3.75162000      9.84618200
    42
 dasa-ts-down
C      11.69761900      2.81887500      4.34901800
C      12.17122700      0.87789300      5.63798900
C      10.80852300      0.84323300      5.98972300
C       9.85435200      1.53866300      5.16175000
C      11.77524200      3.89168600      5.43192400
C      12.14664300      3.32389300      2.99283500
C      10.22863600     -0.03572000      7.00065700
C      10.89216400     -1.03054400      7.78147300
C      10.07438500     -1.51613400      8.86950500
C       9.21597000     -0.56908100      9.29588300
C       9.43546800      0.74932000      8.69410900
C       7.10306400      1.09421800      8.08671700
C       6.05722800      1.05617000      9.20004800
C       8.70538600      3.00502500      8.15639900
C       7.83427600      4.01681800      8.89436400
N       8.40378700      1.61696400      8.50791000
O      13.08569600      0.15123600      6.09104100
O       8.64546000      1.43403400      5.23161900
O      10.36441300      2.36360900      4.19360000
O      12.57092500      1.73564100      4.67882100
O      12.12226900     -1.39137600      7.68070800
H      12.61750000     -0.76412600      6.92319700
H       9.20942300     -0.31379600      6.75216200
H      10.21520600     -2.49450700      9.31243600
H       8.42103600     -0.73808800     10.01574100
H      10.36332100      1.23245400      8.98611000
H       7.90255800      3.88129700      9.97777000
H       8.16486800      5.03079600      8.64993300
H       9.75663200      3.18219500      8.40078500
H       8.59192300      3.13318900      7.07340000
H       6.75356800      1.69780400      7.24372700
H       6.37822700      0.41693900     10.02736400
H       7.25109500      0.08435700      7.68821900
H       5.11520700      0.65735100      8.81048800
H       5.86347200      2.05170900      9.60508200
H      13.18305500      3.66346700      3.04790200
H      12.07037700      2.51681200      2.26201400
H      11.50858200      4.15293300      2.67989800
H      11.46527800      3.48950100      6.39842900
H      11.11718600      4.72206500      5.16614500
H      12.80116200      4.25730500      5.51472100
H       6.78490200      3.93553200      8.59881200
