# LAMMPS data file written by OVITO Basic 3.11.3

42 atoms
4 atom types

-50 50 xlo xhi
-50 50 ylo yhi
-50 50 zlo zhi

Masses

1 12.0107  # C
2 14.0067  # N
3 15.9994  # O
4 1.00794  # H

Atoms  # atomic

1 1 11.8215752362 2.0857189929 3.8780067731
2 1 11.3488174525 0.1158701361 5.046706129
3 1 11.0766217159 0.8334981997 6.1775152357
4 1 11.6977010403 2.1375535941 6.2700230237
5 1 12.8550151047 2.489255413 2.8549023218
6 1 10.4186993017 2.5485291985 3.5251225718
7 1 10.2529009431 0.2009274176 7.2828045296
8 1 10.9171231585 -0.9789006277 7.9778143171
9 1 10.7080004326 -0.8619308433 9.415381061
10 1 10.0174474143 0.2495568851 9.6655894474
11 1 9.7533025918 1.0923977988 8.454222852
12 1 7.3635862242 0.5418314976 8.3184467131
13 1 6.327192341 0.6375052109 9.4307161669
14 1 8.2362346563 2.6416361091 7.4062192729
15 1 6.9714002751 3.4603581292 7.6056918018
16 2 8.391255167 1.5821890857 8.3983357948
17 3 11.1480153227 -1.1731663475 4.9031445654
18 3 11.8395793895 2.8127517132 7.2683405066
19 3 12.2451215832 2.6243732025 5.1154296965
20 3 11.8661659606 0.6497467962 3.9489262315
21 3 11.4700363918 -1.8991474973 7.3919229916
22 4 11.2377170909 -1.6078837122 5.7997293789
23 4 9.3673414133 -0.2332707735 6.8126778803
24 4 11.0492317014 -1.5976628807 10.123592702
25 4 9.674173916 0.5720348554 10.6360628701
26 4 10.4042570249 1.9652663869 8.5333277287
27 4 6.9463683798 3.8804497699 8.6113102644
28 4 6.9431263945 4.2777456851 6.8868041365
29 4 9.1033825036 3.2985573085 7.4970497611
30 4 8.2487100913 2.234457826 6.38499595
31 4 6.8716783141 0.5773220933 7.3434406105
32 4 5.8291028433 1.6050085968 9.4236870493
33 4 7.8330439706 -0.4392333594 8.3769268453
34 4 6.8029164412 0.5189259006 10.4032464433
35 4 5.5721347765 -0.139455552 9.3208382344
36 4 10.1333795163 2.1456889502 2.5597910212
37 4 9.6981039321 2.2292718533 4.2708451395
38 4 10.4114023203 3.6323628744 3.4773013562
39 4 13.8313143354 2.1203644111 3.1616531946
40 4 12.8874269354 3.5722704415 2.7864468696
41 4 12.5980960867 2.0732723408 1.886005211
42 4 6.072876473 2.8642307674 7.4587209383
