16
      -550.441540      -550.363833   0.00   0.00
C      -1.360659     0.113858    -0.000006
C      -0.801040    -1.152052     0.000127
C       0.583459    -1.254504     0.000165
C       1.372497    -0.107888     0.000025
C       0.781370     1.155453    -0.000127
C      -0.598059     1.273419    -0.000121
H      -1.439473    -2.025627     0.000198
H       1.053523    -2.233898     0.000290
H       1.417030     2.033999    -0.000238
H      -1.087824     2.238328    -0.000204
N      -2.839708     0.236200    -0.000031
O      -3.484556    -0.790615    -0.000674
O      -3.308177     1.354205     0.000562
C       2.858257    -0.242699     0.000020
O       3.620131     0.689254    -0.000317
H       3.233229    -1.287432     0.000331
