27
      -594.773037      -594.577061   0.00   0.00
C      -0.135581    -0.241169     1.295054
C       1.034593    -1.138407    -0.597045
C       1.645463    -1.726860     0.669478
C       0.492118    -1.597505     1.666011
H      -1.217696    -0.277812     1.428567
H       0.381028    -1.876996    -1.079418
H       1.783411    -0.811399    -1.323273
H       1.982339    -2.756321     0.529835
H       2.505844    -1.130723     0.992857
H      -0.240849    -2.390871     1.492763
H       0.796783    -1.632671     2.712912
N       0.245339     0.010070    -0.108238
H      -2.560045    -0.285676    -1.535735
C       0.396202     0.871503     2.214001
O       0.102826     0.954011     3.374871
O       1.236987     1.726035     1.616519
H       1.258924     1.425765     0.679874
C      -0.827284     0.466419    -0.977072
O      -1.823867    -0.571257    -0.985978
C      -0.302247     0.685314    -2.398099
H       0.529693     1.394893    -2.396158
H       0.026578    -0.253362    -2.845937
H      -1.098145     1.099062    -3.024657
C      -1.434650     1.766628    -0.442751
H      -2.260598     2.079706    -1.088766
H      -1.827620     1.645492     0.568007
H      -0.689548     2.566129    -0.437624
27
      -594.772833      -594.576895   0.13   0.10
C       0.068887     0.044830    -1.321132
C       1.449635    -0.386881     0.587091
C       2.160480    -0.926617    -0.649038
C       1.540025    -0.079004    -1.761276
H      -0.327524     1.026551    -1.585852
H       1.922104     0.560550     0.892260
H       1.486688    -1.069433     1.439964
H       3.246357    -0.829858    -0.583477
H       1.923176    -1.986321    -0.790608
H       1.999315     0.914304    -1.774776
H       1.632578    -0.511096    -2.758510
N       0.062209    -0.182720     0.136286
H       0.447350     2.276279     1.192079
C      -0.793210    -1.003698    -2.044958
O      -1.049022    -0.940210    -3.215667
O      -1.205431    -2.012604    -1.266628
H      -0.877425    -1.776616    -0.370189
C      -0.761963     0.746595     0.917495
O      -0.364881     2.105762     0.705208
C      -0.663499     0.402449     2.404504
H      -1.344267     1.045152     2.966195
H      -0.940436    -0.640579     2.579334
H       0.347769     0.558912     2.791155
C      -2.215974     0.673832     0.458079
H      -2.617452    -0.330314     0.611033
H      -2.808119     1.384147     1.037727
H      -2.317370     0.936588    -0.596297
27
      -594.772584      -594.576832   0.28   0.14
C      -0.362033    -0.101960     1.232548
C      -0.484275     1.482922    -0.558025
C      -1.493768     1.890157     0.509143
C      -0.911727     1.236396     1.763547
H       0.546978    -0.372696     1.776067
H       0.408563     2.120063    -0.503606
H      -0.886984     1.540775    -1.572191
H      -1.595197     2.974028     0.596343
H      -2.481684     1.476094     0.280103
H      -0.084967     1.840897     2.149167
H      -1.631803     1.089569     2.569767
N      -0.146847     0.088432    -0.211844
H       2.467510    -0.039567     0.625837
C      -1.366397    -1.240146     1.490491
O      -1.575789    -1.684989     2.585351
O      -2.002822    -1.668185     0.394903
H      -1.593755    -1.152389    -0.337633
C       1.115717    -0.418997    -0.759514
O       2.238561     0.304880    -0.242622
C       1.150508    -0.188088    -2.267958
H       2.039342    -0.665362    -2.684519
H       0.263199    -0.615648    -2.741459
H       1.202967     0.877142    -2.497289
C       1.263559    -1.910351    -0.451923
H       0.454287    -2.482141    -0.912260
H       2.214346    -2.265249    -0.855127
H       1.252511    -2.115588     0.622700
27
      -594.772614      -594.576609   0.27   0.28
C      -0.012895     1.198671    -0.028350
C       1.346016    -0.597166    -0.858035
C       1.591230     0.655201    -1.713215
C       1.176245     1.806901    -0.792780
H      -0.193312     1.735046     0.908783
H       2.282309    -0.955408    -0.412127
H       0.920656    -1.417522    -1.445628
H       2.628210     0.736332    -2.045565
H       0.955933     0.640377    -2.604150
H       1.966986     2.032310    -0.071628
H       0.918951     2.726852    -1.320629
N       0.421032    -0.160449     0.195401
H      -1.616932    -1.289258    -0.690525
C      -1.277875     1.361304    -0.868358
O      -1.856862     0.496550    -1.480974
O      -1.699031     2.639975    -0.878311
H      -2.481527     2.676483    -1.448072
C      -0.409009    -1.169684     0.835041
O      -1.178337    -1.921763    -0.104060
C      -1.340319    -0.518513     1.861306
H      -2.069613     0.142540     1.384981
H      -1.898137    -1.303888     2.374933
H      -0.773210     0.051715     2.603046
C       0.488172    -2.197853     1.524032
H       1.132963    -2.692203     0.795059
H       1.109928    -1.714058     2.281542
H      -0.131573    -2.962492     1.998281
27
      -594.770313      -594.575629   1.71   0.90
C       0.103088     0.698542     0.949343
C       1.423727    -0.862547    -0.213872
C       2.112350    -0.706755     1.141032
C       1.394657     0.489950     1.796322
H      -0.775670     0.750185     1.597695
H       1.456775    -1.890522    -0.577482
H       1.890263    -0.224009    -0.978145
H       1.957723    -1.609913     1.737658
H       3.188331    -0.545732     1.045021
H       1.137530     0.291708     2.838134
H       2.017650     1.387422     1.784427
N       0.052026    -0.460301     0.081096
H      -0.190579     0.808774    -2.073235
C       0.199023     2.051789     0.254075
O       0.430223     2.257827    -0.913352
O       0.021572     3.060386     1.129065
H       0.126840     3.887112     0.635174
C      -0.952362    -0.607090    -0.971843
O      -0.513483    -0.090743    -2.225076
C      -2.260622     0.071694    -0.553882
H      -2.619244    -0.319657     0.402778
H      -2.152999     1.156866    -0.476931
H      -3.015610    -0.126953    -1.316923
C      -1.208231    -2.093568    -1.220493
H      -1.965659    -2.205153    -2.000087
H      -0.300841    -2.591575    -1.565396
H      -1.556475    -2.577732    -0.305104
27
      -594.770067      -594.575361   1.86   1.07
C      -0.926449     0.766928     0.028091
C       0.476785    -0.552129     1.444362
C      -0.282039     0.432555     2.328567
C      -1.499347     0.770027     1.464309
H      -1.653698     0.330207    -0.667170
H       0.035305    -1.559564     1.541084
H       1.535047    -0.625530     1.708761
H      -0.550456     0.010801     3.299900
H       0.327055     1.325996     2.499294
H      -2.251361    -0.020115     1.551007
H      -1.977339     1.715246     1.724769
N       0.312136     0.012410     0.110326
H       1.050450     0.879889    -1.971155
C      -0.682314     2.183787    -0.487467
O       0.373715     2.676562    -0.786989
O      -1.844274     2.866729    -0.583955
H      -1.622629     3.747464    -0.919760
C       0.688720    -0.787465    -1.056825
O       0.596540     0.055240    -2.192754
C      -0.250038    -1.964465    -1.333911
H      -0.234579    -2.680198    -0.507947
H      -1.275685    -1.620361    -1.484346
H       0.068507    -2.479562    -2.243807
C       2.128124    -1.280796    -0.889231
H       2.215414    -2.022965    -0.090892
H       2.454712    -1.741655    -1.824186
H       2.787697    -0.439040    -0.660081
27
      -594.768450      -594.574821   2.88   1.41
C      -0.344019    -0.438514     1.047208
C       0.008426     1.750128     0.150249
C      -0.921387     1.880573     1.350608
C      -0.589937     0.618687     2.148800
H       0.481326    -1.095390     1.334954
H       1.029244     2.064184     0.419007
H      -0.321342     2.349023    -0.702587
H      -0.755481     2.799877     1.917140
H      -1.964169     1.858463     1.020097
H       0.333564     0.760989     2.717468
H      -1.374742     0.321705     2.848551
N      -0.054835     0.320196    -0.163549
H       2.870420    -0.639430    -0.883730
C      -1.595227    -1.292995     0.886634
O      -2.549357    -1.050682     0.198903
O      -1.539487    -2.384316     1.688334
H      -2.381238    -2.851125     1.580634
C       0.944887    -0.226966    -1.040151
O       2.200894    -0.239726    -0.319824
C       1.091381     0.643220    -2.290401
H       1.796584     0.178731    -2.986634
H       0.127850     0.745444    -2.796344
H       1.471920     1.633260    -2.034707
C       0.574181    -1.658056    -1.442142
H       0.544987    -2.321968    -0.575800
H      -0.402170    -1.669760    -1.932139
H       1.317728    -2.055551    -2.140577
27
      -594.768961      -594.574650   2.56   1.51
C       0.529256    -0.340109     1.007461
C      -0.856286    -1.338947    -0.663461
C      -0.071343    -2.453663     0.018795
C       0.268600    -1.821025     1.369632
H       0.131264     0.320575     1.782741
H      -1.898535    -1.341090    -0.293931
H      -0.888609    -1.450353    -1.750143
H      -0.641928    -3.380735     0.111186
H       0.842970    -2.660401    -0.544524
H      -0.589734    -1.880972     2.045592
H       1.121334    -2.287769     1.868299
N      -0.119677    -0.135089    -0.281951
H      -2.507714     0.874057     0.275120
C       2.033383    -0.113437     0.912878
O       2.739328    -0.387133    -0.019449
O       2.522700     0.396141     2.068007
H       3.482400     0.466655     1.957015
C      -0.722299     1.164149    -0.505235
O      -1.760663     1.455112     0.450681
C      -1.299243     1.235735    -1.920059
H      -0.527768     1.004485    -2.658998
H      -2.126989     0.532699    -2.052926
H      -1.678354     2.243003    -2.104529
C       0.316020     2.266078    -0.304954
H       1.167338     2.102562    -0.969016
H      -0.135061     3.235593    -0.525936
H       0.669607     2.293874     0.727706
27
      -594.770191      -594.574528   1.79   1.59
C      -1.052897    -0.226957    -0.688549
C       0.989784    -1.384970    -0.179546
C       0.401754    -1.944184    -1.477084
C      -1.082973    -1.616133    -1.344050
H      -0.984992     0.539240    -1.469867
H       2.011898    -1.037002    -0.326799
H       0.997557    -2.143335     0.612336
H       0.827546    -1.418500    -2.338114
H       0.598903    -3.011278    -1.601228
H      -1.632784    -1.605132    -2.286145
H      -1.574435    -2.332655    -0.675792
N       0.107034    -0.256973     0.211555
H       1.040691     1.757230    -1.358755
C      -2.359103     0.004931     0.074165
O      -3.366532     0.399471    -0.443696
O      -2.289330    -0.338299     1.367822
H      -1.340186    -0.540842     1.519272
C       0.799378     1.017497     0.450325
O       1.606657     1.388157    -0.673679
C       1.770353     0.855652     1.617959
H       2.275126     1.805819     1.802807
H       1.228185     0.559441     2.519200
H       2.532419     0.105395     1.403966
C      -0.195875     2.137149     0.759892
H      -0.789153     1.904671     1.646965
H       0.363216     3.056045     0.948065
H      -0.882242     2.325553    -0.071026
27
      -594.770191      -594.574528   1.79   1.59
C      -0.499042     1.122351    -0.354225
C      -1.213153    -1.170941    -0.295321
C      -2.050661    -0.407179    -1.323593
C      -1.956612     1.034753    -0.831944
H       0.141448     1.401070    -1.199335
H      -0.727052    -2.035954    -0.745803
H      -1.831925    -1.522405     0.538855
H      -1.597310    -0.496536    -2.316317
H      -3.076775    -0.776158    -1.386147
H      -2.178586     1.788838    -1.588278
H      -2.635801     1.195552     0.013251
N      -0.200925    -0.204347     0.200335
H       1.680453    -0.306579    -1.760470
C      -0.374451     2.221941     0.702689
O      -0.234615     3.383039     0.436129
O      -0.502756     1.771542     1.958436
H      -0.520240     0.793433     1.869935
C       1.191741    -0.666371     0.113016
O       1.517412    -1.084417    -1.218024
C       1.370386    -1.905246     0.988019
H       1.127649    -1.669616     2.026999
H       0.732997    -2.725456     0.655733
H       2.407812    -2.240574     0.932493
C       2.164948     0.425272     0.561520
H       3.181388     0.031374     0.497851
H       2.109954     1.317077    -0.069892
H       1.973714     0.725536     1.594087
27
      -594.769443      -594.574156   2.26   1.82
C       0.676847    -0.263929     1.118245
C       0.821464     0.755124    -1.048200
C       2.167963     0.904334    -0.343608
C       2.141215    -0.261020     0.647320
H       0.359683    -1.281348     1.365100
H       0.900944    -0.007583    -1.836836
H       0.477461     1.682244    -1.514280
H       3.009291     0.863600    -1.038797
H       2.215197     1.860380     0.188364
H       2.360289    -1.199455     0.127031
H       2.836106    -0.159675     1.481473
N      -0.095532     0.338347     0.023724
H      -1.951938    -1.177577     1.304479
C       0.526987     0.549718     2.420515
O       1.053945     0.216045     3.447398
O      -0.208412     1.654637     2.303298
H      -0.535437     1.635623     1.375345
C      -1.342018    -0.345138    -0.371736
O      -2.184569    -0.412425     0.769538
C      -1.108236    -1.751629    -0.936397
H      -0.498685    -1.720983    -1.842661
H      -0.601826    -2.397443    -0.212188
H      -2.069690    -2.206841    -1.187349
C      -2.091311     0.522901    -1.377979
H      -1.544641     0.612180    -2.319015
H      -3.063352     0.070632    -1.582845
H      -2.251744     1.519281    -0.959936
27
      -594.768624      -594.574030   2.77   1.90
C      -0.872883    -0.600213    -0.584261
C       1.410422    -0.881853     0.082530
C       1.140457    -1.734402    -1.162484
C      -0.369189    -1.960067    -1.099886
H      -1.005464     0.080602    -1.437292
H       2.243622    -0.192307    -0.083471
H       1.677955    -1.512116     0.940468
H       1.395065    -1.173623    -2.068595
H       1.714070    -2.663920    -1.168641
H      -0.820778    -2.231524    -2.055068
H      -0.608504    -2.742297    -0.370604
N       0.151650    -0.171300     0.348225
H      -1.459220     1.122338     1.604733
C      -2.237190    -0.769774     0.062696
O      -2.481955    -0.841686     1.238616
O      -3.194819    -0.894088    -0.881286
H      -4.031575    -1.032398    -0.413906
C       0.221149     1.264052     0.649599
O      -1.093366     1.709989     0.930197
C       0.698691     2.121401    -0.525293
H       0.683644     3.175852    -0.238148
H       1.717912     1.858727    -0.820455
H       0.038802     1.997467    -1.386717
C       1.110349     1.474641     1.877890
H       1.071275     2.526188     2.171760
H       0.746812     0.859934     2.705988
H       2.153070     1.210375     1.683409
27
      -594.769497      -594.573842   2.22   2.02
C      -0.445193    -0.797908    -0.940233
C       1.662988    -0.112333    -0.030606
C       1.853574    -0.490054    -1.500211
C       0.694437    -1.454300    -1.735784
H      -0.963131    -0.072946    -1.574078
H       2.080433     0.870865     0.192830
H       2.172216    -0.829898     0.624353
H       1.742505     0.394022    -2.136810
H       2.834084    -0.930138    -1.695679
H       0.424043    -1.590942    -2.783417
H       0.929531    -2.440221    -1.317875
N       0.201288    -0.156391     0.218267
H       0.585863     2.473112    -0.326729
C      -1.449124    -1.869716    -0.511362
O      -2.291187    -2.316311    -1.239360
O      -1.257793    -2.317333     0.738581
H      -0.564047    -1.729393     1.108349
C      -0.421609     1.098012     0.664957
O      -0.310117     2.122528    -0.330472
C       0.220040     1.560092     1.975975
H      -0.287386     2.461982     2.324686
H       0.123506     0.784956     2.740414
H       1.281718     1.793934     1.862771
C      -1.922622     0.910695     0.875446
H      -2.117136     0.137876     1.621775
H      -2.345491     1.853424     1.226961
H      -2.431392     0.646382    -0.052744
27
      -594.769185      -594.573812   2.42   2.04
C       0.935887    -0.813471    -0.350490
C      -1.129673    -0.633096     0.850133
C      -0.528347    -2.022247     1.075049
C       0.963213    -1.778410     0.832836
H       1.816078    -0.167321    -0.407711
H      -1.084444    -0.062919     1.789180
H      -2.177559    -0.670858     0.536719
H      -0.746958    -2.411701     2.072038
H      -0.914703    -2.735838     0.341191
H       1.412796    -1.278206     1.697057
H       1.526714    -2.686310     0.617334
N      -0.292410    -0.020608    -0.192933
H       0.301847     1.339925    -2.029509
C       0.873852    -1.572218    -1.676445
O       0.933604    -2.765689    -1.813703
O       0.743808    -0.741395    -2.737475
H       0.710534    -1.301719    -3.526432
C      -0.130257     1.439863    -0.140922
O       0.630417     1.835035    -1.269162
C       0.656981     1.941616     1.073201
H       1.636554     1.460572     1.126854
H       0.814665     3.019084     0.979976
H       0.119206     1.752425     2.005279
C      -1.513829     2.092417    -0.197080
H      -2.059221     1.727507    -1.071734
H      -2.104866     1.878539     0.697657
H      -1.393894     3.175023    -0.280908
27
      -594.768713      -594.573690   2.71   2.12
C       0.473257    -1.059653     0.466631
C       1.275822     0.846099    -0.738409
C       2.455110     0.253307     0.022363
C       1.997964    -1.188650     0.253955
H      -0.056975    -1.871377    -0.036131
H       1.321095     0.560451    -1.800626
H       1.243074     1.937036    -0.677799
H       3.391783     0.317406    -0.536436
H       2.584121     0.770529     0.976911
H       2.180363    -1.791883    -0.639974
H       2.498263    -1.675524     1.094579
N       0.110641     0.254501    -0.072142
H      -1.935966    -0.547761    -2.345298
C       0.129339    -1.185267     1.942701
O      -0.467371    -2.110803     2.430774
O       0.608070    -0.166089     2.686138
H       0.361677    -0.357458     3.602867
C      -1.154193     0.329794    -0.759906
O      -1.075008    -0.535542    -1.915910
C      -1.420664     1.764275    -1.223446
H      -1.380093     2.451883    -0.374533
H      -0.692648     2.074416    -1.974501
H      -2.417080     1.830616    -1.671066
C      -2.289318    -0.141959     0.153478
H      -2.168668    -1.187642     0.440341
H      -2.323093     0.470564     1.058322
H      -3.249502    -0.041269    -0.362879
27
      -594.768621      -594.573282   2.77   2.37
C      -0.176258     1.140927     0.386392
C       1.597740    -0.121677    -0.594170
C       1.811680     1.337290    -0.977057
C       1.022374     2.076576     0.105491
H      -0.385655     1.106869     1.460787
H       2.273377    -0.411594     0.225660
H       1.767130    -0.802799    -1.431560
H       2.867311     1.618078    -0.998018
H       1.381250     1.532993    -1.962855
H       1.622490     2.172056     1.015021
H       0.707175     3.079353    -0.192560
N       0.193709    -0.159300    -0.173883
H      -0.024730    -0.892454     2.454388
C      -1.444482     1.698399    -0.243481
O      -2.384325     2.122741     0.378894
O      -1.397531     1.722368    -1.589715
H      -2.229832     2.117614    -1.888063
C      -0.249845    -1.342269     0.545857
O       0.402351    -1.478226     1.822141
C       0.143002    -2.596512    -0.230907
H      -0.295661    -3.473073     0.249842
H      -0.219665    -2.532151    -1.259440
H       1.226576    -2.724812    -0.237258
C      -1.766129    -1.300116     0.746562
H      -2.274611    -1.222739    -0.217934
H      -2.089646    -2.216937     1.244443
H      -2.077794    -0.450606     1.361425
27
      -594.768349      -594.573069   2.94   2.51
C      -1.168474    -0.158183    -0.487727
C       1.137076    -0.397692    -1.155472
C       0.265082    -1.299470    -2.041226
C      -1.127371    -0.668448    -1.940441
H      -1.894768     0.652021    -0.380857
H       1.686915     0.332124    -1.763703
H       1.872086    -0.971907    -0.581010
H       0.628352    -1.346607    -3.069972
H       0.246198    -2.319056    -1.646731
H      -1.209051     0.194779    -2.607434
H      -1.943897    -1.356972    -2.168493
N       0.189424     0.289315    -0.273649
H       0.748402    -0.890857     1.847133
C      -1.703237    -1.276580     0.406054
O      -2.870090    -1.481352     0.607598
O      -0.737603    -2.076567     0.928778
H      -1.197854    -2.775660     1.417522
C       0.672980     0.855519     0.969973
O       1.324213    -0.119998     1.796055
C      -0.476752     1.495619     1.751144
H      -0.971541     2.271785     1.160388
H      -1.223181     0.756098     2.056063
H      -0.073203     1.949780     2.658052
C       1.754719     1.895307     0.678865
H       2.124904     2.311033     1.618879
H       2.596866     1.435131     0.158848
H       1.349809     2.700834     0.061366
27
      -594.767579      -594.572620   3.42   2.79
C      -1.089912     0.092280     0.173633
C       0.896078     0.381294     1.464332
C      -0.208788     1.168216     2.158620
C      -1.470450     0.484469     1.623656
H      -1.463949    -0.909732    -0.062404
H       1.055232    -0.575906     1.986756
H       1.853198     0.904938     1.434048
H      -0.136677     1.131020     3.248164
H      -0.178050     2.214672     1.843311
H      -1.682672    -0.423184     2.196153
H      -2.359999     1.117579     1.663615
N       0.363419     0.201776     0.113053
H       2.409102     0.659259    -1.134637
C      -1.791475     1.018635    -0.809863
O      -2.719759     0.694094    -1.504890
O      -1.311023     2.277697    -0.786279
H      -1.848448     2.788470    -1.409302
C       1.086024    -0.707569    -0.782814
O       2.433044    -0.259416    -0.843140
C       0.469442    -0.652650    -2.183138
H      -0.538821    -1.073421    -2.212785
H       0.420790     0.383132    -2.533544
H       1.100236    -1.223883    -2.867602
C       1.159901    -2.151462    -0.282377
H       0.159710    -2.572435    -0.147883
H       1.696251    -2.765154    -1.010375
H       1.697596    -2.202724     0.665695
27
      -594.768750      -594.572522   2.69   2.85
C      -0.328975     0.423470    -1.170856
C      -1.013062    -1.141009     0.472098
C      -2.047395    -1.221070    -0.669214
C      -1.437223    -0.405884    -1.826792
H       0.475361     0.661798    -1.868611
H      -0.726218    -2.134463     0.824753
H      -1.410162    -0.583004     1.330244
H      -2.228776    -2.253944    -0.974461
H      -3.001266    -0.798008    -0.351753
H      -0.970836    -1.067654    -2.560292
H      -2.170492     0.211864    -2.349402
N       0.150312    -0.467072    -0.116964
H       0.810951     1.867242     1.268312
C      -0.819788     1.772628    -0.646737
O      -0.165756     2.788645    -0.657811
O      -2.071550     1.738331    -0.150694
H      -2.266107     2.628015     0.179075
C       1.194330    -0.007432     0.790097
O       0.729296     1.007730     1.695178
C       2.384679     0.523356    -0.011882
H       2.124215     1.430052    -0.564715
H       3.199787     0.768011     0.672990
H       2.732821    -0.233303    -0.719647
C       1.630498    -1.167590     1.682768
H       2.492785    -0.861456     2.278356
H       0.830798    -1.445277     2.371358
H       1.901774    -2.033974     1.074606
27
      -594.767325      -594.572243   3.58   3.02
C       0.192612     0.573620     1.116417
C      -0.487148     1.101230    -1.116513
C      -0.165031     2.401951    -0.364988
C      -0.337135     2.015258     1.103735
H       1.288400     0.589717     1.189824
H       0.169686     0.982301    -1.985449
H      -1.518781     1.100023    -1.488555
H       0.871857     2.701385    -0.550321
H      -0.810364     3.229353    -0.667919
H       0.203987     2.658111     1.800147
H      -1.396737     2.017520     1.380329
N      -0.305710     0.021454    -0.133466
H      -0.722453    -2.230645     0.704092
C      -0.280182    -0.132190     2.373478
O       0.361800    -0.186478     3.388855
O      -1.541266    -0.615033     2.291271
H      -1.750774    -0.962920     3.170722
C       0.297346    -1.231072    -0.601007
O       0.208726    -2.171415     0.458011
C       1.788818    -1.126313    -0.926949
H       2.154652    -2.091842    -1.285140
H       1.971117    -0.378207    -1.703065
H       2.360033    -0.859397    -0.035906
C      -0.490978    -1.748030    -1.807968
H      -0.369204    -1.109501    -2.686366
H      -0.137270    -2.750154    -2.060426
H      -1.555998    -1.798723    -1.562845
27
      -594.766140      -594.571692   4.33   3.37
C       1.053042    -0.227688     0.418852
C      -1.150623    -0.856013     1.113400
C      -0.165537    -1.125257     2.255724
C       1.168295    -1.284271     1.530065
H       1.361417     0.748547     0.825009
H      -1.933945    -0.161616     1.426177
H      -1.631273    -1.782864     0.777475
H      -0.123195    -0.263319     2.930378
H      -0.436903    -2.002198     2.847655
H       2.044558    -1.124603     2.161285
H       1.242908    -2.277783     1.075865
N      -0.342808    -0.280673     0.019834
H      -0.390227     2.365321     0.509272
C       2.018089    -0.586179    -0.701849
O       1.836933    -1.391519    -1.572246
O       3.183886     0.089556    -0.565078
H       3.772191    -0.223762    -1.267909
C      -0.921305     0.866602    -0.659369
O      -1.215953     1.942570     0.253965
C      -2.268524     0.475337    -1.262929
H      -2.976821     0.175993    -0.489103
H      -2.692006     1.329025    -1.796226
H      -2.133269    -0.355084    -1.959174
C       0.006566     1.383378    -1.759688
H       0.955529     1.752879    -1.356364
H       0.221801     0.597338    -2.486095
H      -0.482828     2.216282    -2.268928
27
      -594.766140      -594.571691   4.33   3.37
C      -0.090997     1.115959    -0.287287
C       1.206488    -0.694823    -1.165311
C       1.772254     0.630425    -1.686295
C       0.576636     1.575391    -1.594052
H       0.403692     1.618380     0.558851
H       1.963687    -1.253649    -0.610357
H       0.852863    -1.326340    -1.989362
H       2.577360     0.981849    -1.031932
H       2.174066     0.547608    -2.698588
H       0.841938     2.634099    -1.571232
H      -0.111862     1.407030    -2.428653
N       0.076276    -0.327104    -0.289602
H       1.213356    -0.012562     2.129304
C      -1.547238     1.557606    -0.297996
O      -2.458063     1.007453    -0.851811
O      -1.697702     2.729377     0.364363
H      -2.627391     2.984976     0.271679
C      -0.007350    -1.044076     0.971818
O       1.193892    -0.899054     1.755837
C      -0.127637    -2.541977     0.699428
H      -0.217269    -3.079631     1.645695
H      -1.011766    -2.735657     0.088318
H       0.752384    -2.921274     0.178088
C      -1.204711    -0.571954     1.797729
H      -1.253153    -1.162654     2.714946
H      -1.115017     0.480981     2.085849
H      -2.134733    -0.700382     1.240577
27
      -594.766414      -594.571675   4.16   3.38
C      -0.032426     0.619900     1.080009
C      -1.123913     0.886370    -1.038034
C      -1.276223     2.173968    -0.222976
C      -1.130053     1.685518     1.215986
H       0.952812     1.100931     1.112698
H      -0.638822     1.087139    -1.995013
H      -2.099097     0.425372    -1.238119
H      -0.465713     2.868766    -0.465108
H      -2.226034     2.680205    -0.410482
H      -0.853916     2.465157     1.928407
H      -2.059937     1.218259     1.557163
N      -0.299660    -0.016177    -0.206906
H       2.450140    -0.002665    -1.770221
C      -0.084208    -0.318167     2.273738
O       0.654898    -0.243193     3.221890
O      -1.086915    -1.216062     2.210538
H      -1.057379    -1.713913     3.040726
C       0.813910    -0.647507    -0.871911
O       1.684761     0.403373    -1.351653
C       0.310048    -1.480710    -2.055030
H       1.152702    -1.964776    -2.559070
H      -0.370919    -2.258034    -1.699280
H      -0.211143    -0.863366    -2.787705
C       1.597575    -1.547839     0.086195
H       2.064868    -0.973348     0.887745
H       0.942174    -2.307237     0.519733
H       2.392470    -2.061966    -0.463321
27
      -594.767863      -594.571565   3.25   3.45
C       1.067777    -0.491093    -0.497284
C      -0.927193    -1.290064     0.483734
C      -0.085523    -2.526827     0.104610
C       1.315959    -1.973640    -0.214278
H       1.954899     0.122244    -0.329425
H      -1.365177    -1.390632     1.479409
H      -1.746382    -1.133115    -0.230229
H      -0.045602    -3.253149     0.919360
H      -0.510795    -3.023650    -0.767856
H       1.970855    -2.046943     0.657570
H       1.795509    -2.483197    -1.052006
N       0.021837    -0.168157     0.469699
H      -0.722571     1.828270    -1.299500
C       0.638769    -0.305271    -1.955540
O       0.053387    -1.108413    -2.630722
O       1.012053     0.905264    -2.454985
H       0.728758     0.918392    -3.381927
C      -0.519606     1.179672     0.545662
O      -1.312639     1.527227    -0.601455
C       0.618524     2.190451     0.709275
H       1.253155     2.232848    -0.179903
H       0.197527     3.185618     0.869137
H       1.239424     1.926125     1.569011
C      -1.478769     1.271719     1.730979
H      -0.989376     0.923949     2.643940
H      -1.792037     2.309189     1.863231
H      -2.372765     0.673181     1.549493
27
      -594.766050      -594.571511   4.38   3.48
C      -0.513731    -0.292587     0.875579
C       0.385052     1.802127     0.150651
C       0.675481     1.631343     1.641893
C      -0.435657     0.675030     2.074065
H       0.194582    -1.115072     1.045486
H       1.266499     2.063929    -0.435272
H      -0.352101     2.601025    -0.003699
H       1.655708     1.164418     1.791480
H       0.663505     2.577236     2.188493
H      -0.241001     0.149781     3.010654
H      -1.382967     1.216335     2.174040
N      -0.180795     0.512139    -0.286145
H      -0.353407     1.053787    -2.631156
C      -1.906567    -0.902168     0.805827
O      -2.850749    -0.477120     0.200445
O      -1.980168    -2.004735     1.590152
H      -2.896897    -2.314580     1.550628
C       0.502239    -0.161134    -1.397270
O       0.551373     0.756655    -2.479420
C      -0.289346    -1.401202    -1.821619
H      -0.281238    -2.181897    -1.055041
H      -1.327568    -1.131953    -2.031451
H       0.163416    -1.812840    -2.726402
C       1.959238    -0.530515    -1.106270
H       2.409806    -0.973274    -1.998111
H       2.540447     0.353154    -0.835022
H       2.024846    -1.257879    -0.292511
27
      -594.765907      -594.571499   4.47   3.49
C      -0.974128     0.552223     0.375183
C       0.472920     0.783831    -1.514889
C      -0.311499     2.084981    -1.323178
C      -1.554384     1.616465    -0.571488
H      -0.590657     1.038177     1.281884
H       1.550009     0.976454    -1.531946
H       0.219646     0.308846    -2.471025
H       0.257987     2.785180    -0.702288
H      -0.540809     2.581060    -2.269031
H      -2.073616     2.408450    -0.028996
H      -2.263476     1.146701    -1.261624
N       0.081727    -0.091341    -0.394175
H       2.480015     0.727904     0.460767
C      -2.087134    -0.402894     0.778026
O      -2.472651    -1.356530     0.159768
O      -2.667729    -0.002679     1.933917
H      -3.397821    -0.615714     2.104744
C       1.148647    -0.726750     0.360414
O       1.944556     0.231202     1.087084
C       2.040409    -1.535369    -0.585682
H       2.814487    -2.044758    -0.007475
H       1.442348    -2.280364    -1.115922
H       2.534678    -0.904062    -1.328926
C       0.582278    -1.648863     1.437192
H       0.031848    -1.085238     2.193627
H      -0.076822    -2.395442     0.991415
H       1.409171    -2.151467     1.942625
27
      -594.766284      -594.571291   4.24   3.62
C      -0.282384    -0.023369     1.071254
C       1.786683     0.005042    -0.132784
C       1.947544    -0.878544     1.104405
C       0.880902    -0.308654     2.039530
H      -0.910031    -0.919575     0.991704
H       2.113965    -0.474453    -1.055636
H       2.375521     0.924898    -0.021023
H       1.720919    -1.923227     0.862913
H       2.954392    -0.838918     1.526843
H       0.581670    -0.980134     2.846539
H       1.232719     0.627747     2.485162
N       0.351208     0.340562    -0.189657
H       0.417475     1.518258    -2.295743
C      -1.192835     1.052208     1.642392
O      -2.248857     0.827426     2.175924
O      -0.678307     2.292657     1.546694
H      -1.309894     2.885424     1.979980
C      -0.359682    -0.021480    -1.422259
O       0.338635     0.580016    -2.503149
C      -1.788970     0.525353    -1.374584
H      -2.401076     0.028060    -0.617478
H      -1.773403     1.597915    -1.158599
H      -2.257909     0.370433    -2.348793
C      -0.369717    -1.521670    -1.725342
H      -0.865118    -1.697528    -2.683491
H       0.647272    -1.913713    -1.791748
H      -0.910720    -2.074734    -0.953055
27
      -594.766074      -594.570766   4.37   3.95
C      -0.196360     0.354658     1.201326
C       0.287282    -1.650427     0.003745
C      -0.142318    -2.085706     1.400771
C       0.003916    -0.801550     2.226851
H      -1.110599     0.912163     1.420482
H      -0.119707    -2.298735    -0.773924
H       1.383173    -1.654159    -0.097438
H      -1.187859    -2.407523     1.377610
H       0.460198    -2.907074     1.795350
H      -0.714175    -0.729673     3.045144
H       1.004944    -0.750221     2.666310
N      -0.279480    -0.310778    -0.089947
H       1.671681     0.760503    -1.246785
C       0.931267     1.350651     1.432409
O       0.861168     2.300165     2.165511
O       2.084259     1.028638     0.788913
H       2.745778     1.678340     1.070874
C      -0.245315     0.393309    -1.361453
O       1.070102     0.437740    -1.926676
C      -0.789062     1.815855    -1.199451
H      -1.803669     1.803443    -0.791140
H      -0.158224     2.430644    -0.552111
H      -0.813348     2.293882    -2.180458
C      -1.084088    -0.356191    -2.397316
H      -2.114247    -0.459013    -2.048339
H      -1.075466     0.197509    -3.339021
H      -0.669851    -1.346449    -2.591231
27
      -594.765554      -594.570704   4.70   3.99
C      -0.992691     0.526870    -0.513254
C       0.175160    -1.543801    -0.605757
C      -1.167531    -1.767036    -1.331989
C      -1.799316    -0.366120    -1.470220
H      -0.951542     1.559309    -0.862084
H       1.020375    -1.977283    -1.144521
H       0.148299    -2.004831     0.389119
H      -1.021920    -2.224037    -2.313213
H      -1.808590    -2.431810    -0.750872
H      -1.666768     0.019231    -2.483751
H      -2.868798    -0.354919    -1.246787
N       0.322498    -0.087610    -0.543360
H       2.593856     0.131676    -1.279901
C      -1.655153     0.600397     0.860631
O      -1.983345     1.619421     1.412090
O      -1.876131    -0.615761     1.409757
H      -2.308627    -0.461277     2.262288
C       1.435614     0.465465     0.233129
O       2.633085    -0.055453    -0.334852
C       1.475614     0.040967     1.702523
H       1.486037    -1.046162     1.793563
H       2.388654     0.429746     2.160014
H       0.620342     0.438329     2.253711
C       1.438902     1.992232     0.121509
H       0.590421     2.443838     0.642061
H       2.359432     2.371875     0.569775
H       1.412122     2.296744    -0.929604
27
      -594.762297      -594.569688   6.74   4.63
C      -0.832220     0.247524    -0.872740
C      -0.551506    -1.445965     0.805029
C      -2.044720    -1.356009     0.438310
C      -2.060014    -0.678152    -0.936678
H      -0.478769     0.496186    -1.876056
H      -0.155925    -2.459823     0.681420
H      -0.396752    -1.151757     1.850023
H      -2.526514    -2.335776     0.421574
H      -2.574071    -0.735833     1.166874
H      -1.892287    -1.408705    -1.732750
H      -2.986803    -0.141371    -1.151344
N       0.110759    -0.540004    -0.129279
H       3.087836    -1.359979     0.177602
C      -1.234614     1.556585    -0.194215
O      -1.110587     1.821868     0.973140
O      -1.808334     2.410056    -1.072885
H      -2.079647     3.191185    -0.568804
C       1.500339    -0.208474     0.045845
O       2.205862    -1.441309    -0.198402
C       1.839585     0.281369     1.461824
H       2.897853     0.560794     1.521027
H       1.235671     1.152934     1.721520
H       1.655325    -0.507380     2.194145
C       1.952325     0.823172    -0.989651
H       1.765133     0.453252    -1.999866
H       1.454172     1.787331    -0.851210
H       3.027905     0.988282    -0.884452
27
      -594.762422      -594.569464   6.66   4.77
C      -0.823001     0.603723    -0.336495
C      -0.689148    -1.532284     0.740978
C      -2.144541    -1.078550     0.776570
C      -2.202993    -0.094174    -0.394097
H      -0.456505     0.801646    -1.350136
H      -0.555314    -2.308748    -0.031252
H      -0.335768    -1.940451     1.688488
H      -2.851172    -1.905142     0.671283
H      -2.350418    -0.560177     1.717181
H      -2.291547    -0.634846    -1.341537
H      -3.033115     0.613600    -0.331856
N       0.022112    -0.294736     0.427930
H       2.918577    -1.342578     0.896810
C      -0.983369     1.955052     0.355372
O      -1.089518     2.147295     1.534954
O      -1.058081     2.958279    -0.553519
H      -1.211011     3.774793    -0.055197
C       1.430958    -0.375265     0.082110
O       2.000872    -1.165924     1.123816
C       2.053297     1.023075     0.112689
H       1.859466     1.482814     1.083457
H       3.135462     0.949069    -0.035166
H       1.658446     1.666842    -0.678533
C       1.693848    -1.057674    -1.270588
H       1.289597    -2.072101    -1.270729
H       1.242396    -0.497571    -2.094647
H       2.770471    -1.115966    -1.467886
27
      -594.764643      -594.569224   5.27   4.92
C       1.277101     0.214257     0.469311
C      -1.021455     0.081339     1.100157
C      -0.182538     0.007081     2.395862
C       1.233143     0.457958     1.988119
H       1.995734     0.858965    -0.037334
H      -1.844655     0.794926     1.196197
H      -1.457193    -0.899910     0.866204
H      -0.591667     0.647818     3.179932
H      -0.167418    -1.014662     2.778391
H       1.364367     1.528801     2.162095
H       2.024513    -0.071664     2.524537
N      -0.081197     0.540995     0.078880
H       0.368465     2.283920    -1.562664
C       1.770353    -1.208293     0.212509
O       2.863602    -1.485842    -0.207411
O       0.882029    -2.161941     0.580863
H       1.313683    -3.013454     0.418996
C      -0.454871     0.545689    -1.335286
O       0.431481     1.432042    -2.009774
C      -1.891001     1.058909    -1.473874
H      -2.109006     1.210860    -2.532914
H      -2.617477     0.348984    -1.070132
H      -2.007507     2.013079    -0.950490
C      -0.302815    -0.796263    -2.052482
H       0.746972    -1.091452    -2.104126
H      -0.869338    -1.576379    -1.538772
H      -0.673303    -0.705760    -3.076795
27
      -594.763314      -594.569161   6.10   4.96
C       0.590536    -0.331256     0.902277
C      -0.700517    -1.416376    -0.799182
C       0.158138    -2.480726    -0.125636
C       0.468348    -1.838518     1.229650
H       0.134277     0.272983     1.693923
H      -1.739274    -1.485988    -0.435065
H      -0.723024    -1.495868    -1.886558
H      -0.353870    -3.441256    -0.030776
H       1.078853    -2.632705    -0.694827
H      -0.367426    -1.986744     1.920092
H       1.368008    -2.235894     1.705718
N      -0.045705    -0.172247    -0.398356
H      -1.620898     1.745403    -2.282689
C       2.056484     0.083362     0.891581
O       2.571532     0.779850     1.728754
O       2.751981    -0.456030    -0.128014
H       3.667405    -0.157730    -0.024873
C      -0.734744     1.079451    -0.674932
O      -1.071081     0.988649    -2.059038
C       0.218092     2.257929    -0.463739
H      -0.265791     3.184834    -0.787796
H       0.498280     2.380451     0.585733
H       1.119117     2.105577    -1.061512
C      -2.020560     1.270747     0.146150
H      -2.508706     2.213673    -0.125629
H      -2.721851     0.455543    -0.043294
H      -1.807605     1.312885     1.218033
27
      -594.762688      -594.569029   6.49   5.04
C      -0.965807    -0.712530     0.054815
C      -0.533031     1.625297     0.273357
C      -2.028715     1.444439    -0.063730
C      -2.327427    -0.025832     0.265130
H      -0.903053    -1.652516     0.605564
H      -0.392488     2.264482     1.151831
H      -0.008333     2.091485    -0.571979
H      -2.663485     2.124628     0.507951
H      -2.200368     1.636488    -1.124749
H      -2.606519    -0.144144     1.315344
H      -3.120763    -0.455499    -0.351727
N      -0.049701     0.277146     0.564290
H       2.000618     1.797922     1.302747
C      -0.828343    -1.028473    -1.433298
O      -0.547678    -0.242191    -2.300960
O      -1.127398    -2.320594    -1.697922
H      -1.074096    -2.430279    -2.659169
C       1.388191     0.042026     0.677737
O       1.897539     0.919143     1.681197
C       2.171737     0.271761    -0.622453
H       1.890094    -0.443942    -1.396573
H       1.989089     1.274046    -1.021484
H       3.241304     0.167715    -0.419264
C       1.643988    -1.363732     1.212779
H       1.091316    -1.512657     2.143167
H       1.353077    -2.129341     0.488871
H       2.710251    -1.474848     1.418526
27
      -594.763369      -594.568524   6.07   5.36
C      -0.499285    -0.711925    -1.081673
C      -0.215325    -0.889460     1.266066
C      -1.130056    -2.056979     0.835120
C      -1.044593    -2.091093    -0.702784
H       0.050770    -0.716892    -2.023262
H       0.556846    -1.214783     1.969577
H      -0.810363    -0.110888     1.763750
H      -0.805446    -3.005590     1.268219
H      -2.154516    -1.872859     1.161020
H      -0.323264    -2.841692    -1.034654
H      -2.004762    -2.304007    -1.176994
N       0.400475    -0.422378     0.025306
H       0.818071     1.547024    -1.742041
C      -1.638384     0.297240    -1.203934
O      -2.636837     0.331640    -0.533278
O      -1.400010     1.219456    -2.175153
H      -2.155487     1.826094    -2.180126
C       1.189035     0.825062     0.039861
O       1.564953     1.138350    -1.289924
C       2.495120     0.560991     0.783027
H       3.030004    -0.252851     0.290340
H       3.115315     1.460435     0.767090
H       2.308025     0.286842     1.823951
C       0.453719     2.019554     0.668578
H      -0.504080     2.214343     0.178357
H       0.262318     1.852222     1.731085
H       1.077757     2.912142     0.572476
27
      -594.763368      -594.568521   6.07   5.36
C       1.317140    -0.320605     0.297477
C      -0.891382    -1.119326     0.626873
C       0.064917    -2.246790     1.073937
C       1.459033    -1.593864     1.135151
H       2.007549     0.466807     0.601603
H      -1.711124    -0.974598     1.336864
H      -1.336248    -1.368977    -0.346627
H      -0.220268    -2.656989     2.045130
H       0.051520    -3.061559     0.348953
H       1.704622    -1.298828     2.158133
H       2.251331    -2.248630     0.766808
N      -0.054995     0.078417     0.574667
H       0.985371     2.103946    -0.836468
C       1.563749    -0.622609    -1.178628
O       1.259349    -1.630132    -1.761816
O       2.169220     0.415064    -1.816759
H       2.277143     0.152624    -2.743181
C      -0.606378     1.314628    -0.013469
O       0.423893     2.285525    -0.074216
C      -1.647669     1.882271     0.946419
H      -2.481875     1.189132     1.078117
H      -1.180045     2.065955     1.915318
H      -2.037470     2.823380     0.551117
C      -1.221880     1.120098    -1.408497
H      -2.098964     0.470034    -1.367333
H      -1.537671     2.092160    -1.796755
H      -0.508864     0.682862    -2.112821
27
      -594.764109      -594.568265   5.60   5.52
C       0.141904     0.546094     1.284880
C      -0.657119    -1.315743     0.067030
C      -0.801579    -1.687147     1.557784
C      -0.457573    -0.396717     2.333998
H      -0.062933     1.596204     1.495783
H      -1.524221    -1.630980    -0.520965
H       0.226875    -1.811069    -0.362081
H      -1.816757    -2.016825     1.788997
H      -0.122823    -2.501275     1.817109
H      -1.365028     0.069571     2.723410
H       0.216342    -0.571189     3.174647
N      -0.544789     0.138056     0.067490
H       0.954712     2.222781    -0.575766
C       1.659064     0.444316     1.155435
O       2.371110     1.341015     0.765289
O       2.159407    -0.766292     1.473330
H       3.116180    -0.722626     1.326708
C      -0.286575     0.848516    -1.206507
O       0.050915     2.189477    -0.918704
C      -1.593664     0.908927    -1.990991
H      -1.436469     1.442524    -2.931706
H      -1.961874    -0.094839    -2.218054
H      -2.343426     1.437195    -1.399504
C       0.814563     0.197748    -2.058897
H       0.519394    -0.799455    -2.395278
H       0.987902     0.816613    -2.943093
H       1.756463     0.115123    -1.510344
27
      -594.764109      -594.568264   5.60   5.52
C       0.485757    -0.561799    -1.190671
C       0.693409    -0.575877     1.164049
C       1.594858    -1.717668     0.649401
C       1.597402    -1.572653    -0.888462
H       0.693410     0.041161    -2.075256
H       1.166471    -0.011695     1.973302
H      -0.248479    -0.986207     1.558264
H       2.608912    -1.633407     1.046044
H       1.199052    -2.686687     0.957790
H       2.541573    -1.144254    -1.231328
H       1.452815    -2.522189    -1.406892
N       0.493222     0.277727    -0.001041
H      -1.270517     1.342353    -1.663616
C      -0.878522    -1.197954    -1.441550
O      -1.752035    -0.694970    -2.110335
O      -1.062934    -2.374068    -0.809317
H      -1.963710    -2.665834    -1.014973
C      -0.421212     1.439138     0.096085
O      -0.662573     1.937395    -1.203296
C       0.305010     2.555579     0.840201
H      -0.342026     3.433251     0.913797
H       0.579349     2.240303     1.850163
H       1.210713     2.822099     0.292721
C      -1.752088     1.114713     0.793284
H      -2.281056     0.296873     0.297054
H      -1.596148     0.843261     1.840513
H      -2.390651     2.001406     0.764065
27
      -594.762304      -594.567968   6.73   5.71
C       1.050411    -0.293301    -0.764390
C      -0.124260    -1.093612     1.145905
C       0.795947    -2.231219     0.647474
C       1.806180    -1.547318    -0.291462
H       1.714404     0.500270    -1.105737
H      -0.033347    -0.949191     2.226501
H      -1.174922    -1.325749     0.923158
H       1.298795    -2.739575     1.473049
H       0.211575    -2.974718     0.102414
H       2.693044    -1.220955     0.257173
H       2.129042    -2.187959    -1.116153
N       0.356109     0.095026     0.442322
H       0.053359     3.122490    -0.172012
C       0.157019    -0.714310    -1.928172
O      -0.862149    -1.352638    -1.846502
O       0.680897    -0.348138    -3.119655
H       0.093759    -0.703641    -3.803514
C      -0.397135     1.334386     0.487281
O       0.542864     2.331332     0.071305
C      -0.813837     1.618061     1.932940
H      -1.234851     2.625420     1.999838
H      -1.573225     0.913087     2.281544
H       0.061884     1.561167     2.582875
C      -1.624812     1.381771    -0.434357
H      -2.288287     0.534216    -0.249333
H      -2.191528     2.303724    -0.257552
H      -1.326939     1.361371    -1.484944
27
      -594.761614      -594.567673   7.17   5.89
C       0.154811     1.085918     0.560434
C      -0.351071     0.399538    -1.662628
C      -0.137003     1.908882    -1.733839
C      -0.232343     2.352620    -0.265185
H       1.067681     1.266322     1.134754
H       0.099724    -0.133434    -2.502478
H      -1.425907     0.155808    -1.631015
H       0.861741     2.117193    -2.128603
H      -0.868673     2.413604    -2.369124
H       0.425473     3.191007    -0.030661
H      -1.254582     2.662087    -0.027132
N       0.336895     0.055408    -0.430708
H       1.738887    -2.618314    -1.146806
C      -0.966875     0.836408     1.561627
O      -1.927188     0.129075     1.402031
O      -0.793187     1.577924     2.679847
H      -1.564390     1.419952     3.244062
C       0.659160    -1.319919    -0.142975
O       1.678484    -1.658862    -1.104203
C      -0.528479    -2.273690    -0.332658
H      -0.888904    -2.228699    -1.363184
H      -0.222270    -3.304988    -0.121579
H      -1.345969    -2.009949     0.339824
C       1.253092    -1.465896     1.258814
H       0.521884    -1.251165     2.042581
H       1.589857    -2.496848     1.397982
H       2.119149    -0.809984     1.370822
27
      -594.761942      -594.567380   6.96   6.07
C       0.516019     1.141138     0.164006
C      -1.488798    -0.013184     0.777654
C      -1.317493     1.166338     1.759293
C      -0.250924     2.071739     1.117759
H       0.953282     1.693293    -0.669300
H      -2.497985    -0.045036     0.355283
H      -1.313505    -0.967038     1.297142
H      -2.254941     1.705035     1.912295
H      -0.980151     0.804317     2.731541
H      -0.718668     2.855465     0.516911
H       0.401365     2.553138     1.850840
N      -0.521369     0.238659    -0.286755
H      -1.928509    -1.835069    -1.188971
C       1.703721     0.504647     0.882899
O       2.858580     0.677138     0.589250
O       1.337315    -0.261581     1.936717
H       2.155035    -0.590440     2.337662
C      -0.254204    -0.815708    -1.267021
O      -1.503185    -1.234552    -1.809050
C       0.474271    -2.038149    -0.688579
H       0.528229    -2.819674    -1.451425
H       1.493874    -1.791104    -0.383252
H      -0.052383    -2.437040     0.184013
C       0.525790    -0.240351    -2.444812
H       1.535620     0.055383    -2.150510
H       0.603658    -1.001529    -3.223689
H      -0.004646     0.624166    -2.849904
27
      -594.761942      -594.567378   6.96   6.08
C      -0.998819     0.570404    -0.521828
C       0.167469    -1.510637    -0.715171
C      -1.250088    -1.721839    -1.289738
C      -1.821682    -0.305613    -1.480651
H      -0.948077     1.604168    -0.867121
H       0.939822    -1.879795    -1.397128
H       0.275189    -2.052076     0.236498
H      -1.226693    -2.270552    -2.233551
H      -1.861857    -2.292121    -0.589285
H      -1.641814     0.050829    -2.497811
H      -2.895877    -0.246229    -1.287719
N       0.300893    -0.064461    -0.562779
H       2.743460    -0.984745    -0.034634
C      -1.675828     0.643176     0.845234
O      -2.108583     1.649015     1.345932
O      -1.787844    -0.564147     1.446636
H      -2.252224    -0.414916     2.283089
C       1.443284     0.468093     0.182583
O       2.628093    -0.092220    -0.375386
C       1.406762     0.161765     1.687405
H       1.282940    -0.910121     1.870714
H       2.345042     0.488208     2.144233
H       0.587003     0.685864     2.184547
C       1.557139     1.971066    -0.051299
H       1.587385     2.174889    -1.123859
H       0.721450     2.511242     0.399987
H       2.483452     2.330755     0.401109
27
      -594.761466      -594.567091   7.26   6.26
C      -1.223734     0.307742     0.144520
C       0.054640    -1.701825    -0.105207
C      -1.318718    -2.102352     0.473789
C      -2.211330    -0.858393     0.306594
H      -1.654412     1.119653    -0.443482
H       0.345900    -2.319171    -0.957120
H       0.836462    -1.804253     0.659158
H      -1.742014    -2.962323    -0.049425
H      -1.223807    -2.369828     1.527339
H      -2.800746    -0.926193    -0.610936
H      -2.902693    -0.710320     1.140128
N      -0.118699    -0.318716    -0.549460
H       2.536762    -0.045250    -2.132762
C      -0.893378     0.933491     1.497623
O      -1.098161     2.083392     1.792296
O      -0.362245     0.051796     2.375344
H      -0.213213     0.537057     3.199932
C       1.050756     0.439489    -0.956697
O       1.654923    -0.386151    -1.956393
C       2.069545     0.692209     0.166563
H       1.664292     1.360801     0.930047
H       2.367916    -0.245656     0.638894
H       2.965593     1.174004    -0.242111
C       0.624228     1.766408    -1.588716
H       1.499351     2.257737    -2.024567
H      -0.100253     1.577428    -2.383803
H       0.193037     2.449223    -0.851547
27
      -594.761175      -594.566580   7.44   6.58
C      -0.431869     0.152321     1.032254
C       0.191471     1.589925    -0.780178
C       0.382276     2.342422     0.539944
C      -0.584960     1.618256     1.474425
H       0.396324    -0.310759     1.586033
H       1.111592     1.600963    -1.374222
H      -0.591764     2.054685    -1.391826
H       1.410460     2.224337     0.900310
H       0.175723     3.411383     0.451582
H      -0.365307     1.748458     2.535732
H      -1.610888     1.953473     1.291200
N      -0.204916     0.225992    -0.401757
H       0.968165    -0.035271    -2.759714
C      -1.669058    -0.635487     1.438610
O      -1.712275    -1.371611     2.391015
O      -2.741932    -0.383645     0.667408
H      -3.473919    -0.896566     1.040089
C       0.505705    -0.883107    -1.050257
O       0.380693    -0.734686    -2.458490
C      -0.184485    -2.205448    -0.732708
H      -0.106317    -2.463032     0.326078
H      -1.237224    -2.143498    -1.014150
H       0.288971    -2.999486    -1.313591
C       1.993305    -0.949011    -0.669277
H       2.121676    -1.119864     0.403114
H       2.475236    -1.770630    -1.205854
H       2.513318    -0.020117    -0.925775
27
      -594.754026      -594.557837  11.93  12.06
C      -0.207527    -1.411339    -0.223089
C       0.328643     0.207438    -1.749429
C       1.665313    -0.530106    -1.474915
C       1.319895    -1.554142    -0.375697
H      -0.699944    -2.059241    -0.957777
H      -0.146492    -0.205903    -2.647699
H       0.469400     1.272412    -1.929156
H       2.034488    -1.008203    -2.385664
H       2.441297     0.161063    -1.138096
H       1.588957    -2.578530    -0.644882
H       1.818823    -1.323796     0.566688
N      -0.560651    -0.036219    -0.608417
H      -1.055522     0.293407     2.168749
C      -0.713385    -1.869055     1.132806
O      -0.118782    -1.761155     2.179099
O      -1.900104    -2.487158     1.040944
H      -2.170538    -2.721507     1.941357
C      -0.639899     1.039154     0.405894
O      -1.551016     0.628447     1.414908
C      -1.293939     2.258722    -0.244927
H      -1.495645     3.002807     0.528785
H      -0.660549     2.720403    -1.005263
H      -2.238114     1.955204    -0.700485
C       0.698667     1.423220     1.051567
H       1.129838     0.579634     1.597037
H       1.419563     1.759465     0.302342
H       0.537222     2.244978     1.755319
27
      -594.752397      -594.555983  12.95  13.23
C      -0.666260     0.884831     0.793730
C       1.621809     0.810046     0.742194
C       1.241070     2.029569    -0.136070
C      -0.296253     1.978429    -0.227128
H      -0.673773     1.337547     1.793079
H       1.862439     1.144908     1.758705
H       2.483992     0.262225     0.367615
H       1.593247     2.957178     0.322286
H       1.695688     1.969788    -1.127410
H      -0.776033     2.926716     0.027991
H      -0.626204     1.705982    -1.229664
N       0.446984    -0.077073     0.820977
H       1.702465    -2.108549     1.175727
C      -2.070228     0.313025     0.675452
O      -2.707476    -0.106946     1.602657
O      -2.578366     0.368880    -0.577168
H      -3.478751     0.014582    -0.526650
C       0.502710    -1.252420    -0.079297
O       1.722327    -1.920021     0.230111
C       0.584401    -0.939833    -1.573898
H      -0.329081    -0.454181    -1.922391
H       1.441123    -0.299135    -1.792154
H       0.710736    -1.874595    -2.125868
C      -0.646732    -2.224352     0.203734
H      -0.378752    -3.188917    -0.233643
H      -0.790500    -2.345933     1.280194
H      -1.590579    -1.911746    -0.243110
27
      -594.751157      -594.554681  13.73  14.04
C       0.147578    -0.444507     1.305995
C       1.780875     0.627353     0.160859
C       1.234037     1.669455     1.178099
C      -0.021860     1.003275     1.779538
H       0.954611    -0.889661     1.908114
H       2.656690     0.111421     0.570553
H       2.076143     1.090401    -0.777086
H       1.984623     1.884831     1.944136
H       0.980541     2.606457     0.682470
H      -0.074799     1.071072     2.868286
H      -0.931493     1.439274     1.364616
N       0.717208    -0.376640    -0.048517
H      -0.910768     1.522555    -2.021394
C      -0.977487    -1.433766     1.540897
O      -0.918454    -2.607885     1.292391
O      -2.044563    -0.880040     2.157644
H      -2.670546    -1.600677     2.323171
C      -0.120044    -0.086218    -1.208295
O      -0.431541     1.326669    -1.210906
C      -1.431933    -0.866864    -1.226678
H      -1.937745    -0.676813    -2.178938
H      -1.257908    -1.939934    -1.139664
H      -2.102477    -0.535060    -0.431889
C       0.679682    -0.434654    -2.469825
H       1.621878     0.113272    -2.515179
H       0.897713    -1.504881    -2.482328
H       0.100036    -0.188432    -3.366068
