17
      -401.455431      -401.343890   0.00   0.00
C      -0.628694     0.131214     0.592374
C       1.594759    -0.587862     0.217371
C       1.528274     0.856481    -0.267643
C       0.020242     1.072516    -0.462199
H      -1.124545     0.718050     1.374742
H       2.528944    -0.825437     0.733687
H       1.487636    -1.279324    -0.633929
H       1.913196     1.523270     0.510160
H       2.099546     1.029552    -1.182597
H      -0.289321     2.109169    -0.322635
H      -0.274575     0.774639    -1.473216
N       0.466352    -0.654763     1.150834
H       0.172016    -1.608352     1.323090
C      -1.702712    -0.731281    -0.044878
O      -1.659668    -1.927757    -0.171487
O      -2.748393     0.007427    -0.473933
H      -3.383055    -0.607540    -0.869741
17
      -401.455450      -401.343268  -0.01   0.39
C      -0.508970    -0.029293     0.772591
C       1.654868    -0.730459     0.049961
C       1.246617     0.479911    -0.794064
C       0.230748     1.165892     0.122357
H      -0.839809     0.232961     1.784499
H       2.436422    -0.443168     0.765161
H       2.042974    -1.563224    -0.541969
H       2.088342     1.125735    -1.056982
H       0.763443     0.153093    -1.721381
H       0.747122     1.730786     0.904199
H      -0.446126     1.849820    -0.392750
N       0.441573    -1.140245     0.779645
H       0.011140    -1.937707     0.327693
C      -1.763021    -0.378846    -0.011950
O      -1.927064    -1.373920    -0.670188
O      -2.711141     0.573394     0.107633
H      -3.467117     0.285270    -0.424455
17
      -401.453570      -401.342186   1.17   1.07
C      -0.636911    -0.562549    -0.492763
C       1.218261     0.857861    -0.376137
C       1.507857    -0.303919     0.600277
C       0.376387    -1.329889     0.353304
H      -1.237252    -1.209400    -1.141086
H       2.105892     1.170952    -0.931939
H       0.844459     1.734040     0.175634
H       2.485465    -0.751077     0.408011
H       1.502896     0.049626     1.633225
H       0.745333    -2.177406    -0.228525
H      -0.064818    -1.705377     1.276679
N       0.215501     0.307285    -1.297760
H      -0.309910     1.022569    -1.783923
C      -1.617412     0.223760     0.378592
O      -1.691026     0.205054     1.579115
O      -2.430048     0.996762    -0.380577
H      -3.014675     1.471707     0.227877
17
      -401.453547      -401.341599   1.18   1.44
C      -0.512587     0.309783    -0.755372
C       1.167084     0.502531     0.840685
C       1.524433    -0.766311     0.049722
C       0.402194    -0.896877    -1.012144
H      -0.922177     0.727464    -1.682864
H       2.046677     1.070179     1.154467
H       0.594986     0.240502     1.746290
H       2.495504    -0.648501    -0.436988
H       1.583718    -1.641556     0.700295
H       0.816350    -0.831207    -2.019936
H      -0.154000    -1.830869    -0.931819
N       0.373848     1.275206    -0.118729
H      -0.131877     2.038554     0.311587
C      -1.736723    -0.074353     0.084583
O      -2.223802    -1.169851     0.179700
O      -2.269521     1.003328     0.707924
H      -3.054111     0.691979     1.182599
17
      -401.453025      -401.340915   1.51   1.87
C       0.261571    -0.795456     0.216341
C       0.180371     0.926703    -1.458827
C       0.301087     1.584735    -0.086188
C       0.937331     0.471430     0.752577
H       0.932895    -1.660496     0.212365
H       1.146103     0.982860    -1.985429
H      -0.576812     1.398471    -2.092218
H       0.899051     2.498822    -0.107231
H      -0.690118     1.829347     0.306160
H       2.013530     0.420641     0.557459
H       0.782808     0.597149     1.824719
N      -0.202892    -0.456266    -1.142030
H       0.098091    -1.127476    -1.832307
C      -0.967003    -1.179312     1.032052
O      -1.528326    -0.488032     1.841216
O      -1.393813    -2.421804     0.719801
H      -2.193874    -2.581317     1.241540
17
      -401.452230      -401.340243   2.01   2.29
C      -0.504154    -0.660974    -0.480074
C       1.666655     0.348939    -0.342873
C       1.050269     0.395744     1.051862
C      -0.002096    -0.717593     0.980311
H      -0.640833    -1.662317    -0.898909
H       2.402115    -0.470293    -0.400248
H       2.173799     1.278217    -0.618336
H       1.782972     0.234552     1.846057
H       0.568083     1.363107     1.214350
H       0.463884    -1.690789     1.161711
H      -0.809145    -0.593104     1.705169
N       0.502108     0.125944    -1.205103
H       0.732345    -0.278178    -2.100979
C      -1.863696     0.010067    -0.601240
O      -2.819253    -0.470720    -1.153617
O      -1.904642     1.221487    -0.008703
H      -2.798412     1.565911    -0.149378
17
      -401.452022      -401.339827   2.14   2.55
C      -0.279638     0.355649    -0.828635
C       0.980481     0.490544     1.170431
C       1.438466    -0.788385     0.462933
C       0.272703    -1.061964    -0.496443
H      -0.038978     0.649263    -1.851844
H       1.793138     1.059148     1.628891
H       0.253203     0.251890     1.954640
H       2.361288    -0.596149    -0.096312
H       1.626578    -1.618484     1.148808
H       0.569421    -1.599700    -1.399127
H      -0.494225    -1.657364     0.007087
N       0.319881     1.292837     0.133408
H       0.998705     1.869526    -0.344277
C      -1.795365     0.385477    -0.751516
O      -2.530225     0.519257    -1.695121
O      -2.254468     0.214622     0.505898
H      -3.220963     0.233832     0.451175
