24
      -518.254468      -518.087245   0.00   0.00
C       1.221783     0.363597     0.321349
C      -0.093567    -1.554550    -0.397705
C       1.329502    -1.653595    -0.950002
C       2.148562    -0.812377     0.031786
H       1.404810     0.813863     1.296261
H      -0.296892    -2.330297     0.347791
H      -0.857541    -1.591033    -1.174661
H       1.661242    -2.691723    -1.019882
H       1.368906    -1.206294    -1.946579
H       2.364162    -1.380438     0.944270
H       3.086814    -0.451258    -0.387682
N      -0.124853    -0.234291     0.276385
C       1.315698     1.493653    -0.807562
O       2.416052     2.047955    -0.814583
O       0.289196     1.638729    -1.497015
C      -1.201177     0.419193     0.521307
C      -1.194229     1.806385     1.069555
H      -0.200952     2.180817     1.297958
H      -1.632186     2.459304     0.308381
H      -1.827936     1.843621     1.961547
C      -2.538974    -0.186353     0.226370
H      -2.568192    -1.258114     0.427970
H      -3.318059     0.313478     0.802703
H      -2.752163    -0.030269    -0.837961
24
      -518.252887      -518.085351   0.99   1.19
C       1.216815     0.338730     0.286232
C      -0.078983    -1.252180    -1.030644
C       1.370069    -1.726786    -0.989499
C       2.136179    -0.441574    -0.662881
H       1.481954     0.173642     1.331041
H      -0.809387    -2.040205    -0.842700
H      -0.311062    -0.753421    -1.977119
H       1.496207    -2.470309    -0.194684
H       1.674037    -2.182840    -1.933785
H       3.111338    -0.619672    -0.209731
H       2.295738     0.144331    -1.573071
N      -0.125403    -0.234648     0.038643
C       1.232833     1.890164    -0.043928
O       0.297945     2.271790    -0.772218
O       2.197357     2.472400     0.457606
C      -1.202997     0.214634     0.570010
C      -1.189336     1.268351     1.624487
H      -1.958879     1.051011     2.370535
H      -0.219919     1.381518     2.105599
H      -1.427530     2.217774     1.132761
C      -2.539322    -0.320224     0.148094
H      -3.323517     0.385290     0.424222
H      -2.586031    -0.502739    -0.926466
H      -2.738111    -1.265039     0.667497
