24
      -518.269237      -518.101336   0.00   0.00
C       0.826127    -0.817991     0.397990
C      -0.340618     0.078076    -1.525446
C       1.102518    -0.243721    -1.927249
C       1.542623    -1.277506    -0.885418
H       0.593968    -1.661425     1.055208
H      -1.049287    -0.571194    -2.058943
H      -0.602573     1.114803    -1.755565
H       1.172202    -0.621168    -2.949603
H       1.721109     0.653628    -1.851314
H       1.174848    -2.272580    -1.152618
H       2.625741    -1.339449    -0.760299
N      -0.370658    -0.177406    -0.088825
C       1.729486     0.105433     1.211122
O       2.398971    -0.249696     2.145308
O       1.753916     1.367306     0.734769
C      -1.385704     0.207966     0.767431
C      -2.581876     0.845977     0.108680
H      -3.356780     1.042108     0.849814
H      -2.314111     1.796081    -0.364163
H      -3.002103     0.197451    -0.666538
C      -1.338277     0.032170     2.098678
H      -0.498400    -0.420207     2.612495
H      -2.172860     0.351359     2.709756
H       2.371738     1.859986     1.294731
24
      -518.269908      -518.101222  -0.42   0.07
C       0.929149     0.303634    -0.617745
C      -0.616977    -1.462818    -0.082144
C      -0.097869    -1.671703    -1.515394
C       1.208601    -0.870327    -1.568466
H       1.848404     0.728874    -0.207082
H      -0.417088    -2.337631     0.547362
H      -1.697220    -1.286245    -0.081095
H       0.054648    -2.727827    -1.746947
H      -0.813447    -1.266263    -2.233797
H       2.041168    -1.452196    -1.162872
H       1.478529    -0.544357    -2.575398
N       0.120941    -0.297482     0.412353
C       0.174249     1.397460    -1.368672
O      -1.003633     1.388077    -1.610109
O       1.001858     2.374203    -1.799500
C      -0.252717     0.427148     1.533815
C      -1.150336    -0.302577     2.499303
H      -2.123829    -0.523594     2.051628
H      -0.703376    -1.253949     2.804743
H      -1.315650     0.303234     3.390398
C       0.175209     1.673845     1.790377
H       0.828138     2.231034     1.129072
H      -0.126925     2.165574     2.706151
H       0.458176     3.003883    -2.295980
24
      -518.269523      -518.101168  -0.18   0.11
C       0.983499    -0.500360     0.202633
C      -0.070034     1.270486    -1.051556
C       1.382943     1.673630    -0.754720
C       2.086784     0.343685    -0.457895
H       1.174858    -1.568073     0.077931
H      -0.280680     1.245216    -2.128801
H      -0.787050     1.958895    -0.588733
H       1.841607     2.208707    -1.588442
H       1.421282     2.324161     0.122379
H       2.385367    -0.150377    -1.387035
H       2.970780     0.445467     0.175149
N      -0.208352    -0.066273    -0.490325
C       0.977790    -0.257322     1.710782
O       1.618221    -0.900324     2.501105
O       0.210660     0.790066     2.074570
C      -1.448125    -0.668846    -0.362367
C      -1.464099    -2.003124     0.340235
H      -1.098585    -1.929398     1.369630
H      -2.481575    -2.392765     0.373638
H      -0.837064    -2.732501    -0.182678
C      -2.574621    -0.131232    -0.857663
H      -2.593960     0.815978    -1.382501
H      -3.513850    -0.658641    -0.749609
H       0.304205     0.882945     3.034272
24
      -518.270486      -518.100936  -0.78   0.25
C       0.692005     0.606249    -0.632025
C      -0.501228    -1.482578    -0.475296
C      -0.142167    -1.231513    -1.936918
C       1.068170    -0.302191    -1.816553
H       1.584043     0.911907    -0.081952
H       0.137340    -2.268322    -0.046218
H      -1.543998    -1.777450    -0.323363
H       0.076986    -2.155248    -2.475785
H      -0.965533    -0.726818    -2.453400
H       1.959938    -0.881141    -1.557615
H       1.282463     0.274849    -2.716766
N      -0.229781    -0.198654     0.177262
C       0.033857     1.902118    -1.140973
O       0.648459     2.744045    -1.733647
O      -1.279082     2.008979    -0.893715
C      -0.227438    -0.129877     1.579501
C       0.234800     1.175974     2.175875
H       0.021780     1.189985     3.244884
H       1.311862     1.320617     2.047694
H      -0.272146     2.029347     1.714894
C      -0.663170    -1.132534     2.352306
H      -1.010496    -2.079212     1.957809
H      -0.693617    -1.004186     3.426910
H      -1.523047     1.205654    -0.392909
24
      -518.268096      -518.099225   0.72   1.32
C      -0.165556     0.774540     0.792341
C      -0.118315    -1.605149     0.492234
C      -0.436214    -1.350057     1.962309
C       0.036075     0.093631     2.172902
H      -0.997855     1.482522     0.819145
H      -0.740985    -2.388223     0.051053
H       0.937082    -1.884379     0.347345
H      -1.515873    -1.426599     2.123829
H       0.060033    -2.055473     2.632058
H      -0.509781     0.619653     2.957362
H       1.096174     0.102205     2.444156
N      -0.423238    -0.327080    -0.124469
C       1.073219     1.599862     0.477950
O       1.169733     2.784225     0.667772
O       2.091462     0.848041     0.015150
C      -0.426582    -0.171711    -1.505511
C      -0.870329     1.181056    -2.003755
H      -0.948801     1.172074    -3.091192
H      -1.847892     1.444977    -1.587341
H      -0.170008     1.975874    -1.729555
C      -0.125028    -1.165163    -2.353965
H       0.204377    -2.142140    -2.021793
H      -0.214789    -1.007000    -3.421262
H       2.843093     1.444314    -0.116762
24
      -518.268282      -518.099148   0.60   1.37
C      -0.032186    -0.009035    -1.147131
C      -1.346286    -0.153183     0.835007
C      -2.295177    -0.451150    -0.322805
C      -1.529828     0.048444    -1.559646
H       0.530699    -0.717612    -1.760224
H      -1.526670    -0.799396     1.695162
H      -1.437305     0.893413     1.160994
H      -2.460672    -1.530665    -0.389982
H      -3.265640     0.036106    -0.206575
H      -1.719293    -0.560892    -2.444505
H      -1.816875     1.076151    -1.797342
N      -0.043243    -0.420793     0.239563
C       0.575021     1.379771    -1.319515
O       0.398334     2.308222    -0.576742
O       1.285955     1.481446    -2.463210
C       1.141619    -0.516376     0.955834
C       0.986670    -0.720900     2.440538
H       0.444793     0.109395     2.904108
H       0.433117    -1.641018     2.654110
H       1.967127    -0.795826     2.911039
C       2.357074    -0.476181     0.386649
H       2.515100    -0.358983    -0.678936
H       3.240889    -0.578269     1.003097
H       1.596778     2.397324    -2.519492
24
      -518.267417      -518.098441   1.14   1.82
C      -0.771676    -0.412415     0.688787
C       0.472643    -0.953197    -1.315809
C      -0.672018    -1.956131    -1.146614
C      -0.964678    -1.901403     0.352492
H      -1.715179     0.128545     0.560835
H       0.437635    -0.445115    -2.282884
H       1.453475    -1.439209    -1.228044
H      -1.547962    -1.622708    -1.712177
H      -0.406589    -2.956246    -1.494775
H      -1.961080    -2.248071     0.628227
H      -0.234287    -2.504250     0.904217
N       0.272673     0.020268    -0.235252
C      -0.366260    -0.279807     2.157986
O      -1.160598    -0.262704     3.055266
O       0.959330    -0.248224     2.371785
C       0.588321     1.371315    -0.440092
C      -0.115017     2.371357     0.441979
H       0.224590     3.377743     0.196956
H      -1.200165     2.333949     0.306039
H       0.093854     2.198471     1.501897
C       1.487716     1.762402    -1.352887
H       2.036963     1.065780    -1.975155
H       1.703750     2.815699    -1.477714
H       1.384559    -0.216048     1.494934
24
      -518.261691      -518.093366   4.74   5.00
C      -0.743287     0.305870    -0.798271
C       0.507533    -1.489073     0.202074
C      -0.710481    -2.077911    -0.529856
C      -1.116381    -0.991141    -1.533621
H      -0.539368     1.127965    -1.497089
H       1.444745    -1.920241    -0.167467
H       0.446288    -1.682000     1.277492
H      -0.476530    -3.024604    -1.020797
H      -1.522663    -2.252383     0.178304
H      -0.518621    -1.058924    -2.447229
H      -2.172455    -1.034038    -1.811037
N       0.455828    -0.053594    -0.090481
C      -1.886808     0.696641     0.149451
O      -2.065558     0.192183     1.219329
O      -2.759327     1.617218    -0.329507
C       1.182849     0.897621     0.609806
C       2.396228     0.370609     1.330802
H       3.055212    -0.168331     0.642863
H       2.957125     1.193362     1.774323
H       2.115818    -0.321294     2.130470
C       0.881211     2.205650     0.622901
H       0.018998     2.629106     0.121506
H       1.519371     2.897485     1.157314
H      -2.469730     1.939823    -1.191279
