40
     -1068.749362     -1068.473583   0.00   0.00
C      -3.250484    -0.483855     1.723700
C      -1.203139     0.359549     2.493393
C      -2.150682     0.399427     3.685893
C      -3.534479     0.292146     3.022645
H      -3.799796    -1.429893     1.684937
H      -0.174908     0.105336     2.759020
H      -1.201203     1.341737     1.995400
H      -1.966834    -0.463615     4.332440
H      -2.034323     1.305997     4.283258
H      -4.261516    -0.223912     3.650956
H      -3.940320     1.279375     2.788281
N      -1.796501    -0.698247     1.655886
C      -3.556703     0.293045     0.442644
O      -2.479570     0.196585    -0.373635
O      -4.540149     0.908630     0.157271
C      -1.489231    -0.711940     0.236643
C      -1.744734    -2.106428    -0.331465
H      -0.981992    -2.795976     0.037235
H      -2.720311    -2.477556    -0.011691
H      -1.729942    -2.096803    -1.422400
C      -0.090725    -0.196513    -0.099095
H       0.621066    -0.897091     0.347960
H       0.074071     0.781441     0.357148
H      -1.396066     0.994839    -1.897723
C       4.430943     0.573758    -2.019706
C       3.947236    -0.719811    -1.910444
C       2.578394    -0.902741    -1.793728
C       1.707846     0.186236    -1.782195
C       2.224608     1.474628    -1.898907
C       3.592180     1.675644    -2.019097
H       4.634949    -1.555479    -1.920221
H       2.180982    -1.911100    -1.716398
H       1.548803     2.320784    -1.906760
H       4.010920     2.669384    -2.112890
N       5.888434     0.782785    -2.144801
O       6.287484     1.924860    -2.241686
O       6.599519    -0.201239    -2.142848
C       0.221409    -0.048488    -1.601414
O      -0.475616     1.036144    -2.183597
H      -0.029619    -0.981641    -2.124011
40
     -1068.747478     -1068.471141   1.18   1.53
C      -0.806038     3.423816     1.289477
C      -1.997946     1.375535     1.540668
C      -1.644358     1.909359     2.929927
C      -1.485359     3.408015     2.660999
H      -1.003242     4.349907     0.737858
H      -3.069388     1.508337     1.351320
H      -1.780589     0.316817     1.415640
H      -2.410780     1.681814     3.674170
H      -0.696487     1.484167     3.278705
H      -2.464188     3.891465     2.590368
H      -0.891071     3.937241     3.407523
N      -1.260182     2.222226     0.576030
C       0.707262     3.242782     1.401932
O       1.071539     2.206540     0.617117
O       1.481069     3.867036     2.065757
C      -0.097314     1.732710    -0.146772
C      -0.031646     2.413970    -1.513210
H      -0.806042     2.003668    -2.166173
H      -0.215028     3.484967    -1.402525
H       0.946908     2.281172    -1.978188
C       0.008607     0.211822    -0.238082
H      -0.911442    -0.154863    -0.703124
H       0.073442    -0.209069     0.769064
H       2.422937     0.813224    -0.009193
C       0.679977    -4.544072    -1.501305
C       1.472059    -4.083998    -0.462565
C       1.658602    -2.716684    -0.319646
C       1.059682    -1.825623    -1.207371
C       0.274147    -2.320921    -2.247104
C       0.075140    -3.683755    -2.402981
H       1.931450    -4.790981     0.216248
H       2.282640    -2.334101     0.478492
H      -0.184986    -1.631907    -2.950821
H      -0.532397    -4.082833    -3.204875
N       0.475913    -5.999449    -1.656232
O       1.017364    -6.732626    -0.854841
O      -0.221802    -6.374280    -2.576351
C       1.212092    -0.327253    -1.034492
O       2.444614    -0.073711    -0.387450
H       1.214842     0.119536    -2.037992
40
     -1068.746004     -1068.469786   2.11   2.38
C      -3.112193     0.721097     1.587313
C      -1.390260    -0.879361     1.215300
C      -1.717381    -0.839669     2.710600
C      -3.151784    -0.307479     2.714364
H      -4.103588     0.926098     1.170328
H      -1.728796    -1.828182     0.781405
H      -0.321464    -0.800232     1.023127
H      -1.615186    -1.817880     3.185772
H      -1.055409    -0.139825     3.232208
H      -3.860599    -1.102030     2.462389
H      -3.457183     0.145446     3.658848
N      -2.164580     0.216171     0.583792
C      -2.486545     2.043010     2.044603
O      -1.489576     2.358524     1.198455
O      -2.781317     2.703627     2.998817
C      -1.499323     1.407914     0.076358
C      -2.342223     2.039727    -1.029285
H      -3.357810     2.223306    -0.670917
H      -1.903883     2.990740    -1.338903
H      -2.390116     1.375551    -1.891928
C      -0.041056     1.229772    -0.333751
H       0.542175     0.936990     0.540676
H       0.337748     2.204464    -0.651728
H       0.112951     0.354609    -3.438067
C       4.052704    -1.549456    -1.197791
C       3.947473    -0.238022    -1.636031
C       2.687327     0.328831    -1.736267
C       1.548117    -0.405702    -1.403346
C       1.688315    -1.722886    -0.974763
C       2.943901    -2.306619    -0.865500
H       4.841508     0.316841    -1.890138
H       2.581798     1.351760    -2.081578
H       0.806978    -2.308520    -0.730216
H       3.068729    -3.329156    -0.533262
N       5.394964    -2.160617    -1.085409
O       6.350456    -1.475346    -1.384394
O       5.457185    -3.309824    -0.700772
C       0.174770     0.236870    -1.485127
O       0.016293     0.965035    -2.700037
H      -0.583121    -0.555577    -1.425143
40
     -1068.744478     -1068.468925   3.06   2.92
C      -3.109215    -0.501212    -1.630476
C      -1.824129    -0.761538     0.295662
C      -2.997696    -1.718935     0.456664
C      -4.000563    -1.206738    -0.593344
H      -3.241064    -0.913108    -2.635252
H      -0.891331    -1.137824     0.722401
H      -2.064491     0.196140     0.783723
H      -2.677922    -2.737262     0.217264
H      -3.403050    -1.716796     1.470549
H      -4.579701    -2.014546    -1.042812
H      -4.706517    -0.493758    -0.160888
N      -1.718482    -0.632178    -1.169630
C      -3.306707     1.017225    -1.706281
O      -2.092145     1.604241    -1.654987
O      -4.333078     1.628413    -1.777005
C      -1.060153     0.557202    -1.687964
C      -0.660645     0.359623    -3.147028
H       0.090886    -0.425028    -3.231777
H      -1.528462     0.083199    -3.749327
H      -0.246161     1.287862    -3.546243
C       0.098506     1.050689    -0.827270
H      -0.273441     1.273143     0.173960
H       0.449526     1.994908    -1.254214
H       2.702529     0.978591    -1.720243
C       3.488632     0.251490     2.901020
C       3.140299     1.433628     2.268670
C       2.406074     1.364651     1.094274
C       2.027178     0.133708     0.556385
C       2.393518    -1.034042     1.221733
C       3.126196    -0.986411     2.399051
H       3.440203     2.381612     2.696273
H       2.120876     2.289166     0.600382
H       2.106813    -1.997314     0.811277
H       3.417786    -1.887041     2.923809
N       4.270517     0.315275     4.155136
O       4.572758     1.413947     4.571801
O       4.560617    -0.734881     4.688780
C       1.267585     0.052143    -0.756498
O       2.162033     0.193987    -1.859297
H       0.872422    -0.962229    -0.858279
40
     -1068.742880     -1068.467647   4.07   3.72
C      -2.792594     1.654796    -1.485455
C      -1.381468    -0.262394    -1.449008
C      -2.840896    -0.722349    -1.459008
C      -3.549329     0.475902    -2.094812
H      -2.862362     2.560292    -2.097342
H      -0.913133    -0.481916    -2.415914
H      -0.786756    -0.763931    -0.686330
H      -2.981220    -1.653943    -2.011787
H      -3.205286    -0.877030    -0.437369
H      -3.413650     0.473214    -3.180533
H      -4.617166     0.531058    -1.877665
N      -1.407312     1.210202    -1.278490
C      -3.288849     1.976656    -0.072744
O      -2.234040     1.974462     0.762010
O      -4.414634     2.176982     0.282254
C      -1.001386     1.831867    -0.026373
C      -0.480693     3.242297    -0.291115
H       0.451842     3.200375    -0.853835
H      -1.213734     3.811826    -0.867286
H      -0.302320     3.760521     0.654120
C      -0.047326     1.012422     0.835703
H      -0.549653     0.089977     1.134656
H       0.130243     1.581516     1.753165
H       2.557960     1.770492     1.224912
C       3.069101    -2.969787     1.444923
C       2.974977    -2.707184     0.089527
C       2.387423    -1.516538    -0.314420
C       1.901633    -0.603527     0.618280
C       2.007943    -0.904492     1.977249
C       2.593533    -2.087406     2.401337
H       3.357719    -3.423404    -0.626053
H       2.310140    -1.293036    -1.373987
H       1.622597    -0.214761     2.723123
H       2.682456    -2.332770     3.451736
N       3.694039    -4.235299     1.887926
O       3.761766    -4.438779     3.082087
O       4.099612    -4.990562     1.029551
C       1.299967     0.711995     0.154524
O       2.232487     1.778610     0.318745
H       1.148368     0.653649    -0.926299
40
     -1068.743327     -1068.465471   3.79   5.09
C      -1.719532     0.234518     1.940788
C      -1.183195    -1.356846     0.296271
C      -1.303999    -2.119992     1.609559
C      -1.174605    -1.009562     2.664022
H      -2.611969     0.635700     2.432879
H      -1.575991    -1.916304    -0.555689
H      -0.129268    -1.119726     0.100803
H      -2.287360    -2.595579     1.671720
H      -0.541383    -2.894599     1.712632
H      -1.733867    -1.226164     3.575024
H      -0.130459    -0.850571     2.945031
N      -1.999587    -0.155173     0.549809
C      -0.710646     1.370078     1.798003
O      -0.743446     1.797855     0.516744
O       0.024124     1.836341     2.618154
C      -1.769028     1.047392    -0.234823
C      -3.023963     1.917015    -0.228161
H      -3.820369     1.403236    -0.770951
H      -3.367311     2.104320     0.791672
H      -2.817892     2.876233    -0.709581
C      -1.272779     0.819934    -1.680469
H      -1.972188     1.324212    -2.350746
H      -1.331208    -0.242669    -1.921947
H       0.111303     2.906181    -0.919424
C       3.245369    -1.143254    -0.441580
C       2.511813    -1.585076    -1.531310
C       1.527050    -0.754036    -2.039991
C       1.264657     0.493692    -1.471107
C       2.033457     0.912618    -0.388450
C       3.025767     0.095346     0.135555
H       2.718269    -2.555579    -1.963822
H       0.950352    -1.083738    -2.900483
H       1.864839     1.881224     0.064378
H       3.622714     0.408949     0.982257
N       4.299849    -2.017862     0.113001
O       4.934055    -1.603468     1.060758
O       4.466709    -3.098715    -0.413883
C       0.136028     1.332653    -2.060044
O       0.282578     2.720812    -1.850122
H       0.201116     1.210608    -3.146478
40
     -1068.742844     -1068.463439   4.09   6.37
C      -1.706522     0.170618     1.912108
C      -1.414129    -1.368246     0.114542
C      -0.434021    -1.728121     1.233300
C      -1.105980    -1.120426     2.466852
H      -2.570578     0.509711     2.495562
H      -2.208527    -2.120987     0.049432
H      -0.930603    -1.319467    -0.856869
H      -0.272396    -2.805259     1.314778
H       0.535321    -1.253380     1.059926
H      -1.909332    -1.768370     2.829567
H      -0.422555    -0.919840     3.293590
N      -2.034182    -0.082711     0.504225
C      -0.699106     1.316074     1.851146
O      -0.751873     1.857425     0.615713
O       0.045006     1.709789     2.700727
C      -1.782735     1.170504    -0.188088
C      -3.033053     2.045934    -0.104849
H      -3.822857     1.602565    -0.715698
H      -3.392114     2.111038     0.924802
H      -2.816981     3.054308    -0.467036
C      -1.288557     1.085926    -1.648028
H      -1.868277     1.804453    -2.231749
H      -1.534768     0.104369    -2.057457
H       0.264081     2.947588    -0.745773
C       3.038454    -1.375959    -0.366724
C       2.261787    -1.732666    -1.457667
C       1.356398    -0.806473    -1.950460
C       1.207420     0.449372    -1.359263
C       2.017627     0.779884    -0.275430
C       2.937927    -0.129882     0.227431
H       2.375496    -2.711697    -1.905048
H       0.757127    -1.065844    -2.819865
H       1.941073     1.754355     0.189435
H       3.565838     0.116020     1.074114
N       4.001297    -2.356633     0.176799
O       4.685645    -2.011743     1.117398
O       4.046110    -3.449645    -0.349564
C       0.190470     1.422052    -1.947568
O       0.485781     2.775509    -1.668516
H       0.286283     1.339857    -3.035796
40
     -1068.729880     -1068.455816  12.23  11.15
C      -3.167473    -0.497305     1.631164
C      -2.456012    -0.434767    -0.696356
C      -3.557378    -1.480873    -0.505725
C      -4.300305    -1.008086     0.746715
H      -3.493551     0.245591     2.358507
H      -2.785119     0.396552    -1.326929
H      -1.531126    -0.856368    -1.086780
H      -4.195237    -1.553103    -1.388802
H      -3.108888    -2.461498    -0.325351
H      -4.998430    -0.199098     0.503815
H      -4.844268    -1.803387     1.254457
N      -2.220441     0.096473     0.672503
C      -2.440845    -1.677797     2.413314
O      -3.181069    -2.252887     3.203169
O      -1.225002    -1.859842     2.140887
C      -1.196710     0.781111     1.038913
C      -1.052048     1.233526     2.458337
H      -0.173596     1.869974     2.566595
H      -1.934660     1.793397     2.778152
H      -0.946685     0.358741     3.105419
C      -0.066238     1.042984     0.102441
H       0.357990     2.029242     0.304270
H      -0.364137     0.992647    -0.945027
H      -0.097475    -1.600836     0.868728
C       4.330554     0.760536    -2.206373
C       4.174705     1.506509    -1.049147
C       3.105763     1.214591    -0.216722
C       2.206807     0.197674    -0.536628
C       2.394825    -0.539724    -1.702606
C       3.460951    -0.261299    -2.546664
H       4.880510     2.293131    -0.815429
H       2.974837     1.784003     0.699662
H       1.708624    -1.342936    -1.940710
H       3.623202    -0.824602    -3.456673
N       5.466383     1.063593    -3.103851
O       5.582243     0.395192    -4.109722
O       6.213500     1.963302    -2.779392
C       1.016708    -0.061605     0.364019
O       0.493088    -1.333418     0.118659
H       1.346007     0.030659     1.409161
40
     -1068.727763     -1068.453320  13.55  12.72
C      -2.779932    -1.092762    -1.937626
C      -2.309764    -1.040188     0.463171
C      -3.792775    -1.330255     0.254179
C      -4.058223    -0.779360    -1.148425
H      -2.867168    -2.029021    -2.489462
H      -1.833606    -1.725525     1.165444
H      -2.123749    -0.009119     0.772427
H      -3.974040    -2.410048     0.288780
H      -4.406046    -0.858460     1.023961
H      -4.933852    -1.213088    -1.631086
H      -4.202121     0.304790    -1.108238
N      -1.738019    -1.226527    -0.891956
C      -2.420354     0.082020    -2.923822
O      -2.996712     0.016635    -4.004783
O      -1.612548     0.939758    -2.474696
C      -0.482962    -1.267756    -1.172763
C       0.014248    -1.553291    -2.551819
H       0.492237    -0.654225    -2.949100
H       0.767696    -2.345479    -2.486839
H      -0.771449    -1.850616    -3.242282
C       0.540510    -0.919942    -0.145487
H       1.453832    -1.495371    -0.314328
H       0.192971    -1.092975     0.872566
H      -0.840211     1.308620    -1.006836
C       3.713049     1.635844     2.700557
C       2.389764     1.992800     2.894988
C       1.461850     1.676477     1.912430
C       1.858515     1.012240     0.754918
C       3.200668     0.674293     0.584334
C       4.139834     0.981531     1.556002
H       2.099799     2.509616     3.800859
H       0.422905     1.956327     2.035082
H       3.519949     0.169438    -0.323579
H       5.185011     0.725436     1.439363
N       4.705524     1.967517     3.745559
O       5.858480     1.644147     3.547690
O       4.307505     2.542122     4.737265
C       0.845198     0.614079    -0.298010
O      -0.321793     1.368497    -0.160760
H       1.295777     0.771813    -1.287685
40
     -1068.720175     -1068.446569  18.31  16.95
C      -2.222357     0.143934     2.025048
C      -1.937638    -2.129474     1.215064
C      -2.276044    -2.137363     2.708480
C      -3.006867    -0.808532     2.920948
H      -2.794018     1.016907     1.712399
H      -2.727556    -2.591742     0.615580
H      -0.986904    -2.613020     0.992069
H      -2.873432    -3.010894     2.976624
H      -1.354820    -2.152820     3.295817
H      -4.051813    -0.880591     2.598159
H      -2.980064    -0.462588     3.953435
N      -1.872714    -0.688982     0.862545
C      -0.871184     0.626335     2.723236
O      -1.074258     1.355296     3.692605
O       0.182421     0.198688     2.200820
C      -1.356769    -0.215254    -0.213176
C      -1.303126     1.262012    -0.438813
H      -2.318367     1.671014    -0.463848
H      -0.756916     1.740304     0.376435
H      -0.805031     1.486885    -1.380799
C      -0.767869    -1.139049    -1.230230
H      -0.875355    -0.708643    -2.228221
H      -1.255060    -2.115001    -1.221375
H       2.030624    -2.684594    -1.549732
C       3.072794     2.055845    -1.976649
C       2.786706     1.828009    -0.642136
C       2.039200     0.708024    -0.300135
C       1.583644    -0.157665    -1.292052
C       1.889698     0.095269    -2.629658
C       2.638578     1.207255    -2.983120
H       3.143369     2.517798     0.111755
H       1.781165     0.521697     0.738655
H       1.541940    -0.587509    -3.398419
H       2.887600     1.421506    -4.014409
N       3.870355     3.248254    -2.344387
O       4.237034     3.977117    -1.447066
O       4.107700     3.423212    -3.521501
C       0.735685    -1.362546    -0.924624
O       1.089785    -2.517152    -1.671106
H       0.849866    -1.541942     0.151779
40
     -1068.720175     -1068.446564  18.31  16.95
C      -2.655173     0.352803     1.374042
C      -1.842392    -1.922374     1.635643
C      -2.539068    -1.457713     2.917656
C      -3.488779    -0.357658     2.435020
H      -3.253289     0.886873     0.636719
H      -2.379417    -2.745746     1.155307
H      -0.805280    -2.214995     1.797523
H      -3.047943    -2.284857     3.416365
H      -1.802609    -1.036906     3.606438
H      -4.396761    -0.788591     1.997790
H      -3.773330     0.340957     3.220757
N      -1.905649    -0.742570     0.736998
C      -1.609173     1.363380     2.030059
O      -2.154573     2.328681     2.562106
O      -0.406859     1.034922     1.918570
C      -1.212766    -0.592296    -0.333135
C      -1.324227     0.664668    -1.135459
H      -1.077225     1.524786    -0.510220
H      -0.644889     0.636521    -1.986176
H      -2.349839     0.783012    -1.499789
C      -0.257385    -1.659184    -0.761597
H      -0.173829    -1.666427    -1.850521
H      -0.580998    -2.648095    -0.434094
H       2.728907    -2.505700     0.067847
C       3.130506     1.842576    -2.093673
C       2.556330     2.063587    -0.854250
C       1.921491     1.007072    -0.213296
C       1.862333    -0.245077    -0.821154
C       2.452661    -0.439958    -2.070292
C       3.092901     0.605458    -2.717966
H       2.606533     3.046338    -0.403639
H       1.442144     1.162671     0.749195
H       2.413627    -1.419788    -2.535616
H       3.557689     0.475564    -3.686766
N       3.808952     2.966487    -2.779026
O       4.304836     2.744653    -3.864120
O       3.827051     4.039716    -2.214462
C       1.137523    -1.392167    -0.139530
O       1.834459    -2.622172    -0.270301
H       1.003511    -1.128454     0.917049
40
     -1068.717049     -1068.444832  20.28  18.04
C      -2.743461    -0.244748     1.104854
C      -2.570167    -1.491675    -0.942826
C      -4.013399    -1.626334    -0.467994
C      -3.944231    -1.206457     1.007193
H      -3.042388     0.777125     1.332655
H      -2.473393    -1.376927    -2.020136
H      -1.952571    -2.326806    -0.598265
H      -4.654057    -0.946993    -1.040455
H      -4.386774    -2.642365    -0.607157
H      -4.864849    -0.733450     1.351292
H      -3.764978    -2.072773     1.647941
N      -2.107404    -0.289297    -0.226045
C      -1.697726    -0.745693     2.190413
O      -0.668670    -1.282690     1.721234
O      -2.072630    -0.549966     3.345326
C      -1.130867     0.476863    -0.559403
C      -0.752325     1.634445     0.310205
H      -0.509065     1.284914     1.315171
H       0.111235     2.154691    -0.102068
H      -1.590716     2.334890     0.382941
C      -0.326293     0.202579    -1.790452
H       0.064805     1.141232    -2.188732
H      -0.912320    -0.279216    -2.572304
H       2.068164    -1.793374    -2.562494
C       3.929060     1.311452     0.691029
C       3.081174     0.468173     1.386975
C       2.091120    -0.211557     0.688245
C       1.957990    -0.031996    -0.686621
C       2.829209     0.822739    -1.363449
C       3.823925     1.502912    -0.677972
H       3.195876     0.349819     2.456679
H       1.397434    -0.858392     1.218277
H       2.728964     0.951811    -2.436471
H       4.510006     2.169839    -1.183935
N       4.985752     2.036439     1.433107
O       5.715823     2.768640     0.797846
O       5.056864     1.854798     2.630150
C       0.854102    -0.742349    -1.450364
O       1.301420    -1.228603    -2.707444
H       0.475357    -1.561701    -0.826948
40
     -1068.719965     -1068.444362  18.45  18.34
C      -2.245262     1.321398     0.348495
C      -1.381832    -0.541077    -0.959659
C      -2.563765    -0.992528    -0.100027
C      -3.351014     0.298910     0.132783
H      -2.538147     2.349910     0.133625
H      -1.614775    -0.609198    -2.026911
H      -0.461669    -1.085573    -0.752773
H      -3.142246    -1.769589    -0.603434
H      -2.211629    -1.381176     0.857730
H      -3.958543     0.554282    -0.743355
H      -3.986588     0.246979     1.014175
N      -1.209151     0.901335    -0.626152
C      -1.611147     1.280214     1.821315
O      -2.237129     0.613589     2.645468
O      -0.551812     1.934473     1.924949
C      -0.289057     1.665874    -1.099835
C      -0.283205     3.129585    -0.802223
H      -1.160362     3.589090    -1.273626
H      -0.338619     3.265563     0.281727
H       0.619376     3.590906    -1.194882
C       0.776821     1.116315    -2.007572
H       0.983074     1.875174    -2.767655
H       0.451415     0.205770    -2.512340
H       3.221237     1.822103    -0.017906
C       1.579297    -2.550733     1.307579
C       2.105668    -2.746626     0.040546
C       2.301633    -1.637044    -0.768747
C       1.975486    -0.358444    -0.316505
C       1.470186    -0.189687     0.971892
C       1.257957    -1.292617     1.789326
H       2.349431    -3.746464    -0.294696
H       2.713399    -1.771575    -1.765561
H       1.179752     0.790157     1.339798
H       0.833687    -1.176144     2.777940
N       1.353695    -3.732248     2.172422
O       1.646258    -4.820743     1.721709
O       0.889015    -3.540308     3.275650
C       2.103800     0.819124    -1.263697
O       2.491819     2.014146    -0.615720
H       2.832946     0.556872    -2.043847
40
     -1068.719965     -1068.444335  18.45  18.35
C      -1.681457     0.114763     2.017181
C      -1.716267     0.064326    -0.416303
C      -2.512383    -1.110029     0.155395
C      -2.927478    -0.618889     1.544007
H      -1.869810     0.871611     2.779741
H      -2.363016     0.756444    -0.964585
H      -0.888200    -0.242040    -1.053819
H      -3.358070    -1.362081    -0.487383
H      -1.873534    -1.989745     0.256990
H      -3.785452     0.060803     1.482171
H      -3.158470    -1.436185     2.223837
N      -1.200117     0.782601     0.783387
C      -0.527884    -0.860756     2.556213
O       0.573703    -0.291326     2.708663
O      -0.870059    -2.028775     2.740936
C      -0.437369     1.818393     0.755057
C      -0.082851     2.541249     2.013185
H       0.648960     3.318530     1.808370
H      -0.990850     2.997261     2.425952
H       0.320362     1.819068     2.728963
C       0.076898     2.360300    -0.550298
H       0.079605     3.451297    -0.473794
H      -0.561837     2.077430    -1.388019
H       3.189770     1.869521     0.157505
C       1.546757    -2.265340    -1.785184
C       1.485992    -1.346636    -2.821095
C       1.514909     0.003779    -2.504764
C       1.602006     0.423183    -1.177273
C       1.686033    -0.524193    -0.157867
C       1.646734    -1.879791    -0.458706
H       1.415035    -1.690540    -3.844902
H       1.468073     0.738642    -3.304184
H       1.724662    -0.227123     0.886194
H       1.676177    -2.622886     0.327342
N       1.501907    -3.709186    -2.114018
O       1.552369    -4.496733    -1.193637
O       1.415061    -4.014699    -3.285630
C       1.525557     1.904379    -0.860250
O       2.322837     2.278123     0.245722
H       1.831704     2.465255    -1.755101
40
     -1068.716374     -1068.443462  20.70  18.90
C      -2.339934    -1.691676    -0.663137
C      -1.936843    -0.046458    -2.402004
C      -2.440772    -1.354788    -3.019115
C      -3.204362    -2.025811    -1.873744
H      -2.881745    -1.721441     0.281106
H      -2.639091     0.777338    -2.560706
H      -0.951151     0.238225    -2.770187
H      -3.055474    -1.167625    -3.901647
H      -1.590791    -1.975131    -3.312530
H      -4.208720    -1.599606    -1.769089
H      -3.290486    -3.105499    -1.989402
N      -1.867248    -0.326794    -0.946708
C      -1.067071    -2.649379    -0.570847
O       0.030676    -2.098527    -0.808975
O      -1.365910    -3.806998    -0.283630
C      -1.265591     0.405729    -0.080768
C      -1.217812    -0.011595     1.354461
H      -2.234402    -0.053933     1.759303
H      -0.770092    -1.003553     1.438289
H      -0.630245     0.694390     1.939103
C      -0.592104     1.672121    -0.505977
H      -0.639915     2.405090     0.302725
H      -1.083926     2.101135    -1.382313
H       1.120543     2.621066    -2.384509
C       3.150712     0.585892     2.672041
C       2.866840     1.905241     2.354630
C       2.150591     2.166278     1.196983
C       1.728403     1.120719     0.376217
C       2.035696    -0.195110     0.712202
C       2.748985    -0.469314     1.872518
H       3.206377     2.701324     3.004469
H       1.928589     3.191236     0.920460
H       1.691939    -1.010781     0.082259
H       2.991455    -1.484956     2.157133
N       3.911780     0.297717     3.908388
O       4.146999    -0.864145     4.166058
O       4.254093     1.241543     4.590362
C       0.904533     1.415497    -0.858965
O       1.439576     2.575283    -1.478455
H       0.965899     0.547298    -1.526001
40
     -1068.717264     -1068.442581  20.14  19.45
C      -2.578848     0.906879     0.055444
C      -2.024992    -0.191929     2.127315
C      -3.479799     0.251402     2.239568
C      -3.615620     1.297398     1.122106
H      -3.021728     0.563672    -0.877955
H      -1.819842    -1.162823     2.572952
H      -1.352775     0.570775     2.529105
H      -4.143595    -0.602124     2.063826
H      -3.699404     0.654592     3.229601
H      -4.622188     1.328414     0.702131
H      -3.371522     2.290796     1.501405
N      -1.815673    -0.214990     0.665508
C      -1.494696     2.026818    -0.216621
O      -0.925066     2.413030     0.824304
O      -1.297940     2.303759    -1.406644
C      -1.001789    -0.964777     0.009110
C      -0.910466    -0.869278    -1.481195
H      -1.743247    -1.441092    -1.911758
H      -0.974658     0.166618    -1.825598
H       0.021647    -1.316777    -1.824333
C      -0.101632    -1.928519     0.723929
H       0.222069    -2.700199     0.022694
H      -0.600422    -2.422037     1.559527
H       2.695531    -1.811322     2.295829
C       3.190126     0.621766    -2.012052
C       2.325541     1.388413    -1.250047
C       1.705331     0.802032    -0.155095
C       1.931041    -0.539907     0.143856
C       2.808526    -1.288776    -0.640221
C       3.450580    -0.709257    -1.724414
H       2.130330     2.419401    -1.512369
H       1.018344     1.401123     0.438870
H       2.986737    -2.332417    -0.402014
H       4.136032    -1.270825    -2.346062
N       3.862982     1.241608    -3.177141
O       4.612504     0.543801    -3.829036
O       3.624553     2.407519    -3.409327
C       1.152985    -1.202926     1.265571
O       1.891690    -2.205800     1.940561
H       0.829346    -0.424041     1.968672
40
     -1068.713326     -1068.440844  22.61  20.54
C      -2.743903    -0.087732    -0.859028
C      -2.177755    -2.101947     0.379856
C      -3.458665    -2.321892    -0.431024
C      -3.362153    -1.292394    -1.559699
H      -2.217484     0.577941    -1.541892
H      -1.358243    -2.752467     0.070424
H      -2.346565    -2.206554     1.452080
H      -3.531756    -3.351519    -0.787570
H      -4.332480    -2.109001     0.190001
H      -2.712647    -1.655329    -2.364771
H      -4.329888    -1.022364    -1.980137
N      -1.790586    -0.698675     0.083379
C      -3.828043     0.764635    -0.053154
O      -3.656603     0.817544     1.178017
O      -4.680107     1.246607    -0.802831
C      -0.859088    -0.046733     0.676241
C      -0.666317     1.410267     0.404870
H      -0.516931     1.602332    -0.659906
H      -1.576779     1.926444     0.727134
H       0.191774     1.796697     0.952246
C       0.039995    -0.717716     1.677390
H      -0.451705    -1.572474     2.142551
H       0.264769     0.011278     2.460310
H       1.846983    -2.626116    -0.197022
C       3.713092     1.967249    -0.561491
C       2.938402     1.206537    -1.419377
C       2.186865     0.165174    -0.890638
C       2.214983    -0.106709     0.475008
C       3.012904     0.673136     1.310378
C       3.766381     1.720007     0.800272
H       2.926583     1.432493    -2.477928
H       1.568788    -0.435427    -1.548443
H       3.051003     0.460818     2.375685
H       4.387554     2.336572     1.436773
N       4.513583     3.082434    -1.118218
O       4.448583     3.274633    -2.313682
O       5.181820     3.731844    -0.342135
C       1.371525    -1.218758     1.075830
O       1.037853    -2.221026     0.130604
H       1.934253    -1.659810     1.909896
40
     -1068.710649     -1068.439586  24.29  21.33
C       3.101251    -1.570655    -1.248099
C       2.273191     0.624760    -0.598987
C       3.767284     0.696676    -0.913134
C       3.981579    -0.485176    -1.859689
H       2.753285    -2.291583    -1.986243
H       1.682132     1.160568    -1.348442
H       2.031740     1.002469     0.393616
H       4.038177     1.661575    -1.346904
H       4.342751     0.550340     0.004345
H       3.652352    -0.233993    -2.874821
H       5.016122    -0.823717    -1.900831
N       1.955577    -0.820873    -0.690463
C       3.847445    -2.347070    -0.069675
O       3.408474    -2.127558     1.073641
O       4.768520    -3.048269    -0.494916
C       0.935320    -1.387668    -0.153850
C       0.751081    -2.865598    -0.150709
H       1.018287    -3.208453     0.855125
H      -0.298328    -3.094527    -0.348341
H       1.394025    -3.384983    -0.856752
C      -0.142651    -0.573110     0.509564
H       0.280182     0.233579     1.109794
H      -0.699503    -1.228316     1.182859
H      -2.244013    -0.731673    -1.930747
C      -4.143949     2.210149     1.587309
C      -4.263517     0.833806     1.487515
C      -3.289993     0.132332     0.791936
C      -2.216849     0.802401     0.206013
C      -2.130004     2.187354     0.318576
C      -3.093912     2.904966     1.013921
H      -5.103744     0.331763     1.949607
H      -3.363336    -0.946179     0.701389
H      -1.303431     2.719020    -0.144129
H      -3.040583     3.981362     1.113137
N      -5.177744     2.965473     2.332879
O      -6.087706     2.332356     2.824033
O      -5.047287     4.169001     2.404539
C      -1.128539     0.024135    -0.510396
O      -1.638922    -1.066351    -1.261094
H      -0.584767     0.711663    -1.171577
40
     -1068.710562     -1068.439467  24.35  21.41
C      -2.928486     0.088626     2.239130
C      -2.011147    -1.357970     0.517136
C      -3.384216    -1.870792     0.962420
C      -4.072347    -0.627023     1.530017
H      -3.096626     1.158910     2.349375
H      -2.006590    -1.060454    -0.535574
H      -1.219949    -2.086203     0.695117
H      -3.926819    -2.330987     0.134014
H      -3.258923    -2.616452     1.751173
H      -4.487321    -0.008208     0.725741
H      -4.863839    -0.861111     2.240525
N      -1.776180    -0.155532     1.353520
C      -2.632032    -0.536629     3.679541
O      -1.512904    -1.064931     3.809211
O      -3.586108    -0.392369     4.446441
C      -0.660833     0.474417     1.441744
C      -0.490735     1.585633     2.423197
H      -0.556089     1.153567     3.427346
H       0.471841     2.073288     2.282032
H      -1.281307     2.331623     2.315190
C       0.495737     0.106162     0.554926
H       0.513324    -0.962206     0.338389
H       1.422163     0.359124     1.074971
H       0.347514     2.775053    -1.251929
C       3.893088    -0.148010    -3.096163
C       4.022642     0.794119    -2.089010
C       2.898892     1.134347    -1.350924
C       1.667010     0.539593    -1.621127
C       1.569166    -0.398252    -2.645335
C       2.684624    -0.752916    -3.392151
H       4.987483     1.244265    -1.894111
H       2.977197     1.869835    -0.557366
H       0.611280    -0.858268    -2.870859
H       2.626847    -1.481774    -4.190116
N       5.090397    -0.519810    -3.885679
O       6.136052     0.027009    -3.606945
O       4.947855    -1.347823    -4.760147
C       0.453271     0.880220    -0.776446
O       0.387521     2.257078    -0.441621
H      -0.451452     0.584851    -1.325651
40
     -1068.710855     -1068.439129  24.16  21.62
C       0.036068    -2.453558     0.577867
C       1.272621    -0.836356    -0.756604
C       1.120508    -2.151359    -1.521867
C      -0.126285    -2.785058    -0.901099
H      -0.912797    -2.429789     1.113220
H       0.732129    -0.016170    -1.236342
H       2.314516    -0.553597    -0.607704
H       1.034343    -1.978857    -2.596669
H       1.989917    -2.788724    -1.340868
H      -1.037656    -2.331217    -1.308087
H      -0.175504    -3.864347    -1.037337
N       0.636023    -1.105056     0.559579
C       1.016626    -3.471377     1.325585
O       2.040680    -2.961641     1.814874
O       0.584356    -4.625094     1.297820
C       0.713368    -0.345424     1.588718
C       0.124936    -0.765493     2.895883
H       0.175385     0.045878     3.622775
H      -0.912304    -1.092059     2.789884
H       0.711476    -1.617300     3.257428
C       1.375703     0.998563     1.529200
H       2.045432     1.102087     0.676191
H       1.969226     1.108833     2.444405
H       1.404132     3.500917     2.394905
C      -1.764394     1.757604    -2.224652
C      -0.626021     2.545696    -2.184705
C       0.032600     2.703994    -0.973262
C      -0.446029     2.081005     0.177834
C      -1.607641     1.315665     0.108672
C      -2.276181     1.142722    -1.094943
H      -0.266314     3.017623    -3.089852
H       0.925205     3.315875    -0.920359
H      -2.000428     0.843321     1.004607
H      -3.174300     0.543292    -1.165635
N      -2.458853     1.566691    -3.518297
O      -3.431741     0.842204    -3.527637
O      -2.009291     2.141941    -4.486052
C       0.336130     2.150913     1.471608
O       0.997777     3.399629     1.528539
H      -0.363419     2.048023     2.312380
40
     -1068.710078     -1068.437397  24.65  22.71
C      -1.521157     2.211273     0.272472
C       0.589244     1.557579    -0.708296
C       0.903186     2.220272     0.627990
C      -0.385241     2.989386     0.953811
H      -2.186738     1.708053     0.972240
H       1.202074     0.683742    -0.914050
H       0.634626     2.273966    -1.532929
H       1.109134     1.451075     1.380974
H       1.778280     2.868844     0.554871
H      -0.557356     3.079293     2.027645
H      -0.346039     3.991949     0.525001
N      -0.830878     1.182402    -0.549114
C      -2.357486     3.079776    -0.763021
O      -3.587911     2.997561    -0.635111
O      -1.640465     3.660901    -1.592128
C      -1.436582     0.194735    -1.102036
C      -2.883524    -0.061609    -0.819213
H      -3.006285    -0.381409     0.222069
H      -3.468536     0.858614    -0.938632
H      -3.267186    -0.844884    -1.473275
C      -0.731629    -0.740747    -2.038052
H       0.204489    -0.328672    -2.413913
H      -1.392596    -0.903675    -2.894620
H       0.191572    -3.815882    -2.109659
C       2.309119    -1.638419     1.835717
C       0.958395    -1.730818     2.122434
C       0.071517    -1.914688     1.070139
C       0.527570    -1.997685    -0.242913
C       1.896807    -1.918704    -0.495894
C       2.798262    -1.736134     0.543196
H       0.616238    -1.657443     3.146488
H      -0.990859    -1.995386     1.281457
H       2.258364    -1.995244    -1.515907
H       3.863279    -1.665254     0.363707
N       3.263839    -1.427903     2.948672
O       4.440122    -1.343781     2.667857
O       2.806304    -1.350320     4.069067
C      -0.457667    -2.115239    -1.393727
O       0.030079    -2.927812    -2.445976
H      -1.404362    -2.517715    -1.007345
40
     -1068.708391     -1068.436524  25.71  23.25
C      -0.381053     0.549521     2.445596
C      -0.705237    -1.266409     0.858804
C      -1.931754    -1.124370     1.761185
C      -1.873011     0.334317     2.219802
H      -0.085663     1.594804     2.359232
H      -0.934115    -1.035405    -0.184911
H      -0.246317    -2.252699     0.927005
H      -2.850148    -1.378464     1.227908
H      -1.835987    -1.788428     2.624082
H      -2.253335     1.003942     1.439285
H      -2.419909     0.518618     3.143272
N       0.242520    -0.239971     1.365644
C       0.104405    -0.001851     3.865586
O       0.946557    -0.916563     3.821614
O      -0.447614     0.587004     4.796871
C       1.475706    -0.139387     1.030686
C       2.367088     0.862438     1.688590
H       2.482891     0.557542     2.734447
H       3.344486     0.887099     1.206277
H       1.932012     1.864700     1.676388
C       2.076857    -0.998316    -0.042049
H       1.485700    -1.897478    -0.225810
H       3.072355    -1.303545     0.294218
H       2.735071    -1.838996    -2.371161
C      -1.683941     0.739835    -2.789632
C      -1.013394     1.647783    -1.988118
C       0.274297     1.338086    -1.575339
C       0.882007     0.140272    -1.947808
C       0.185377    -0.739628    -2.773920
C      -1.102653    -0.447490    -3.201176
H      -1.496739     2.570902    -1.695979
H       0.812652     2.045220    -0.950901
H       0.638370    -1.670891    -3.098253
H      -1.655674    -1.125964    -3.837822
N      -3.065843     1.049005    -3.221522
O      -3.559205     2.079700    -2.815375
O      -3.616620     0.250608    -3.948709
C       2.243614    -0.220353    -1.374486
O       3.066673    -0.941277    -2.267354
H       2.789570     0.706091    -1.176172
40
     -1068.708136     -1068.436227  25.87  23.44
C      -2.379532     0.760461    -0.936722
C      -0.727974     1.449498     0.690350
C      -1.846753     0.751884     1.455440
C      -3.016794     0.755891     0.460868
H      -2.518855    -0.170146    -1.484880
H       0.266259     1.200074     1.053349
H      -0.877005     2.532106     0.658231
H      -1.540045    -0.269743     1.705402
H      -2.078229     1.274954     2.385289
H      -3.676745    -0.103494     0.590277
H      -3.607806     1.665867     0.575110
N      -0.926890     0.952057    -0.687039
C      -2.811582     2.002579    -1.830889
O      -3.165953     1.714491    -2.983452
O      -2.658803     3.088178    -1.250251
C      -0.028312     0.807780    -1.592174
C      -0.386808     0.265831    -2.939937
H      -1.244080     0.809291    -3.356622
H       0.466871     0.324442    -3.615863
H      -0.692265    -0.782763    -2.849300
C       1.404900     1.171363    -1.343256
H       1.526482     1.823527    -0.478481
H       1.743283     1.724108    -2.228010
H       3.950446     0.730322    -1.868579
C       1.090437    -2.136173     2.369249
C       2.036454    -1.129973     2.476691
C       2.455508    -0.483362     1.322349
C       1.929513    -0.839403     0.081489
C       0.992844    -1.866877     0.006166
C       0.562840    -2.524778     1.150180
H       2.430404    -0.863522     3.448888
H       3.200265     0.301528     1.384112
H       0.592858    -2.167137    -0.957862
H      -0.167438    -3.322177     1.106253
N       0.628919    -2.820452     3.598675
O       1.104063    -2.457811     4.653433
O      -0.198059    -3.698795     3.472216
C       2.313775    -0.071789    -1.165576
O       3.663475     0.334028    -1.039902
H       2.190338    -0.731863    -2.035223
40
     -1068.708276     -1068.435682  25.78  23.78
C      -2.325436    -0.355841    -1.765648
C      -2.005720    -2.352148    -0.417427
C      -2.947756    -2.651515    -1.589237
C      -2.606133    -1.580075    -2.628599
H      -1.686766     0.377680    -2.256475
H      -1.094108    -2.954148    -0.437367
H      -2.500085    -2.470879     0.546974
H      -2.815001    -3.670883    -1.957443
H      -3.985072    -2.535242    -1.266410
H      -1.720769    -1.864596    -3.209235
H      -3.426252    -1.371826    -3.314114
N      -1.637379    -0.922019    -0.593047
C      -3.668304     0.373489    -1.293127
O      -3.853180     0.395843    -0.063123
O      -4.313902     0.806815    -2.248920
C      -0.977309    -0.220935     0.258289
C      -0.822440     1.251788     0.061834
H      -0.221812     1.689434     0.856700
H      -0.351487     1.478125    -0.898240
H      -1.824232     1.692845     0.067649
C      -0.342271    -0.867910     1.454624
H      -0.837546    -1.804183     1.708772
H      -0.450263    -0.184678     2.300839
H       1.048554    -1.657745    -0.667925
C       3.510499     2.402418     1.041310
C       3.434411     1.605966    -0.085570
C       2.685853     0.436302    -0.027399
C       2.021344     0.073414     1.139631
C       2.135633     0.892522     2.264761
C       2.875145     2.062917     2.225602
H       3.953690     1.899234    -0.988822
H       2.644153    -0.196976    -0.905802
H       1.642813     0.611560     3.191551
H       2.965959     2.707234     3.090365
N       4.300884     3.652558     0.984949
O       4.849071     3.921358    -0.062874
O       4.348930     4.329027     1.990503
C       1.163945    -1.181508     1.231139
O       1.339277    -2.075754     0.150331
H       1.493058    -1.741670     2.110980
40
     -1068.704575     -1068.434188  28.10  24.72
C      -1.750200     3.187934     0.577649
C      -1.335624     1.013261     1.579517
C      -2.717390     1.482447     2.019343
C      -2.634672     2.997877     1.818255
H      -2.344284     3.358311    -0.320168
H      -1.301667    -0.034016     1.280945
H      -0.584144     1.201608     2.352935
H      -3.484099     1.041984     1.372200
H      -2.933281     1.194135     3.049885
H      -3.607283     3.471803     1.686272
H      -2.153069     3.466612     2.681386
N      -1.031292     1.900043     0.438703
C      -0.720894     4.377496     0.785685
O      -1.225089     5.483102     0.574548
O       0.413816     4.020022     1.153664
C      -0.122791     1.686506    -0.444099
C       0.188260     2.675861    -1.513409
H       1.093765     3.206313    -1.198901
H       0.379812     2.153959    -2.453365
H      -0.595666     3.417144    -1.652142
C       0.682791     0.415935    -0.407960
H       0.886028     0.125975     0.624387
H       1.650941     0.608173    -0.882430
H       0.701538    -0.250373    -2.910746
C       2.141516    -4.371530    -0.310108
C       1.362386    -3.793061     0.678743
C       0.668191    -2.633363     0.375430
C       0.749663    -2.053428    -0.891486
C       1.532165    -2.668245    -1.863769
C       2.235623    -3.832469    -1.579267
H       1.307747    -4.248819     1.658860
H       0.048874    -2.177930     1.143125
H       1.590206    -2.258839    -2.865717
H       2.847917    -4.319665    -2.327153
N       2.891566    -5.609319     0.001877
O       2.787354    -6.057565     1.123904
O       3.562304    -6.095441    -0.883585
C      -0.000013    -0.754100    -1.158240
O      -0.158626    -0.456852    -2.529649
H      -1.022378    -0.871490    -0.785117
40
     -1068.705704     -1068.434025  27.40  24.82
C       0.402820     2.647384    -0.328280
C       1.504563     0.726970     0.635932
C       0.841504     1.481646     1.782197
C       0.569518     2.869115     1.182786
H      -0.612930     2.810294    -0.685016
H       1.423193    -0.353283     0.724331
H       2.544556     1.035549     0.499899
H      -0.091241     0.979267     2.062842
H       1.487481     1.517608     2.661483
H      -0.314967     3.342595     1.612116
H       1.425744     3.525714     1.344582
N       0.758448     1.219741    -0.539801
C       1.440440     3.465594    -1.212263
O       0.939002     4.082431    -2.163353
O       2.615260     3.302081    -0.848084
C       0.531983     0.588810    -1.634992
C      -0.261303     1.231258    -2.729161
H      -1.302621     1.352049    -2.409194
H       0.124220     2.235685    -2.943519
H      -0.240959     0.614956    -3.628108
C       1.037710    -0.804427    -1.868069
H       1.833830    -1.072023    -1.170859
H       1.455332    -0.830555    -2.879181
H       1.043364    -3.456576    -1.787870
C      -1.642808    -2.011788     2.190066
C      -2.349095    -1.322502     1.220496
C      -1.850099    -1.306074    -0.074961
C      -0.664407    -1.961197    -0.398271
C       0.012050    -2.658855     0.602587
C      -0.469543    -2.689884     1.903118
H      -3.266576    -0.810935     1.480867
H      -2.400672    -0.775652    -0.846047
H       0.937592    -3.185128     0.385143
H       0.051388    -3.222029     2.688483
N      -2.155799    -2.024386     3.579033
O      -1.510008    -2.629978     4.407428
O      -3.186934    -1.425406     3.798567
C      -0.098032    -1.856409    -1.805389
O       0.339410    -3.092408    -2.333972
H      -0.901408    -1.539253    -2.475564
