40
     -1068.746852     -1068.470016   0.00   0.00
C       3.170949    -0.995868     1.276401
C       0.877643    -0.986006     1.920978
C       1.293123    -2.428630     1.624634
C       2.808179    -2.372393     1.839048
H       4.080899    -0.588325     1.731749
H       0.760628    -0.846754     3.002232
H      -0.067391    -0.700569     1.462944
H       0.791045    -3.151124     2.271878
H       1.069824    -2.694558     0.585137
H       3.046078    -2.404778     2.906227
H       3.360765    -3.168360     1.337507
N       1.998421    -0.136078     1.469503
C       3.364173    -1.021806    -0.238342
O       2.580531    -0.067085    -0.785513
O       4.058569    -1.747596    -0.886569
C       1.918543     0.702322     0.285154
C       2.754387     1.962321     0.497939
H       2.261405     2.601442     1.234646
H       3.746266     1.705416     0.877553
H       2.866487     2.510014    -0.440855
C       0.509282     1.063048    -0.192878
H       0.571898     1.983257    -0.779957
H      -0.095515     1.298898     0.686893
H       1.244289    -0.126493    -2.364611
C      -4.372604     0.953938    -1.169070
C      -3.521116     1.602107    -2.050057
C      -2.172812     1.282578    -2.029204
C      -1.683547     0.326446    -1.139554
C      -2.567334    -0.314334    -0.275066
C      -3.920132    -0.004717    -0.279548
H      -3.917546     2.340098    -2.735543
H      -1.491155     1.767964    -2.717671
H      -2.202631    -1.077494     0.406137
H      -4.618210    -0.494411     0.387024
N      -5.811156     1.292474    -1.183310
O      -6.183413     2.134004    -1.974481
O      -6.533654     0.708257    -0.402105
C      -0.200387     0.022098    -1.083708
O       0.297867     0.055055    -2.409655
H      -0.072645    -0.984357    -0.665889
40
     -1068.746284     -1068.469976   0.36   0.03
C       3.673000    -0.242786    -0.067684
C       2.234830     0.769759     1.485417
C       3.634142     0.859171     2.081947
C       4.419978    -0.188791     1.277002
H       4.317888     0.039623    -0.905753
H       1.627666     1.654960     1.686788
H       1.712574    -0.111620     1.891591
H       4.042526     1.859358     1.909973
H       3.644134     0.666383     3.156677
H       5.468228     0.083164     1.146990
H       4.389155    -1.167666     1.761781
N       2.508526     0.650351     0.042997
C       3.052094    -1.603694    -0.382628
O       1.760192    -1.406392    -0.727218
O       3.559423    -2.685460    -0.331914
C       1.499317     0.045766    -0.812084
C       1.735973     0.465209    -2.262762
H       0.995155     0.007205    -2.919756
H       1.654531     1.552115    -2.331656
H       2.733568     0.173370    -2.598539
C       0.043693     0.297649    -0.392313
H      -0.333806     1.142903    -0.974190
H      -0.017285     0.581603     0.658165
H      -0.045754    -1.966450    -1.969073
C      -4.877075     0.396239     0.278882
C      -4.462842     0.353552    -1.041934
C      -3.177800    -0.086260    -1.324370
C      -2.322185    -0.477703    -0.296819
C      -2.772059    -0.430129     1.021695
C      -4.052269     0.008697     1.322052
H      -5.141044     0.659717    -1.827976
H      -2.837183    -0.136877    -2.351568
H      -2.115946    -0.747089     1.827558
H      -4.415140     0.051603     2.340820
N      -6.243961     0.866338     0.586105
O      -6.947752     1.198178    -0.345259
O      -6.580419     0.892505     1.752237
C      -0.899746    -0.906929    -0.590250
O      -0.846108    -1.433941    -1.905738
H      -0.618221    -1.683629     0.130804
40
     -1068.746728     -1068.469654   0.08   0.23
C      -0.187527     3.637808    -0.356269
C       1.410100     1.992574     0.281685
C       2.094300     3.046718    -0.590884
C       1.200034     4.269990    -0.384266
H      -0.934051     4.272916     0.129570
H       1.775944     2.065171     1.311332
H       1.599806     0.974345    -0.048295
H       3.133050     3.213367    -0.297641
H       2.085824     2.747290    -1.644411
H       1.407962     4.747084     0.578205
H       1.280549     5.020736    -1.171731
N      -0.045551     2.321761     0.292718
C      -0.663734     3.289518    -1.772710
O      -0.708814     4.004654    -2.730136
O      -1.007142     1.984807    -1.799519
C      -0.999028     1.478853    -0.424822
C      -2.407666     1.710538     0.131474
H      -2.463431     1.427304     1.184189
H      -2.683092     2.763834     0.053847
H      -3.134906     1.127396    -0.438867
C      -0.675476    -0.009705    -0.500125
H       0.314790    -0.167809    -0.930145
H      -1.389410    -0.450277    -1.202048
H      -0.219026     0.791587     1.897298
C       0.489009    -4.782181     0.253728
C       1.395496    -3.857748     0.745970
C       0.971344    -2.553884     0.954557
C      -0.342519    -2.184181     0.674711
C      -1.232473    -3.139496     0.187298
C      -0.824684    -4.446743    -0.029343
H       2.411627    -4.163089     0.960037
H       1.660488    -1.817410     1.349535
H      -2.261969    -2.861802    -0.021180
H      -1.503665    -5.199701    -0.408116
N       0.936089    -6.172258     0.026599
O       2.091393    -6.441017     0.283442
O       0.120364    -6.961675    -0.403693
C      -0.800489    -0.750960     0.845171
O      -0.033528    -0.155988     1.877824
H      -1.859994    -0.772325     1.135013
40
     -1068.745050     -1068.468728   1.13   0.81
C       3.209537    -0.538508     0.953899
C       2.074589    -1.925297    -0.615964
C       3.581431    -2.016680    -0.869310
C       4.162112    -1.640410     0.495413
H       3.202638    -0.414710     2.041894
H       1.707977    -2.868892    -0.194969
H       1.504910    -1.736866    -1.524585
H       3.886831    -3.007665    -1.212672
H       3.892544    -1.287072    -1.624997
H       4.105256    -2.486746     1.186618
H       5.194156    -1.287995     0.460521
N       1.884899    -0.866573     0.407966
C       3.547910     0.808418     0.306958
O       4.606446     1.367582     0.285922
O       2.440776     1.286110    -0.289674
C       1.304090     0.419355     0.054320
C       0.640780     1.044053     1.280855
H      -0.184599     0.421312     1.624986
H       1.362128     1.131518     2.096624
H       0.265380     2.042349     1.043750
C       0.394964     0.428116    -1.169234
H       0.972959     0.139840    -2.048440
H       0.079777     1.461429    -1.331264
H      -1.909674    -1.419754    -2.429168
C      -4.304795     1.318002     0.639082
C      -3.750392     0.216026     1.264091
C      -2.620525    -0.362985     0.700441
C      -2.053052     0.155106    -0.459696
C      -2.646151     1.260891    -1.071277
C      -3.773571     1.852026    -0.525490
H      -4.198605    -0.174446     2.168608
H      -2.173890    -1.231343     1.176160
H      -2.225736     1.654745    -1.990811
H      -4.244218     2.710828    -0.986487
N      -5.506949     1.945703     1.230130
O      -5.950738     1.457419     2.248402
O      -5.973918     2.909610     0.660392
C      -0.828417    -0.495362    -1.080245
O      -1.104138    -0.892299    -2.424529
H      -0.572724    -1.376835    -0.478222
40
     -1068.744570     -1068.467302   1.43   1.70
C      -0.302037    -0.402841     2.485743
C       1.379686    -0.837556     0.854505
C       2.006953    -0.009217     1.972195
C       0.787461     0.675257     2.602140
H      -0.500732    -0.876819     3.455407
H       2.025141    -1.653453     0.517313
H       1.167528    -0.188432     0.000035
H       2.498174    -0.664784     2.698371
H       2.745202     0.702238     1.595761
H       0.947486     0.988891     3.634387
H       0.504461     1.558987     2.022779
N       0.166095    -1.373235     1.490187
C      -1.621554     0.097775     1.924207
O      -1.980202    -0.696934     0.898820
O      -2.268905     1.044321     2.269935
C      -1.004206    -1.779457     0.724371
C      -1.622793    -3.018027     1.367839
H      -1.761392    -2.858925     2.440223
H      -2.592190    -3.240823     0.914667
H      -0.953012    -3.870460     1.230497
C      -0.786571    -2.002647    -0.786704
H      -1.294344    -2.927444    -1.068004
H       0.273947    -2.165677    -0.991003
H      -1.679201    -0.953980    -3.674982
C       1.032198     2.638341    -1.701014
C       1.470013     1.550188    -2.439986
C       0.681913     0.410238    -2.467528
C      -0.521703     0.355713    -1.762174
C      -0.948971     1.478561    -1.056884
C      -0.169130     2.626648    -1.013834
H       2.410663     1.604009    -2.972860
H       1.007220    -0.456872    -3.032535
H      -1.892543     1.458687    -0.523482
H      -0.481898     3.500281    -0.456525
N       1.875743     3.852357    -1.648977
O       2.914925     3.841213    -2.275400
O       1.479052     4.783572    -0.979723
C      -1.328350    -0.931650    -1.749236
O      -1.303997    -1.561897    -3.029600
H      -2.360134    -0.696143    -1.468930
40
     -1068.741980     -1068.466937   3.06   1.93
C       3.656263     0.514867     0.341858
C       2.496943    -1.548643     0.598270
C       3.336152    -1.615674    -0.679121
C       4.430093    -0.584618    -0.389334
H       4.298655     1.107131     1.002852
H       2.953707    -2.170902     1.376835
H       1.477206    -1.904614     0.464781
H       3.724979    -2.617676    -0.874556
H       2.744431    -1.305709    -1.547928
H       5.187960    -1.006781     0.277439
H       4.928635    -0.197643    -1.279415
N       2.551196    -0.142031     1.052454
C       2.958502     1.462925    -0.634570
O       3.446013     2.063576    -1.548718
O       1.651890     1.512861    -0.325233
C       1.414561     0.759462     0.916293
C       1.435241     1.769668     2.060282
H       2.438757     2.191133     2.156844
H       0.725534     2.579173     1.890786
H       1.179533     1.267330     2.995130
C       0.067266     0.064957     0.737778
H      -0.088602    -0.615828     1.580711
H       0.111970    -0.527301    -0.179683
H      -2.139065     0.852015     2.302843
C      -4.444549    -0.736482    -1.442165
C      -3.898248    -1.410974    -0.362159
C      -2.817339    -0.842826     0.293708
C      -2.289944     0.383088    -0.118250
C      -2.862779     1.029478    -1.210076
C      -3.944106     0.476067    -1.881904
H      -4.316170    -2.360174    -0.052586
H      -2.378277    -1.375264     1.133093
H      -2.460181     1.981678    -1.540396
H      -4.398272     0.970224    -2.731068
N      -5.597588    -1.335279    -2.149254
O      -6.054827    -0.725467    -3.093046
O      -6.014113    -2.399249    -1.741035
C      -1.131440     1.021954     0.627342
O      -1.558977     1.505408     1.899690
H      -0.821010     1.910138     0.071512
40
     -1068.742550     -1068.466108   2.70   2.45
C       1.884958     1.743923     2.124828
C       1.685890     2.345318    -0.171738
C       2.098712     3.580430     0.633036
C       2.769535     2.959533     1.859913
H       2.401827     0.964157     2.693817
H       2.518770     2.011768    -0.801476
H       0.842388     2.538672    -0.832414
H       2.756760     4.244390     0.067976
H       1.218366     4.157142     0.937304
H       3.785119     2.629962     1.620731
H       2.812764     3.619590     2.727665
N       1.405364     1.273276     0.817305
C       0.600825     2.126948     2.868009
O       0.498067     2.755465     3.881819
O      -0.451348     1.659465     2.171407
C       0.045359     0.822918     1.068016
C       0.063733    -0.613424     1.590543
H       0.466427    -1.288548     0.835615
H       0.695000    -0.681968     2.479349
H      -0.945388    -0.933878     1.860223
C      -0.945473     1.018526    -0.075104
H      -1.034581     2.084041    -0.292143
H      -1.923478     0.697699     0.293263
H      -2.073274     0.808985    -2.553104
C      -1.694499    -3.841006    -1.610416
C      -2.647082    -2.917056    -1.213812
C      -2.279749    -1.582777    -1.125748
C      -0.979908    -1.173957    -1.426459
C      -0.050348    -2.131892    -1.824549
C      -0.396734    -3.472004    -1.918885
H      -3.651603    -3.245680    -0.980650
H      -3.026321    -0.858859    -0.812325
H       0.962927    -1.825878    -2.065579
H       0.318912    -4.223510    -2.226529
N      -2.076750    -5.266613    -1.705245
O      -3.220999    -5.559503    -1.427780
O      -1.222111    -6.053785    -2.054175
C      -0.582484     0.293372    -1.381529
O      -1.128277     0.987136    -2.503671
H       0.498705     0.347619    -1.527492
40
     -1068.743515     -1068.465309   2.09   2.95
C       2.304352     0.044918    -1.568908
C       0.278396     1.087018    -0.886667
C       1.015022     2.010913    -1.861416
C       1.885982     1.033065    -2.650785
H       2.621540    -0.918554    -1.979677
H      -0.648122     0.715557    -1.337261
H       0.001148     1.597413     0.032843
H       0.327896     2.583893    -2.488123
H       1.648033     2.721810    -1.319074
H       1.297609     0.515199    -3.414306
H       2.752052     1.493307    -3.129060
N       1.169298    -0.075844    -0.640948
C       3.428286     0.606550    -0.688946
O       4.466831     1.089557    -1.039906
O       3.049645     0.505927     0.597590
C       1.793978    -0.277561     0.656030
C       2.223189    -1.737536     0.809752
H       2.885773    -2.023882    -0.009514
H       2.758827    -1.872327     1.751059
H       1.358343    -2.396853     0.805620
C       1.076948     0.260682     1.896887
H       0.895750     1.330183     1.769623
H       1.798003     0.171778     2.714722
H      -0.684738    -2.090164     3.257655
C      -3.473504    -0.324789    -0.388115
C      -3.324350     0.720910     0.507331
C      -2.272080     0.669642     1.409874
C      -1.375333    -0.397224     1.408869
C      -1.562294    -1.438703     0.502398
C      -2.612696    -1.410031    -0.402725
H      -4.022808     1.547679     0.493646
H      -2.149082     1.477525     2.126534
H      -0.877609    -2.277351     0.496464
H      -2.766596    -2.209686    -1.115938
N      -4.591051    -0.283215    -1.356738
O      -5.328866     0.679386    -1.320183
O      -4.699781    -1.212990    -2.128360
C      -0.217315    -0.403210     2.393992
O       0.097003    -1.716510     2.838874
H      -0.527681     0.203518     3.256888
40
     -1068.742128     -1068.464127   2.96   3.70
C      -0.911084    -0.003867    -2.608256
C      -1.011281     0.901409    -0.410514
C      -1.943498     1.700534    -1.326324
C      -2.251468     0.701280    -2.441677
H      -1.009515    -0.983587    -3.085944
H      -1.588678     0.342953     0.333496
H      -0.325854     1.543480     0.137377
H      -2.834211     2.054533    -0.802488
H      -1.426600     2.573904    -1.738993
H      -3.008766    -0.020501    -2.121098
H      -2.580217     1.161733    -3.374710
N      -0.300870    -0.078581    -1.271638
C       0.084846     0.843238    -3.409996
O       1.224289     0.942576    -2.699960
O      -0.082212     1.370746    -4.471949
C       1.123046     0.043970    -1.526640
C       1.687299    -1.301520    -1.986059
H       1.634070    -2.035937    -1.185540
H       1.122847    -1.675313    -2.842427
H       2.728834    -1.184285    -2.296329
C       1.996060     0.718044    -0.464627
H       1.601286     1.714311    -0.251347
H       2.962957     0.890617    -0.952629
H       3.821627    -1.019984     0.225617
C      -1.197649    -0.774141     3.223292
C      -0.553593     0.445087     3.350491
C       0.586539     0.668612     2.592800
C       1.065362    -0.299746     1.713176
C       0.402404    -1.520865     1.619703
C      -0.734364    -1.766487     2.374773
H      -0.940301     1.191705     4.032058
H       1.110722     1.615639     2.690916
H       0.778250    -2.288663     0.956051
H      -1.261768    -2.709620     2.311343
N      -2.414760    -1.026474     4.024452
O      -2.797121    -0.139304     4.759188
O      -2.957887    -2.104049     3.897615
C       2.288488     0.003432     0.872343
O       3.011218    -1.208520     0.708818
H       2.901549     0.713639     1.445630
40
     -1068.731246     -1068.455388   9.79   9.18
C       2.576301     1.058120     0.876930
C       3.005696    -1.048997    -0.266428
C       4.111669    -0.038578    -0.581579
C       4.072063     0.928855     0.604309
H       2.350411     1.343527     1.903878
H       3.380008    -1.892575     0.321516
H       2.493796    -1.412205    -1.156024
H       5.077238    -0.531866    -0.708044
H       3.873691     0.493326    -1.506495
H       4.588400     0.503054     1.471926
H       4.501859     1.905002     0.383278
N       2.053476    -0.288060     0.586092
C       1.885507     2.102424    -0.099139
O       2.254150     3.256082     0.088920
O       1.057475     1.628706    -0.923943
C       0.843637    -0.634640     0.851131
C      -0.009856     0.225043     1.729993
H       0.464417     0.340756     2.709585
H      -0.127125     1.214171     1.283176
H      -0.994411    -0.220952     1.860593
C       0.250280    -1.856274     0.234746
H      -0.454710    -2.310821     0.934074
H       1.015997    -2.589655    -0.019571
H       0.606947     0.112229    -1.606664
C      -4.233157     0.450000    -0.195807
C      -4.082681    -0.907107     0.043079
C      -2.868136    -1.496698    -0.267087
C      -1.816778    -0.748124    -0.799870
C      -2.003094     0.611426    -1.037389
C      -3.215295     1.217779    -0.732534
H      -4.903996    -1.477701     0.457064
H      -2.740649    -2.563510    -0.099643
H      -1.200371     1.214057    -1.443208
H      -3.371953     2.274586    -0.906288
N      -5.523776     1.094817     0.130461
O      -6.397979     0.394842     0.598646
O      -5.630366     2.283107    -0.088734
C      -0.497209    -1.454487    -1.089864
O       0.351795    -0.775898    -1.963561
H      -0.743275    -2.403760    -1.577524
40
     -1068.728082     -1068.453403  11.78  10.42
C       2.592708     1.211870     0.544700
C       3.042341    -1.114024    -0.045246
C       4.373235    -0.384677     0.108789
C       3.989758     1.084154    -0.083184
H       2.635225     1.606056     1.559900
H       3.021307    -2.072074     0.474131
H       2.759362    -1.258136    -1.090565
H       4.779379    -0.554177     1.111861
H       5.108032    -0.734098    -0.618476
H       4.691985     1.781366     0.373754
H       3.929893     1.322095    -1.149351
N       2.076611    -0.175960     0.572982
C       1.671174     2.123703    -0.347096
O       1.769193     3.322411    -0.109023
O       0.979496     1.512202    -1.208402
C       0.867314    -0.455256     0.918877
C       0.018927     0.559874     1.615965
H       0.594439     1.103483     2.368342
H      -0.353415     1.284532     0.888099
H      -0.836778     0.074504     2.085916
C       0.256981    -1.760647     0.535286
H      -0.444455    -2.083414     1.306901
H       1.009163    -2.535135     0.393533
H       0.587917    -0.100977    -1.603407
C      -4.257676     0.394507    -0.279139
C      -4.064459    -0.872079     0.250355
C      -2.841137    -1.488413     0.046212
C      -1.821791    -0.853814    -0.666993
C      -2.051738     0.413313    -1.196136
C      -3.273516     1.045518    -1.000795
H      -4.860538    -1.354590     0.802614
H      -2.682567    -2.488856     0.441461
H      -1.274633     0.926909    -1.747329
H      -3.462617     2.033525    -1.400347
N      -5.557801     1.067056    -0.068256
O      -6.401894     0.469696     0.567603
O      -5.702259     2.174327    -0.542337
C      -0.492576    -1.581215    -0.838127
O       0.353532    -1.044247    -1.806312
H      -0.728125    -2.599314    -1.166759
40
     -1068.725281     -1068.451312  13.54  11.74
C       3.552794    -0.219186    -0.671657
C       1.589918    -0.292698    -2.108284
C       2.668030     0.589634    -2.737268
C       3.960910     0.056626    -2.116536
H       4.153512    -0.999480    -0.206492
H       1.452862    -1.224209    -2.667151
H       0.629060     0.209123    -2.012946
H       2.648147     0.529265    -3.827132
H       2.511746     1.630947    -2.442810
H       4.278457    -0.866205    -2.614913
H       4.782978     0.770667    -2.145092
N       2.141606    -0.636952    -0.775272
C       3.622295     1.094920     0.225738
O       2.518059     1.542172     0.627652
O       4.767480     1.501547     0.391416
C       1.444475    -0.972355     0.252161
C       2.071774    -1.335758     1.556998
H       1.498685    -0.865313     2.357322
H       1.981573    -2.424284     1.668193
H       3.115950    -1.050096     1.640368
C      -0.050247    -0.989230     0.201074
H      -0.425853    -1.647075     0.987795
H      -0.426851    -1.347782    -0.759625
H       0.934950     1.322809     1.346176
C      -4.807125     0.182788     1.011146
C      -4.291791     0.191966    -0.274774
C      -2.919091     0.303593    -0.433123
C      -2.077372     0.401656     0.673782
C      -2.626114     0.396655     1.953613
C      -3.998256     0.286877     2.130034
H      -4.958773     0.114342    -1.123700
H      -2.500983     0.321768    -1.436125
H      -1.972361     0.490698     2.812041
H      -4.442897     0.282287     3.116960
N      -6.270032     0.062293     1.193038
O      -6.954376    -0.025906     0.194626
O      -6.697143     0.058458     2.328565
C      -0.576875     0.461022     0.479728
O       0.035719     1.016100     1.607739
H      -0.364841     1.078313    -0.403263
40
     -1068.723914     -1068.450276  14.39  12.39
C       3.431216    -0.213924    -1.031566
C       2.235382    -0.978543     0.933982
C       3.687245    -1.426648     1.063559
C       4.181039    -1.391465    -0.386357
H       4.063609     0.668913    -1.117730
H       1.813001    -0.578289     1.855215
H       1.607274    -1.792191     0.559802
H       4.242064    -0.715859     1.685413
H       3.765213    -2.414218     1.521662
H       5.260620    -1.268212    -0.471761
H       3.914451    -2.318756    -0.901328
N       2.311142     0.065537    -0.106962
C       2.854492    -0.604322    -2.452018
O       1.622442    -0.857821    -2.479714
O       3.708040    -0.639014    -3.332622
C       1.408428     0.945834    -0.363340
C       1.593038     1.996654    -1.406090
H       2.491666     1.877067    -2.004081
H       0.715377     1.987551    -2.055682
H       1.621210     2.965164    -0.891022
C       0.086902     0.925873     0.337272
H      -0.389737     1.902244     0.227561
H       0.180372     0.705970     1.402412
H      -0.010506    -0.354228    -2.110068
C      -4.741276     0.288003     1.299708
C      -4.472447     0.842142     0.059569
C      -3.204880     0.682263    -0.482150
C      -2.224908    -0.022931     0.211937
C      -2.529126    -0.576412     1.454606
C      -3.789934    -0.424937     2.010900
H      -5.247299     1.385972    -0.465399
H      -2.972152     1.096053    -1.455708
H      -1.774886    -1.141677     1.995342
H      -4.041940    -0.847863     2.974850
N      -6.089536     0.458008     1.883518
O      -6.905918     1.084297     1.240737
O      -6.297122    -0.039284     2.970977
C      -0.824044    -0.147928    -0.349110
O      -0.844362     0.017583    -1.737533
H      -0.434153    -1.140607    -0.088777
40
     -1068.720834     -1068.445593  16.33  15.33
C       2.148856     1.955048    -0.112937
C       2.739079    -0.037461    -1.395223
C       3.192000     1.221867    -2.132305
C       3.350856     2.249166    -1.009173
H       2.317714     2.226377     0.929183
H       3.593462    -0.607974    -1.015983
H       2.091718    -0.684996    -1.981959
H       4.111030     1.046253    -2.695419
H       2.412722     1.542979    -2.828251
H       4.291562     2.089964    -0.469208
H       3.316834     3.281242    -1.355778
N       1.988943     0.489631    -0.225734
C       0.845687     2.708168    -0.624466
O      -0.043409     1.986552    -1.121105
O       0.919447     3.925409    -0.451340
C       1.219345    -0.197814     0.535917
C       0.511344     0.463290     1.676826
H      -0.179759    -0.229761     2.154107
H       1.251253     0.789401     2.416869
H      -0.039533     1.336456     1.326677
C       1.069401    -1.683141     0.358109
H       0.982850    -2.124660     1.355042
H       1.949674    -2.110682    -0.126694
H      -0.749900    -1.732669    -2.296931
C      -3.838754    -0.626992     1.142107
C      -3.112985     0.181297     0.283835
C      -1.927690    -0.301752    -0.253140
C      -1.480694    -1.580206     0.081112
C      -2.234231    -2.373543     0.944278
C      -3.421931    -1.902270     1.485748
H      -3.464635     1.177043     0.047197
H      -1.336267     0.350459    -0.890238
H      -1.896507    -3.375991     1.194055
H      -4.019700    -2.503719     2.158270
N      -5.103485    -0.111257     1.715841
O      -5.445070     1.009525     1.404037
O      -5.718854    -0.843053     2.463103
C      -0.168623    -2.107261    -0.467446
O       0.072533    -1.689717    -1.798834
H      -0.194291    -3.205208    -0.420147
40
     -1068.720833     -1068.445583  16.33  15.33
C       2.699120    -1.033016    -0.314506
C       2.526961     1.209375    -1.265741
C       3.854056     1.046647    -0.526353
C       4.095069    -0.464148    -0.564055
H       2.557468    -2.021636    -0.751202
H       2.677924     1.276625    -2.348314
H       1.928865     2.049956    -0.921733
H       4.648878     1.626641    -1.000087
H       3.744784     1.384425     0.507419
H       4.474462    -0.771196    -1.545694
H       4.785326    -0.813705     0.202654
N       1.809204    -0.061050    -0.984622
C       2.376760    -1.118297     1.239788
O       1.526730    -0.310368     1.667084
O       3.040200    -1.991589     1.800423
C       0.561546    -0.272678    -1.193312
C      -0.039245    -1.600295    -0.852049
H      -1.119444    -1.580043    -0.988070
H       0.385138    -2.365771    -1.511911
H       0.188204    -1.865499     0.180632
C      -0.306398     0.763311    -1.851854
H      -1.014178     0.234789    -2.496853
H       0.288107     1.432341    -2.477690
H      -0.596064     2.855447     0.577280
C      -3.596011    -0.636660     1.759072
C      -4.143102    -0.127158     0.593197
C      -3.327155     0.622011    -0.242801
C      -1.991449     0.850165     0.082923
C      -1.468257     0.330415     1.267026
C      -2.274087    -0.422217     2.110113
H      -5.182228    -0.315299     0.356181
H      -3.741757     1.039011    -1.156895
H      -0.419510     0.459465     1.521055
H      -1.878623    -0.845977     3.024009
N      -4.455972    -1.440543     2.658490
O      -5.610576    -1.609845     2.325582
O      -3.953284    -1.879787     3.670628
C      -1.113499     1.642222    -0.866861
O      -0.173212     2.455922    -0.189477
H      -1.764748     2.268013    -1.493475
40
     -1068.719915     -1068.444784  16.90  15.83
C       0.961551    -1.404517    -2.065725
C       1.654185    -0.609212     0.130741
C       1.793579    -2.130334     0.043141
C       1.944058    -2.394006    -1.457290
H       1.184471    -1.128329    -3.097345
H       2.625451    -0.122253     0.259306
H       0.975478    -0.279429     0.916525
H       2.642725    -2.481957     0.632238
H       0.887026    -2.617308     0.407901
H       2.967184    -2.189580    -1.793731
H       1.667313    -3.409822    -1.731426
N       1.120185    -0.208439    -1.202152
C      -0.566998    -1.886645    -1.993745
O      -0.735875    -3.058984    -1.661334
O      -1.384475    -0.985547    -2.282361
C       0.815786     0.993419    -1.539658
C       0.366893     1.314795    -2.928356
H      -0.441276     0.630115    -3.206095
H       0.036982     2.352074    -2.990191
H       1.210531     1.184267    -3.616098
C       0.896726     2.125710    -0.561085
H       1.285831     3.002131    -1.086643
H       1.550881     1.912123     0.284751
H      -1.215691     4.061553     0.896399
C      -1.715341    -0.563075     2.699653
C      -1.022185     0.532813     3.189809
C      -0.663970     1.539649     2.304925
C      -1.005484     1.449144     0.955042
C      -1.721962     0.346306     0.495293
C      -2.069932    -0.678232     1.365956
H      -0.766713     0.582859     4.240494
H      -0.105928     2.398270     2.662811
H      -1.971898     0.237036    -0.556855
H      -2.593631    -1.555835     1.010675
N      -2.083234    -1.648023     3.638651
O      -2.681975    -2.601453     3.188236
O      -1.760962    -1.517405     4.801609
C      -0.510912     2.493923    -0.029065
O      -0.361873     3.776450     0.553192
H      -1.206519     2.537745    -0.878193
40
     -1068.717444     -1068.444165  18.45  16.22
C       1.035028     1.728576     1.803223
C      -0.193400     1.679798    -0.314643
C      -0.660919     2.872422     0.511758
C      -0.307244     2.452662     1.938424
H       1.870077     2.423241     1.909749
H       0.036310     1.932387    -1.349005
H      -0.921533     0.865904    -0.290534
H      -0.109252     3.773381     0.221271
H      -1.725972     3.064861     0.369129
H      -0.232892     3.283941     2.638851
H      -1.057908     1.756208     2.326166
N       1.029085     1.229234     0.398927
C       1.166633     0.574535     2.872855
O       0.889215    -0.573088     2.464512
O       1.497551     0.997775     3.981780
C       1.940771     0.461604    -0.081337
C       3.151802     0.090872     0.711703
H       2.961638    -0.873146     1.193890
H       4.012471     0.001993     0.045289
H       3.366379     0.801899     1.508048
C       1.837290    -0.130659    -1.457384
H       2.840085    -0.166586    -1.889885
H       1.201608     0.452282    -2.123356
H       1.333142    -3.038636    -2.722160
C      -2.896344    -1.506775    -0.654876
C      -2.450715    -1.357108    -1.959130
C      -1.085954    -1.412376    -2.201137
C      -0.187801    -1.618073    -1.153178
C      -0.664597    -1.777946     0.145691
C      -2.027875    -1.714827     0.402783
H      -3.163777    -1.198109    -2.757818
H      -0.713090    -1.290221    -3.212650
H       0.020159    -1.885407     0.980434
H      -2.411680    -1.814174     1.409657
N      -4.350720    -1.433904    -0.385748
O      -5.089026    -1.261916    -1.333159
O      -4.714190    -1.548332     0.765669
C       1.306518    -1.584453    -1.418011
O       1.648916    -2.129382    -2.681337
H       1.820216    -2.128455    -0.614461
40
     -1068.717444     -1068.444128  18.45  16.24
C       0.515908    -2.612074     0.471092
C      -1.326796    -0.999467     0.445744
C      -1.840246    -2.358633    -0.015653
C      -0.570163    -3.045634    -0.517229
H       0.590603    -3.310853     1.306158
H      -1.956840    -0.531626     1.201153
H      -1.195092    -0.314726    -0.395069
H      -2.273201    -2.905978     0.828983
H      -2.608623    -2.255934    -0.784266
H      -0.643427    -4.131719    -0.564145
H      -0.314147    -2.685271    -1.518966
N       0.014239    -1.313078     1.002459
C       1.918018    -2.490985    -0.244966
O       2.469487    -3.583961    -0.385046
O       2.247925    -1.337268    -0.592578
C       0.699438    -0.558354     1.784748
C       2.030566    -0.981733     2.315599
H       2.805487    -0.565418     1.664325
H       2.159795    -0.595886     3.329109
H       2.161984    -2.062659     2.306635
C       0.219844     0.803983     2.195877
H       0.526795     0.976148     3.230329
H      -0.863723     0.906195     2.142369
H       1.028230     3.851762     1.589502
C      -0.982912     1.949368    -2.514390
C       0.217338     1.279131    -2.352064
C       0.833964     1.304295    -1.107977
C       0.240651     1.980756    -0.044808
C      -0.968345     2.650474    -0.237200
C      -1.589596     2.641251    -1.477425
H       0.654482     0.738687    -3.181398
H       1.745661     0.733685    -0.964994
H      -1.428127     3.178775     0.591420
H      -2.527609     3.154014    -1.647269
N      -1.647142     1.921863    -3.837648
O      -1.105880     1.295023    -4.723688
O      -2.692998     2.526041    -3.953474
C       0.862529     1.921530     1.338671
O       0.655712     3.111639     2.081002
H       1.936214     1.716631     1.235079
40
     -1068.713017     -1068.442569  21.23  17.22
C      -0.330519    -2.873714     2.310653
C      -1.816158    -1.580752     0.885258
C      -2.621888    -2.580604     1.719407
C      -1.724170    -2.858337     2.927693
H       0.454122    -2.632337     3.027525
H      -2.053076    -0.540460     1.121266
H      -1.927932    -1.749218    -0.186184
H      -3.601341    -2.178820     1.987537
H      -2.772021    -3.502098     1.150784
H      -1.816215    -2.059758     3.672897
H      -1.928420    -3.815891     3.404154
N      -0.406545    -1.827220     1.278063
C       0.027845    -4.276237     1.629292
O      -0.058423    -5.210720     2.428359
O       0.345519    -4.217274     0.427528
C       0.615089    -1.306289     0.707055
C       1.999929    -1.679658     1.124246
H       2.739856    -1.096397     0.575009
H       2.148688    -1.527646     2.196354
H       2.136847    -2.743330     0.903197
C       0.465593    -0.291356    -0.388197
H      -0.526976    -0.307806    -0.836137
H       1.195297    -0.526445    -1.168304
H      -0.067385     2.226065     1.546928
C       0.528128     3.893123    -3.115788
C       1.768046     3.433684    -2.708514
C       1.825923     2.551565    -1.638115
C       0.663291     2.136725    -0.993901
C      -0.570296     2.621711    -1.425999
C      -0.646166     3.505801    -2.492066
H       2.661461     3.764648    -3.221951
H       2.792207     2.186989    -1.300965
H      -1.478159     2.305602    -0.923813
H      -1.594613     3.892467    -2.842098
N       0.454190     4.833772    -4.258102
O       1.497884     5.156068    -4.784761
O      -0.644841     5.220786    -4.593524
C       0.741035     1.128997     0.138225
O      -0.227482     1.364506     1.149458
H       1.751679     1.159859     0.567530
40
     -1068.713017     -1068.442543  21.23  17.24
C       1.888618    -2.342480    -2.156381
C       0.545180    -0.342537    -2.483781
C       0.949227    -0.935064    -3.836625
C       1.221381    -2.408821    -3.525266
H       1.774175    -3.262288    -1.583122
H      -0.534388    -0.361376    -2.315664
H       0.920957     0.671711    -2.346289
H       0.169949    -0.784957    -4.586853
H       1.865807    -0.456907    -4.191931
H       0.284820    -2.976564    -3.479829
H       1.891111    -2.883076    -4.240987
N       1.177202    -1.241351    -1.486493
C       3.448333    -1.998533    -2.246341
O       4.060647    -2.817825    -2.934124
O       3.806729    -0.987812    -1.614977
C       1.220013    -1.021725    -0.225125
C       1.952381    -1.948119     0.689583
H       3.012665    -1.911650     0.418546
H       1.832550    -1.640390     1.728953
H       1.602824    -2.977761     0.578734
C       0.526035     0.159768     0.386773
H       0.293471     0.930017    -0.347217
H       1.194729     0.593654     1.135696
H      -2.409866    -1.160410     0.447514
C      -2.535297     3.129925     2.986848
C      -1.776006     2.255185     3.743574
C      -1.227961     1.144557     3.116339
C      -1.434550     0.920112     1.757764
C      -2.208353     1.818439     1.024325
C      -2.765750     2.931718     1.635679
H      -1.623622     2.446071     4.797938
H      -0.635267     0.443826     3.697697
H      -2.376479     1.644809    -0.032993
H      -3.368674     3.640424     1.082687
N      -3.123901     4.319450     3.645436
O      -2.905584     4.467948     4.829002
O      -3.785737     5.068454     2.959051
C      -0.781819    -0.268821     1.076869
O      -1.594423    -0.830916     0.057149
H      -0.551124    -1.026684     1.837846
40
     -1068.713017     -1068.442540  21.23  17.24
C       3.467365    -1.217469    -0.446396
C       2.378584     0.591960     0.758718
C       3.899934     0.718331     0.877245
C       4.427337    -0.037830    -0.344656
H       3.397739    -1.622521    -1.455780
H       1.922353     1.426294     0.220365
H       1.895453     0.472296     1.728809
H       4.212166     1.764301     0.910511
H       4.242592     0.227543     1.791963
H       4.377125     0.589391    -1.242217
H       5.446679    -0.399754    -0.219508
N       2.174579    -0.636661    -0.047994
C       3.849344    -2.411230     0.547651
O       4.992728    -2.826518     0.349088
O       2.954830    -2.744566     1.345996
C       1.041521    -1.196876    -0.256450
C       0.949159    -2.479798    -1.015946
H       1.425591    -2.398655    -1.996288
H       1.476086    -3.245830    -0.437555
H      -0.091775    -2.776876    -1.148418
C      -0.236397    -0.583343     0.235948
H      -0.067739     0.151563     1.021809
H      -0.859261    -1.383550     0.645830
H      -0.545081     1.539495    -2.164953
C      -4.723682     1.588118     0.556915
C      -3.583412     2.354531     0.731433
C      -2.379736     1.874396     0.237008
C      -2.323280     0.647037    -0.421863
C      -3.489373    -0.095725    -0.587087
C      -4.702081     0.368481    -0.096028
H      -3.646830     3.304605     1.246138
H      -1.474934     2.458969     0.363279
H      -3.456272    -1.048109    -1.108773
H      -5.617424    -0.196893    -0.213679
N      -6.012123     2.092756     1.086467
O      -6.994072     1.401115     0.919283
O      -6.002354     3.164526     1.653365
C      -0.997315     0.098384    -0.915857
O      -0.133318     1.112269    -1.407439
H      -1.194705    -0.644153    -1.700928
40
     -1068.718242     -1068.442486  17.95  17.28
C       1.973836     0.031897     1.805285
C       1.052481    -2.200646     1.708709
C       2.150483    -2.210939     2.765887
C       2.972889    -0.962375     2.418347
H       1.747913     0.872019     2.460681
H       0.173065    -2.786013     1.965991
H       1.428635    -2.507576     0.732649
H       1.711615    -2.129744     3.766834
H       2.736121    -3.131182     2.724718
H       3.474127    -0.532288     3.286939
H       3.729947    -1.205129     1.670571
N       0.728617    -0.761673     1.608386
C       2.391110     0.544585     0.369167
O       2.588752    -0.379993    -0.443112
O       2.394837     1.774750     0.222640
C      -0.400540    -0.228388     1.302682
C      -0.560876     1.261001     1.304356
H       0.320088     1.771574     0.907329
H      -1.442731     1.543040     0.730525
H      -0.715881     1.578957     2.344453
C      -1.602255    -1.056463     0.944517
H      -2.493359    -0.478709     1.200756
H      -1.637123    -1.995195     1.499432
H      -0.525366    -2.475541    -1.739352
C      -1.275085     2.158161    -2.899771
C      -2.541915     1.701280    -2.572878
C      -2.649406     0.528878    -1.839175
C      -1.510011    -0.170820    -1.445366
C      -0.248465     0.300673    -1.807999
C      -0.125826     1.480822    -2.528843
H      -3.414872     2.258857    -2.886807
H      -3.635085     0.155258    -1.573658
H       0.658426    -0.217443    -1.507376
H       0.850018     1.872943    -2.781608
N      -1.151589     3.414410    -3.675550
O      -0.035942     3.786784    -3.968884
O      -2.177020     3.993818    -3.969983
C      -1.654399    -1.398272    -0.565865
O      -0.641158    -2.358711    -0.790665
H      -2.644062    -1.842604    -0.743962
40
     -1068.718242     -1068.442428  17.95  17.31
C       2.351895     0.976887     0.818097
C       2.621520     0.082240    -1.411071
C       3.983694     0.600956    -0.965245
C       3.628435     1.553223     0.184995
H       2.522938     0.527881     1.795605
H       2.654827    -0.848554    -1.972082
H       2.067518     0.833776    -1.973798
H       4.607129    -0.228993    -0.613673
H       4.508819     1.098490    -1.782691
H       4.428454     1.641440     0.921785
H       3.408489     2.549112    -0.203659
N       1.916790    -0.092495    -0.123275
C       1.155528     2.008396     0.882549
O       0.621638     2.136738     1.993088
O       0.869598     2.497503    -0.227722
C       0.996423    -0.943870     0.161228
C       0.430725    -1.014380     1.546508
H      -0.523835    -1.538945     1.534625
H       1.130134    -1.594747     2.163689
H       0.305456    -0.024344     1.992134
C       0.456147    -1.904746    -0.860007
H       0.094484    -2.787790    -0.328075
H       1.220403    -2.226795    -1.568922
H      -0.856530     0.171650    -2.943775
C      -3.701571     0.240230     0.965279
C      -2.669610     1.073684     0.568313
C      -1.723310     0.587881    -0.323826
C      -1.804296    -0.726156    -0.784318
C      -2.858660    -1.539598    -0.372596
C      -3.819689    -1.062085     0.506494
H      -2.592774     2.079253     0.959271
H      -0.907857     1.242905    -0.619185
H      -2.935128    -2.558707    -0.743032
H      -4.644930    -1.678868     0.838240
N      -4.719052     0.754755     1.911456
O      -4.609745     1.902634     2.285347
O      -5.600706    -0.006310     2.254069
C      -0.718476    -1.303663    -1.672284
O      -0.149919    -0.343977    -2.541412
H      -1.144959    -2.134613    -2.252125
40
     -1068.717334     -1068.442162  18.52  17.48
C      -1.147422     1.404953     1.952246
C       0.501470     1.672119     0.177585
C      -0.605320     2.719324     0.043649
C      -1.154626     2.846857     1.466771
H      -1.106827     1.297125     3.037207
H       1.468522     2.135048     0.395734
H       0.596195     1.023178    -0.692426
H      -0.213556     3.656714    -0.355742
H      -1.394006     2.357471    -0.619062
H      -0.503615     3.474285     2.086718
H      -2.168212     3.241411     1.488467
N       0.106435     0.866880     1.368991
C      -2.383458     0.536763     1.409110
O      -2.254568    -0.690022     1.613001
O      -3.280465     1.180066     0.866938
C       0.747929    -0.155878     1.808121
C       0.320464    -0.857021     3.056749
H       0.899339    -1.770130     3.199407
H       0.503380    -0.201092     3.915980
H      -0.749740    -1.079308     2.987499
C       1.960742    -0.681174     1.100218
H       2.692135    -0.953810     1.869310
H       2.420977     0.053745     0.439107
H       3.267202    -2.983746     0.607099
C      -0.643216    -0.721972    -3.118065
C       0.732463    -0.834696    -3.246065
C       1.467524    -1.272302    -2.154098
C       0.827413    -1.596529    -0.957821
C      -0.559104    -1.497175    -0.864997
C      -1.305181    -1.044614    -1.945457
H       1.208875    -0.579198    -4.183770
H       2.544159    -1.367838    -2.231908
H      -1.081752    -1.721935     0.061101
H      -2.378935    -0.933555    -1.872792
N      -1.427220    -0.240477    -4.277910
O      -0.819580     0.035103    -5.292139
O      -2.629284    -0.148007    -4.144758
C       1.637952    -1.957455     0.267783
O       2.848705    -2.562819    -0.149668
H       1.054209    -2.650285     0.887887
40
     -1068.714673     -1068.442023  20.19  17.57
C       2.543184     0.277838     0.870633
C       1.277381    -0.581164    -1.049170
C       2.577062     0.052166    -1.535150
C       2.926048     1.024150    -0.408553
H       3.367381    -0.341413     1.229803
H       1.113372    -1.582242    -1.447431
H       0.412326     0.047170    -1.272291
H       3.353487    -0.713184    -1.642814
H       2.445761     0.540768    -2.502495
H       3.974681     1.319474    -0.388205
H       2.322212     1.934064    -0.489820
N       1.448291    -0.632707     0.427458
C       2.105828     1.285666     2.003560
O       3.062615     1.718972     2.647670
O       0.880823     1.524036     2.065596
C       0.729048    -1.322146     1.238520
C       1.003550    -1.341433     2.707502
H       0.413702    -0.547269     3.176548
H       0.717743    -2.309158     3.125056
H       2.047425    -1.129392     2.937174
C      -0.440930    -2.134994     0.764395
H      -0.444655    -3.067779     1.337600
H      -0.383865    -2.390621    -0.293335
H      -2.857796    -2.931064     1.643992
C      -2.215752     1.680160    -1.892843
C      -2.696172     0.414375    -2.190515
C      -2.586650    -0.578924    -1.228703
C      -2.006889    -0.302579     0.009489
C      -1.547823     0.982439     0.289233
C      -1.644284     1.982913    -0.669049
H      -3.143487     0.220968    -3.156959
H      -2.960261    -1.574596    -1.437980
H      -1.054654     1.210233     1.229417
H      -1.274289     2.981061    -0.474855
N      -2.314588     2.740845    -2.920160
O      -2.838461     2.453716    -3.976501
O      -1.863183     3.832793    -2.644903
C      -1.798592    -1.413705     1.015471
O      -2.855075    -2.348485     0.878555
H      -1.794513    -0.980955     2.024065
40
     -1068.713024     -1068.440710  21.23  18.39
C       0.027910     0.219471    -2.573112
C      -1.560650    -0.151179    -0.768912
C      -1.367891    -1.466626    -1.512351
C      -0.841396    -1.009260    -2.874760
H       1.086057    -0.038923    -2.522774
H      -1.553496    -0.258422     0.313278
H      -2.472226     0.362075    -1.090999
H      -0.630181    -2.084495    -0.988055
H      -2.300257    -2.030958    -1.579362
H      -0.271368    -1.774958    -3.401262
H      -1.673987    -0.713164    -3.519838
N      -0.413157     0.661483    -1.227417
C      -0.204318     1.361645    -3.646424
O       0.472011     1.201490    -4.666288
O      -1.046130     2.216786    -3.315386
C       0.056904     1.700332    -0.637020
C       1.158612     2.508540    -1.232163
H       1.763313     2.952421    -0.441600
H       1.780992     1.936906    -1.919021
H       0.675404     3.301151    -1.816163
C      -0.523197     2.179920     0.666854
H      -1.559041     1.855953     0.774439
H      -0.517320     3.273721     0.639615
H       2.024375     2.168402     2.668056
C       0.521234    -2.513464     2.191082
C      -0.474980    -1.857171     2.893084
C      -0.530407    -0.471329     2.820859
C       0.386722     0.240671     2.051145
C       1.386000    -0.450741     1.367037
C       1.461611    -1.834516     1.433826
H      -1.186236    -2.424512     3.479189
H      -1.302636     0.058411     3.371897
H       2.111931     0.097326     0.776035
H       2.230037    -2.385888     0.907514
N       0.584335    -3.992450     2.252169
O      -0.259001    -4.560487     2.912428
O       1.473484    -4.539329     1.635165
C       0.265232     1.749307     1.924410
O       1.530075     2.387878     1.871679
H      -0.308367     2.123983     2.783146
40
     -1068.713024     -1068.440702  21.23  18.39
C       1.084204    -0.713205     2.232801
C       1.721038    -0.287147    -0.075662
C       1.753222    -1.792019     0.157973
C       1.894132    -1.893611     1.678617
H       0.087117    -1.022163     2.547983
H       1.246778    -0.002693    -1.012066
H       2.722324     0.150460    -0.011875
H       0.814299    -2.240955    -0.185163
H       2.575599    -2.265297    -0.382369
H       1.539818    -2.840244     2.086997
H       2.943114    -1.779403     1.967763
N       0.948124     0.212913     1.081892
C       1.843524    -0.012631     3.434089
O       2.533647     0.969685     3.105003
O       1.652441    -0.579425     4.513633
C       0.360155     1.351826     1.158743
C      -0.313893     1.802825     2.409106
H      -0.631906     0.975537     3.041854
H       0.435590     2.371848     2.972385
H      -1.157232     2.448497     2.165065
C       0.370341     2.309398    -0.002963
H       1.231942     2.130367    -0.647236
H       0.467541     3.317599     0.410875
H      -2.776598     2.803259    -0.592767
C      -1.608321    -1.603240    -2.496571
C      -0.952947    -0.661495    -3.270879
C      -0.757032     0.607639    -2.741934
C      -1.198527     0.922203    -1.458719
C      -1.867172    -0.046138    -0.710481
C      -2.078822    -1.316907    -1.225597
H      -0.607221    -0.923421    -4.262418
H      -0.250166     1.359646    -3.340413
H      -2.225658     0.194917     0.284515
H      -2.594529    -2.079963    -0.657015
N      -1.814177    -2.963680    -3.046059
O      -2.400063    -3.764574    -2.349163
O      -1.380716    -3.189189    -4.155601
C      -0.909709     2.291638    -0.868775
O      -1.974909     2.764559    -0.061248
H      -0.725357     2.992583    -1.694315
40
     -1068.713449     -1068.440680  20.96  18.41
C       1.369678     0.315953    -2.096407
C      -0.820698     0.870688    -1.199979
C      -0.949515     0.354175    -2.634724
C       0.307261    -0.497821    -2.826010
H       2.212739    -0.286701    -1.760523
H      -1.311848     0.210374    -0.481458
H      -1.199045     1.886766    -1.086603
H      -1.879031    -0.201483    -2.775166
H      -0.937272     1.194291    -3.333533
H       0.183480    -1.485659    -2.366641
H       0.586708    -0.625090    -3.870931
N       0.640832     0.854335    -0.931639
C       1.921298     1.518643    -2.990484
O       1.685148     2.658966    -2.553315
O       2.505041     1.110098    -3.996866
C       1.218531     1.370882     0.091348
C       2.709072     1.416629     0.173118
H       3.139207     0.416518     0.074211
H       3.068145     2.028993    -0.660247
H       3.027605     1.840388     1.122677
C       0.418831     1.948555     1.226435
H      -0.581598     2.236572     0.903923
H       0.938257     2.846682     1.572328
H       1.521859     0.153953     3.686776
C      -1.973898    -2.438325     1.209857
C      -2.636051    -1.371800     1.793596
C      -1.886970    -0.282437     2.217688
C      -0.503771    -0.260132     2.054018
C       0.134149    -1.359235     1.480964
C      -0.598037    -2.457324     1.052626
H      -3.712111    -1.400039     1.905774
H      -2.392030     0.562744     2.677167
H       1.211949    -1.353672     1.361104
H      -0.119297    -3.314663     0.597515
N      -2.763916    -3.598638     0.736452
O      -2.160268    -4.501527     0.197270
O      -3.962617    -3.568460     0.914601
C       0.280534     0.985088     2.427771
O       1.586888     0.689059     2.889305
H      -0.279240     1.532660     3.198003
40
     -1068.713449     -1068.440678  20.96  18.41
C       2.324011    -0.017009    -0.984862
C       0.815564     1.470715     0.206913
C       1.473746     2.206997    -0.962065
C       1.853247     1.083138    -1.928959
H       2.245218    -1.013528    -1.417884
H      -0.266157     1.385233     0.080022
H       1.039387     1.931117     1.169385
H       0.798428     2.947062    -1.396493
H       2.375520     2.718902    -0.617032
H       0.982744     0.757215    -2.510479
H       2.655141     1.356034    -2.613527
N       1.403913     0.106825     0.162265
C       3.827205     0.214540    -0.498083
O       3.967066     0.415077     0.721529
O       4.625614     0.157668    -1.436042
C       1.267483    -0.795701     1.064410
C       2.029722    -2.076678     0.971539
H       1.759893    -2.742804     1.787731
H       1.830428    -2.584952     0.024450
H       3.095915    -1.831820     1.012396
C       0.349357    -0.589614     2.237532
H       0.179043     0.469543     2.429927
H       0.834910    -1.022914     3.116493
H      -1.637086    -3.121690     1.872702
C      -3.091243     0.554505    -1.200865
C      -3.316095     1.022641     0.082484
C      -2.666747     0.394884     1.136969
C      -1.805035    -0.675611     0.908851
C      -1.616608    -1.135354    -0.393638
C      -2.258345    -0.521299    -1.459702
H      -3.981508     1.860970     0.242840
H      -2.832296     0.750958     2.150054
H      -0.956297    -1.975756    -0.577394
H      -2.115893    -0.860007    -2.477704
N      -3.763811     1.227658    -2.336244
O      -3.519560     0.818288    -3.451181
O      -4.511000     2.146600    -2.077790
C      -1.025090    -1.276343     2.064796
O      -0.790761    -2.664098     1.902187
H      -1.580028    -1.091391     2.994459
40
     -1068.715156     -1068.440004  19.89  18.83
C       2.650415     0.378973    -0.014005
C       0.935050    -0.922071    -1.154269
C       1.745745    -0.104447    -2.161544
C       3.082203     0.121339    -1.449923
H       3.419039     0.166579     0.730591
H       1.070822    -1.996860    -1.307819
H      -0.128508    -0.684637    -1.156846
H       1.843910    -0.634974    -3.110536
H       1.265316     0.858620    -2.345164
H       3.720076    -0.767813    -1.515698
H       3.619799     0.984110    -1.837389
N       1.527956    -0.574202     0.168549
C       2.106003     1.867337     0.236912
O       2.305048     2.662895    -0.679923
O       1.541348     2.008343     1.343322
C       1.109068    -1.016829     1.299896
C       1.813815    -0.674353     2.572185
H       1.241000    -1.026591     3.430350
H       2.789421    -1.174470     2.585247
H       1.957663     0.410128     2.616712
C      -0.094909    -1.905257     1.397636
H       0.121566    -2.676582     2.142588
H      -0.329408    -2.394776     0.449914
H      -2.588754    -2.630221     1.731723
C      -2.634027     1.387807    -1.321904
C      -3.208376     0.133930    -1.189102
C      -2.817221    -0.663749    -0.123444
C      -1.871978    -0.212476     0.797950
C      -1.332432     1.064411     0.649855
C      -1.700279     1.869375    -0.419986
H      -3.940668    -0.203179    -1.911379
H      -3.270069    -1.645571    -0.024861
H      -0.578910     1.440011     1.337026
H      -1.258535     2.847627    -0.556439
N      -3.036411     2.235593    -2.467094
O      -3.857481     1.783616    -3.238635
O      -2.520051     3.328169    -2.565734
C      -1.344361    -1.120437     1.896353
O      -2.303194    -2.018764     2.417822
H      -1.049694    -0.500603     2.747068
40
     -1068.715156     -1068.440002  19.89  18.83
C      -0.559119     0.830824     2.483073
C       0.302580     1.682046     0.369255
C      -0.912382     2.495479     0.819289
C      -0.936533     2.297425     2.337081
H      -0.125865     0.573227     3.450673
H       1.210174     2.292887     0.350995
H       0.168452     1.198876    -0.598264
H      -0.818549     3.541032     0.519796
H      -1.826878     2.086184     0.385465
H      -0.202306     2.944000     2.831702
H      -1.921590     2.472523     2.764297
N       0.471730     0.649642     1.431299
C      -1.772556    -0.177848     2.191806
O      -1.411127    -1.369803     2.084685
O      -2.882962     0.344377     2.105824
C       1.363960    -0.275116     1.420589
C       1.508816    -1.221989     2.567360
H       1.892718    -0.674191     3.436044
H       0.526534    -1.643174     2.805175
H       2.221138    -2.009937     2.321707
C       2.307862    -0.441227     0.267385
H       3.294371    -0.676727     0.677375
H       2.390876     0.464796    -0.336796
H       3.298876    -1.344648    -1.981933
C      -1.591339    -0.414454    -2.812091
C      -0.349309    -0.232166    -3.398482
C       0.776617    -0.662108    -2.711206
C       0.661996    -1.270162    -1.460904
C      -0.604441    -1.461574    -0.910468
C      -1.740538    -1.022520    -1.577085
H      -0.275313     0.240960    -4.369184
H       1.747224    -0.515966    -3.175243
H      -0.729362    -1.912893     0.070236
H      -2.722288    -1.139546    -1.137538
N      -2.794102     0.057910    -3.534824
O      -3.870757    -0.109597    -3.003011
O      -2.628133     0.586164    -4.615159
C       1.890962    -1.633283    -0.644179
O       2.995417    -2.061247    -1.415761
H       1.645152    -2.488176    -0.008981
40
     -1068.711148     -1068.439754  22.40  18.99
C       2.456639     1.062020    -0.980996
C       2.761628    -0.240882     1.049259
C       3.973826     0.665396     0.814687
C       3.422059     1.795929    -0.057328
H       1.671648     1.705231    -1.376427
H       2.228235     0.014925     1.969357
H       3.029007    -1.297002     1.064669
H       4.402742     1.010933     1.757521
H       4.742518     0.115852     0.266005
H       2.896475     2.539657     0.553110
H       4.189217     2.299438    -0.643794
N       1.871541     0.027833    -0.107847
C       3.211461     0.363644    -2.204498
O       3.146791    -0.878397    -2.230197
O       3.750102     1.192205    -2.941068
C       0.835160    -0.664724    -0.415045
C       0.092200    -0.397421    -1.682109
H      -0.175331     0.657572    -1.774357
H       0.756781    -0.658808    -2.512625
H      -0.815474    -0.996455    -1.730653
C       0.345301    -1.752032     0.496720
H       1.166999    -2.245300     1.016779
H      -0.170635    -2.504463    -0.103514
H      -1.586372    -2.091118     3.036688
C      -4.070409     0.596362    -0.216371
C      -3.095998     1.409608     0.334142
C      -1.991594     0.808773     0.924254
C      -1.865440    -0.576808     0.955887
C      -2.869054    -1.368583     0.398102
C      -3.980025    -0.786335    -0.193410
H      -3.207157     2.485609     0.299421
H      -1.222077     1.433392     1.368740
H      -2.779950    -2.449556     0.430046
H      -4.767927    -1.384272    -0.632754
N      -5.252627     1.225493    -0.849627
O      -5.304756     2.437107    -0.854450
O      -6.091602     0.489238    -1.323137
C      -0.634156    -1.222953     1.565230
O      -0.955494    -2.352743     2.357385
H      -0.114248    -0.468365     2.172208
40
     -1068.711084     -1068.439105  22.44  19.40
C      -0.511351    -2.710839    -0.122777
C      -2.480470    -1.314099    -0.456519
C      -2.897279    -2.765413    -0.219421
C      -1.717759    -3.345329     0.562930
H       0.344191    -2.611733     0.543701
H      -2.769504    -0.672347     0.381732
H      -2.881344    -0.903822    -1.382099
H      -3.848421    -2.825941     0.313559
H      -2.999603    -3.279373    -1.178325
H      -1.770945    -3.053380     1.618411
H      -1.652443    -4.431067     0.504065
N      -0.999026    -1.372358    -0.522214
C      -0.069071    -3.527926    -1.419894
O       0.437519    -4.613000    -1.125423
O      -0.305284    -2.970089    -2.506409
C      -0.249383    -0.477750    -1.059146
C       1.214620    -0.682818    -1.242886
H       1.636464    -1.416448    -0.559262
H       1.341137    -1.069959    -2.261090
H       1.742085     0.267487    -1.148367
C      -0.822116     0.828710    -1.532470
H      -1.775930     0.688610    -2.043465
H      -0.126551     1.274045    -2.246830
H      -1.723852     3.661189    -0.320832
C       2.631191     2.475837     1.721838
C       2.405117     3.170464     0.544584
C       1.204632     2.973561    -0.122497
C       0.248976     2.094458     0.384564
C       0.504491     1.417679     1.574100
C       1.700678     1.600737     2.254167
H       3.160278     3.846742     0.165525
H       1.007491     3.505375    -1.047273
H      -0.237567     0.735605     1.979224
H       1.915068     1.079408     3.177960
N       3.912916     2.677253     2.436399
O       4.710611     3.448674     1.947826
O       4.082390     2.056404     3.464309
C      -1.036019     1.831537    -0.380156
O      -1.553541     2.996323    -0.996800
H      -1.772396     1.413588     0.319259
