40
     -1068.753014     -1068.475899   0.00   0.00
C       1.763820     0.658091    -2.160171
C      -0.021321     2.083234    -2.856045
C       1.222874     2.396749    -3.690369
C       2.009665     1.086416    -3.605585
H       1.885000    -0.419563    -2.009194
H      -0.772847     1.580897    -3.475504
H      -0.491128     2.969295    -2.434814
H       0.974582     2.688056    -4.713116
H       1.796711     3.211913    -3.236628
H       1.592856     0.339515    -4.287762
H       3.075356     1.191467    -3.813698
N       0.414676     1.129460    -1.803134
C       2.678156     1.401805    -1.184119
O       1.914681     1.986971    -0.240155
O       3.869224     1.498308    -1.225620
C       0.527652     1.560423    -0.407967
C      -0.350369     2.732925    -0.010196
H      -0.027716     3.647147    -0.510347
H      -1.397280     2.538530    -0.252227
H      -0.267983     2.891355     1.066906
C       0.335561     0.352624     0.526743
H       0.476916     0.698464     1.554234
H       1.118648    -0.386209     0.327338
H      -0.744183    -0.374232    -1.513730
C      -1.397938    -3.221094     3.533974
C      -0.979143    -3.652483     2.286382
C      -0.871898    -2.725148     1.260051
C      -1.181473    -1.385433     1.483091
C      -1.607680    -0.984278     2.748689
C      -1.718111    -1.896774     3.785789
H      -0.744678    -4.697660     2.130259
H      -0.557076    -3.040974     0.273188
H      -1.863519     0.056773     2.926035
H      -2.046802    -1.599801     4.773340
N      -1.511244    -4.203935     4.631107
O      -1.226709    -5.358094     4.385608
O      -1.882227    -3.798017     5.713663
C      -1.023637    -0.353882     0.384506
O      -1.142594    -0.989362    -0.871514
H      -1.828827     0.386523     0.510994
40
     -1068.748512     -1068.471811   2.83   2.57
C       1.160198    -0.130326     2.760506
C      -0.807699    -1.124099     1.856831
C      -0.475758    -1.810811     3.183334
C       0.338236    -0.731146     3.902396
H       1.468421     0.901861     2.962505
H      -1.689058    -0.483164     1.981946
H      -1.028709    -1.819958     1.049881
H      -1.368538    -2.118532     3.732282
H       0.141199    -2.700287     3.014177
H      -0.322868     0.032882     4.322559
H       0.979690    -1.110149     4.699466
N       0.349874    -0.258366     1.542373
C       2.408920    -0.962433     2.462710
O       2.402324    -1.296625     1.160627
O       3.262952    -1.301563     3.230276
C       1.287636    -0.614675     0.488260
C       0.778846    -1.593295    -0.557515
H       1.541924    -1.717038    -1.327962
H       0.594740    -2.569215    -0.104206
H      -0.133044    -1.233546    -1.033056
C       1.898286     0.664117    -0.121823
H       2.475296     0.400888    -1.013011
H       2.609317     1.085258     0.594830
H       1.150013     3.593606    -1.165791
C      -2.140942     0.605021    -3.216294
C      -0.851780     0.800715    -3.687949
C       0.129983     1.191513    -2.790899
C      -0.172453     1.379467    -1.442147
C      -1.479437     1.185091    -1.003325
C      -2.476131     0.792410    -1.886340
H      -0.634524     0.648971    -4.737449
H       1.143991     1.357554    -3.139079
H      -1.718057     1.338001     0.044197
H      -3.495674     0.633621    -1.559271
N      -3.194288     0.186906    -4.166935
O      -4.313217     0.022268    -3.727224
O      -2.874611     0.033751    -5.327292
C       0.911865     1.782913    -0.461280
O       1.716617     2.835999    -0.988088
H       0.426460     2.102419     0.467785
40
     -1068.747709     -1068.471709   3.33   2.63
C      -1.487291    -1.670998    -1.489103
C      -2.816416    -0.105384    -2.695329
C      -2.639976    -1.359093    -3.554444
C      -2.358834    -2.428053    -2.495123
H      -1.554158    -2.096461    -0.481352
H      -3.839394    -0.062634    -2.303483
H      -2.641546     0.821245    -3.237953
H      -3.517789    -1.576595    -4.167224
H      -1.778043    -1.251731    -4.222616
H      -3.288745    -2.742392    -2.011751
H      -1.850493    -3.315109    -2.876542
N      -1.895267    -0.261206    -1.547969
C      -0.018680    -1.651982    -1.912750
O       0.682727    -2.587963    -2.170800
O       0.394735    -0.374760    -1.980124
C      -0.662843     0.508607    -1.463927
C      -0.618262     1.780917    -2.286617
H      -0.686615     1.556430    -3.352339
H      -1.435346     2.444330    -1.993700
H       0.318076     2.305581    -2.100775
C      -0.347530     0.743620     0.022791
H      -0.457872    -0.214362     0.537193
H      -1.101980     1.418133     0.437729
H       1.852147     3.092203     0.317618
C       2.336093    -0.043937     4.166330
C       2.648805    -0.796224     3.045959
C       2.237602    -0.333705     1.805184
C       1.523497     0.857575     1.687719
C       1.222847     1.591040     2.833879
C       1.629774     1.144576     4.083141
H       3.203079    -1.719592     3.153913
H       2.473425    -0.908579     0.913893
H       0.666276     2.517386     2.745714
H       1.406412     1.701199     4.984308
N       2.770648    -0.526154     5.494787
O       2.484516     0.151564     6.459881
O       3.387046    -1.570628     5.538778
C       1.045670     1.309951     0.318698
O       0.965118     2.729541     0.226174
H       1.748591     0.923642    -0.429769
40
     -1068.747283     -1068.470328   3.60   3.50
C      -2.051215    -0.788811    -0.427002
C      -0.072252    -1.891084     0.311660
C      -1.109055    -2.953138    -0.060215
C      -2.004081    -2.190611    -1.042091
H      -2.223604    -0.012481    -1.182073
H       0.711730    -1.843204    -0.453971
H       0.418871    -2.076361     1.265278
H      -0.659525    -3.850373    -0.491826
H      -1.685065    -3.253504     0.822485
H      -1.534723    -2.142299    -2.029333
H      -3.004579    -2.611109    -1.156101
N      -0.795935    -0.605942     0.304386
C      -3.127818    -0.663526     0.650398
O      -2.552809    -0.223398     1.782833
O      -4.294758    -0.916364     0.554999
C      -1.135640     0.089100     1.531763
C      -0.382858    -0.341887     2.776864
H       0.692990    -0.235740     2.643298
H      -0.677119     0.297073     3.610785
H      -0.630052    -1.375695     3.026445
C      -1.113578     1.610556     1.297195
H      -1.582151     2.097752     2.157050
H      -1.746979     1.814973     0.428078
H       1.701279     2.892224     2.209090
C       2.440461     0.624579    -2.222075
C       1.333156     1.419124    -2.478396
C       0.643577     1.955670    -1.403874
C       1.040688     1.694787    -0.092694
C       2.164372     0.904509     0.130469
C       2.872512     0.362367    -0.933367
H       1.029911     1.607265    -3.500395
H      -0.221076     2.586805    -1.591527
H       2.484075     0.699978     1.145540
H       3.744977    -0.258810    -0.774554
N       3.182822     0.042450    -3.358730
O       4.138992    -0.661057    -3.104732
O       2.790702     0.301536    -4.477842
C       0.241746     2.287370     1.059320
O       0.963167     2.279917     2.285459
H       0.008844     3.327358     0.787404
40
     -1068.746722     -1068.470115   3.95   3.63
C       2.410217    -1.402174    -0.674756
C       3.558499    -0.730491     1.303121
C       4.190618    -2.022398     0.777928
C       3.824939    -1.979911    -0.707904
H       2.134300    -0.916257    -1.617786
H       4.242242     0.112212     1.150359
H       3.328557    -0.770385     2.365939
H       5.267122    -2.064379     0.957831
H       3.734147    -2.897444     1.253781
H       4.486571    -1.296871    -1.248962
H       3.849897    -2.952005    -1.202954
N       2.350470    -0.494438     0.477624
C       1.362590    -2.471399    -0.358496
O       1.174852    -3.512954    -0.916468
O       0.645010    -2.062599     0.708079
C       1.020673    -0.673511     1.033790
C       0.917257    -0.519255     2.540771
H       1.360397     0.433318     2.841815
H      -0.132627    -0.513822     2.834848
H       1.423109    -1.336288     3.058199
C       0.030687     0.262373     0.300331
H       0.472051     0.565707    -0.652782
H      -0.078627     1.173869     0.896366
H      -1.556168    -1.762330     1.313938
C      -3.847829     2.781185    -1.522096
C      -3.947279     2.450484    -0.181065
C      -3.152063     1.427306     0.314794
C      -2.271439     0.746510    -0.522859
C      -2.199762     1.098975    -1.869809
C      -2.985572     2.119895    -2.381367
H      -4.637921     2.988479     0.455480
H      -3.221280     1.146360     1.358755
H      -1.524702     0.564741    -2.532428
H      -2.940204     2.404870    -3.424528
N      -4.690527     3.871627    -2.055387
O      -5.439985     4.433060    -1.283301
O      -4.582207     4.140551    -3.234278
C      -1.359918    -0.335412     0.019045
O      -1.958719    -0.898145     1.176771
H      -1.257373    -1.109055    -0.752340
40
     -1068.745910     -1068.470005   4.46   3.70
C      -2.343026    -0.692112    -0.911389
C      -3.095571    -2.252453     0.675209
C      -3.908510    -2.502637    -0.588622
C      -3.727477    -1.189475    -1.367548
H      -1.635081    -0.650283    -1.745664
H      -2.834738    -3.163463     1.217730
H      -3.665031    -1.597380     1.352117
H      -3.479570    -3.341621    -1.144728
H      -4.955127    -2.731117    -0.376850
H      -3.772492    -1.330015    -2.448291
H      -4.496246    -0.461579    -1.095728
N      -1.882722    -1.601845     0.148720
C      -2.358516     0.676262    -0.229290
O      -2.836996     1.697455    -0.630843
O      -1.730991     0.568135     0.959843
C      -1.115269    -0.765167     1.054641
C      -1.156280    -1.199028     2.506565
H      -0.768297    -2.217377     2.593529
H      -0.528789    -0.545477     3.111843
H      -2.173244    -1.169858     2.897220
C       0.315892    -0.625177     0.512458
H       0.252972    -0.354279    -0.543276
H       0.793895    -1.611260     0.542599
H       2.176204    -1.027525     2.153013
C       3.873150     2.324828    -1.477123
C       4.405368     1.499821    -0.503186
C       3.541816     0.878037     0.390173
C       2.168116     1.078362     0.304824
C       1.663992     1.929111    -0.682068
C       2.509570     2.555798    -1.581045
H       5.476456     1.353180    -0.448784
H       3.950354     0.247108     1.170477
H       0.594039     2.110730    -0.742949
H       2.131905     3.215919    -2.351170
N       4.785632     2.987364    -2.432243
O       5.974256     2.770641    -2.317307
O       4.290813     3.708004    -3.274160
C       1.189316     0.402451     1.255245
O       1.829026    -0.161901     2.390481
H       0.541201     1.187818     1.655573
40
     -1068.746484     -1068.469741   4.10   3.86
C      -1.397451    -1.560295    -0.733145
C       0.817479    -0.963210    -1.378081
C       0.277270    -1.976602    -2.389060
C      -1.236705    -1.795845    -2.238903
H      -2.277824    -0.947162    -0.504598
H       0.828062     0.042097    -1.816885
H       1.829785    -1.177710    -1.040386
H       0.635637    -1.794009    -3.404726
H       0.567768    -2.994522    -2.104824
H      -1.571587    -0.909426    -2.785942
H      -1.825936    -2.650553    -2.575205
N      -0.146857    -0.962510    -0.263595
C      -1.501834    -2.864913     0.054041
O      -0.556144    -2.866361     1.010974
O      -2.268156    -3.768578    -0.118856
C       0.150607    -1.575266     1.015777
C       1.609828    -1.899587     1.278018
H       2.227083    -1.002969     1.238270
H       1.705014    -2.332654     2.276205
H       1.966733    -2.635703     0.555022
C      -0.516625    -0.773370     2.148842
H      -0.473777    -1.375913     3.064076
H      -1.577776    -0.672461     1.898104
H       1.297017     0.089387     3.851249
C       0.053099     3.222554    -0.940108
C       1.264862     2.790255    -0.429826
C       1.263574     1.955706     0.679658
C       0.065471     1.559732     1.265747
C      -1.138101     2.032380     0.742810
C      -1.156750     2.860040    -0.366674
H       2.188662     3.104389    -0.898899
H       2.202249     1.611793     1.095468
H      -2.078868     1.748232     1.206586
H      -2.083924     3.226656    -0.788247
N       0.047506     4.101343    -2.126546
O      -1.029320     4.474262    -2.545555
O       1.119601     4.397250    -2.613515
C       0.035758     0.628625     2.462406
O       1.340479     0.582278     3.026547
H      -0.655910     1.072644     3.193774
40
     -1068.744799     -1068.469121   5.16   4.25
C      -2.438448     1.780142     0.260763
C      -2.637802     1.031080    -1.994499
C      -3.925263     1.759829    -1.595125
C      -3.447438     2.670123    -0.459998
H      -1.694065     2.344827     0.831212
H      -2.080803     1.625829    -2.728079
H      -2.825763     0.057819    -2.445335
H      -4.372262     2.305230    -2.429450
H      -4.669613     1.049673    -1.218570
H      -2.938710     3.552726    -0.859235
H      -4.242846     3.000225     0.210172
N      -1.819785     0.934034    -0.765053
C      -3.126531     0.772436     1.188698
O      -3.942080     0.986523     2.038560
O      -2.683914    -0.463994     0.878956
C      -1.601631    -0.334582    -0.105234
C      -1.657142    -1.561944    -0.996873
H      -2.656323    -1.705604    -1.409751
H      -0.939359    -1.474132    -1.816718
H      -1.405459    -2.446703    -0.409275
C      -0.291704    -0.289951     0.710507
H      -0.073999    -1.300793     1.063023
H      -0.435512     0.330694     1.598848
H       1.594627     2.100470    -0.334481
C       4.493596    -1.752428     1.070070
C       3.830930    -2.146379    -0.079650
C       2.678711    -1.464189    -0.443657
C       2.196199    -0.410527     0.329367
C       2.889138    -0.036690     1.480593
C       4.043703    -0.705187     1.858304
H       4.216360    -2.967519    -0.670134
H       2.150991    -1.756588    -1.347183
H       2.520365     0.786638     2.082298
H       4.593827    -0.427950     2.748458
N       5.722532    -2.471484     1.468655
O       6.093339    -3.384130     0.759768
O       6.284768    -2.105486     2.479748
C       0.904425     0.288640    -0.058089
O       0.949619     1.679775     0.242571
H       0.743325     0.149548    -1.134190
40
     -1068.744557     -1068.468067   5.31   4.91
C       2.417297    -0.982301     0.476341
C       2.204078    -3.201266    -0.362650
C       3.652060    -2.745368    -0.552971
C       3.785806    -1.667925     0.526224
H       2.156899    -0.510421     1.430351
H       2.147111    -3.932630     0.451867
H       1.777149    -3.670661    -1.246419
H       4.368523    -3.562234    -0.440760
H       3.791608    -2.306080    -1.547120
H       3.930798    -2.126027     1.509178
H       4.595746    -0.957347     0.353485
N       1.445719    -1.999437     0.050807
C       2.354654     0.077202    -0.623823
O       1.337927    -0.218884    -1.452659
O       3.073709     1.023222    -0.773253
C       0.554343    -1.322548    -0.878410
C       0.043066    -2.156628    -2.036326
H       0.863806    -2.451861    -2.691915
H      -0.464090    -3.048923    -1.660268
H      -0.676205    -1.580574    -2.617962
C      -0.575570    -0.665867    -0.067077
H      -0.113280    -0.120902     0.758984
H      -1.173776    -1.460186     0.394723
H      -2.922472    -1.050788    -0.875854
C      -2.763727     3.552789     1.588508
C      -3.713609     2.644633     1.157999
C      -3.308694     1.584128     0.356835
C      -1.973245     1.436282    -0.002555
C      -1.041024     2.379258     0.437679
C      -1.426644     3.441193     1.237266
H      -4.749301     2.772302     1.445658
H      -4.048227     0.879268    -0.003855
H       0.001278     2.285759     0.143822
H      -0.714444     4.177636     1.586439
N      -3.186935     4.681762     2.442931
O      -2.332469     5.464979     2.802799
O      -4.362932     4.757394     2.733382
C      -1.489354     0.279904    -0.866797
O      -2.554842    -0.415481    -1.498374
H      -0.910737     0.716627    -1.686235
40
     -1068.744764     -1068.467135   5.18   5.50
C       1.297583     0.076417    -0.725142
C       2.268031    -0.098268     1.446443
C       3.293642     0.511191     0.487570
C       2.399597     1.123550    -0.593333
H       0.370897     0.481955    -1.141207
H       1.924495     0.666348     2.154195
H       2.664095    -0.924320     2.033113
H       3.942077     1.238913     0.980256
H       3.929158    -0.268929     0.054786
H       1.968565     2.069349    -0.251276
H       2.903682     1.294499    -1.545577
N       1.107429    -0.507744     0.612292
C       1.745344    -1.114006    -1.577574
O       1.542174    -2.245237    -0.873997
O       2.222753    -1.094519    -2.674266
C       0.827728    -1.917898     0.362331
C       1.322561    -2.893030     1.416069
H       2.408939    -2.862512     1.506873
H       0.858221    -2.685656     2.381739
H       1.043590    -3.903501     1.111402
C      -0.680504    -2.118330     0.058971
H      -0.916800    -3.171186     0.231711
H      -0.840523    -1.938158    -1.005901
H      -0.376820    -0.624058     2.162825
C      -2.567401     2.456575    -1.115644
C      -2.861755     1.253981    -1.739154
C      -2.565084     0.075608    -1.073977
C      -1.974082     0.086526     0.191653
C      -1.707004     1.313041     0.793487
C      -1.998216     2.505447     0.144339
H      -3.317163     1.252784    -2.721088
H      -2.805498    -0.870103    -1.551319
H      -1.273330     1.347172     1.785096
H      -1.791655     3.463367     0.604550
N      -2.879663     3.721131    -1.813142
O      -2.614158     4.758352    -1.241974
O      -3.382160     3.644750    -2.915299
C      -1.656287    -1.240448     0.878177
O      -1.229625    -1.076346     2.215576
H      -2.602837    -1.786703     0.946414
40
     -1068.743248     -1068.466900   6.13   5.65
C       0.787957    -2.309620     0.194676
C       3.018798    -1.820599     0.873233
C       2.352698    -2.666332     1.960577
C       1.261758    -3.392234     1.168829
H       0.354562    -2.734482    -0.717372
H       3.746952    -2.427547     0.322661
H       3.552239    -0.955214     1.261463
H       3.052862    -3.343724     2.454694
H       1.902234    -2.025905     2.727252
H       1.687694    -4.229691     0.608233
H       0.439231    -3.767994     1.779587
N       1.942535    -1.437598    -0.067052
C      -0.240118    -1.380802     0.840746
O      -1.273698    -1.677945     1.365028
O       0.212569    -0.116657     0.760429
C       1.405679    -0.082447    -0.084193
C       2.312231     0.995755     0.479372
H       1.824245     1.967894     0.396639
H       2.514790     0.821572     1.536852
H       3.253830     1.032305    -0.074067
C       0.971016     0.214113    -1.530290
H       0.348842    -0.614218    -1.882453
H       1.885735     0.191080    -2.134500
H       0.818254     1.561085    -3.690277
C      -3.560892     1.777592     0.135662
C      -2.555197     2.649077     0.513295
C      -1.331529     2.564737    -0.136171
C      -1.119241     1.626145    -1.138681
C      -2.156631     0.769565    -1.503669
C      -3.384086     0.836050    -0.866769
H      -2.733717     3.370820     1.299808
H      -0.530733     3.239827     0.150173
H      -2.004814     0.047112    -2.297998
H      -4.197468     0.173493    -1.132152
N      -4.867552     1.855045     0.821397
O      -4.995983     2.687691     1.695898
O      -5.735247     1.082307     0.469751
C       0.226875     1.525361    -1.824196
O      -0.023588     1.612446    -3.226677
H       0.836910     2.381935    -1.509737
40
     -1068.728076     -1068.453193  15.65  14.25
C      -2.906437    -1.358784    -0.514616
C      -2.514404     0.377792    -2.189409
C      -3.516790    -0.646918    -2.716687
C      -4.120234    -1.226137    -1.436050
H      -3.177960    -1.275046     0.537550
H      -2.990512     1.343127    -1.990211
H      -1.655814     0.526759    -2.844714
H      -4.253619    -0.184523    -3.376270
H      -2.991575    -1.428333    -3.271843
H      -4.858408    -0.536598    -1.010964
H      -4.591632    -2.197655    -1.577973
N      -2.061095    -0.200658    -0.900086
C      -2.160508    -2.731366    -0.737924
O      -2.800984    -3.689763    -0.316123
O      -1.050764    -2.672670    -1.324328
C      -1.012457     0.196830    -0.272483
C      -0.258951     1.395547    -0.750868
H       0.302785     1.838473     0.072098
H       0.466330     1.068769    -1.502908
H      -0.916291     2.145744    -1.192098
C      -0.502031    -0.528895     0.932247
H      -1.140885    -1.374405     1.174695
H      -0.519106     0.168164     1.776411
H       0.397484    -1.971644    -0.939080
C       3.942236     1.745644     1.950933
C       3.027949     1.270642     2.878272
C       2.070394     0.363584     2.454519
C       2.017564    -0.058508     1.124472
C       2.959613     0.427312     0.221420
C       3.927748     1.335502     0.629710
H       3.077692     1.606985     3.905877
H       1.359336    -0.028651     3.176696
H       2.933787     0.083109    -0.804821
H       4.665367     1.722451    -0.061780
N       4.968913     2.714560     2.390592
O       5.759432     3.111863     1.560334
O       4.957933     3.054033     3.555807
C       0.954428    -1.053056     0.692512
O       1.153970    -1.399092    -0.647093
H       1.057505    -1.934185     1.344183
40
     -1068.728076     -1068.453190  15.65  14.25
C      -2.908193     1.447017     0.085530
C      -1.707123     1.915098     2.162195
C      -2.748652     3.000794     1.898956
C      -3.778772     2.282683     1.025547
H      -3.414626     0.541130    -0.247177
H      -1.981797     1.290966     3.018494
H      -0.698322     2.302784     2.306483
H      -3.162924     3.393236     2.829629
H      -2.293645     3.824852     1.343466
H      -4.421260     1.638751     1.636795
H      -4.409185     2.959581     0.450586
N      -1.747937     1.079904     0.936132
C      -2.468358     2.276652    -1.182754
O      -3.399882     2.488248    -1.953567
O      -1.262375     2.626452    -1.228275
C      -0.834001     0.232556     0.622694
C       0.273494    -0.067685     1.580203
H      -0.055560    -0.017875     2.618856
H       0.690166    -1.054100     1.374337
H       1.072509     0.663845     1.422654
C      -0.833634    -0.459875    -0.703640
H      -1.690732    -0.156144    -1.299395
H      -0.906770    -1.536821    -0.520166
H       0.159032     1.784278    -1.311025
C       3.599174    -2.971604    -0.779963
C       3.831526    -1.637525    -0.496541
C       2.818472    -0.717075    -0.731603
C       1.589326    -1.129922    -1.239292
C       1.393396    -2.481682    -1.529643
C       2.392296    -3.413538    -1.299213
H       4.791437    -1.330902    -0.100911
H       2.979285     0.334045    -0.527629
H       0.449257    -2.814328    -1.952658
H       2.251667    -4.464194    -1.518117
N       4.673127    -3.956408    -0.529041
O       5.720643    -3.543319    -0.077188
O       4.440956    -5.118813    -0.789823
C       0.473394    -0.134361    -1.502891
O       0.925953     1.159422    -1.228078
H       0.198643    -0.236128    -2.563970
40
     -1068.726433     -1068.452124  16.68  14.92
C      -2.932152    -1.280083    -0.351116
C      -2.931257     0.722332    -1.757568
C      -4.353414     0.179420    -1.668188
C      -4.127625    -1.290810    -1.311194
H      -3.255148    -1.211539     0.688799
H      -2.853764     1.796920    -1.592822
H      -2.465577     0.465898    -2.714035
H      -4.902746     0.694972    -0.872900
H      -4.898494     0.317872    -2.603669
H      -4.993303    -1.767465    -0.851126
H      -3.862539    -1.861448    -2.206183
N      -2.216127    -0.019360    -0.695406
C      -2.029583    -2.545960    -0.545332
O      -2.232392    -3.449797     0.262094
O      -1.236672    -2.471835    -1.520252
C      -1.094773     0.353158    -0.188476
C      -0.464210     1.639157    -0.623504
H      -1.066329     2.484425    -0.272265
H       0.536062     1.729461    -0.203848
H      -0.393175     1.688623    -1.711772
C      -0.388106    -0.456459     0.850129
H      -1.007530    -1.274909     1.211404
H      -0.176771     0.209429     1.693009
H       0.189208    -1.637134    -1.422592
C       4.354582     1.175043     1.640989
C       3.554617     0.513301     2.559956
C       2.461551    -0.196557     2.091264
C       2.165232    -0.242360     0.727371
C       2.994848     0.424291    -0.170626
C       4.095931     1.139779     0.282554
H       3.794345     0.558282     3.614546
H       1.832347    -0.729742     2.799096
H       2.775896     0.372892    -1.229904
H       4.749307     1.663674    -0.403476
N       5.523614     1.937740     2.129200
O       6.208513     2.506151     1.304638
O       5.726586     1.949187     3.325726
C       0.954267    -1.020538     0.250110
O       0.919030    -1.020735    -1.149825
H       1.045748    -2.045278     0.635199
40
     -1068.723418     -1068.448974  18.57  16.90
C       2.836113     0.301030     0.359367
C       1.466617     1.138679     2.139044
C       2.932842     1.072081     2.608099
C       3.753590     1.053923     1.310367
H       3.070457     0.427059    -0.696215
H       1.014843     2.117326     2.308993
H       0.842891     0.368906     2.598306
H       3.182137     1.914574     3.255708
H       3.107238     0.149754     3.164346
H       3.947017     2.068631     0.945607
H       4.695032     0.519897     1.420568
N       1.518272     0.885644     0.675717
C       2.774755    -1.252267     0.685754
O       1.656389    -1.785567     0.442824
O       3.807005    -1.736120     1.130123
C       0.529318     1.099411    -0.114965
C      -0.752768     1.634879     0.450924
H      -0.612960     2.689534     0.716310
H      -1.550285     1.568447    -0.285817
H      -1.053942     1.090760     1.347314
C       0.615749     0.935489    -1.601611
H       1.638649     1.055950    -1.958754
H       0.013983     1.746880    -2.026259
H       1.250798    -1.623795    -1.137571
C      -3.774438    -1.292868    -0.545740
C      -3.682434    -0.524927    -1.694440
C      -2.422291    -0.275851    -2.219124
C      -1.275341    -0.779850    -1.607587
C      -1.401903    -1.559113    -0.457175
C      -2.655339    -1.816387     0.080492
H      -4.579976    -0.139353    -2.160617
H      -2.333309     0.314247    -3.127729
H      -0.521390    -1.963854     0.029180
H      -2.770132    -2.418224     0.972769
N      -5.111036    -1.567791     0.025799
O      -5.163884    -2.242100     1.032647
O      -6.073288    -1.100524    -0.547454
C       0.089828    -0.421208    -2.180789
O       1.039755    -1.427913    -2.088427
H      -0.048560    -0.225386    -3.249983
40
     -1068.721279     -1068.447801  19.91  17.63
C      -2.209863    -0.925371     0.773887
C      -3.601650    -0.700459    -1.222453
C      -3.975827    -1.974228    -0.466194
C      -3.531148    -1.671051     0.966118
H      -2.013715    -0.217671     1.577562
H      -4.389368     0.057510    -1.159488
H      -3.352270    -0.876670    -2.268606
H      -5.042297    -2.191425    -0.550729
H      -3.406045    -2.816247    -0.863789
H      -4.265070    -1.035846     1.475035
H      -3.379070    -2.567979     1.566870
N      -2.407121    -0.197525    -0.502373
C      -0.989098    -1.918217     0.628865
O      -0.742444    -2.282040    -0.538164
O      -0.447770    -2.189885     1.707037
C      -1.568356     0.636996    -1.004708
C      -1.840884     1.263673    -2.336365
H      -2.899822     1.497249    -2.462627
H      -1.239005     2.162487    -2.457878
H      -1.540771     0.566718    -3.125803
C      -0.301240     0.992409    -0.288537
H      -0.334321     0.685570     0.754491
H      -0.173391     2.079773    -0.331647
H       1.771037     0.455360    -2.702863
C       4.253083     0.896977     1.698198
C       3.410170    -0.186551     1.887085
C       2.349252    -0.367394     1.012112
C       2.140458     0.533542    -0.032961
C       3.001815     1.616015    -0.197544
C       4.069540     1.804980     0.668878
H       3.586508    -0.871079     2.706633
H       1.671612    -1.205636     1.154983
H       2.834666     2.315375    -1.009222
H       4.750745     2.638876     0.556971
N       5.386492     1.092728     2.628705
O       6.110241     2.049135     2.440542
O       5.525381     0.286143     3.524437
C       0.940883     0.340145    -0.941732
O       1.108279     0.954241    -2.215111
H       0.740382    -0.730626    -1.049615
40
     -1068.721279     -1068.447798  19.91  17.63
C       0.381230    -2.444402    -0.470170
C       1.879469    -2.380274    -2.400064
C       2.242591    -3.557535    -1.496421
C       0.935314    -3.841337    -0.753682
H      -0.706417    -2.432418    -0.424272
H       1.437504    -2.712746    -3.345114
H       2.720670    -1.719098    -2.607194
H       2.604622    -4.409564    -2.074917
H       3.015089    -3.250613    -0.788771
H       0.245057    -4.412032    -1.385322
H       1.081332    -4.389912     0.177046
N       0.845896    -1.647073    -1.630346
C       0.977115    -1.833064     0.859498
O       2.033555    -1.186609     0.714172
O       0.298199    -2.085062     1.861991
C       0.527095    -0.421177    -1.849045
C       1.110505     0.307635    -3.019007
H       1.197642    -0.339387    -3.894008
H       0.506750     1.182132    -3.254845
H       2.108914     0.669023    -2.751438
C      -0.414910     0.310935    -0.942712
H      -0.959947    -0.374683    -0.297723
H      -1.134074     0.858852    -1.561701
H       1.398041     2.922318    -0.389663
C      -2.451023     2.707377     2.905629
C      -2.287802     3.458294     1.753639
C      -1.377601     3.020244     0.801723
C      -0.644903     1.853493     1.007995
C      -0.827984     1.116347     2.178736
C      -1.737927     1.541601     3.135260
H      -2.865588     4.362855     1.612652
H      -1.234565     3.588774    -0.110514
H      -0.270275     0.196745     2.338642
H      -1.898106     0.981829     4.047584
N      -3.421772     3.164879     3.924020
O      -3.549828     2.489050     4.923549
O      -4.032739     4.189524     3.698737
C       0.318176     1.335423    -0.043852
O       0.804881     2.362809    -0.900690
H       1.145815     0.816851     0.450592
40
     -1068.721279     -1068.447796  19.91  17.63
C      -2.421607     0.594284     0.355690
C      -3.577408    -1.085489    -0.991885
C      -4.387535    -0.778431     0.266585
C      -3.923189     0.629948     0.643464
H      -2.030690     1.571301     0.076686
H      -4.065872    -0.703872    -1.894532
H      -3.361439    -2.146134    -1.118618
H      -5.460739    -0.843470     0.077699
H      -4.119043    -1.483700     1.055394
H      -4.420024     1.382915     0.021118
H      -4.105343     0.875813     1.689833
N      -2.312278    -0.338879    -0.791030
C      -1.600887     0.021619     1.578463
O      -1.221392     0.895859     2.366621
O      -1.448622    -1.216060     1.576473
C      -1.222583    -0.595628    -1.422646
C      -1.216033    -1.608247    -2.524871
H      -0.342319    -1.466856    -3.158536
H      -1.137673    -2.609305    -2.088128
H      -2.128632    -1.559613    -3.122068
C       0.061221     0.091409    -1.069584
H      -0.113937     0.967495    -0.449144
H       0.549565     0.409109    -1.997559
H       1.922536    -2.525269    -0.752702
C       4.239161     1.543564     1.196384
C       4.411431     0.899845    -0.017511
C       3.376032     0.112408    -0.501660
C       2.194696    -0.026707     0.223448
C       2.047914     0.632130     1.444894
C       3.073831     1.425367     1.936868
H       5.337534     1.019478    -0.565203
H       3.485197    -0.398852    -1.451690
H       1.122434     0.539743     2.008144
H       2.978045     1.948367     2.879541
N       5.336198     2.387886     1.718302
O       5.161140     2.944287     2.782245
O       6.346497     2.473871     1.050590
C       1.035381    -0.844507    -0.314597
O       1.447735    -1.844671    -1.239926
H       0.490697    -1.291009     0.523450
40
     -1068.720235     -1068.446254  20.57  18.60
C       1.838683    -0.839254     1.599170
C       1.129628    -3.131157     2.044569
C       2.264560    -2.779474     2.999446
C       2.966679    -1.629742     2.273367
H       1.512443     0.002325     2.211332
H       0.287369    -3.633425     2.519461
H       1.487721    -3.728968     1.201061
H       1.855928    -2.445900     3.959699
H       2.917005    -3.634689     3.184611
H       3.551515    -0.991240     2.935941
H       3.635485    -2.022847     1.502849
N       0.719667    -1.814825     1.511240
C       2.241614    -0.355369     0.158318
O       2.215150    -1.259943    -0.697373
O       2.514414     0.850141     0.073793
C      -0.417795    -1.580254     0.959630
C      -1.452953    -2.662712     0.895079
H      -1.819485    -2.877626     1.905033
H      -2.284253    -2.346075     0.271003
H      -1.032189    -3.582628     0.482116
C      -0.765829    -0.225206     0.421396
H      -0.100793     0.542181     0.814755
H      -1.790719     0.000630     0.738659
H      -1.516259    -1.197366    -2.562720
C      -1.481527     3.897998    -2.251816
C      -2.539935     3.004847    -2.239390
C      -2.288553     1.686194    -1.886682
C      -0.998501     1.276391    -1.556870
C       0.050159     2.196344    -1.578653
C      -0.189467     3.517576    -1.926042
H      -3.534687     3.343046    -2.500236
H      -3.100398     0.967665    -1.867652
H       1.052933     1.877936    -1.303444
H       0.608750     4.248233    -1.944842
N      -1.740858     5.306128    -2.623601
O      -2.881299     5.613129    -2.905170
O      -0.798890     6.071031    -2.625067
C      -0.718343    -0.151414    -1.123944
O      -1.683249    -1.071373    -1.623669
H       0.286275    -0.440308    -1.445353
40
     -1068.719318     -1068.443399  21.14  20.39
C      -1.453574     2.335337    -0.236674
C      -2.498380     0.203353    -0.850663
C      -3.492309     1.044300    -0.049490
C      -2.973337     2.475972    -0.210369
H      -0.964950     3.096273    -0.842469
H      -2.819837     0.064917    -1.887400
H      -2.303510    -0.771410    -0.402809
H      -4.508011     0.919095    -0.429950
H      -3.460101     0.756946     1.000287
H      -3.325851     2.919022    -1.148335
H      -3.281679     3.123440     0.610818
N      -1.243227     0.999584    -0.866708
C      -0.775540     2.247614     1.176221
O       0.324153     2.840989     1.259798
O      -1.363881     1.537068     1.998950
C      -0.127763     0.543533    -1.318800
C      -0.100079    -0.829730    -1.920143
H       0.867114    -1.021801    -2.381337
H      -0.265686    -1.586304    -1.148321
H      -0.885027    -0.930338    -2.675205
C       1.130585     1.354676    -1.345754
H       0.940704     2.389006    -1.073139
H       1.463150     1.326280    -2.390640
H       1.906951     2.243374     0.885516
C       1.485678    -2.912155     1.431488
C       2.376725    -2.863979     0.373364
C       2.650836    -1.628972    -0.199110
C       2.044394    -0.466769     0.270353
C       1.174735    -0.544993     1.359568
C       0.884333    -1.771051     1.939562
H       2.838694    -3.774362     0.013330
H       3.353191    -1.572798    -1.026451
H       0.710282     0.343283     1.771635
H       0.204465    -1.845474     2.778254
N       1.173267    -4.222093     2.043761
O       0.388894    -4.237973     2.968758
O       1.719262    -5.202393     1.580925
C       2.320357     0.858458    -0.428378
O       2.707807     1.864127     0.458753
H       3.177161     0.695950    -1.089196
40
     -1068.716459     -1068.443349  22.94  20.43
C       0.550524     0.746758    -2.569457
C       2.080033    -1.167435    -2.625539
C       2.109784    -0.451374    -3.973171
C       1.631914     0.961082    -3.631509
H       0.537166     1.548430    -1.835259
H       3.000222    -1.005622    -2.054428
H       1.890636    -2.236676    -2.714017
H       3.109408    -0.470582    -4.411708
H       1.403216    -0.925541    -4.655152
H       2.452076     1.562602    -3.224325
H       1.220886     1.485057    -4.494912
N       0.957399    -0.520166    -1.901775
C      -0.883690     0.551951    -3.179684
O      -1.001352    -0.435945    -3.912104
O      -1.717852     1.408666    -2.812315
C       0.334215    -1.051768    -0.908617
C       0.812629    -2.336614    -0.308756
H       0.239007    -3.160695    -0.750715
H       1.873588    -2.522006    -0.472880
H       0.604013    -2.331576     0.762993
C      -0.904818    -0.435481    -0.336463
H      -1.344436    -1.140826     0.370174
H      -1.629044    -0.292592    -1.140872
H      -1.665801     1.838757    -1.095966
C      -1.120408     0.379810     4.567500
C       0.112018     0.146101     3.980067
C       0.242907     0.363820     2.616596
C      -0.839161     0.802828     1.856080
C      -2.064004     1.036199     2.476739
C      -2.211590     0.826264     3.840187
H       0.942341    -0.195049     4.584901
H       1.208698     0.200711     2.145017
H      -2.897444     1.392739     1.883902
H      -3.154873     1.002854     4.340974
N      -1.273020     0.149716     6.020382
O      -0.300032    -0.240339     6.632161
O      -2.360828     0.363947     6.512883
C      -0.690664     0.959042     0.356961
O      -1.599194     1.907886    -0.111187
H       0.345528     1.285066     0.173294
40
     -1068.718639     -1068.443178  21.57  20.53
C      -1.377984    -1.762872     1.456990
C      -1.323040    -0.622648     3.622116
C      -1.723357    -2.083730     3.806077
C      -2.314065    -2.444936     2.445366
H      -0.451430    -2.326044     1.349945
H      -0.463606    -0.326301     4.224532
H      -2.159074     0.048108     3.839439
H      -0.839329    -2.694417     4.017395
H      -2.424400    -2.204495     4.634143
H      -2.351457    -3.519137     2.259277
H      -3.320712    -2.036601     2.322205
N      -1.001607    -0.498882     2.173624
C      -2.017027    -1.493088     0.057757
O      -3.079966    -0.869000     0.076630
O      -1.337174    -1.917322    -0.912691
C      -0.475719     0.568103     1.677007
C      -0.112861     1.687716     2.612287
H       0.204526     2.565720     2.052954
H      -0.957612     1.960959     3.249653
H       0.709592     1.380322     3.266553
C      -0.175784     0.776611     0.221801
H      -0.101247     1.853257     0.054483
H      -0.983954     0.405919    -0.405098
H       0.322014    -1.626997    -0.498470
C       1.914112     1.410794    -4.247800
C       0.923534     0.466745    -4.023047
C       0.688197     0.041861    -2.725135
C       1.440066     0.557151    -1.667349
C       2.427864     1.502062    -1.925756
C       2.675323     1.939556    -3.220611
H       0.351062     0.078497    -4.855511
H      -0.089949    -0.690616    -2.534494
H       3.022856     1.899188    -1.107952
H       3.441161     2.673211    -3.437536
N       2.165736     1.868055    -5.631843
O       1.485144     1.390047    -6.515239
O       3.038431     2.694916    -5.800960
C       1.158619     0.118946    -0.236617
O       1.143760    -1.268641    -0.072150
H       1.969356     0.497981     0.398023
40
     -1068.716030     -1068.442619  23.21  20.88
C      -1.739316    -1.444006     1.612225
C      -0.747040    -0.067588     3.375665
C      -0.888822    -1.499504     3.876701
C      -2.000058    -2.057890     2.988766
H      -1.088768    -2.081400     1.014439
H       0.238619     0.358495     3.560032
H      -1.516999     0.583578     3.798683
H       0.048376    -2.045623     3.722688
H      -1.129095    -1.530062     4.941015
H      -2.005704    -3.147207     2.934254
H      -2.978663    -1.724870     3.343433
N      -1.002853    -0.179937     1.918136
C      -3.066444    -1.115911     0.839809
O      -3.223465    -1.749476    -0.226130
O      -3.761254    -0.251742     1.384815
C      -0.726324     0.732879     1.052486
C      -0.102132     2.031444     1.450777
H       0.063622     2.150300     2.518206
H       0.845046     2.140100     0.911890
H      -0.758716     2.834550     1.100584
C      -1.011941     0.558107    -0.407281
H      -0.779077     1.494128    -0.917460
H      -2.080940     0.384741    -0.540019
H      -1.874836    -1.635923    -1.372499
C       2.949044     1.071558    -3.372743
C       1.735418     0.826359    -3.995007
C       0.711320     0.252749    -3.256292
C       0.903897    -0.070574    -1.914629
C       2.139562     0.177256    -1.320916
C       3.174176     0.753230    -2.044216
H       1.605227     1.083699    -5.038335
H      -0.245071     0.041780    -3.719521
H       2.308953    -0.096565    -0.282672
H       4.139709     0.952292    -1.597285
N       4.043330     1.687685    -4.153956
O       5.095577     1.889325    -3.583693
O       3.823321     1.954830    -5.316706
C      -0.236347    -0.625890    -1.086913
O      -1.076915    -1.387433    -1.899149
H       0.215588    -1.247491    -0.299181
40
     -1068.718182     -1068.441897  21.86  21.34
C      -2.716112     0.535341    -0.323848
C      -1.849682    -1.588083    -1.125945
C      -3.355644    -1.584496    -1.354125
C      -3.843564    -0.504966    -0.381780
H      -2.937192     1.424302    -0.913286
H      -1.274997    -2.007659    -1.949269
H      -1.588867    -2.092437    -0.191054
H      -3.574421    -1.311019    -2.392184
H      -3.795034    -2.564304    -1.159669
H      -4.782889    -0.046156    -0.693509
H      -3.980255    -0.927452     0.615258
N      -1.542176    -0.152643    -0.942146
C      -2.284501     0.921213     1.132988
O      -2.021054    -0.050063     1.855389
O      -2.183077     2.147098     1.350785
C      -0.410036     0.394474    -1.215567
C       0.672410    -0.432384    -1.845494
H       0.339178    -0.792394    -2.824555
H       1.570479     0.165032    -1.983360
H       0.920720    -1.293631    -1.220982
C      -0.148850     1.857155    -1.019861
H      -1.062821     2.396491    -0.781934
H       0.213872     2.206586    -1.994772
H      -0.556114     2.704607     1.314046
C       3.199684    -1.070756     1.527697
C       1.893536    -0.915769     1.965348
C       1.156728     0.169858     1.514872
C       1.721307     1.081524     0.621440
C       3.042148     0.907632     0.215874
C       3.795248    -0.170516     0.661763
H       1.467918    -1.634105     2.653959
H       0.136265     0.284837     1.868156
H       3.498056     1.629776    -0.456245
H       4.822036    -0.315873     0.351368
N       3.985121    -2.229039     2.006798
O       3.436552    -3.009696     2.755862
O       5.130981    -2.329409     1.619315
C       0.920174     2.257675     0.075390
O       0.348862     3.024116     1.091860
H       1.636015     2.915131    -0.428585
40
     -1068.713967     -1068.441440  24.50  21.62
C      -0.063800     0.382962     2.349137
C      -0.646117    -1.758635     3.367832
C      -1.390866    -0.649792     4.103714
C      -0.544772     0.586589     3.789230
H      -0.720275     0.858421     1.621569
H      -1.264137    -2.622089     3.122136
H       0.238912    -2.082885     3.923588
H      -2.403063    -0.546906     3.697264
H      -1.471530    -0.858013     5.172432
H      -1.095113     1.522739     3.888503
H       0.323687     0.629163     4.452099
N      -0.174045    -1.086582     2.140202
C       1.426224     0.844455     2.142679
O       2.258079     0.093889     2.676386
O       1.551417     1.874569     1.457818
C       0.135321    -1.687361     1.050743
C      -0.030537    -3.172546     0.929968
H       0.376865    -3.691300     1.800656
H      -1.095355    -3.419182     0.854641
H       0.469646    -3.538597     0.033406
C       0.627404    -0.930615    -0.145495
H       1.418961    -1.518026    -0.619003
H       1.049274     0.028144     0.140629
H      -2.281972     0.104330    -1.039914
C       0.632539     2.208125    -4.088574
C       0.249840     0.949649    -4.515514
C      -0.110740     0.012031    -3.555703
C      -0.086295     0.332176    -2.201538
C       0.305606     1.613015    -1.800430
C       0.669522     2.556997    -2.747202
H       0.236766     0.717499    -5.572596
H      -0.414378    -0.982106    -3.871826
H       0.353525     1.877251    -0.747716
H       0.982700     3.551367    -2.457181
N       1.020857     3.217326    -5.100834
O       0.980366     2.885141    -6.267342
O       1.355045     4.312612    -4.702048
C      -0.499245    -0.698184    -1.168874
O      -1.642078    -0.273341    -0.428876
H      -0.728238    -1.642286    -1.683971
40
     -1068.713967     -1068.441432  24.50  21.63
C       1.082743     2.117214    -0.119952
C       3.073210     1.939226     1.283497
C       2.445323     3.312157     1.499200
C       1.624787     3.508613     0.221885
H       0.087499     1.947949     0.288974
H       3.362697     1.433147     2.204339
H       3.930479     1.993689     0.605705
H       1.797858     3.291543     2.382769
H       3.203207     4.083625     1.649104
H       0.812354     4.226799     0.337077
H       2.269153     3.849854    -0.592841
N       2.007624     1.189972     0.587273
C       1.108501     1.825816    -1.665974
O       2.249737     1.647325    -2.119735
O      -0.014705     1.793162    -2.198121
C       1.909406    -0.088027     0.562079
C       2.879618    -0.938643     1.325624
H       3.909647    -0.614588     1.160706
H       2.667932    -0.866240     2.398142
H       2.784797    -1.982871     1.027965
C       0.806365    -0.771611    -0.187458
H       1.219758    -1.665348    -0.663026
H       0.405923    -0.132912    -0.968969
H      -1.438170    -0.215001     2.045883
C      -3.834675    -2.277227    -1.449753
C      -3.283362    -3.199691    -0.579344
C      -2.143283    -2.836501     0.126839
C      -1.572459    -1.578114    -0.038930
C      -2.152503    -0.666839    -0.926703
C      -3.288490    -1.016928    -1.638662
H      -3.740094    -4.174001    -0.462725
H      -1.695730    -3.547806     0.815446
H      -1.710617     0.312430    -1.088239
H      -3.748489    -0.328947    -2.335833
N      -5.049431    -2.651382    -2.210222
O      -5.512830    -1.826845    -2.969012
O      -5.505893    -3.760712    -2.026492
C      -0.338106    -1.192673     0.752508
O      -0.589355    -0.083161     1.612757
H      -0.020429    -2.056454     1.354216
40
     -1068.714885     -1068.441400  23.93  21.65
C       0.533535     0.827153    -1.281995
C       2.700785     0.169766    -0.377436
C       2.484789     1.653222    -0.101037
C       1.458741     2.042446    -1.168177
H      -0.342697     0.932694    -0.646434
H       3.077776    -0.395065     0.475107
H       3.355388     0.015364    -1.240731
H       2.074108     1.790679     0.905547
H       3.416779     2.217605    -0.169982
H       0.892073     2.939577    -0.916480
H       1.954586     2.208928    -2.128525
N       1.350810    -0.299021    -0.757123
C       0.102130     0.530083    -2.767647
O       0.987537    -0.015969    -3.447074
O      -1.063148     0.866196    -3.029900
C       0.982460    -1.528300    -0.740234
C       1.946940    -2.586918    -0.294230
H       2.898921    -2.481602    -0.821615
H       2.136751    -2.499440     0.779837
H       1.532677    -3.575875    -0.477206
C      -0.401230    -1.949727    -1.144269
H      -0.310953    -2.898712    -1.679355
H      -0.870476    -1.226490    -1.807756
H      -1.358889    -3.357320     1.610371
C      -2.036087     1.672310     1.827117
C      -2.795547     1.278492     0.736510
C      -2.586010     0.014525     0.206489
C      -1.625868    -0.836398     0.753881
C      -0.886722    -0.416191     1.857672
C      -1.087958     0.844590     2.404105
H      -3.521207     1.958162     0.309060
H      -3.147146    -0.291870    -0.670949
H      -0.140871    -1.074940     2.289282
H      -0.520249     1.189216     3.259264
N      -2.237501     3.026858     2.388954
O      -3.094717     3.721671     1.885640
O      -1.528112     3.360225     3.315830
C      -1.333877    -2.158350     0.068460
O      -0.724898    -3.108782     0.930397
H      -2.272622    -2.558789    -0.335371
40
     -1068.714885     -1068.441385  23.93  21.66
C      -0.149090    -1.293499     0.957719
C      -0.247156    -2.448223    -1.188052
C      -1.645363    -2.423555    -0.581349
C      -1.355490    -2.235967     0.909905
H      -0.458022    -0.256035     1.063018
H      -0.212125    -2.184239    -2.244965
H       0.238399    -3.416717    -1.033497
H      -2.211639    -1.574322    -0.979978
H      -2.198972    -3.337956    -0.803312
H      -2.196439    -1.818619     1.464819
H      -1.084307    -3.191715     1.366918
N       0.485945    -1.452134    -0.377684
C       0.877220    -1.678715     2.088994
O       1.588662    -2.657880     1.808197
O       0.835728    -0.934098     3.080684
C       1.582314    -0.892409    -0.740703
C       2.181731    -1.227698    -2.074157
H       2.247643    -2.311770    -2.200458
H       1.562691    -0.824002    -2.881071
H       3.171684    -0.786155    -2.164472
C       2.289883     0.108449     0.127075
H       3.363803    -0.060755     0.012622
H       2.035178    -0.010630     1.177985
H       2.269903     2.658179    -1.869130
C      -2.125725     2.310174     0.652961
C      -1.173364     2.425377     1.653464
C       0.158658     2.224956     1.324823
C       0.528993     1.905614     0.018514
C      -0.450553     1.808764    -0.967585
C      -1.788667     2.011838    -0.656385
H      -1.478253     2.651947     2.666852
H       0.910566     2.274706     2.106366
H      -0.167939     1.563630    -1.985706
H      -2.563589     1.936956    -1.408878
N      -3.552635     2.502721     0.996322
O      -4.367614     2.352516     0.109353
O      -3.819865     2.793431     2.143050
C       1.978284     1.565997    -0.276099
O       2.318671     1.723357    -1.645953
H       2.620850     2.198483     0.349794
40
     -1068.712722     -1068.440137  25.28  22.44
C      -1.720732    -0.147377     0.096968
C      -1.286190     1.284846     2.027472
C      -1.726779    -0.090129     2.516179
C      -2.507226    -0.630628     1.316675
H      -0.972125    -0.875688    -0.207723
H      -0.402634     1.676728     2.532101
H      -2.102143     2.010964     2.094639
H      -0.850149    -0.713139     2.726133
H      -2.323788    -0.022306     3.427679
H      -2.602226    -1.716856     1.312427
H      -3.512004    -0.199212     1.290419
N      -1.004875     1.060621     0.591830
C      -2.649709     0.232204    -1.115205
O      -2.633464    -0.593607    -2.042105
O      -3.239604     1.316383    -0.974342
C      -0.323617     1.864706    -0.140618
C       0.249801     3.111484     0.464287
H       0.527775     3.814707    -0.319124
H      -0.464549     3.586670     1.139564
H       1.156702     2.867486     1.026440
C      -0.051187     1.591559    -1.591352
H      -0.164671     2.539807    -2.126623
H      -0.756938     0.882368    -2.017664
H       2.557804     2.602034    -1.972543
C       1.694845    -2.820680    -0.046914
C       0.958660    -2.667629    -1.211804
C       0.890369    -1.410350    -1.790329
C       1.544298    -0.323003    -1.207943
C       2.284024    -0.509435    -0.043735
C       2.364052    -1.764628     0.546353
H       0.443408    -3.516766    -1.641484
H       0.286109    -1.271404    -2.681784
H       2.810538     0.327557     0.399460
H       2.933599    -1.927590     1.452320
N       1.764958    -4.156522     0.585009
O       2.396317    -4.257347     1.616690
O       1.184425    -5.068962     0.035093
C       1.380232     1.047379    -1.830848
O       2.376148     1.922275    -1.318422
H       1.490546     0.943477    -2.917174
40
     -1068.713515     -1068.439323  24.79  22.95
C      -2.626244    -0.422085     0.485162
C      -2.177330    -0.639517    -1.913758
C      -3.062338    -1.798213    -1.451930
C      -3.713836    -1.270729    -0.169891
H      -3.022285     0.403898     1.073887
H      -2.705521     0.027679    -2.601862
H      -1.244489    -0.969552    -2.372138
H      -3.793290    -2.063744    -2.218561
H      -2.443438    -2.664288    -1.222379
H      -4.590307    -0.654126    -0.399106
H      -4.027948    -2.073198     0.498283
N      -1.874402     0.122380    -0.674916
C      -1.602319    -1.257685     1.347244
O      -1.482620    -0.864614     2.519960
O      -1.016356    -2.152382     0.716348
C      -1.014826     1.074907    -0.607049
C      -0.297750     1.523020    -1.841396
H      -0.026057     2.576295    -1.759558
H       0.628495     0.945453    -1.935484
H      -0.890200     1.378244    -2.744179
C      -0.738235     1.771070     0.693259
H      -1.046541     1.158177     1.541063
H      -1.348325     2.685721     0.702659
H       1.658742     2.825312     2.504494
C       3.473336    -1.048620     0.427502
C       3.709385     0.134761    -0.251406
C       2.809729     1.177895    -0.079971
C       1.703882     1.038599     0.757288
C       1.507046    -0.158870     1.444724
C       2.386848    -1.215638     1.270316
H       4.572749     0.225853    -0.897797
H       2.972823     2.113054    -0.609772
H       0.655194    -0.290305     2.104517
H       2.223352    -2.160311     1.770962
N       4.417955    -2.174492     0.241792
O       4.194542    -3.201818     0.845328
O       5.359211    -1.998733    -0.504625
C       0.726257     2.188950     0.908171
O       0.743717     2.738400     2.218299
H       1.001403     2.969257     0.184516
40
     -1068.708745     -1068.437619  27.78  24.02
C      -0.063771    -0.610396     2.823943
C       1.344671     1.306405     2.324972
C       1.603737     0.816263     3.752148
C       1.173178    -0.652655     3.712600
H      -0.281600    -1.562914     2.342155
H       2.223391     1.183962     1.684277
H       1.006895     2.342252     2.283595
H       2.647476     0.957654     4.040184
H       0.973042     1.368940     4.452788
H       1.957678    -1.278129     3.270715
H       0.913703    -1.051131     4.692360
N       0.270659     0.415792     1.820644
C      -1.361820    -0.127835     3.630035
O      -1.673749    -0.923074     4.518259
O      -1.850705     0.951626     3.248840
C      -0.452405     0.672162     0.792459
C      -0.186724     1.884948    -0.039567
H      -0.744056     2.714981     0.413454
H       0.869542     2.153652    -0.069997
H      -0.555980     1.742375    -1.054276
C      -1.573122    -0.241675     0.392802
H      -2.311699     0.345830    -0.160267
H      -2.068989    -0.649284     1.270681
H      -2.748897    -2.052119    -1.281355
C       0.575016    -0.117185    -4.215842
C      -0.773352     0.089780    -3.971644
C      -1.297997    -0.336120    -2.761310
C      -0.490730    -0.959719    -1.807648
C       0.857734    -1.154588    -2.090792
C       1.403833    -0.733987    -3.296499
H      -1.387628     0.576887    -4.717709
H      -2.353361    -0.164107    -2.564680
H       1.494985    -1.647150    -1.363072
H       2.451536    -0.878894    -3.526182
N       1.145918     0.337964    -5.503788
O       0.394649     0.876622    -6.288828
O       2.328187     0.143817    -5.690869
C      -1.072325    -1.417506    -0.481239
O      -2.099370    -2.379734    -0.650793
H      -0.287553    -1.943712     0.069442
40
     -1068.711542     -1068.437034  26.02  24.39
C       0.536356     0.197690     2.610244
C       1.364169     2.105372     1.381190
C       1.657741     2.365058     2.853693
C       0.718329     1.385313     3.570658
H       1.034686    -0.708126     2.952237
H       2.152204     2.426213     0.703568
H       0.404765     2.539175     1.084584
H       2.707215     2.136605     3.069841
H       1.473025     3.406501     3.122643
H       1.112407     1.056016     4.533251
H      -0.254198     1.850383     3.739086
N       1.183867     0.639441     1.343947
C      -0.976653    -0.091472     2.263204
O      -1.344227    -1.263876     2.443334
O      -1.567840     0.894912     1.793484
C       1.453563    -0.123638     0.345642
C       2.084836     0.459006    -0.884585
H       1.377457     1.129949    -1.381046
H       2.984297     1.026844    -0.635462
H       2.362511    -0.324463    -1.585839
C       1.176957    -1.597930     0.409354
H       0.445268    -1.823619     1.186253
H       2.119787    -2.094544     0.679275
H      -0.218241    -3.921812    -1.267836
C      -2.488839     0.055053    -2.656151
C      -1.384299    -0.256374    -3.431151
C      -0.369056    -1.006099    -2.853501
C      -0.463508    -1.437279    -1.531709
C      -1.600188    -1.127998    -0.785083
C      -2.614169    -0.364680    -1.341865
H      -1.327530     0.087715    -4.455823
H       0.509661    -1.253927    -3.443499
H      -1.695254    -1.459937     0.244088
H      -3.481978    -0.088207    -0.758683
N      -3.571912     0.866740    -3.257532
O      -4.533234     1.124076    -2.565198
O      -3.430354     1.225145    -4.408905
C       0.675291    -2.221422    -0.906864
O       0.288992    -3.538860    -0.544885
H       1.498092    -2.272948    -1.633962
40
     -1068.710228     -1068.436209  26.85  24.91
C       1.693655     0.512291    -2.046616
C      -0.623267     0.418058    -2.840582
C       0.086044     1.614475    -3.476302
C       1.571430     1.253835    -3.375904
H       2.484699    -0.236320    -2.043083
H      -0.883861    -0.342943    -3.582546
H      -1.515199     0.696742    -2.278374
H      -0.243252     1.763389    -4.506780
H      -0.115611     2.513048    -2.895335
H       1.874846     0.602522    -4.203326
H       2.214132     2.134650    -3.382701
N       0.379112    -0.168495    -1.914070
C       1.842552     1.462609    -0.794323
O       2.803617     1.186147    -0.055375
O       0.942339     2.310032    -0.690521
C       0.114667    -1.092441    -1.061200
C      -1.258708    -1.683963    -1.007217
H      -1.221746    -2.699920    -0.612719
H      -1.871181    -1.084383    -0.325230
H      -1.740723    -1.700273    -1.984503
C       1.181739    -1.610903    -0.138694
H       1.982981    -0.878539    -0.020731
H       1.608427    -2.498449    -0.632848
H       2.320245    -3.033387     1.683808
C      -1.579507     1.045551     3.166742
C      -0.339965     1.363120     2.635470
C       0.406879     0.361655     2.035549
C      -0.098109    -0.935415     1.954838
C      -1.343862    -1.226128     2.504324
C      -2.098661    -0.236823     3.119371
H       0.028934     2.378887     2.680349
H       1.379048     0.609258     1.621781
H      -1.732773    -2.239766     2.456649
H      -3.068657    -0.444606     3.552174
N      -2.379511     2.113054     3.808984
O      -3.459966     1.804703     4.269341
O      -1.908938     3.230269     3.836486
C       0.693693    -2.027161     1.266343
O       1.818427    -2.315467     2.083644
H       0.056031    -2.918914     1.193130
40
     -1068.708383     -1068.434052  28.01  26.26
C       1.768200     0.339208     1.956260
C       2.395633     1.500660    -0.067530
C       3.458545     1.820441     0.976188
C       2.763491     1.461014     2.296710
H       2.069894    -0.631636     2.346982
H       2.784090     1.346143    -1.071631
H       1.606035     2.257669    -0.075703
H       4.342519     1.194634     0.811053
H       3.767066     2.866144     0.927955
H       3.467054     1.141974     3.067126
H       2.205584     2.318964     2.674937
N       1.780001     0.268784     0.468496
C       0.282937     0.675489     2.376045
O      -0.127088     1.748933     1.906223
O      -0.283486    -0.200459     3.050924
C       1.256190    -0.671833    -0.233045
C       1.324280    -0.607329    -1.730552
H       0.717480     0.227670    -2.092386
H       2.352282    -0.463510    -2.071648
H       0.943422    -1.522972    -2.176675
C       0.610405    -1.855232     0.432239
H       0.332297    -1.615066     1.460462
H       1.371350    -2.651014     0.463032
H      -0.720729    -4.016674     0.821544
C      -3.314021     0.747174    -1.358075
C      -2.897946     0.639809    -0.040866
C      -2.055698    -0.403071     0.309501
C      -1.618123    -1.306474    -0.657601
C      -2.058854    -1.178185    -1.971780
C      -2.915715    -0.148911    -2.335775
H      -3.215862     1.365238     0.695439
H      -1.734329    -0.495373     1.341584
H      -1.733178    -1.890722    -2.724887
H      -3.269501    -0.032852    -3.352049
N      -4.217035     1.856943    -1.737628
O      -4.562098     1.927641    -2.899812
O      -4.558118     2.628935    -0.866893
C      -0.644688    -2.405283    -0.287083
O      -1.321936    -3.306162     0.575124
H      -0.350358    -2.930710    -1.206201
