40
     -1068.750136     -1068.474826   0.00   0.00
C       2.556396    -0.536007    -0.079382
C       2.433187    -0.731857    -2.412539
C       3.180994    -1.966695    -1.924775
C       3.626895    -1.554646    -0.511076
H       2.012669    -0.869428     0.811008
H       1.768920    -0.923749    -3.257712
H       3.157583     0.041485    -2.710890
H       2.496348    -2.818960    -1.878432
H       4.017356    -2.234891    -2.573690
H       3.681603    -2.401133     0.174828
H       4.610282    -1.078329    -0.528434
N       1.655847    -0.343069    -1.223942
C       3.091483     0.872081     0.191290
O       2.329691     1.752654    -0.488010
O       4.027995     1.189106     0.866155
C       1.212422     1.037087    -1.123929
C       0.937266     1.716804    -2.451553
H       0.558809     2.723985    -2.268938
H       1.849065     1.791241    -3.044697
H       0.175834     1.169056    -3.006183
C       0.036797     1.134730    -0.136153
H      -0.248375     2.184611    -0.022610
H       0.384319     0.792317     0.842109
H      -2.611045     0.453438    -1.858123
C      -3.661556    -0.232697     2.934709
C      -2.780154    -1.238145     2.576074
C      -1.997432    -1.057304     1.444624
C      -2.091412     0.109162     0.688799
C      -2.991854     1.101745     1.075691
C      -3.784022     0.936967     2.201635
H      -2.717105    -2.138635     3.173272
H      -1.306830    -1.840285     1.144338
H      -3.072626     2.008889     0.486861
H      -4.487965     1.696901     2.515855
N      -4.501366    -0.413899     4.138074
O      -4.373437    -1.447451     4.761237
O      -5.266790     0.481601     4.429066
C      -1.192440     0.309386    -0.519100
O      -1.870671     0.995531    -1.567847
H      -0.846681    -0.671602    -0.867612
40
     -1068.751893     -1068.473811  -1.10   0.64
C       2.715655    -1.406940    -0.569568
C       2.101448     0.834407    -1.120765
C       3.627058     0.721611    -1.125584
C       3.838503    -0.771584    -1.389540
H       2.425002    -2.394797    -0.942223
H       1.729163     0.932680    -2.146920
H       1.730558     1.689245    -0.559949
H       4.090192     1.364562    -1.876998
H       4.037230     0.994691    -0.147310
H       3.695395    -1.000299    -2.449832
H       4.816000    -1.146080    -1.082481
N       1.595671    -0.450025    -0.573193
C       3.089039    -1.527402     0.908418
O       2.137472    -0.924299     1.644245
O       4.062985    -2.040727     1.376036
C       1.030012    -0.516625     0.777742
C       0.512224     0.795360     1.339803
H       1.340653     1.484554     1.513255
H      -0.215420     1.255529     0.671819
H       0.024080     0.605883     2.297358
C       0.006311    -1.668427     0.857548
H      -0.390721    -1.692385     1.875827
H       0.547292    -2.608626     0.711595
H       0.187584    -1.267734    -1.500860
C      -3.869993     1.612982     0.317307
C      -3.710084     0.704413     1.352510
C      -2.827609    -0.348439     1.176407
C      -2.106277    -0.492374    -0.009999
C      -2.300081     0.429759    -1.034176
C      -3.181845     1.491051    -0.877013
H      -4.273090     0.827435     2.268777
H      -2.705737    -1.072714     1.976948
H      -1.762970     0.306486    -1.966517
H      -3.341080     2.214965    -1.666050
N      -4.809718     2.739449     0.492753
O      -5.401706     2.817453     1.549681
O      -4.932781     3.518560    -0.429585
C      -1.140681    -1.662055    -0.171142
O      -0.644964    -1.778194    -1.487404
H      -1.724770    -2.571351     0.019078
40
     -1068.748770     -1068.472788   0.86   1.28
C       1.976286    -1.792326     0.218558
C       3.414313     0.070388    -0.152768
C       4.272778    -1.157109     0.159482
C       3.342145    -2.303853    -0.244384
H       1.151161    -2.238098    -0.348308
H       3.494002     0.320450    -1.217439
H       3.703776     0.956400     0.408704
H       5.220801    -1.156453    -0.383265
H       4.495792    -1.210054     1.230997
H       3.338871    -2.430784    -1.331224
H       3.586219    -3.262667     0.215720
N       2.015565    -0.327567     0.121955
C       1.744853    -2.059907     1.706416
O       1.824191    -3.106832     2.282775
O       1.447413    -0.897651     2.311477
C       1.316607     0.161812     1.301280
C       1.872168     1.425531     1.930398
H       2.864955     1.238391     2.344066
H       1.910885     2.237023     1.204328
H       1.213323     1.737266     2.742538
C      -0.190273     0.244730     0.996477
H      -0.729728     0.513990     1.909389
H      -0.526032    -0.755155     0.706725
H      -0.645570     3.156313    -0.327898
C      -4.512887     0.308740    -1.512288
C      -4.364309     1.103651    -0.386833
C      -3.083291     1.404466     0.049823
C      -1.967422     0.917572    -0.631175
C      -2.151907     0.126268    -1.762796
C      -3.426697    -0.187415    -2.212508
H      -5.240896     1.473212     0.129684
H      -2.944266     2.026028     0.927652
H      -1.288814    -0.247935    -2.305833
H      -3.585221    -0.801828    -3.089370
N      -5.876163    -0.018251    -1.982045
O      -6.810518     0.430409    -1.351017
O      -5.977049    -0.715705    -2.970139
C      -0.565614     1.212146    -0.125730
O      -0.462887     2.538057     0.386681
H       0.143443     1.066753    -0.950100
40
     -1068.747874     -1068.471950   1.42   1.80
C       1.392297     1.541259    -0.606487
C       1.970565    -0.342070     0.690490
C       2.098818     0.874414     1.600299
C       2.221517     2.030611     0.594101
H       0.497660     2.156382    -0.756479
H       1.555159    -1.218605     1.192923
H       2.959530    -0.607175     0.285235
H       1.190467     0.981363     2.201863
H       2.953139     0.806515     2.277129
H       1.849782     2.977693     0.987185
H       3.262464     2.180676     0.295512
N       1.043180     0.143652    -0.338629
C       2.150706     1.470363    -1.931947
O       2.824494     2.313143    -2.448325
O       1.955314     0.244204    -2.466395
C       1.003044    -0.502227    -1.631590
C       1.441979    -1.955435    -1.635453
H       0.847598    -2.539175    -0.929757
H       1.310003    -2.376712    -2.634589
H       2.493997    -2.043025    -1.364221
C      -0.369977    -0.302532    -2.291348
H      -0.277146    -0.611419    -3.339350
H      -0.610919     0.764572    -2.297595
H      -2.601849    -1.005744    -3.309698
C      -2.195426     0.092477     2.406603
C      -2.475486     1.002606     1.397492
C      -2.285739     0.613295     0.082321
C      -1.812860    -0.662765    -0.220276
C      -1.568903    -1.561004     0.812375
C      -1.752525    -1.190719     2.137764
H      -2.834710     1.991853     1.650921
H      -2.512397     1.306565    -0.720567
H      -1.227924    -2.566703     0.584305
H      -1.558122    -1.875742     2.953107
N      -2.382397     0.503481     3.812972
O      -2.779601     1.631331     4.022409
O      -2.124830    -0.310877     4.676150
C      -1.551544    -1.055495    -1.658892
O      -2.741251    -0.762809    -2.388975
H      -1.358110    -2.136223    -1.690580
40
     -1068.746902     -1068.470983   2.03   2.41
C      -1.061989     0.598675     1.757601
C      -1.837814    -1.055986     0.264184
C      -2.751017     0.153431     0.097259
C      -2.525143     0.923071     1.408829
H      -0.425538     1.488398     1.686204
H      -1.605538    -1.558282    -0.677846
H      -2.309132    -1.784880     0.941501
H      -2.421663     0.748465    -0.760686
H      -3.795375    -0.125028    -0.058646
H      -2.692238     1.996141     1.307639
H      -3.188956     0.556232     2.196260
N      -0.627631    -0.448227     0.830081
C      -0.847274    -0.031776     3.133290
O      -1.255111     0.345117     4.193044
O      -0.100699    -1.146238     2.976478
C       0.312184    -1.262114     1.570803
C       0.294521    -2.737725     1.214004
H       0.458587    -2.877135     0.143447
H       1.086453    -3.256511     1.758087
H      -0.659815    -3.189883     1.484405
C       1.724296    -0.660040     1.495497
H       2.368112    -1.200214     2.194787
H       1.680198     0.377892     1.843861
H       3.806296     0.632020     0.362270
C       0.293161     1.579933    -2.849139
C       0.818395     2.235441    -1.745602
C       1.502593     1.491626    -0.798600
C       1.656988     0.112096    -0.940931
C       1.131298    -0.508687    -2.069282
C       0.441931     0.216166    -3.031543
H       0.683123     3.304270    -1.640202
H       1.902219     2.004486     0.072478
H       1.256805    -1.579398    -2.199851
H       0.022613    -0.259011    -3.909181
N      -0.448217     2.361913    -3.859584
O      -0.898467     1.762700    -4.814309
O      -0.564071     3.555642    -3.672315
C       2.387797    -0.703966     0.111830
O       3.755984    -0.317896     0.215039
H       2.432133    -1.740711    -0.231164
40
     -1068.746666     -1068.470770   2.18   2.55
C       2.558319    -0.400659     1.024675
C       2.311031     1.786702     1.937730
C       3.605047     1.165397     2.470252
C       3.940303     0.137378     1.386818
H       2.524896    -0.852548     0.026992
H       2.549770     2.599445     1.241057
H       1.683365     2.207422     2.720390
H       4.390816     1.908522     2.622052
H       3.427265     0.661709     3.426415
H       4.387916     0.624095     0.514982
H       4.604630    -0.661219     1.719894
N       1.615285     0.716774     1.176513
C       2.067925    -1.429225     2.049726
O       2.639433    -2.405414     2.439371
O       0.856231    -1.045530     2.493421
C       0.400656     0.099473     1.698865
C      -0.441583     0.961059     2.621728
H      -0.778084     1.860402     2.102922
H      -1.321465     0.389584     2.923261
H       0.105656     1.230121     3.526027
C      -0.439338    -0.480066     0.532094
H      -1.477604    -0.574643     0.861739
H      -0.089584    -1.493369     0.313872
H       0.276003     2.024830    -0.141929
C      -3.452433    -1.081425    -3.382680
C      -2.241130    -1.752134    -3.338868
C      -1.249009    -1.267485    -2.500739
C      -1.464101    -0.134167    -1.717867
C      -2.691782     0.520931    -1.787653
C      -3.694852     0.050486    -2.622438
H      -2.089086    -2.630980    -3.952057
H      -0.290410    -1.777188    -2.461637
H      -2.857684     1.409968    -1.191102
H      -4.653679     0.548165    -2.690041
N      -4.517923    -1.588732    -4.271816
O      -5.569154    -0.982475    -4.293708
O      -4.277736    -2.582144    -4.927081
C      -0.384529     0.339844    -0.769146
O      -0.552534     1.728902    -0.536903
H       0.589154     0.168192    -1.245126
40
     -1068.745301     -1068.469914   3.03   3.08
C       1.807391    -1.193097    -1.444279
C       1.769107     0.855983    -2.658435
C       2.845368    -0.048942    -3.260895
C       2.349846    -1.439455    -2.854355
H       1.033819    -1.918156    -1.165649
H       0.904895     0.906780    -3.331375
H       2.103561     1.877149    -2.487324
H       2.944825     0.077146    -4.341373
H       3.820771     0.154311    -2.804743
H       1.536326    -1.763139    -3.510631
H       3.122743    -2.209611    -2.855773
N       1.335561     0.197389    -1.405921
C       2.916125    -1.240051    -0.392938
O       3.704571    -2.119579    -0.198616
O       2.896318    -0.090834     0.305494
C       1.741895     0.714892    -0.106871
C       2.193934     2.162430    -0.075502
H       1.407709     2.826613    -0.435027
H       2.425555     2.438715     0.955503
H       3.100463     2.292353    -0.669261
C       0.634033     0.403921     0.914138
H       0.993535     0.637109     1.923994
H       0.460735    -0.674860     0.893072
H      -0.249482     2.513966     1.960132
C      -3.980024    -1.119026     2.209765
C      -3.270211    -1.608524     1.123479
C      -2.217405    -0.856361     0.632449
C      -1.869221     0.364163     1.215511
C      -2.610369     0.832601     2.295514
C      -3.671236     0.092021     2.801887
H      -3.547728    -2.556375     0.680734
H      -1.658213    -1.218411    -0.226122
H      -2.376276     1.792880     2.739367
H      -4.256121     0.444548     3.641760
N      -5.105491    -1.912749     2.745154
O      -5.354930    -2.969760     2.203120
O      -5.711802    -1.460238     3.694110
C      -0.688598     1.136526     0.643737
O      -0.650799     2.485297     1.085696
H      -0.831171     1.192373    -0.439531
40
     -1068.746181     -1068.469571   2.48   3.30
C      -0.794052    -1.304306     1.593463
C      -1.030980    -1.534208    -0.768104
C      -1.985358    -2.515785    -0.083886
C      -2.185682    -1.863022     1.287280
H      -0.833457    -0.438310     2.264454
H      -1.591964    -0.697898    -1.202445
H      -0.451013    -1.985285    -1.571699
H      -2.916785    -2.653742    -0.637602
H      -1.510732    -3.496961     0.030415
H      -2.903616    -1.040165     1.219120
H      -2.521226    -2.550353     2.065551
N      -0.170357    -0.997673     0.304040
C       0.132373    -2.353720     2.208497
O       1.256509    -2.419113     1.468589
O      -0.064895    -3.038430     3.170059
C       1.221370    -1.377598     0.432865
C       1.867993    -1.978939    -0.802564
H       1.772484    -1.312375    -1.661719
H       2.930220    -2.145163    -0.609014
H       1.413105    -2.941013    -1.043385
C       2.039025    -0.210458     1.009793
H       3.008198    -0.613338     1.327799
H       1.537494     0.159202     1.909481
H       3.885222     1.543491     1.054694
C      -1.321280     2.898791    -1.177303
C      -0.918843     3.018165     0.145075
C       0.258595     2.404513     0.537597
C       1.019324     1.675580    -0.375684
C       0.600428     1.594005    -1.698848
C      -0.577384     2.201418    -2.112697
H      -1.523900     3.584325     0.841630
H       0.597167     2.499301     1.563598
H       1.200132     1.050744    -2.423133
H      -0.919424     2.141681    -3.138018
N      -2.581066     3.542589    -1.602926
O      -2.919393     3.405074    -2.760986
O      -3.203288     4.168516    -0.769810
C       2.287858     0.981485     0.073339
O       3.071549     1.960019     0.753603
H       2.825655     0.638955    -0.821118
40
     -1068.745202     -1068.469016   3.10   3.65
C       0.688250    -0.990860     1.829650
C       1.270994    -1.499494    -0.425845
C       1.727056    -2.654988     0.468389
C       0.798582    -2.509788     1.677888
H      -0.253767    -0.691227     2.304342
H       0.394167    -1.795804    -1.014764
H       2.035507    -1.171454    -1.128159
H       1.647189    -3.626659    -0.024247
H       2.770140    -2.515013     0.773974
H      -0.187957    -2.927969     1.456307
H       1.174539    -2.976842     2.589576
N       0.859999    -0.419927     0.492490
C       1.845141    -0.396929     2.633606
O       2.225281    -0.717030     3.722596
O       2.418734     0.577424     1.902669
C       1.649697     0.783137     0.668170
C       2.660995     1.079606    -0.425365
H       3.443662     0.319276    -0.439752
H       2.181280     1.119011    -1.405336
H       3.129531     2.046524    -0.229891
C       0.733350     1.985106     0.952582
H       1.352112     2.822744     1.285895
H       0.073231     1.723980     1.787705
H      -1.458386     3.533039     0.719464
C      -2.937104    -0.416578    -1.670299
C      -3.054276     0.043806    -0.367274
C      -2.137453     0.975759     0.089416
C      -1.113431     1.442523    -0.736005
C      -1.034418     0.966990    -2.040810
C      -1.941794     0.032179    -2.520262
H      -3.848072    -0.331031     0.266136
H      -2.221296     1.325583     1.115016
H      -0.250429     1.331121    -2.697833
H      -1.886238    -0.346721    -3.532803
N      -3.904708    -1.417512    -2.165220
O      -3.764525    -1.819622    -3.301814
O      -4.779193    -1.777600    -1.404656
C      -0.110826     2.467864    -0.233954
O      -0.748723     3.700607     0.091013
H       0.553155     2.726769    -1.062599
40
     -1068.745064     -1068.467876   3.18   4.36
C       2.463033    -1.358341    -0.030258
C       1.878736     0.763317     0.887864
C       3.329120     0.439596     1.262046
C       3.739842    -0.545499     0.163565
H       2.394444    -1.828558    -1.016288
H       1.851597     1.592608     0.170489
H       1.277340     1.061608     1.744970
H       3.958944     1.331203     1.302773
H       3.374339    -0.050179     2.240916
H       3.981359    -0.015218    -0.762596
H       4.585159    -1.181869     0.430654
N       1.344953    -0.443897     0.218950
C       2.296285    -2.429850     1.053149
O       1.079802    -2.281443     1.615163
O       3.085395    -3.261749     1.398926
C       0.335562    -1.260345     0.854119
C      -0.560132    -0.547740     1.854304
H      -1.016525     0.337472     1.410187
H      -1.355469    -1.222847     2.175308
H       0.011112    -0.258263     2.737769
C      -0.464618    -2.066681    -0.197068
H      -1.318610    -2.520167     0.314194
H       0.156953    -2.894316    -0.549353
H      -0.194857    -0.933553    -3.208304
C      -2.869985     2.402425    -0.676842
C      -1.547252     2.403321    -1.087761
C      -0.929739     1.188370    -1.349106
C      -1.628052    -0.007747    -1.200819
C      -2.961752     0.026673    -0.796571
C      -3.593944     1.230840    -0.525829
H      -1.018520     3.341917    -1.194951
H       0.107829     1.157710    -1.656138
H      -3.518882    -0.900544    -0.691907
H      -4.627582     1.272056    -0.207609
N      -3.532872     3.693826    -0.393547
O      -2.877631     4.704795    -0.537081
O      -4.691592     3.662126    -0.034226
C      -0.959213    -1.347598    -1.459785
O       0.136126    -1.244890    -2.360255
H      -1.720704    -2.008573    -1.899056
40
     -1068.741834     -1068.464792   5.21   6.30
C       2.658636    -0.165732    -0.053577
C       2.444694    -1.169518    -2.163312
C       3.933706    -0.918174    -1.962448
C       3.947147     0.134534    -0.841652
H       2.875205    -0.454865     0.979811
H       2.223361    -2.100521    -2.689784
H       2.009063    -0.335117    -2.734797
H       4.422957    -1.838868    -1.630961
H       4.428541    -0.576059    -2.873783
H       4.833908     0.065793    -0.210228
H       3.909456     1.147335    -1.250752
N       1.943891    -1.228777    -0.778793
C       1.651697     0.985740    -0.029353
O       0.455458     0.512057    -0.433540
O       1.837553     2.128761     0.272622
C       0.533477    -0.947022    -0.550035
C      -0.382856    -1.352747    -1.689475
H      -1.392391    -0.981523    -1.497853
H      -0.060907    -0.916841    -2.633937
H      -0.398846    -2.441187    -1.792931
C       0.145013    -1.573155     0.805110
H       0.788650    -1.127042     1.568352
H       0.414060    -2.631779     0.757116
H      -2.046362    -2.440468    -0.256737
C      -3.054129     2.417137     1.338286
C      -1.853896     2.201416     1.999980
C      -1.305484     0.932233     1.975437
C      -1.932699    -0.111624     1.291941
C      -3.140337     0.136228     0.647795
C      -3.709997     1.403809     0.665045
H      -1.366467     3.018535     2.515508
H      -0.365080     0.761526     2.490229
H      -3.656571    -0.671304     0.142754
H      -4.649821     1.607199     0.167990
N      -3.652615     3.767659     1.359574
O      -4.704375     3.926780     0.774403
O      -3.056909     4.637452     1.961262
C      -1.311318    -1.504501     1.305427
O      -2.139532    -2.485205     0.698401
H      -1.275880    -1.812162     2.356903
40
     -1068.729207     -1068.454196  13.13  12.95
C       1.511861    -1.362510    -1.460617
C       3.443013     0.132772    -1.592991
C       3.907911    -1.316912    -1.466241
C       2.723494    -2.108760    -2.023534
H       0.642660    -1.437999    -2.113315
H       3.649153     0.539711    -2.588033
H       3.867828     0.792915    -0.836689
H       4.839270    -1.488576    -2.008867
H       4.063249    -1.563780    -0.413265
H       2.720527    -2.080327    -3.118895
H       2.710008    -3.150654    -1.704743
N       1.972857     0.047640    -1.411457
C       1.118666    -1.888731    -0.029265
O       0.490764    -2.943332    -0.055157
O       1.502740    -1.184986     0.941320
C       1.226501     1.054176    -1.125643
C       1.788767     2.438768    -1.095359
H       2.143283     2.635914    -0.077809
H       2.611803     2.573105    -1.797211
H       1.002677     3.162813    -1.318522
C      -0.214548     0.883069    -0.766651
H      -0.516409    -0.160303    -0.815428
H      -0.821746     1.445958    -1.485359
H       0.950133     0.310323     1.418967
C      -4.138529    -0.292815     2.049427
C      -4.147583     1.012760     1.590687
C      -2.949301     1.568765     1.162617
C      -1.768344     0.832969     1.195192
C      -1.790184    -0.480699     1.667719
C      -2.978373    -1.050547     2.096396
H      -5.073858     1.572747     1.572586
H      -2.936939     2.595296     0.806738
H      -0.879378    -1.069100     1.697749
H      -3.011812    -2.069289     2.460084
N      -5.408615    -0.898726     2.504780
O      -5.376049    -2.044830     2.901444
O      -6.408975    -0.212316     2.454043
C      -0.475874     1.439673     0.670936
O       0.624348     1.241440     1.513786
H      -0.614997     2.524380     0.600578
40
     -1068.729207     -1068.454196  13.13  12.95
C      -1.840871    -1.202722    -1.200014
C      -1.237065    -0.708363    -3.518155
C      -1.727291    -2.150270    -3.398291
C      -2.619487    -2.108940    -2.156228
H      -2.497855    -0.661110    -0.520124
H      -1.950745    -0.080727    -4.061232
H      -0.253474    -0.620896    -3.979835
H      -2.251976    -2.471996    -4.299700
H      -0.877556    -2.815934    -3.228956
H      -3.595130    -1.671297    -2.395435
H      -2.780852    -3.087802    -1.705513
N      -1.170751    -0.241507    -2.111313
C      -0.792804    -2.016660    -0.351872
O       0.401086    -1.957059    -0.746687
O      -1.295852    -2.622873     0.589702
C      -0.510776     0.793292    -1.729896
C       0.135521     1.698688    -2.728251
H      -0.405558     1.735464    -3.673720
H       0.213328     2.707374    -2.317786
H       1.152579     1.332592    -2.905798
C      -0.320224     1.109935    -0.281379
H      -0.825629     0.387243     0.354550
H      -0.751210     2.097995    -0.081219
H       1.452353    -0.668959    -0.675057
C       1.551017     0.690151     4.304767
C       1.698722     1.949792     3.751109
C       1.601484     2.078542     2.371893
C       1.363093     0.969229     1.565847
C       1.223059    -0.289589     2.153425
C       1.315306    -0.434211     3.528510
H       1.885048     2.802857     4.391000
H       1.722768     3.059116     1.919858
H       1.034622    -1.164345     1.540253
H       1.203545    -1.402580     3.998607
N       1.648417     0.539311     5.772880
O       1.856599     1.540085     6.428293
O       1.514371    -0.574345     6.235222
C       1.204816     1.137475     0.062500
O       1.925026     0.201939    -0.689996
H       1.602352     2.121109    -0.211955
40
     -1068.727422     -1068.452751  14.25  13.85
C       0.996290     2.168890     0.787830
C       3.230151     1.441793     1.456545
C       3.085631     2.927973     1.763856
C       1.966922     3.357967     0.813492
H       0.198114     2.288672     1.521755
H       3.669120     0.860675     2.266740
H       3.801527     1.276847     0.537842
H       2.786605     3.066810     2.808454
H       4.020366     3.467523     1.601698
H       1.457314     4.271305     1.119977
H       2.367096     3.517706    -0.192303
N       1.837663     1.012959     1.200279
C       0.381285     1.979903    -0.639716
O      -0.664181     2.597329    -0.827324
O       1.054247     1.247839    -1.412737
C       1.438313    -0.207878     1.257283
C       2.393978    -1.290633     1.655179
H       2.720364    -1.149335     2.690205
H       1.918328    -2.266240     1.575705
H       3.271744    -1.281448     1.005484
C       0.030545    -0.601466     0.944399
H      -0.588274     0.259743     0.701975
H      -0.391290    -1.074565     1.840267
H       1.067759    -0.421500    -1.372153
C      -3.906992    -1.685757    -1.924487
C      -3.530751    -2.705842    -1.068146
C      -2.247137    -2.680361    -0.540047
C      -1.359839    -1.656967    -0.862837
C      -1.767364    -0.644581    -1.732502
C      -3.046159    -0.654467    -2.266602
H      -4.230604    -3.495703    -0.826978
H      -1.931753    -3.477812     0.127354
H      -1.093448     0.165643    -1.988483
H      -3.378668     0.127534    -2.936749
N      -5.272663    -1.697360    -2.492268
O      -5.580600    -0.792459    -3.239506
O      -6.005242    -2.612836    -2.176149
C       0.022991    -1.630633    -0.230140
O       1.065764    -1.382591    -1.131412
H       0.212848    -2.626675     0.184221
40
     -1068.719805     -1068.446598  19.03  17.71
C       2.383148     0.237314     1.710423
C       2.771087     0.587714    -0.671674
C       3.600884     1.577650     0.146516
C       3.755952     0.874202     1.496947
H       2.424305    -0.638897     2.353857
H       3.401788    -0.132261    -1.202569
H       2.098769     1.071356    -1.380461
H       4.553670     1.797076    -0.339235
H       3.045326     2.509169     0.271878
H       4.538767     0.108249     1.450878
H       3.986922     1.557151     2.314160
N       1.974636    -0.149183     0.340858
C       1.353079     1.282397     2.301425
O       1.458631     1.421818     3.520175
O       0.600395     1.821010     1.459422
C       0.983301    -0.908741     0.044242
C       0.662973    -1.171688    -1.396795
H       1.567610    -1.426087    -1.955782
H      -0.058848    -1.982013    -1.485530
H       0.221286    -0.278356    -1.848540
C       0.156381    -1.575998     1.102750
H       0.721176    -1.706326     2.025426
H      -0.120657    -2.568099     0.732755
H      -2.543821    -1.290922     2.763988
C      -3.359932     0.277747    -2.016050
C      -2.571800     1.226462    -1.386137
C      -1.875690     0.861293    -0.241418
C      -1.968243    -0.439968     0.250918
C      -2.777573    -1.371686    -0.397716
C      -3.480669    -1.018691    -1.540402
H      -2.510558     2.229835    -1.787440
H      -1.240763     1.576528     0.274109
H      -2.862161    -2.377094     0.001632
H      -4.114848    -1.725982    -2.059378
N      -4.103021     0.661765    -3.237136
O      -3.963032     1.795081    -3.646370
O      -4.805576    -0.180909    -3.755546
C      -1.156203    -0.837330     1.469719
O      -1.847608    -1.763601     2.296639
H      -0.899082     0.070015     2.019458
40
     -1068.719805     -1068.446592  19.03  17.72
C       2.134739    -1.006188    -1.758824
C       2.690717     0.999930    -0.488408
C       3.896414     0.061069    -0.541237
C       3.643237    -0.765090    -1.804520
H       1.707835    -1.171980    -2.745594
H       2.870912     1.926850    -1.041903
H       2.375837     1.240405     0.527132
H       4.835064     0.617905    -0.568988
H       3.896638    -0.588449     0.336388
H       3.921442    -0.201165    -2.702410
H       4.177681    -1.714778    -1.812238
N       1.610484     0.249795    -1.176128
C       1.778140    -2.224247    -0.814426
O       1.918689    -3.315488    -1.367035
O       1.424466    -1.912315     0.344524
C       0.375152     0.596589    -1.139254
C      -0.008752     1.882065    -0.469564
H       0.646225     2.697295    -0.788861
H      -1.042775     2.136613    -0.696564
H       0.079981     1.776777     0.615909
C      -0.696177    -0.231214    -1.784612
H      -0.295617    -0.836863    -2.597045
H      -1.437289     0.454286    -2.207415
H      -2.894401    -2.451765    -1.177381
C      -2.702216     0.809423     2.734482
C      -3.480876     0.932570     1.594266
C      -3.079895     0.266979     0.444972
C      -1.918397    -0.504234     0.442969
C      -1.161129    -0.621846     1.607847
C      -1.549816     0.041898     2.763994
H      -4.379098     1.536235     1.618002
H      -3.676553     0.338256    -0.458577
H      -0.258136    -1.225818     1.591373
H      -0.974182    -0.032480     3.677594
N      -3.120139     1.519711     3.963928
O      -4.146540     2.165360     3.918318
O      -2.410104     1.414627     4.941829
C      -1.448269    -1.190064    -0.826448
O      -2.532297    -1.671491    -1.609361
H      -0.770995    -1.999162    -0.546735
40
     -1068.719805     -1068.446590  19.03  17.72
C       2.429445    -0.052974    -1.660662
C       2.359531     1.705885     0.027281
C       3.770029     1.122882    -0.065248
C       3.821809     0.552046    -1.484396
H       2.123523    -0.101024    -2.703520
H       2.324693     2.745545    -0.313165
H       1.929765     1.637954     1.026773
H       4.529728     1.883954     0.123243
H       3.885602     0.319668     0.665224
H       3.998108     1.346466    -2.218854
H       4.585888    -0.214332    -1.612637
N       1.558914     0.881615    -0.911946
C       2.346224    -1.495191    -1.015836
O       2.802045    -2.373883    -1.748003
O       1.851488    -1.536027     0.132693
C       0.276069     0.900886    -0.952159
C      -0.472498     1.878869    -0.096871
H      -0.035828     2.878164    -0.176158
H      -1.520907     1.916349    -0.388348
H      -0.426854     1.567499     0.951061
C      -0.498245    -0.003751    -1.864048
H       0.097083    -0.304016    -2.725868
H      -1.365185     0.555182    -2.230015
H      -2.070480    -2.769865    -1.953617
C      -2.985297    -0.481335     2.508091
C      -1.676128    -0.932836     2.522479
C      -1.055596    -1.216913     1.313119
C      -1.742948    -1.039298     0.113025
C      -3.063815    -0.593301     0.129007
C      -3.696245    -0.309010     1.330622
H      -1.159335    -1.059694     3.465020
H      -0.026623    -1.564612     1.285311
H      -3.600666    -0.476662    -0.806764
H      -4.721004     0.037970     1.366002
N      -3.650770    -0.176158     3.794452
O      -3.000427    -0.312894     4.809264
O      -4.805733     0.193967     3.755529
C      -1.031112    -1.300012    -1.201546
O      -1.899949    -1.850537    -2.182311
H      -0.184303    -1.960570    -1.006222
40
     -1068.721531     -1068.446566  17.95  17.73
C       2.516588    -0.197179    -1.840150
C       2.425573     2.099108    -0.979640
C       3.881346     1.645153    -1.069503
C       3.840225     0.520797    -2.107802
H       2.061991    -0.589920    -2.748345
H       2.183507     2.854153    -1.734925
H       2.152603     2.476064     0.005816
H       4.536492     2.469008    -1.359367
H       4.200759     1.246752    -0.106451
H       3.852962     0.927447    -3.124986
H       4.677445    -0.170672    -2.007744
N       1.645385     0.875679    -1.282339
C       2.617630    -1.326415    -0.748998
O       2.249550    -2.455496    -1.132189
O       2.992737    -0.924943     0.362493
C       0.401694     0.722349    -0.988297
C      -0.365722     1.851797    -0.373068
H      -0.066605     1.972870     0.673133
H      -0.170417     2.794871    -0.889496
H      -1.433595     1.636710    -0.390952
C      -0.284315    -0.582980    -1.209287
H       0.241901    -1.186093    -1.945407
H      -1.300028    -0.392707    -1.566508
H       0.530126    -3.004185    -0.554646
C      -3.832123    -0.442581     2.361772
C      -2.596945    -0.033866     2.831325
C      -1.466269    -0.377832     2.100862
C      -1.573962    -1.108788     0.921980
C      -2.833562    -1.518903     0.484143
C      -3.972361    -1.187683     1.200180
H      -2.529950     0.535571     3.749504
H      -0.485467    -0.084933     2.464556
H      -2.915134    -2.115611    -0.418220
H      -4.957454    -1.497958     0.876038
N      -5.043863    -0.080496     3.129863
O      -4.892935     0.569209     4.143625
O      -6.114802    -0.454222     2.699256
C      -0.344723    -1.442630     0.106701
O      -0.374634    -2.802241    -0.238465
H       0.546360    -1.219207     0.705538
40
     -1068.721482     -1068.445907  17.98  18.15
C       2.424320     1.702063     0.950028
C       2.771009     1.312147    -1.436456
C       4.004844     2.008890    -0.874960
C       3.465208     2.678879     0.391856
H       2.839563     1.058064     1.725791
H       2.994022     0.473819    -2.096039
H       2.110189     2.020154    -1.945174
H       4.773947     1.267643    -0.631465
H       4.428032     2.717755    -1.588809
H       4.240554     2.888088     1.129851
H       2.966343     3.617802     0.141146
N       2.070225     0.845587    -0.221224
C       1.109490     2.409171     1.445359
O       0.521002     3.033208     0.550456
O       0.807177     2.200044     2.637509
C       1.209611    -0.110895    -0.195564
C       0.883929    -0.862075    -1.450550
H       1.728632    -1.506188    -1.720601
H       0.009352    -1.491729    -1.295467
H       0.693699    -0.183539    -2.285171
C       0.522753    -0.500838     1.068972
H       1.085305    -0.170032     1.939400
H       0.441855    -1.591906     1.094936
H      -0.646899     1.028909     2.859909
C      -3.830730    -2.402986    -0.626557
C      -3.462793    -1.238068    -1.275731
C      -2.524391    -0.412376    -0.669290
C      -1.963133    -0.751926     0.558122
C      -2.365685    -1.927315     1.192575
C      -3.301818    -2.762330     0.604100
H      -3.907775    -0.988353    -2.230419
H      -2.235658     0.515480    -1.154902
H      -1.949927    -2.176686     2.162904
H      -3.626987    -3.677164     1.082746
N      -4.829164    -3.290694    -1.262839
O      -5.138599    -4.303694    -0.671197
O      -5.277465    -2.951819    -2.338378
C      -0.913364     0.130398     1.195501
O      -1.217892     0.292757     2.555845
H      -0.908782     1.099760     0.683785
40
     -1068.721843     -1068.445821  17.75  18.20
C       1.725894    -2.102101     0.237622
C       1.464779    -1.230631    -2.036772
C       1.537943    -2.754384    -2.063389
C       2.302649    -3.076032    -0.781299
H       0.758434    -2.446351     0.601819
H       0.583019    -0.824233    -2.533748
H       2.360996    -0.783854    -2.476558
H       0.530687    -3.183251    -2.031916
H       2.030799    -3.114631    -2.968428
H       2.172608    -4.105443    -0.444353
H       3.372522    -2.880928    -0.893092
N       1.441785    -0.881735    -0.589442
C       2.680860    -1.797670     1.437577
O       3.811391    -1.417422     1.123824
O       2.155434    -1.943902     2.570288
C       1.203135     0.314502    -0.174703
C       0.887165     1.376534    -1.189100
H      -0.127260     1.217000    -1.570794
H       0.916347     2.362779    -0.730009
H       1.578793     1.348582    -2.033662
C       1.191581     0.722995     1.270677
H       1.320332     1.806714     1.299022
H       2.022153     0.280075     1.816179
H       0.540244    -1.410144     2.468545
C      -3.382426     2.128503    -0.132754
C      -3.210194     0.756100    -0.190284
C      -2.171156     0.183391     0.531338
C      -1.317976     0.976202     1.295478
C      -1.528366     2.354262     1.344230
C      -2.559859     2.943055     0.629536
H      -3.882474     0.153903    -0.788059
H      -2.024770    -0.889698     0.516373
H      -0.879919     2.978560     1.953484
H      -2.733852     4.011028     0.656016
N      -4.483452     2.745333    -0.903260
O      -5.182602     2.010989    -1.569445
O      -4.618871     3.948496    -0.823211
C      -0.130627     0.369943     2.018023
O      -0.315079    -1.004939     2.154006
H      -0.040668     0.858404     3.000246
40
     -1068.720910     -1068.445425  18.34  18.45
C       0.858135    -0.438633     2.384218
C      -1.566969    -0.732705     2.269820
C      -1.111610    -0.932197     3.709770
C       0.217967    -0.179411     3.752770
H       1.318425     0.453347     1.970236
H      -2.020048     0.253288     2.117997
H      -2.253400    -1.503289     1.921613
H      -1.847119    -0.550127     4.420453
H      -0.943570    -1.994344     3.898195
H       0.050933     0.893421     3.896110
H       0.871165    -0.533396     4.550438
N      -0.298517    -0.790403     1.501310
C       1.887949    -1.616751     2.398277
O       3.020599    -1.320732     1.942842
O       1.447772    -2.689713     2.820918
C      -0.234556    -1.158132     0.269404
C      -1.499693    -1.378993    -0.503956
H      -1.314792    -1.181281    -1.560073
H      -1.794102    -2.431215    -0.405111
H      -2.321284    -0.750594    -0.161642
C       1.046025    -1.454561    -0.461784
H       0.771743    -2.068084    -1.324326
H       1.715739    -2.046612     0.161513
H       2.841303    -0.136081     0.695357
C      -0.846459     2.244623    -3.212469
C      -0.508364     2.619855    -1.923384
C       0.386586     1.831685    -1.213148
C       0.932921     0.686401    -1.787594
C       0.582586     0.343643    -3.092972
C      -0.311884     1.117800    -3.816637
H      -0.939789     3.514213    -1.492400
H       0.680124     2.114207    -0.209443
H       1.019111    -0.538125    -3.554980
H      -0.595125     0.863635    -4.829897
N      -1.802996     3.077464    -3.973319
O      -2.080459     2.724925    -5.100769
O      -2.252199     4.061050    -3.423319
C       1.842714    -0.224512    -0.988605
O       2.460988     0.499869     0.030370
H       2.590157    -0.649536    -1.675782
40
     -1068.715969     -1068.442544  21.44  20.26
C      -1.505992    -1.725918     0.367502
C      -1.072101    -3.496873    -1.265603
C      -2.069025    -3.989582    -0.218241
C      -2.688085    -2.695262     0.313657
H      -1.810532    -0.695700     0.200062
H      -1.542537    -3.349595    -2.243225
H      -0.206267    -4.149810    -1.372686
H      -2.803251    -4.669227    -0.655376
H      -1.532954    -4.501055     0.582570
H      -3.461380    -2.323781    -0.368474
H      -3.133264    -2.813069     1.302054
N      -0.637970    -2.175866    -0.748467
C      -0.708216    -1.818750     1.727416
O      -0.953089    -0.880279     2.502127
O       0.049345    -2.798350     1.813243
C       0.434255    -1.570316    -1.113122
C       1.280067    -2.083646    -2.231721
H       1.648385    -1.229964    -2.804534
H       2.146023    -2.598305    -1.798545
H       0.754430    -2.770344    -2.893500
C       0.893578    -0.324028    -0.414820
H       1.962250    -0.192305    -0.605768
H       0.750203    -0.416198     0.660440
H      -0.049057     1.770567    -2.670417
C       1.268027     4.220624     1.591363
C       1.785494     4.172690     0.309155
C       1.427766     3.110077    -0.511397
C       0.561979     2.124094    -0.049394
C       0.059893     2.192813     1.252376
C       0.413776     3.244852     2.081683
H       2.456095     4.951257    -0.031329
H       1.834273     3.045756    -1.514356
H      -0.586889     1.406536     1.636159
H       0.041140     3.313029     3.095313
N       1.646899     5.347838     2.472420
O       1.184722     5.364141     3.593877
O       2.397013     6.187735     2.019524
C       0.170347     0.938056    -0.913224
O       0.506451     1.085754    -2.284637
H      -0.911798     0.792400    -0.812107
40
     -1068.715938     -1068.442394  21.46  20.35
C       1.898206    -1.343688     0.920586
C       3.062270    -2.165466    -1.071020
C       3.346536    -3.089857     0.107760
C       3.116045    -2.178471     1.311247
H       0.977561    -1.880130     1.152713
H       2.715460    -2.691586    -1.960523
H       3.936761    -1.557972    -1.321156
H       2.638291    -3.925536     0.111028
H       4.356541    -3.501593     0.059883
H       2.934070    -2.718634     2.240874
H       3.969557    -1.511408     1.462134
N       2.005083    -1.251537    -0.565295
C       1.907412     0.076873     1.594596
O       1.047924     0.230878     2.477911
O       2.769277     0.841924     1.132228
C       1.339567    -0.444562    -1.313976
C       1.565980    -0.394204    -2.791120
H       1.630895     0.652813    -3.097528
H       2.453281    -0.922203    -3.130996
H       0.678051    -0.818323    -3.273892
C       0.283112     0.489646    -0.791233
H      -0.088954     1.075398    -1.635079
H       0.735762     1.180753    -0.077800
H      -2.068476    -1.699127    -0.722133
C      -3.829138     2.712383     0.897919
C      -3.930372     2.099874    -0.340151
C      -2.992581     1.134194    -0.679473
C      -1.979901     0.792898     0.213424
C      -1.901212     1.423920     1.455171
C      -2.829530     2.393517     1.803365
H      -4.726964     2.380813    -1.017147
H      -3.047368     0.644284    -1.645728
H      -1.098112     1.157383     2.137736
H      -2.785782     2.899112     2.759242
N      -4.823143     3.745492     1.265136
O      -5.688879     4.006156     0.455154
O      -4.713177     4.270092     2.353536
C      -0.915398    -0.223191    -0.148923
O      -1.350506    -1.185771    -1.106234
H      -0.598156    -0.705139     0.777766
40
     -1068.715938     -1068.442390  21.46  20.35
C       1.513546    -1.837676     0.767650
C       2.690845    -0.872178     2.685627
C       3.526713    -1.995874     2.082750
C       2.477289    -2.852986     1.378344
H       1.882056    -1.496167    -0.200246
H       3.244561     0.057681     2.816213
H       2.247486    -1.172707     3.639288
H       4.243566    -1.587675     1.362002
H       4.086522    -2.534863     2.849583
H       2.890346    -3.506825     0.609595
H       1.932705    -3.469942     2.098773
N       1.584816    -0.683293     1.711101
C       0.050776    -2.401493     0.646289
O      -0.528622    -2.522112     1.737926
O      -0.315286    -2.631193    -0.518149
C       0.765579     0.307911     1.742798
C       0.895076     1.386752     2.769967
H       1.228152     2.293949     2.252834
H      -0.095373     1.595339     3.182085
H       1.579834     1.157806     3.582553
C      -0.362073     0.482307     0.762947
H      -0.910698     1.383892     1.045371
H      -1.045063    -0.365056     0.846630
H       1.435797     1.787150    -1.558795
C      -3.325831     1.452205    -3.107522
C      -2.952933     0.138297    -2.872371
C      -1.826814    -0.105601    -2.100669
C      -1.095268     0.958835    -1.573304
C      -1.493424     2.269892    -1.822084
C      -2.616207     2.526512    -2.597079
H      -3.538082    -0.671528    -3.288332
H      -1.512614    -1.124439    -1.888169
H      -0.924323     3.094468    -1.406318
H      -2.944172     3.536980    -2.804925
N      -4.526060     1.717987    -3.931559
O      -4.831170     2.877122    -4.123453
O      -5.133202     0.761575    -4.365798
C       0.098190     0.648488    -0.692275
O       1.075207     1.686474    -0.672010
H       0.528150    -0.290011    -1.047265
40
     -1068.716427     -1068.441186  21.15  21.11
C       1.215604     0.030786     2.435591
C       0.509392     2.252692     1.675631
C       0.094583     2.056062     3.133622
C       1.042409     0.962178     3.634082
H       2.193180    -0.448675     2.404369
H       1.288540     3.014559     1.572281
H      -0.325191     2.500756     1.018995
H       0.186893     2.986536     3.697715
H      -0.934060     1.701234     3.179996
H       2.009313     1.385159     3.929085
H       0.634662     0.416706     4.485601
N       1.088438     0.947160     1.269779
C       0.078464    -1.053475     2.298672
O      -1.072425    -0.591433     2.300159
O       0.495100    -2.216264     2.139062
C       1.376973     0.642700     0.053696
C       1.188789     1.663196    -1.024347
H       1.487302     2.657743    -0.687664
H       1.756695     1.387193    -1.910589
H       0.128684     1.697776    -1.297336
C       1.937651    -0.710334    -0.281282
H       1.740473    -1.410899     0.532013
H       3.025043    -0.587340    -0.381856
H       2.111742    -1.357812    -3.435024
C      -2.811642    -0.981463    -1.967173
C      -2.018368    -0.457553    -2.973526
C      -0.639521    -0.577788    -2.861441
C      -0.071739    -1.221420    -1.764358
C      -0.898088    -1.754367    -0.774673
C      -2.274411    -1.623750    -0.863521
H      -2.476893     0.039733    -3.818716
H      -0.004261    -0.149094    -3.628155
H      -0.474785    -2.254095     0.092277
H      -2.917746    -2.002928    -0.081368
N      -4.281047    -0.844776    -2.075374
O      -4.957193    -1.314601    -1.184969
O      -4.721703    -0.270180    -3.050171
C       1.436918    -1.339263    -1.597377
O       2.168183    -0.768945    -2.676909
H       1.684048    -2.405720    -1.516802
40
     -1068.715841     -1068.440869  21.52  21.31
C       1.197625     1.302391     2.098331
C       1.350827     2.518068    -0.025282
C       0.998882     3.494910     1.097163
C       1.476387     2.780070     2.364896
H       1.903197     0.636094     2.593206
H       2.348304     2.707533    -0.433813
H       0.623814     2.515672    -0.838114
H       1.488807     4.459132     0.946251
H      -0.080007     3.636418     1.138590
H       2.548273     2.940489     2.526636
H       0.943229     3.114318     3.255338
N       1.369370     1.183076     0.625015
C      -0.281837     0.855345     2.415601
O      -1.154602     1.568756     1.899859
O      -0.368645    -0.198176     3.075300
C       1.451086     0.075130    -0.023696
C       1.588685     0.106642    -1.513430
H       2.251488     0.911864    -1.835454
H       1.957988    -0.848119    -1.881832
H       0.600502     0.278360    -1.953610
C       1.447289    -1.237199     0.711230
H       0.988819    -1.115121     1.695857
H       2.501585    -1.513315     0.861642
H       2.221967    -3.543048    -0.644273
C      -3.028865    -1.207189    -1.600700
C      -2.140869    -1.858979    -2.439029
C      -0.914720    -2.262107    -1.926886
C      -0.592951    -2.016693    -0.594293
C      -1.517389    -1.378143     0.234232
C      -2.737868    -0.958203    -0.269201
H      -2.408468    -2.039841    -3.472194
H      -0.202830    -2.766670    -2.568187
H      -1.292654    -1.189458     1.280321
H      -3.446316    -0.437285     0.360412
N      -4.331296    -0.765923    -2.145724
O      -4.561783    -1.003083    -3.314127
O      -5.091415    -0.193154    -1.393650
C       0.753755    -2.412164    -0.016048
O       1.564966    -2.968068    -1.045843
H       0.575672    -3.172329     0.755505
40
     -1068.714888     -1068.439794  22.12  21.98
C       1.611978    -0.969747     1.918617
C       0.246126     0.898321     2.630474
C       1.032557     0.425668     3.846765
C       1.457456    -0.993418     3.447823
H       2.653066    -0.988423     1.598172
H       0.155924     1.979104     2.546444
H      -0.742251     0.431189     2.589469
H       1.903982     1.071790     4.000302
H       0.425465     0.450118     4.753396
H       2.383972    -1.306905     3.931171
H       0.674763    -1.708234     3.706591
N       1.023658     0.337438     1.506043
C       0.780650    -2.093603     1.186759
O      -0.418065    -2.107772     1.505626
O       1.415076    -2.754987     0.344288
C       1.118181     0.860418     0.334639
C       0.474602     2.186094     0.057082
H       0.836620     2.940844     0.760999
H       0.704128     2.515420    -0.952721
H      -0.610362     2.104690     0.168621
C       1.906795     0.177987    -0.746226
H       2.087721    -0.864524    -0.479796
H       2.872478     0.697441    -0.817230
H       1.502071     1.381520    -3.715114
C      -2.927604    -0.559326    -2.012459
C      -2.500273     0.638979    -2.558569
C      -1.136532     0.892941    -2.615247
C      -0.221340    -0.044368    -2.141042
C      -0.681901    -1.251031    -1.614414
C      -2.040552    -1.508814    -1.532276
H      -3.225720     1.355858    -2.921465
H      -0.788889     1.837852    -3.016991
H       0.017354    -1.991918    -1.236908
H      -2.403473    -2.426453    -1.090026
N      -4.380511    -0.828784    -1.937398
O      -5.133148     0.027009    -2.356716
O      -4.733120    -1.887431    -1.462344
C       1.278302     0.218608    -2.156192
O       1.623634     1.458153    -2.764141
H       1.757184    -0.601708    -2.706002
40
     -1068.712424     -1068.439037  23.66  22.46
C       1.842322    -1.088954     0.510670
C       3.326258    -1.267319    -1.426735
C       3.977401    -1.924010    -0.209289
C       2.786870    -2.277492     0.686038
H       0.796604    -1.362992     0.636827
H       3.050679    -1.999838    -2.191979
H       3.945703    -0.489240    -1.872075
H       4.570348    -2.794482    -0.496908
H       4.618985    -1.200182     0.294711
H       2.307317    -3.204498     0.351223
H       3.065139    -2.396405     1.733635
N       2.082711    -0.662846    -0.888324
C       2.192677     0.114202     1.476033
O       1.432696     0.192812     2.454728
O       3.153544     0.807784     1.107805
C       1.386376     0.236070    -1.483419
C       1.701939     0.678650    -2.873824
H       0.766642     0.788377    -3.427391
H       2.177671     1.664882    -2.819248
H       2.361150    -0.003979    -3.406982
C       0.221358     0.871444    -0.781657
H       0.030882     1.850518    -1.234365
H       0.463537     1.039446     0.265601
H      -1.793627     0.928608    -2.475494
C      -4.052975     1.123923     1.948390
C      -2.759152     0.882761     2.380996
C      -1.794438     0.530193     1.450050
C      -2.125438     0.428963     0.094848
C      -3.439316     0.660913    -0.306000
C      -4.413843     1.014205     0.618203
H      -2.516814     0.970322     3.432037
H      -0.784205     0.336906     1.804892
H      -3.720739     0.543427    -1.345999
H      -5.437714     1.197573     0.318726
N      -5.083200     1.502141     2.941177
O      -6.208707     1.702929     2.533609
O      -4.740403     1.588808     4.101391
C      -1.060483     0.017287    -0.915929
O      -1.514847     0.031468    -2.259621
H      -0.812907    -1.032376    -0.726353
40
     -1068.714246     -1068.438901  22.52  22.54
C       1.699033    -1.158899     1.741935
C       0.005796     0.220646     2.780093
C       0.848191    -0.373536     3.901964
C       1.543430    -1.558561     3.218400
H       2.728910    -0.930958     1.469600
H      -0.287258     1.255940     2.938773
H      -0.873714    -0.396086     2.573262
H       1.577523     0.365775     4.251054
H       0.232579    -0.673052     4.751898
H       2.510450    -1.793043     3.665933
H       0.913944    -2.448016     3.273066
N       0.893854     0.088676     1.606433
C       1.072197    -2.203468     0.738797
O      -0.108231    -2.486546     0.994066
O       1.811107    -2.535032    -0.206510
C       0.908158     0.878833     0.591470
C       0.027884     2.092995     0.585164
H       0.212361     2.694462    -0.300555
H      -1.022180     1.786781     0.593359
H       0.214065     2.705923     1.471494
C       1.831276     0.614125    -0.566526
H       2.148497    -0.431290    -0.564256
H       2.723052     1.239212    -0.410784
H       2.225066     2.578893    -2.470570
C      -2.759240    -0.457316    -2.328632
C      -2.497311     0.867513    -2.634223
C      -1.192543     1.330094    -2.530474
C      -0.170990     0.470961    -2.132245
C      -0.459997    -0.866172    -1.857423
C      -1.760888    -1.335112    -1.939037
H      -3.304905     1.519494    -2.941560
H      -0.968637     2.364732    -2.758664
H       0.325618    -1.556195    -1.563665
H      -1.994359    -2.361994    -1.693345
N      -4.150819    -0.948866    -2.425496
O      -5.004769    -0.157172    -2.770205
O      -4.357236    -2.113222    -2.154942
C       1.258066     0.954425    -1.964291
O       1.318246     2.347271    -2.251968
H       1.883779     0.407782    -2.681393
40
     -1068.710246     -1068.437241  25.03  23.58
C       1.836631     0.244568    -0.047443
C       1.998733    -2.193677    -0.002694
C       2.581800    -1.634078     1.289793
C       2.957001    -0.205143     0.892011
H       1.031954     0.737457     0.495888
H       1.313161    -3.028593     0.142564
H       2.788272    -2.483397    -0.702763
H       1.819028    -1.634960     2.076350
H       3.431623    -2.224383     1.637640
H       3.047477     0.472332     1.741646
H       3.904553    -0.198131     0.346288
N       1.294053    -1.032365    -0.589847
C       2.356331     1.153981    -1.220659
O       2.015315     2.345833    -1.130741
O       3.006294     0.535686    -2.078123
C       0.407851    -1.122272    -1.513190
C      -0.014788    -2.475070    -2.009009
H      -0.531062    -3.034889    -1.223169
H      -0.685139    -2.374821    -2.861967
H       0.858386    -3.057258    -2.315749
C      -0.245094     0.069375    -2.142777
H      -0.237074    -0.101212    -3.223784
H       0.293907     0.993188    -1.949696
H      -2.124666     2.016579    -2.400364
C      -2.127506     1.546708     2.346080
C      -2.771813     0.388501     1.949395
C      -2.620926    -0.031952     0.634583
C      -1.840838     0.689774    -0.264106
C      -1.204637     1.857447     0.168331
C      -1.343232     2.290128     1.478364
H      -3.375807    -0.163724     2.657648
H      -3.126497    -0.934575     0.304732
H      -0.556772     2.424003    -0.495955
H      -0.847692     3.185204     1.831196
N      -2.276157     2.004768     3.746505
O      -1.683618     3.011431     4.072609
O      -2.980616     1.343892     4.480645
C      -1.717913     0.231984    -1.706986
O      -2.389381     1.110720    -2.595443
H      -2.241143    -0.723057    -1.817811
40
     -1068.709603     -1068.436688  25.43  23.93
C       2.670101     0.402480     1.305486
C       1.045388     2.141898     1.787324
C       2.416615     2.527925     2.351139
C       3.401100     1.723558     1.498075
H       2.991884    -0.149979     0.423659
H       0.717323     2.827923     1.000175
H       0.273457     2.080239     2.554584
H       2.578344     3.606869     2.305091
H       2.488385     2.213201     3.395243
H       3.583772     2.219769     0.537478
H       4.355234     1.549700     1.993348
N       1.256835     0.801050     1.186142
C       2.795342    -0.553124     2.591202
O       3.965349    -0.829977     2.855041
O       1.711617    -0.871288     3.118550
C       0.308220    -0.040322     0.961561
C      -1.113581     0.350195     1.205708
H      -1.298295     0.235904     2.281036
H      -1.315306     1.386477     0.929493
H      -1.795591    -0.307994     0.671192
C       0.586928    -1.410349     0.417606
H      -0.157680    -2.087459     0.842591
H       1.564658    -1.763608     0.731904
H       1.432648     0.251922    -1.389857
C      -3.448231    -0.802983    -2.608373
C      -2.468643     0.124064    -2.912279
C      -1.177801    -0.091360    -2.445095
C      -0.874924    -1.216115    -1.684159
C      -1.884755    -2.141591    -1.411829
C      -3.178002    -1.942263    -1.865876
H      -2.716348     0.995311    -3.504854
H      -0.402406     0.621531    -2.698528
H      -1.658102    -3.036736    -0.839127
H      -3.969401    -2.650280    -1.656950
N      -4.826109    -0.577645    -3.097940
O      -5.032448     0.424130    -3.749874
O      -5.663184    -1.408941    -2.815431
C       0.521688    -1.466431    -1.132861
O       1.513312    -0.648433    -1.722683
H       0.802608    -2.487266    -1.407913
