26
      -743.764157      -743.604604   0.00   0.00
C       0.634510     2.181422    -2.316256
C       1.930998     2.923892    -2.535776
H       2.103693     3.593574    -1.685877
H       2.775049     2.228622    -2.576588
H       1.876623     3.511140    -3.452448
C       0.626789     1.124170    -1.227795
H       1.142005     1.519229    -0.344850
H       1.227050     0.276420    -1.583296
H      -1.452790     0.690731    -2.661047
C      -0.478878    -2.140755     2.373840
C      -0.584953    -2.631816     1.083268
C      -0.699656    -1.731765     0.033423
C      -0.708707    -0.359924     0.276584
C      -0.608075     0.102447     1.588090
C      -0.490424    -0.782836     2.648303
H      -0.578276    -3.700689     0.912432
H      -0.794821    -2.092949    -0.983285
H      -0.629064     1.170517     1.786727
H      -0.410991    -0.438356     3.671289
N      -0.353847    -3.095076     3.495566
O      -0.263038    -2.636796     4.616135
O      -0.349121    -4.279284     3.229848
C      -0.781936     0.632061    -0.864864
O      -1.405844     0.014339    -1.971711
H      -1.371793     1.500036    -0.535152
O      -0.354505     2.421648    -2.976556
26
      -743.762497      -743.602692   1.04   1.20
C      -2.164612     1.120242    -0.464689
C      -2.256039     2.599030    -0.184810
H      -3.066653     2.806128     0.521179
H      -1.323746     2.927225     0.287901
H      -2.409894     3.149598    -1.112822
C      -2.163118     0.191868     0.737418
H      -3.214412    -0.006937     0.982820
H      -1.728766     0.707459     1.598964
H      -2.238196    -1.272851    -1.271738
C       2.743515    -0.526886    -0.154778
C       1.980026    -1.018232    -1.198827
C       0.622237    -1.224878    -0.994813
C       0.037795    -0.942908     0.235557
C       0.839315    -0.458080     1.271041
C       2.194970    -0.243392     1.086431
H       2.446359    -1.233258    -2.151825
H       0.015079    -1.617265    -1.800699
H       0.402265    -0.252987     2.244713
H       2.824956     0.132815     1.882118
N       4.188954    -0.302781    -0.365564
O       4.832815     0.128738     0.568956
O       4.645935    -0.563034    -1.459324
C      -1.454096    -1.150111     0.482165
O      -2.095506    -1.885310    -0.534550
H      -1.552208    -1.752326     1.392437
O      -2.106977     0.688136    -1.597257
26
      -743.761557      -743.602253   1.63   1.48
C       1.619227    -1.671882     1.162001
C       3.109044    -1.720727     0.911438
H       3.661655    -1.484000     1.826244
H       3.394761    -2.704813     0.539391
H       3.370644    -0.958397     0.169352
C       1.104930    -0.447490     1.901214
H       1.657785     0.444453     1.587724
H       1.334881    -0.597657     2.963996
H      -1.686716     0.901649     2.710878
C      -1.404058     1.066697    -2.194468
C      -1.591618    -0.262962    -1.858034
C      -1.272886    -0.673535    -0.571100
C      -0.772300     0.233238     0.359981
C      -0.596683     1.567275    -0.009674
C      -0.911323     1.994555    -1.290496
H      -1.977683    -0.956357    -2.594039
H      -1.401106    -1.712974    -0.290167
H      -0.215010     2.276826     0.716773
H      -0.782095     3.025764    -1.592996
N      -1.741591     1.513437    -3.563658
O      -2.171304     0.682359    -4.336576
O      -1.568397     2.684484    -3.831685
C      -0.397789    -0.222410     1.761129
O      -0.735650     0.755946     2.740841
H      -0.907595    -1.170103     1.969866
O       0.880877    -2.563375     0.812067
26
      -743.760377      -743.601490   2.37   1.95
C      -1.658498    -2.228827    -1.776886
C      -2.549288    -3.273667    -1.153280
H      -1.939924    -4.065497    -0.704592
H      -3.124174    -2.808675    -0.345575
H      -3.221421    -3.695200    -1.900961
C      -0.636603    -1.545519    -0.871939
H       0.352781    -1.680554    -1.318503
H      -0.629030    -1.976229     0.133507
H      -2.552424     0.944829    -0.251773
C       2.136369     1.971008     1.380386
C       1.084901     1.409144     2.086594
C       0.077828     0.767418     1.381183
C       0.123968     0.691061    -0.010280
C       1.191949     1.272076    -0.690846
C       2.209363     1.915645    -0.001308
H       1.065001     1.477820     3.166709
H      -0.755995     0.322657     1.912882
H       1.229121     1.225129    -1.775493
H       3.045826     2.370245    -0.516201
N       3.214892     2.654643     2.126522
O       4.123073     3.138520     1.483110
O       3.126302     2.690010     3.336237
C      -0.950158    -0.051233    -0.782466
O      -2.227843     0.043540    -0.161247
H      -0.997891     0.342621    -1.805510
O      -1.738125    -1.910968    -2.940271
26
      -743.759599      -743.600657   2.86   2.48
C      -2.272205    -0.765297    -0.911330
C      -2.503989    -0.652762    -2.399794
H      -1.617041    -0.208868    -2.865057
H      -2.639092    -1.644388    -2.843980
H      -3.374452    -0.027208    -2.597910
C      -1.226836    -1.776248    -0.464980
H      -0.440496    -1.881489    -1.219213
H      -1.747337    -2.743973    -0.419450
H      -0.450329    -3.300868     1.570912
C       1.993215     1.907168     0.590318
C       2.497545     0.645174     0.319009
C       1.651814    -0.446629     0.438121
C       0.322149    -0.276343     0.823906
C      -0.153344     1.004076     1.096596
C       0.680046     2.107606     0.979411
H       3.532489     0.530526     0.023761
H       2.028896    -1.443940     0.243367
H      -1.186985     1.140098     1.394900
H       0.325180     3.109407     1.184279
N       2.888515     3.076926     0.463233
O       2.423585     4.171182     0.707966
O       4.035456     2.873556     0.121463
C      -0.607325    -1.469874     0.905459
O       0.153977    -2.582224     1.362840
H      -1.415180    -1.236972     1.607950
O      -2.898254    -0.108637    -0.111777
26
      -743.757547      -743.599296   4.15   3.33
C      -2.503025    -0.440288    -0.333197
C      -3.601059     0.578850    -0.537197
H      -4.311324     0.533735     0.288558
H      -3.156484     1.579253    -0.581808
H      -4.113631     0.410107    -1.489565
C      -1.561253    -0.660135    -1.506338
H      -1.334560     0.300738    -1.983103
H      -2.103745    -1.250978    -2.254902
H       0.940906    -1.110680    -2.632197
C       2.265801     0.835023     1.480113
C       1.994535     1.334904     0.216840
C       1.160080     0.604739    -0.615263
C       0.606661    -0.606810    -0.197304
C       0.896747    -1.074039     1.080941
C       1.728341    -0.358510     1.930213
H       2.429553     2.275108    -0.096446
H       0.936769     1.002176    -1.602356
H       0.457042    -2.005371     1.420292
H       1.959855    -0.711712     2.926806
N       3.154737     1.605432     2.376697
O       3.376076     1.147404     3.478260
O       3.608884     2.649283     1.955540
C      -0.285215    -1.412999    -1.125326
O       0.414526    -1.840024    -2.290393
H      -0.576830    -2.329532    -0.609365
O      -2.383392    -1.055677     0.700501
26
      -743.758328      -743.599026   3.66   3.50
C      -1.061952     0.345468    -2.197182
C      -2.285145    -0.296709    -2.806845
H      -1.992266    -1.143920    -3.427444
H      -2.970966    -0.611406    -2.015919
H      -2.810877     0.444238    -3.419669
C      -1.291221     1.477967    -1.200158
H      -2.226224     2.001385    -1.423559
H      -0.457003     2.176924    -1.295785
H      -2.573211    -0.152005     1.275857
C       2.301356    -0.817202     1.526219
C       1.294913    -1.629637     1.031860
C       0.104259    -1.043360     0.629216
C      -0.074688     0.334670     0.721741
C       0.955959     1.123388     1.229111
C       2.154770     0.555845     1.633124
H       1.451262    -2.698322     0.961267
H      -0.688302    -1.663338     0.226275
H       0.822568     2.198580     1.312441
H       2.964670     1.156461     2.026398
N       3.574590    -1.435291     1.955641
O       4.439664    -0.699503     2.384192
O       3.677416    -2.640141     1.853841
C      -1.361598     0.996656     0.258491
O      -2.486225     0.133393     0.360559
H      -1.522128     1.889506     0.879365
O       0.060382    -0.003650    -2.479041
26
      -743.756327      -743.596929   4.91   4.82
C      -2.705367    -0.295760     0.097153
C      -2.643527    -1.250033     1.270560
H      -3.357467    -0.936856     2.032280
H      -2.847258    -2.278489     0.957267
H      -1.634721    -1.228687     1.697738
C      -2.025082    -0.724467    -1.194263
H      -2.059155     0.115891    -1.893280
H      -2.622816    -1.535225    -1.627694
H       0.089790    -1.001263    -2.849777
C       2.307353     1.419131     0.627087
C       2.611330     0.073315     0.479300
C       1.646520    -0.763306    -0.052363
C       0.393671    -0.272709    -0.432404
C       0.124431     1.084295    -0.275956
C       1.082009     1.939800     0.258691
H       3.584317    -0.296041     0.776383
H       1.865163    -1.818343    -0.185196
H      -0.836783     1.497341    -0.559604
H       0.882779     2.995561     0.389221
N       3.329348     2.325340     1.196581
O       4.396465     1.840230     1.510181
O       3.037846     3.497010     1.315129
C      -0.599003    -1.257328    -1.035823
O      -0.112861    -1.751601    -2.280369
H      -0.626044    -2.142743    -0.392854
O      -3.280937     0.764939     0.172014
26
      -743.756327      -743.596922   4.91   4.82
C      -1.312409    -2.235444     0.833705
C      -2.482572    -1.997390    -0.096563
H      -2.713734    -2.917426    -0.633323
H      -3.361296    -1.645520     0.452433
H      -2.212876    -1.220702    -0.820894
C      -1.032220    -1.181939     1.894813
H      -0.096687    -1.443738     2.397034
H      -1.833190    -1.245218     2.641079
H       0.036745     1.124764     2.804492
C       1.919569     1.232675    -1.589185
C       2.023761     0.011942    -0.951012
C       1.078776    -0.322215     0.013369
C       0.043869     0.554940     0.326382
C      -0.027275     1.783540    -0.337098
C       0.904899     2.133124    -1.297471
H       2.830095    -0.663441    -1.206042
H       1.162856    -1.283034     0.508100
H      -0.824949     2.475916    -0.086327
H       0.859261     3.081635    -1.816728
N       2.922518     1.592643    -2.616099
O       3.798259     0.787108    -2.852806
O       2.806958     2.671926    -3.158512
C      -1.005920     0.262840     1.390155
O      -0.870257     1.167483     2.482277
H      -1.986795     0.503790     0.968339
O      -0.627389    -3.228260     0.749880
26
      -743.756313      -743.596322   4.92   5.20
C      -1.675841     1.121866     1.233743
C      -2.367700     2.281088     0.554942
H      -2.318836     2.164473    -0.530778
H      -3.427096     2.288008     0.835476
H      -1.901822     3.217533     0.862072
C      -2.128064    -0.289346     0.870538
H      -3.219752    -0.324020     0.768961
H      -1.837679    -0.944246     1.695458
H      -2.916127    -0.357970    -1.699898
C       2.760066    -0.541889    -0.284873
C       2.117601    -1.518365     0.459718
C       0.737331    -1.601831     0.384347
C       0.009922    -0.722975    -0.417268
C       0.683693     0.244648    -1.156326
C       2.067042     0.340664    -1.094367
H       2.695386    -2.191429     1.079769
H       0.220577    -2.364692     0.960013
H       0.124962     0.923233    -1.788786
H       2.606790     1.086979    -1.662944
N       4.233144    -0.443056    -0.214021
O       4.815721    -1.230687     0.503075
O       4.772423     0.419111    -0.876670
C      -1.501767    -0.823624    -0.437108
O      -1.988764    -0.132730    -1.579357
H      -1.764965    -1.887891    -0.511347
O      -0.796245     1.287146     2.045632
