26
      -743.764157      -743.604607   0.00   0.00
C      -3.235650    -0.145394    -0.188872
C      -4.119941    -1.297519     0.224607
H      -4.054704    -1.421592     1.311329
H      -5.154215    -1.095510    -0.053919
H      -3.777491    -2.232665    -0.228963
C      -1.737005    -0.368383    -0.105740
H      -1.459568    -1.065800    -0.906998
H      -1.504690    -0.873968     0.838470
H      -2.071096     1.709960    -1.566999
C       3.221145    -0.005703     0.267325
C       2.430087     0.193584     1.387118
C       1.093874     0.512367     1.201341
C       0.556134     0.626614    -0.079971
C       1.378761     0.425685    -1.186337
C       2.719059     0.108164    -1.018327
H       2.861036     0.101169     2.375662
H       0.461859     0.681943     2.068792
H       0.966552     0.530740    -2.182455
H       3.372636    -0.049285    -1.866718
N       4.647526    -0.346250     0.451955
O       5.319977    -0.514832    -0.544220
O       5.061114    -0.437242     1.589764
C      -0.918752     0.923059    -0.250707
O      -1.125080     1.516699    -1.515987
H      -1.229812     1.614884     0.545941
O      -3.701757     0.909273    -0.566090
26
      -743.762497      -743.602691   1.04   1.20
C      -2.166507    -1.115614    -0.466601
C      -2.259931    -2.594931    -0.190237
H      -2.414062    -3.143126    -1.119606
H      -1.328364    -2.925479     0.282257
H      -3.071220    -2.802571     0.514824
C      -2.163284    -0.190102     0.737719
H      -1.729627    -0.708424     1.597969
H      -3.214201     0.009883     0.983765
H      -2.236602     1.279609    -1.267865
C       2.744237     0.522775    -0.154511
C       1.981238     1.018194    -1.196994
C       0.623872     1.226593    -0.991967
C       0.039347     0.942261     0.237822
C       0.840383     0.453300     1.271734
C       2.195626     0.236879     1.086114
H       2.447617     1.234952    -2.149577
H       0.017105     1.622179    -1.796583
H       0.403307     0.246305     2.244991
H       2.825254    -0.142473     1.880591
N       4.189237     0.296820    -0.366370
O       4.645937     0.557472    -1.460151
O       4.833031    -0.136506     0.567358
C      -1.452116     1.151325     0.485467
O      -2.092669     1.890035    -0.529233
H      -1.548908     1.751499     1.397227
O      -2.108700    -0.680856    -1.598146
26
      -743.761557      -743.602255   1.63   1.48
C      -2.409729    -0.695238     0.690709
C      -3.060704    -0.308033     1.998775
H      -3.280715    -1.197412     2.597852
H      -2.361330     0.306092     2.576694
H      -3.973217     0.257976     1.810539
C      -1.259356    -1.684281     0.782891
H      -1.704604    -2.678273     0.919519
H      -0.660930    -1.487165     1.678724
H       0.992372    -2.967906    -1.101555
C       1.991644     1.834275    -0.770516
C       0.844463     1.725469    -1.537662
C       0.087479     0.566310    -1.439363
C       0.473318    -0.463355    -0.584569
C       1.636245    -0.323858     0.173893
C       2.404796     0.826721     0.086802
H       0.555687     2.536062    -2.194240
H      -0.821022     0.465323    -2.022651
H       1.943031    -1.128377     0.833814
H       3.309946     0.950399     0.667324
N       2.804985     3.065910    -0.869209
O       3.805545     3.135199    -0.185642
O       2.423028     3.932934    -1.627577
C      -0.370545    -1.721406    -0.456914
O       0.438654    -2.886368    -0.318354
H      -1.015809    -1.802081    -1.339366
O      -2.793231    -0.258919    -0.369915
26
      -743.760377      -743.601488   2.37   1.96
C      -1.475410     1.055221    -2.754197
C      -0.715593     1.384464    -4.014511
H       0.196303     1.926807    -3.743598
H      -0.407775     0.461599    -4.517714
H      -1.330339     1.988865    -4.681797
C      -0.767167     0.194756    -1.711065
H       0.209225    -0.151511    -2.062134
H      -1.396433    -0.676983    -1.509501
H       0.258419     2.720870    -0.030687
C       0.989753    -1.511451     2.662752
C       1.871211    -0.878672     1.800975
C       1.357009    -0.053842     0.811616
C      -0.019133     0.134171     0.688924
C      -0.878148    -0.511651     1.575663
C      -0.381446    -1.342416     2.569608
H       2.936586    -1.035846     1.910665
H       2.028183     0.453450     0.127543
H      -1.950810    -0.361735     1.492207
H      -1.036454    -1.851784     3.264559
N       1.531225    -2.394389     3.718477
O       0.736989    -2.935976     4.459274
O       2.736232    -2.523722     3.779666
C      -0.588275     0.997040    -0.421279
O       0.266540     2.086133    -0.753812
H      -1.575027     1.370373    -0.119692
O      -2.595666     1.456227    -2.541941
26
      -743.759599      -743.600664   2.86   2.47
C      -2.286496     1.072957    -0.447701
C      -3.062110     1.588417     0.741664
H      -3.274001     2.650742     0.619845
H      -3.993579     1.026508     0.866124
H      -2.467481     1.432397     1.648460
C      -2.099387    -0.434436    -0.530489
H      -3.011839    -0.823205    -1.005611
H      -2.057211    -0.876759     0.469930
H      -1.643269    -2.449501    -2.206685
C       2.701123     0.012816     0.812842
C       2.061000    -1.195388     1.038929
C       0.909348    -1.480034     0.321910
C       0.407881    -0.568722    -0.607570
C       1.077794     0.634196    -0.817582
C       2.230519     0.935151    -0.105722
H       2.465278    -1.892398     1.761534
H       0.399970    -2.424644     0.473518
H       0.689626     1.345592    -1.538099
H       2.760853     1.866869    -0.254560
N       3.928783     0.324683     1.575512
O       4.321806    -0.502349     2.372500
O       4.470713     1.389188     1.359663
C      -0.877314    -0.867487    -1.351974
O      -0.920063    -2.268637    -1.599084
H      -0.874892    -0.307009    -2.293359
O      -1.857053     1.811052    -1.303995
26
      -743.757547      -743.599297   4.15   3.33
C      -0.774158    -0.147960    -2.438998
C      -1.626479     0.842597    -3.199450
H      -1.932342     1.646298    -2.520515
H      -1.059196     1.264558    -4.029222
H      -2.540112     0.364839    -3.567191
C      -1.489325    -0.989967    -1.394447
H      -2.069136    -1.752156    -1.929821
H      -2.219951    -0.372244    -0.859124
H      -1.671438    -2.258172     1.073747
C       1.581208     1.025784     2.114096
C       2.296498     0.236797     1.229886
C       1.600049    -0.634754     0.405169
C       0.212223    -0.718543     0.462262
C      -0.477268     0.097755     1.360644
C       0.199097     0.974590     2.194630
H       3.375698     0.311163     1.193210
H       2.142433    -1.252336    -0.302144
H      -1.562744     0.065611     1.414405
H      -0.324706     1.611931     2.895199
N       2.313577     1.957569     2.998963
O       1.659453     2.638429     3.761726
O       3.523273     1.984741     2.908851
C      -0.535231    -1.695244    -0.428779
O      -1.226815    -2.680917     0.332499
H       0.196493    -2.246802    -1.021783
O       0.408898    -0.273569    -2.653815
26
      -743.758328      -743.599025   3.66   3.50
C      -1.895658    -0.044047     1.574385
C      -3.125663    -0.919563     1.604077
H      -3.974819    -0.331834     1.970767
H      -3.370204    -1.248707     0.590765
H      -2.960450    -1.773731     2.261188
C      -1.903415     1.138761     0.609976
H      -1.315632     1.939904     1.064157
H      -2.926263     1.492119     0.445608
H      -1.775492    -0.399205    -2.227150
C       2.824945    -0.305626    -0.468532
C       2.492476     1.034212    -0.580230
C       1.152319     1.373247    -0.687490
C       0.162482     0.392509    -0.676806
C       0.530680    -0.945948    -0.565012
C       1.866286    -1.304760    -0.460517
H       3.271554     1.785455    -0.584316
H       0.875073     2.419635    -0.782277
H      -0.233256    -1.714656    -0.545558
H       2.168126    -2.340029    -0.367634
N       4.251166    -0.680736    -0.355429
O       4.516535    -1.861089    -0.260844
O       5.069982     0.215283    -0.364283
C      -1.297346     0.805304    -0.763251
O      -2.114480    -0.199815    -1.348445
H      -1.351392     1.723726    -1.364923
O      -0.937552    -0.250406     2.281773
26
      -743.756327      -743.596893   4.91   4.84
C      -2.256322    -0.309149    -1.492765
C      -2.216055    -1.818929    -1.391369
H      -2.983982    -2.191563    -0.706657
H      -2.347692    -2.253793    -2.382110
H      -1.242223    -2.126163    -0.994033
C      -2.405154     0.478613    -0.199845
H      -3.428622     0.325494     0.162857
H      -2.297247     1.541520    -0.433450
H      -1.476996     1.677913     2.034039
C       2.744933     0.397361     0.189573
C       1.878136     0.980810    -0.714045
C       0.509029     0.875066    -0.492549
C       0.020662     0.189632     0.616550
C       0.927996    -0.384515     1.512003
C       2.292778    -0.287630     1.308416
H       2.269524     1.507273    -1.574866
H      -0.166719     1.331237    -1.206882
H       0.551528    -0.908332     2.385181
H       3.003667    -0.728096     1.995447
N       4.202473     0.506976    -0.041902
O       4.939585    -0.015198     0.768295
O       4.570958     1.111674    -1.026988
C      -1.463514     0.060534     0.932073
O      -1.779734     0.768013     2.127474
H      -1.662931    -0.985762     1.184246
O      -2.184079     0.257016    -2.558695
26
      -743.755288      -743.596814   5.57   4.89
C      -2.875547     0.732158     1.420734
C      -3.941672    -0.277200     1.771419
H      -4.883699     0.228284     1.984160
H      -4.073196    -0.966550     0.930266
H      -3.629096    -0.874065     2.634560
C      -1.464756     0.214755     1.150925
H      -1.367109    -0.853080     1.380086
H      -0.785676     0.761238     1.810792
H      -1.922315    -1.205461    -0.903105
C       3.098260    -0.204105    -0.965841
C       2.692330     0.830478    -0.136565
C       1.335755     1.031058     0.052543
C       0.391387     0.210972    -0.569685
C       0.833383    -0.809042    -1.407410
C       2.190851    -1.025252    -1.609634
H       3.431622     1.459185     0.342665
H       1.006433     1.847119     0.689204
H       0.117951    -1.432800    -1.929986
H       2.545960    -1.815343    -2.258791
N       4.544049    -0.429721    -1.174499
O       4.871081    -1.339867    -1.907630
O       5.316271     0.309150    -0.599328
C      -1.087714     0.463287    -0.317505
O      -1.938528    -0.281477    -1.175127
H      -1.301497     1.511322    -0.547758
O      -3.104528     1.914956     1.335511
26
      -743.756313      -743.596322   4.92   5.20
C      -0.439228    -0.485192    -2.271589
C      -1.803925    -1.043049    -2.602732
H      -2.225044    -1.549145    -1.730213
H      -2.459615    -0.237310    -2.933117
H      -1.708775    -1.789747    -3.399263
C       0.604965    -1.444417    -1.708133
H       1.586096    -1.004577    -1.902129
H       0.550740    -2.410792    -2.224351
H      -0.603242    -3.332991    -0.222405
C       0.425815     2.004204     1.947828
C       1.619213     1.535987     1.421285
C       1.611031     0.327522     0.745013
C       0.431030    -0.399510     0.592964
C      -0.750938     0.094806     1.136163
C      -0.760113     1.303140     1.819210
H       2.526530     2.112937     1.544642
H       2.539956    -0.053482     0.329901
H      -1.668481    -0.470508     1.030326
H      -1.670386     1.701780     2.248259
N       0.421385     3.292248     2.672885
O       1.475775     3.886123     2.770635
O      -0.635500     3.679309     3.127233
C       0.460443    -1.696091    -0.190437
O      -0.712000    -2.438706     0.114774
H       1.346983    -2.260482     0.130420
O      -0.162718     0.677941    -2.447168
