43
     -1145.209322     -1144.908745   0.00   0.00
C      -1.928437     2.621218     1.547341
C      -1.383127     0.401672     2.404992
C      -2.360761     1.116659     3.351135
C      -3.059149     2.151234     2.462377
H      -2.286449     3.087523     0.629997
H      -1.750372    -0.573746     2.081009
H      -0.382539     0.292737     2.816940
H      -3.056307     0.413713     3.813427
H      -1.804929     1.622527     4.142976
H      -3.865551     1.688543     1.878747
H      -3.472311     2.993157     3.016067
N      -1.278715     1.289195     1.177729
C      -1.031511     3.656322     2.295711
O       0.125185     3.297889     2.675253
O      -1.600890     4.725761     2.466927
C       0.133424     1.282153     0.483052
C       0.131234     2.415407    -0.542002
H      -0.705766     2.335902    -1.244433
H       0.105212     3.387549    -0.048830
H       1.061090     2.360270    -1.110358
C       0.252228    -0.095540    -0.186165
H      -0.434530    -0.147886    -1.038862
H      -0.022042    -0.883547     0.522197
H       2.411446     0.045092     1.057735
C       1.493111    -3.833818    -3.226321
C       1.827455    -4.018455    -1.895708
C       1.906573    -2.908630    -1.066113
C       1.654525    -1.633442    -1.567129
C       1.327892    -1.480753    -2.913866
C       1.242183    -2.578839    -3.755715
H       2.021625    -5.016408    -1.524250
H       2.176459    -3.027631    -0.023995
H       1.143869    -0.487561    -3.314886
H       0.989226    -2.475671    -4.802939
N       1.404118    -5.014031    -4.113555
O       1.109589    -4.821579    -5.275104
O       1.630394    -6.101953    -3.626606
C       1.686360    -0.417772    -0.662864
O       2.539101    -0.679777     0.427932
H       2.071045     0.427303    -1.252529
H      -1.900704     0.895342     0.475055
O       1.091408     1.426578     1.441882
H       0.789334     2.263294     2.023755
43
     -1145.210764     -1144.908440  -0.90   0.19
C      -2.398262    -0.283744    -1.431379
C      -2.909060     1.193577     0.441623
C      -4.206781     0.663443    -0.187939
C      -3.784788    -0.632856    -0.889366
H      -1.790732    -1.163205    -1.641866
H      -2.844712     0.989215     1.512423
H      -2.744664     2.253999     0.263128
H      -4.984250     0.507489     0.562790
H      -4.577474     1.378477    -0.925156
H      -3.724787    -1.463956    -0.175042
H      -4.448229    -0.922186    -1.703390
N      -1.790585     0.429187    -0.231367
C      -2.530335     0.540132    -2.750579
O      -2.913833    -0.150156    -3.690910
O      -2.283514     1.778640    -2.711991
C      -0.462042     1.240711    -0.401784
C       0.441328     0.451376    -1.346386
H       0.055551     0.517410    -2.364005
H       1.433158     0.906905    -1.328782
H       0.542686    -0.598730    -1.066243
C       0.128429     1.453431     1.005654
H      -0.609539     2.012248     1.587723
H       0.969368     2.134316     0.855162
H      -0.313024    -1.281432     2.677834
C       4.258112    -1.547701     0.536267
C       4.268446    -0.236325     0.983178
C       3.074861     0.327459     1.404728
C       1.884739    -0.400338     1.372005
C       1.911819    -1.718050     0.924557
C       3.099854    -2.301496     0.501645
H       5.196109     0.320849     0.999041
H       3.074708     1.352040     1.766632
H       0.997400    -2.298912     0.884862
H       3.131371    -3.323172     0.145614
N       5.526635    -2.160514     0.081953
O       6.525263    -1.473485     0.124280
O       5.485833    -3.309650    -0.303779
C       0.604108     0.268264     1.855846
O      -0.486173    -0.650258     1.973853
H       0.819272     0.683866     2.849163
H      -1.532376    -0.318882     0.412668
O      -0.751752     2.489902    -0.872237
H      -1.342137     2.342115    -1.700418
43
     -1145.210764     -1144.908421  -0.90   0.20
C      -2.448907    -0.714389    -1.171033
C      -2.962055     1.064455     0.417757
C      -4.249242     0.337846    -0.002449
C      -3.769328    -1.040359    -0.472204
H      -1.787919    -1.576446    -1.253492
H      -2.818636     1.077917     1.500240
H      -2.892021     2.077975     0.028848
H      -4.966495     0.281588     0.818987
H      -4.717487     0.868915    -0.833645
H      -3.602267    -1.709677     0.381434
H      -4.455115    -1.526289    -1.165082
N      -1.828940     0.257970    -0.177176
C      -2.722909    -0.175312    -2.610059
O      -3.105731    -1.060033    -3.370656
O      -2.572523     1.060304    -2.826772
C      -0.580686     1.105592    -0.596515
C       0.324183     0.207491    -1.436782
H       0.523954    -0.758600    -0.969630
H      -0.125234     0.047774    -2.417215
H       1.276559     0.721524    -1.579220
C       0.073784     1.627955     0.697167
H      -0.669756     2.240714     1.214225
H       0.848554     2.319463     0.358072
H      -0.051172    -0.750914     2.887647
C       4.389792    -1.132247     0.508635
C       4.324570     0.239041     0.695334
C       3.117797     0.795769     1.087697
C       1.987983     0.000054     1.281373
C       2.090908    -1.375113     1.092585
C       3.293609    -1.951720     0.703058
H       5.205427     0.847507     0.536855
H       3.059391     1.869115     1.246636
H       1.223678    -2.010631     1.231107
H       3.383318    -3.019038     0.546993
N       5.673026    -1.738510     0.088064
O       6.615990    -0.993214    -0.074434
O       5.698923    -2.941055    -0.067440
C       0.690188     0.665983     1.721079
O      -0.316286    -0.280217     2.092578
H       0.931019     1.281476     2.597942
H      -1.475048    -0.330929     0.577154
O      -0.994912     2.216826    -1.274285
H      -1.619981     1.871435    -2.013380
43
     -1145.206621     -1144.904855   1.69   2.44
C      -0.235586     1.062998     3.039748
C      -2.259727     1.549893     1.763895
C      -2.514662     1.738019     3.267060
C      -1.124402     2.002166     3.854353
H       0.815782     1.346830     3.055139
H      -2.505483     2.442021     1.184802
H      -2.773440     0.690715     1.338813
H      -3.218143     2.551641     3.454502
H      -2.927157     0.819726     3.688921
H      -0.827164     3.048611     3.706609
H      -1.049065     1.768173     4.915521
N      -0.768793     1.304390     1.628135
C      -0.354059    -0.394928     3.589137
O       0.222854    -0.530811     4.662654
O      -1.036613    -1.230170     2.928937
C      -0.369166     0.313188     0.465499
C       1.101651    -0.037998     0.684212
H       1.725497     0.858603     0.767639
H       1.225216    -0.654026     1.575109
H       1.447527    -0.613939    -0.172818
C      -0.602309     1.111498    -0.828865
H       0.245447     1.777673    -1.024448
H      -1.493742     1.737077    -0.725407
H      -1.400446     0.715973    -3.895446
C       2.411319    -2.270428    -3.174118
C       2.474549    -0.920320    -3.479190
C       1.406024    -0.110660    -3.123505
C       0.294473    -0.645538    -2.472549
C       0.259833    -2.007646    -2.184975
C       1.321659    -2.832113    -2.531300
H       3.344789    -0.522836    -3.985385
H       1.430979     0.948522    -3.358198
H      -0.597504    -2.421035    -1.664402
H       1.313483    -3.891368    -2.309183
N       3.547994    -3.141607    -3.549098
O       3.469457    -4.318495    -3.265621
O       4.487559    -2.624337    -4.116106
C      -0.863544     0.249920    -2.071401
O      -1.167309     1.195766    -3.093788
H      -1.732452    -0.382783    -1.863384
H      -0.346745     2.187037     1.347744
O      -1.203307    -0.762499     0.498196
H      -1.175276    -1.106901     1.472563
43
     -1145.206621     -1144.904854   1.69   2.44
C      -3.119950     0.826163     0.095093
C      -2.732844    -1.327522     1.178473
C      -4.127821    -0.791159     1.533744
C      -4.466893     0.165141     0.385701
H      -3.065231     1.269386    -0.898256
H      -2.769519    -2.328299     0.744033
H      -2.037730    -1.322286     2.014879
H      -4.851961    -1.601057     1.641853
H      -4.082319    -0.239710     2.474610
H      -4.829719    -0.386219    -0.491560
H      -5.207930     0.917981     0.651386
N      -2.186541    -0.383421     0.124031
C      -2.838273     1.948688     1.144847
O      -3.538245     2.938378     0.959749
O      -1.995285     1.716559     2.058576
C      -0.624572    -0.159492     0.188315
C      -0.320663     1.026731    -0.725463
H      -0.729783     0.880373    -1.731067
H      -0.711358     1.952443    -0.302535
H       0.760471     1.126177    -0.809756
C      -0.017417    -1.475927    -0.326843
H      -0.029199    -1.498817    -1.422317
H      -0.612467    -2.323690     0.025179
H       2.564646    -3.327264    -0.005789
C       4.307637     1.108934    -1.121697
C       3.844877     1.165204     0.181671
C       2.910006     0.225250     0.593557
C       2.444444    -0.747462    -0.287540
C       2.932395    -0.778820    -1.593791
C       3.868677     0.150912    -2.021337
H       4.212036     1.931715     0.851804
H       2.518744     0.259807     1.604809
H       2.579107    -1.542217    -2.279347
H       4.258952     0.141297    -3.030860
N       5.305987     2.105851    -1.570081
O       5.669338     2.936678    -0.764295
O       5.698339     2.030253    -2.715590
C       1.407409    -1.757808     0.167994
O       1.697987    -3.061366    -0.330463
H       1.387079    -1.761148     1.262600
H      -2.328539    -0.831916    -0.778463
O      -0.261348     0.037089     1.485745
H      -0.882528     0.784592     1.838405
43
     -1145.207366     -1144.904740   1.23   2.51
C       3.535656     0.308384     0.075234
C       1.955584    -1.224724     1.072496
C       3.331996    -1.379911     1.742001
C       4.045580    -0.051462     1.467111
H       3.677740     1.356864    -0.181197
H       1.159167    -1.068233     1.795793
H       1.703951    -2.052220     0.416863
H       3.235230    -1.594693     2.808358
H       3.879037    -2.199088     1.272439
H       3.757061     0.713905     2.199162
H       5.131849    -0.136046     1.463098
N       2.046024     0.034860     0.221872
C       4.245425    -0.585171    -0.992669
O       3.584008    -1.547362    -1.477873
O       5.408019    -0.247428    -1.195587
C       1.168292     0.062337    -1.087838
C       1.798943     1.048385    -2.075257
H       1.927388     2.043355    -1.637648
H       2.752735     0.687958    -2.456605
H       1.110445     1.134122    -2.919232
C      -0.242969     0.569478    -0.752142
H      -0.813462     0.392693    -1.666825
H      -0.222824     1.651116    -0.582610
H      -1.019738     0.276614     2.357499
C      -5.203991     0.407409    -0.064018
C      -4.457455     1.481047     0.392297
C      -3.090215     1.316156     0.556875
C      -2.483640     0.092798     0.271266
C      -3.263983    -0.967650    -0.182003
C      -4.633275    -0.818354    -0.356154
H      -4.945744     2.422387     0.609194
H      -2.488751     2.146958     0.910797
H      -2.799673    -1.924444    -0.401744
H      -5.253570    -1.631943    -0.709194
N      -6.664407     0.577766    -0.245276
O      -7.137950     1.662274     0.019297
O      -7.292852    -0.378470    -0.646885
C      -0.982994    -0.076861     0.416915
O      -0.497931     0.567195     1.602256
H      -0.755149    -1.149473     0.442377
H       1.670987     0.786146     0.800747
O       1.078729    -1.207592    -1.586502
H       2.046728    -1.499083    -1.696684
43
     -1145.205145     -1144.903545   2.62   3.26
C      -3.303508    -0.844560    -0.130115
C      -2.291131     0.967825     1.148455
C      -3.660689     0.598344     1.741672
C      -3.896165    -0.843876     1.279070
H      -3.045089    -1.842342    -0.483059
H      -1.492953     0.942326     1.893329
H      -2.284933     1.933593     0.647593
H      -3.672230     0.704697     2.828374
H      -4.429090     1.251028     1.322907
H      -3.366134    -1.555437     1.925212
H      -4.948537    -1.122713     1.246613
N      -1.998632    -0.087556     0.107909
C      -4.318542    -0.218627    -1.138039
O      -4.083456     0.937351    -1.589630
O      -5.281372    -0.953802    -1.337707
C      -1.164879     0.427911    -1.112470
C      -1.194222    -0.664047    -2.182862
H      -2.206601    -0.794903    -2.566955
H      -0.568708    -0.320901    -3.009468
H      -0.805969    -1.617312    -1.818389
C       0.271505     0.731445    -0.621384
H       0.272303     1.757136    -0.244942
H       0.892815     0.735287    -1.520137
H       0.949470    -2.074235     0.899300
C       5.183132     0.136841     0.212712
C       4.526444     0.801246     1.232010
C       3.143770     0.690447     1.310412
C       2.438309    -0.066698     0.379990
C       3.131643    -0.727697    -0.634737
C       4.511090    -0.630619    -0.725176
H       5.091059     1.387945     1.944966
H       2.613678     1.200938     2.109278
H       2.585875    -1.322125    -1.360195
H       5.066060    -1.135220    -1.505360
N       6.657952     0.248294     0.120192
O       7.207173    -0.345180    -0.783218
O       7.219901     0.926051     0.953949
C       0.926140    -0.158448     0.449404
O       0.474172    -1.507977     0.282770
H       0.615544     0.195819     1.441801
H      -1.389725    -0.793749     0.522753
O      -1.684014     1.610664    -1.552475
H      -2.691456     1.442833    -1.684354
43
     -1145.207325     -1144.903366   1.25   3.38
C      -3.343394    -0.343931    -0.642953
C      -2.320637     1.659076     0.173095
C      -3.719376     2.069540    -0.273101
C      -4.243419     0.838200    -1.044456
H      -3.885063    -1.197184    -0.237970
H      -1.936911     2.203895     1.036222
H      -1.613419     1.713703    -0.653328
H      -4.344349     2.285430     0.601068
H      -3.688457     2.971720    -0.885336
H      -5.290710     0.635348    -0.811374
H      -4.147630     0.982813    -2.119902
N      -2.502923     0.215037     0.512530
C      -2.389195    -0.846142    -1.780163
O      -2.122580    -0.052134    -2.679092
O      -1.950157    -2.019943    -1.587277
C      -1.249683    -0.610406     0.964731
C      -0.978534    -0.213165     2.411818
H      -1.822788    -0.491320     3.049950
H      -0.108414    -0.774691     2.757250
H      -0.761858     0.852104     2.521573
C      -0.043344    -0.268742     0.063138
H       0.423107     0.632875     0.470010
H      -0.336082    -0.038119    -0.961514
H      -0.105465    -2.230216    -1.420416
C       4.884080     0.398327    -0.131932
C       4.247274     0.104258    -1.326988
C       2.998593    -0.497919    -1.286683
C       2.399375    -0.802546    -0.065723
C       3.068641    -0.499900     1.118057
C       4.316839     0.104634     1.096943
H       4.729033     0.345983    -2.265829
H       2.481294    -0.748056    -2.205038
H       2.612618    -0.746352     2.073222
H       4.848895     0.345737     2.008238
N       6.213655     1.043150    -0.168609
O       6.748945     1.288611     0.893035
O       6.690715     1.289017    -1.257091
C       1.007888    -1.405964    -0.015147
O       0.831171    -2.219194    -1.149313
H       0.937855    -2.016997     0.896045
H      -3.109940     0.171829     1.331050
O      -1.647239    -1.924720     0.972783
H      -1.778410    -2.203646     0.018477
43
     -1145.207325     -1144.903363   1.25   3.38
C      -2.815338    -1.654709    -1.023218
C      -0.656209    -1.911059    -2.021433
C      -1.495097    -3.061493    -2.566257
C      -2.773678    -3.036354    -1.699985
H      -3.730674    -1.095682    -1.210586
H       0.082518    -1.513013    -2.717776
H      -0.180320    -2.183814    -1.080551
H      -1.728612    -2.888554    -3.623111
H      -0.956416    -4.007599    -2.499724
H      -3.668474    -3.209699    -2.301306
H      -2.728346    -3.792388    -0.917017
N      -1.690357    -0.875818    -1.717268
C      -2.548490    -1.682111     0.520804
O      -2.955810    -0.641952     1.120716
O      -1.934178    -2.648549     0.966055
C      -1.229154     0.471740    -1.063082
C      -0.605515     1.296771    -2.183699
H      -0.274206     2.245907    -1.758115
H       0.259667     0.805719    -2.635497
H      -1.350635     1.524231    -2.952078
C      -0.199473     0.187883     0.052283
H       0.781438     0.101303    -0.423480
H      -0.385661    -0.755438     0.566348
H      -1.682104     0.393160     2.005018
C       3.925324     1.777191     2.337883
C       3.121927     0.895992     3.043727
C       1.795176     0.754030     2.665568
C       1.281999     1.487115     1.596990
C       2.114159     2.369619     0.911770
C       3.444223     2.522556     1.274349
H       3.537204     0.336769     3.872436
H       1.141102     0.079666     3.204979
H       1.717040     2.953643     0.085786
H       4.102786     3.204197     0.751537
N       5.341081     1.930214     2.734269
O       6.021708     2.709395     2.099055
O       5.738780     1.268010     3.670301
C      -0.152056     1.291000     1.141067
O      -0.937932     0.968381     2.262348
H      -0.499249     2.237353     0.702427
H      -2.084220    -0.572127    -2.607746
O      -2.378761     1.115790    -0.676980
H      -2.765168     0.602725     0.093192
43
     -1145.207325     -1144.903363   1.25   3.38
C      -3.195641    -0.036899    -1.224041
C      -2.457544     1.333150     0.593121
C      -3.819849     1.888144     0.192878
C      -4.136797     1.178052    -1.141734
H      -3.708289    -0.987359    -1.362863
H      -2.232227     1.396181     1.658162
H      -1.660298     1.792264     0.010258
H      -4.564860     1.643825     0.958800
H      -3.790181     2.974390     0.098536
H      -5.183660     0.872026    -1.193924
H      -3.921163     1.827702    -1.989159
N      -2.556418    -0.096683     0.169416
C      -2.067873     0.090224    -2.304733
O      -1.760499     1.224658    -2.662815
O      -1.557330    -1.023001    -2.633077
C      -1.303116    -1.019488     0.354576
C      -1.249258    -1.370825     1.837492
H      -1.140132    -0.489731     2.474328
H      -2.139362    -1.936221     2.129708
H      -0.383938    -2.016518     1.998881
C      -0.027684    -0.265473    -0.080865
H       0.305610     0.331898     0.772420
H      -0.209339     0.429303    -0.901271
H       0.263865    -1.260397    -2.312166
C       4.810451     0.481554     0.812625
C       4.355317     0.796826    -0.457662
C       3.167439     0.233522    -0.899318
C       2.448704    -0.634849    -0.079576
C       2.936601    -0.936686     1.189945
C       4.121408    -0.380647     1.649263
H       4.928101     1.471372    -1.081241
H       2.792141     0.454305    -1.891262
H       2.387640    -1.622959     1.829245
H       4.512947    -0.605672     2.632997
N       6.074195     1.081505     1.290033
O       6.660792     1.832165     0.538205
O       6.449634     0.787454     2.406480
C       1.118518    -1.206235    -0.534486
O       1.155178    -1.367717    -1.931461
H       0.987585    -2.184104    -0.049553
H      -3.254592    -0.540520     0.765966
O      -1.584528    -2.178040    -0.326623
H      -1.571551    -1.960498    -1.305507
43
     -1145.207325     -1144.903358   1.25   3.38
C      -3.354024    -0.378854     0.563922
C      -2.385584     0.097734    -1.571269
C      -3.826145    -0.309058    -1.859962
C      -4.332349    -0.875860    -0.515238
H      -3.829213     0.169340     1.375796
H      -1.980018     0.854826    -2.243115
H      -1.730627    -0.771938    -1.542386
H      -4.409702     0.566826    -2.166025
H      -3.874955    -1.035931    -2.671749
H      -5.353438    -0.552364    -0.303061
H      -4.305240    -1.964871    -0.516925
N      -2.477025     0.636579    -0.180230
C      -2.443219    -1.497505     1.176334
O      -2.267749    -2.508997     0.501259
O      -1.937050    -1.178722     2.294318
C      -1.160901     1.113855     0.524461
C      -0.826914     2.475293    -0.075811
H      -0.656793     2.428766    -1.154089
H      -1.618463     3.196997     0.147666
H       0.088107     2.836221     0.397702
C      -0.026563     0.100116     0.259012
H       0.417820     0.353372    -0.707641
H      -0.388686    -0.925368     0.181320
H      -0.077433    -1.103638     2.404277
C       4.843528    -0.491120    -0.575493
C       4.362243     0.799027    -0.427119
C       3.148182     0.978307     0.219288
C       2.428046    -0.110654     0.705491
C       2.941140    -1.396444     0.543915
C       4.154694    -1.594425    -0.097578
H       4.933010     1.635206    -0.810137
H       2.759904     1.984454     0.353234
H       2.385114    -2.239344     0.936213
H       4.569815    -2.585416    -0.230077
N       6.135882    -0.696243    -1.262993
O       6.537698    -1.835503    -1.379020
O       6.718097     0.287860    -1.670964
C       1.072753     0.106626     1.352643
O       0.871613    -0.897013     2.317636
H       1.084543     1.093079     1.837726
H      -3.033190     1.490464    -0.223462
O      -1.492450     1.321438     1.840691
H      -1.664450     0.422884     2.251438
43
     -1145.207325     -1144.903358   1.25   3.38
C      -3.223994     0.055446     1.146263
C      -2.326754    -1.634326    -0.290279
C      -3.652892    -2.191867     0.214258
C      -4.063977    -1.219287     1.341608
H      -3.813604     0.965936     1.052319
H      -2.065295    -1.925009    -1.308216
H      -1.513899    -1.877000     0.392730
H      -4.391477    -2.195206    -0.595593
H      -3.541388    -3.220001     0.560995
H      -5.132728    -0.997816     1.309729
H      -3.823097    -1.633312     2.319996
N      -2.549891    -0.158423    -0.215295
C      -2.122740     0.278495     2.238712
O      -1.738281    -0.711318     2.856849
O      -1.711201     1.476163     2.301622
C      -1.367732     0.796628    -0.598532
C      -1.296946     0.795480    -2.121811
H      -0.480482     1.455506    -2.420972
H      -1.099889    -0.197633    -2.532525
H      -2.219446     1.200896    -2.548400
C      -0.050836     0.273847     0.015764
H       0.353755    -0.476258    -0.669571
H      -0.202118    -0.223003     0.974428
H       0.094510     1.782712     1.953711
C       4.855665    -0.256199    -0.623828
C       4.388539    -0.302741     0.679937
C       3.147439     0.247337     0.963678
C       2.387948     0.837304    -0.045151
C       2.888746     0.873727    -1.344652
C       4.126755     0.326315    -1.647301
H       4.993325    -0.762910     1.450925
H       2.760857     0.233952     1.975567
H       2.307251     1.343546    -2.133428
H       4.528940     0.347083    -2.652035
N       6.176320    -0.843815    -0.932867
O       6.796907    -1.346745    -0.019213
O       6.561135    -0.788384    -2.082961
C       1.004001     1.386478     0.248014
O       0.985703     1.872166     1.568130
H       0.811664     2.209725    -0.454702
H      -3.262488     0.074454    -0.906877
O      -1.759407     2.054641    -0.211840
H      -1.758898     2.073411     0.790814
43
     -1145.208115     -1144.903183   0.76   3.49
C      -2.358843    -0.333462     1.347792
C      -3.329958     1.473568     0.155172
C      -4.458305     0.455683     0.390003
C      -3.785419    -0.767192     1.046778
H      -2.326913     0.253586     2.270356
H      -3.308954     2.229534     0.943973
H      -3.364539     1.978539    -0.805160
H      -5.222566     0.898774     1.032173
H      -4.946824     0.186360    -0.548368
H      -4.272927    -1.067443     1.976122
H      -3.778022    -1.640977     0.396986
N      -2.033977     0.715716     0.282109
C      -1.278099    -1.450969     1.485414
O      -1.538934    -2.540876     0.972399
O      -0.239662    -1.079943     2.097791
C      -1.393509     0.293225    -1.040421
C      -2.173834    -0.810964    -1.735067
H      -3.208795    -0.511405    -1.910774
H      -1.706743    -0.996146    -2.707351
H      -2.134874    -1.734248    -1.153774
C       0.075302    -0.101532    -0.833023
H       0.484459    -0.248093    -1.840326
H       0.145210    -1.068273    -0.335796
H       0.307687     0.442519     1.676488
C       4.996784    -0.419012     0.030692
C       4.684209     0.660669    -0.775698
C       3.366437     1.098199    -0.807221
C       2.384998     0.466655    -0.049336
C       2.731722    -0.621850     0.754481
C       4.042611    -1.068474     0.799090
H       5.458471     1.142122    -1.359143
H       3.103529     1.950366    -1.427671
H       1.973030    -1.122902     1.347686
H       4.330250    -1.909066     1.417151
N       6.396222    -0.896538     0.074713
O       6.645057    -1.844513     0.789842
O       7.211208    -0.310619    -0.608097
C       0.946634     0.948249    -0.117706
O       0.431509     1.289951     1.162377
H       0.922128     1.875995    -0.697297
H      -1.299644     1.310474     0.702064
O      -1.447804     1.509624    -1.772599
H      -1.028310     1.364689    -2.626821
43
     -1145.204964     -1144.903117   2.73   3.53
C      -0.881031     2.509600     2.051778
C      -0.217441     0.312390     2.667862
C       0.043062     1.184089     3.903202
C      -0.451367     2.598858     3.515988
H      -1.757319     3.109237     1.810043
H      -0.549501    -0.703467     2.888720
H       0.660883     0.287695     2.027442
H      -0.495609     0.803153     4.775187
H       1.107463     1.176290     4.135733
H      -1.293648     2.902523     4.145388
H       0.335001     3.345451     3.610228
N      -1.290963     1.045821     1.920621
C       0.255697     2.819613     1.022131
O      -0.172898     3.018145    -0.152701
O       1.410941     2.797865     1.441667
C      -1.718182     0.522867     0.491229
C      -2.835640    -0.481743     0.752989
H      -3.225856    -0.832913    -0.202564
H      -2.488282    -1.347885     1.324179
H      -3.665246     0.000576     1.279387
C      -0.509179    -0.114072    -0.210854
H      -0.147767    -0.960225     0.379931
H       0.296145     0.617303    -0.301282
H      -1.852291     0.940921    -2.051906
C       2.752124    -2.468099    -3.088151
C       2.556066    -1.111544    -3.295035
C       1.384786    -0.530430    -2.835008
C       0.424319    -1.300011    -2.179867
C       0.647896    -2.661292    -1.992445
C       1.816185    -3.258881    -2.443940
H       3.312792    -0.531575    -3.807513
H       1.204171     0.527104    -2.987044
H      -0.102347    -3.268152    -1.492891
H       2.005949    -4.315522    -2.306113
N       4.001304    -3.092660    -3.573615
O       4.147452    -4.282010    -3.379245
O       4.805358    -2.379205    -4.136730
C      -0.827160    -0.650210    -1.625119
O      -1.241076     0.356888    -2.521038
H      -1.599288    -1.430561    -1.549193
H      -2.147539     0.963432     2.467190
O      -2.238715     1.598922    -0.183250
H      -1.459256     2.281715    -0.295395
43
     -1145.204964     -1144.903113   2.73   3.53
C       0.053093     2.810050     1.839794
C      -1.334572     0.907268     2.158367
C      -1.284467     1.614293     3.519027
C      -0.432667     2.885758     3.287136
H       0.091221     3.773927     1.334455
H      -2.291062     0.436866     1.924154
H      -0.530488     0.179855     2.077636
H      -2.288771     1.870658     3.867287
H      -0.831756     0.952100     4.256342
H      -1.030567     3.788809     3.444658
H       0.430135     2.924769     3.949486
N      -1.048830     1.996319     1.167877
C       1.421915     2.075389     1.652556
O       1.940807     2.265359     0.513259
O       1.815792     1.380757     2.587126
C      -0.861012     1.612457    -0.354153
C      -2.260897     1.677384    -0.956283
H      -2.193486     1.488802    -2.027994
H      -2.935535     0.936758    -0.516451
H      -2.681551     2.680403    -0.833918
C      -0.239890     0.211519    -0.463037
H      -0.904338    -0.519977     0.004985
H       0.721551     0.189849     0.053482
H       0.688071     1.490770    -2.414686
C       1.546635    -4.225435    -1.719371
C       0.181096    -4.048818    -1.862275
C      -0.310109    -2.753736    -1.948013
C       0.548670    -1.659594    -1.888526
C       1.919698    -1.869952    -1.747091
C       2.427737    -3.156811    -1.662853
H      -0.472575    -4.910367    -1.906397
H      -1.378270    -2.596020    -2.069887
H       2.586505    -1.016670    -1.709714
H       3.488903    -3.340859    -1.554757
N       2.082613    -5.600317    -1.626445
O       1.289155    -6.517593    -1.678591
O       3.282956    -5.729336    -1.503358
C      -0.009030    -0.250983    -1.919565
O       0.893112     0.570065    -2.626873
H      -0.976360    -0.289574    -2.442709
H      -1.860507     2.613006     1.156730
O      -0.090157     2.598457    -0.917503
H       0.837239     2.554397    -0.443907
43
     -1145.204964     -1144.903112   2.73   3.53
C      -3.134965     1.205560     0.044642
C      -2.294257    -0.662740     1.248960
C      -3.538967    -0.201583     2.018293
C      -4.116967     0.973311     1.192767
H      -3.610089     1.481993    -0.895421
H      -2.134397    -1.742296     1.245882
H      -1.407562    -0.154537     1.620028
H      -4.266583    -1.012260     2.113215
H      -3.251115     0.111042     3.021528
H      -5.109617     0.724860     0.804535
H      -4.196463     1.885119     1.781785
N      -2.528582    -0.180663    -0.151563
C      -1.992658     2.226015     0.364480
O      -1.802910     2.499673     1.547785
O      -1.367462     2.617079    -0.664840
C      -1.369736    -0.336904    -1.215483
C      -1.587971    -1.710114    -1.842464
H      -0.858064    -1.854543    -2.639365
H      -1.471931    -2.520058    -1.116073
H      -2.579349    -1.764870    -2.303049
C      -0.005885    -0.220435    -0.517906
H       0.091771    -1.013987     0.227988
H       0.072326     0.744207    -0.012954
H       0.334249     0.792577    -2.790357
C       4.727196    -0.145053     0.913354
C       4.167157     1.031688     0.440991
C       3.032136     0.957711    -0.351134
C       2.469890    -0.278661    -0.666141
C       3.059081    -1.443101    -0.181241
C       4.193936    -1.387332     0.615540
H       4.619616     1.981620     0.695044
H       2.576356     1.861834    -0.737067
H       2.631956    -2.409943    -0.433187
H       4.664219    -2.282731     1.001017
N       5.935977    -0.071996     1.761713
O       6.405651    -1.117366     2.162088
O       6.385728     1.028065     2.007087
C       1.194988    -0.352734    -1.481810
O       1.234135     0.659253    -2.462946
H       1.165320    -1.343298    -1.960137
H      -3.283412    -0.744346    -0.541103
O      -1.579593     0.625168    -2.171609
H      -1.473160     1.544770    -1.692870
43
     -1145.208844     -1144.902991   0.30   3.61
C      -2.364185    -1.251956     0.594681
C      -3.463010     0.834633     0.840124
C      -4.498913    -0.132412     0.240767
C      -3.731978    -1.441061    -0.043020
H      -2.421584    -1.440443     1.671137
H      -3.540534     0.869796     1.929881
H      -3.514994     1.849423     0.454951
H      -5.314889    -0.281307     0.951343
H      -4.938764     0.277824    -0.669997
H      -4.215500    -2.315756     0.395872
H      -3.623173    -1.640483    -1.107830
N      -2.109459     0.253332     0.536329
C      -1.179886    -2.108189     0.053074
O      -1.314762    -2.604759    -1.065443
O      -0.195267    -2.164760     0.842866
C      -1.393954     0.894462    -0.688536
C      -2.063314     0.494270    -1.989308
H      -1.969068    -0.578912    -2.159252
H      -3.113041     0.793530    -1.997237
H      -1.557239     1.030422    -2.794608
C       0.096694     0.533186    -0.685952
H       0.531789     1.117909    -1.503246
H       0.230019    -0.515041    -0.949331
H       0.225428    -0.737212     1.560621
C       5.000910    -0.152271     0.044447
C       4.645360     1.180442     0.149367
C       3.304851     1.490024     0.339146
C       2.344394     0.486293     0.419685
C       2.733677    -0.850313     0.308875
C       4.067798    -1.174861     0.122432
H       5.404166     1.949615     0.084964
H       3.008447     2.531330     0.431629
H       1.991011    -1.639723     0.368312
H       4.389510    -2.204584     0.036018
N       6.425339    -0.497879    -0.157882
O       6.711740    -1.673342    -0.246689
O       7.220768     0.416755    -0.222948
C       0.880344     0.851295     0.603716
O       0.304530     0.243905     1.748533
H       0.847436     1.931298     0.802966
H      -1.445665     0.443709     1.301830
O      -1.561896     2.281729    -0.530879
H      -0.833133     2.650082    -0.021410
43
     -1145.208253     -1144.902587   0.67   3.86
C      -2.364982    -1.013684     0.923544
C      -3.382148     1.091100     0.606224
C      -4.459341     0.051127     0.259279
C      -3.755492    -1.318445     0.382017
H      -2.400828    -0.889647     2.010082
H      -3.439989     1.373942     1.660635
H      -3.409553     2.001540     0.013609
H      -5.298994     0.148581     0.950769
H      -4.856116     0.208378    -0.745813
H      -4.269160    -1.993398     1.068883
H      -3.678245    -1.837472    -0.572259
N      -2.060360     0.402427     0.439904
C      -1.223396    -2.036871     0.628359
O      -1.404749    -2.813982    -0.311427
O      -0.227057    -1.916908     1.392128
C      -1.346769     0.629893    -0.919324
C      -2.017957    -0.130281    -2.049950
H      -1.945673    -1.206889    -1.886421
H      -3.067813     0.156392    -2.162212
H      -1.492472     0.117709    -2.976285
C       0.134516     0.257508    -0.793015
H       0.586035     0.581038    -1.735845
H       0.253634    -0.823287    -0.734732
H       0.241806    -0.329726     1.709807
C       5.034798    -0.102094     0.157721
C       4.659554     1.197753    -0.131060
C       3.312278     1.526304    -0.054999
C       2.363200     0.572884     0.300228
C       2.773197    -0.731864     0.584626
C       4.113827    -1.074735     0.516333
H       5.409354     1.928550    -0.405726
H       2.999004     2.543755    -0.270623
H       2.040621    -1.484648     0.859043
H       4.449893    -2.080089     0.734555
N       6.466140    -0.466627     0.081187
O       6.769676    -1.612708     0.339348
O       7.251372     0.403329    -0.235764
C       0.893058     0.947282     0.355106
O       0.317820     0.661803     1.625938
H       0.805397     2.030357     0.228763
H      -1.365010     0.777214     1.109897
O      -1.397320     2.024532    -1.120716
H      -2.011753     2.229961    -1.831813
43
     -1145.204993     -1144.902280   2.72   4.06
C      -2.974272    -0.274595    -0.223267
C      -0.690999    -1.078437     0.013558
C      -1.678426    -2.131468     0.544861
C      -3.005596    -1.800796    -0.148619
H      -3.647795     0.128269    -0.979388
H       0.019168    -1.482216    -0.708812
H      -0.137859    -0.570868     0.798824
H      -1.335098    -3.146728     0.337459
H      -1.787030    -2.021277     1.625683
H      -3.042276    -2.235777    -1.155658
H      -3.881687    -2.135631     0.404575
N      -1.541247    -0.041293    -0.691345
C      -3.377468     0.340925     1.152990
O      -4.548161     0.128265     1.434163
O      -2.493772     0.945512     1.836682
C      -0.947628     1.416282    -0.681135
C      -2.052746     2.351095    -1.173466
H      -1.616455     3.349453    -1.247716
H      -2.428846     2.065508    -2.162672
H      -2.878745     2.395338    -0.462622
C       0.255394     1.421609    -1.669409
H       0.046048     2.156230    -2.450518
H       0.351480     0.454538    -2.176155
H       0.874879     2.953918     0.271485
C       3.358525    -1.464180     1.139525
C       3.262391    -1.546407    -0.240290
C       2.710111    -0.475333    -0.925394
C       2.248850     0.656768    -0.251165
C       2.374698     0.710859     1.133755
C       2.928544    -0.349453     1.838331
H       3.621179    -2.428243    -0.755242
H       2.648650    -0.519929    -2.010202
H       2.033743     1.584674     1.673007
H       3.027178    -0.319313     2.915897
N       3.947742    -2.596904     1.884746
O       4.026350    -2.495922     3.091091
O       4.315153    -3.559391     1.243066
C       1.628806     1.790558    -1.061240
O       1.585672     3.022560    -0.383360
H       2.293058     1.954763    -1.916885
H      -1.562938    -0.293018    -1.676980
O      -0.551621     1.704249     0.589884
H      -1.376956     1.435803     1.221959
43
     -1145.202876     -1144.901627   4.04   4.47
C      -3.334556    -0.292679    -0.961348
C      -1.898345     0.243597     0.938092
C      -3.312153     0.802864     1.159304
C      -4.205463    -0.074470     0.276132
H      -3.634610    -1.159492    -1.549116
H      -1.573619    -0.401697     1.756279
H      -1.148069     1.011532     0.764067
H      -3.593630     0.772912     2.213568
H      -3.358026     1.839510     0.819855
H      -4.428503    -1.029810     0.768475
H      -5.145816     0.399783    -0.000830
N      -1.984321    -0.603590    -0.317533
C      -3.408176     0.961733    -1.887970
O      -4.501277     1.079432    -2.423541
O      -2.398962     1.729091    -1.962308
C      -0.682408    -0.593306    -1.208801
C      -1.044393    -1.278138    -2.526246
H      -0.119467    -1.430203    -3.083339
H      -1.511937    -2.255498    -2.360938
H      -1.708985    -0.651706    -3.122469
C       0.355370    -1.401560    -0.407931
H       0.109582    -2.464854    -0.507291
H       0.277992    -1.147181     0.652217
H       1.513071     0.183160    -2.175595
C       4.015895     1.038291     2.126022
C       4.308138    -0.299653     1.933596
C       3.595744    -0.998072     0.967510
C       2.609634    -0.373562     0.207926
C       2.339991     0.978684     0.429313
C       3.041722     1.691984     1.388194
H       5.076816    -0.775662     2.528521
H       3.818177    -2.047864     0.800613
H       1.570303     1.477811    -0.147127
H       2.842745     2.740260     1.569496
N       4.764936     1.795387     3.151901
O       5.612098     1.198113     3.783065
O       4.486828     2.967011     3.300364
C       1.843760    -1.180106    -0.833596
O       1.997380    -0.653268    -2.135453
H       2.312551    -2.166252    -0.878198
H      -2.068789    -1.572634    -0.018325
O      -0.280544     0.700703    -1.355597
H      -1.150685     1.239399    -1.670959
43
     -1145.207172     -1144.901530   1.35   4.53
C      -2.390163     0.807554     1.151769
C      -2.857197    -1.427690     0.386135
C      -3.641134    -1.217676     1.697220
C      -3.571314     0.299736     1.983255
H      -2.467026     1.852726     0.859028
H      -3.424045    -1.952779    -0.382481
H      -1.907332    -1.926001     0.565468
H      -4.675901    -1.555049     1.600154
H      -3.160979    -1.782054     2.493606
H      -4.495877     0.800969     1.673208
H      -3.412408     0.516206     3.039804
N      -2.559171    -0.038046    -0.102877
C      -1.033729     0.551717     1.880946
O      -0.849501    -0.602669     2.292879
O      -0.284225     1.553716     1.961456
C      -1.573404     0.149477    -1.291666
C      -2.073966    -0.754307    -2.413034
H      -1.477622    -0.530740    -3.299212
H      -1.960646    -1.814105    -2.176732
H      -3.119959    -0.538152    -2.653236
C      -0.114821    -0.180749    -0.895693
H       0.227255    -1.014212    -1.515916
H      -0.057604    -0.532360     0.134012
H       0.267862     2.045386     0.464702
C       4.770563    -0.253266     0.164844
C       3.799069    -0.014592     1.124604
C       2.539692     0.395067     0.715859
C       2.262083     0.565763    -0.642130
C       3.260038     0.321089    -1.581118
C       4.525749    -0.092442    -1.187297
H       4.031951    -0.151448     2.172593
H       1.771414     0.583602     1.459331
H       3.051351     0.461031    -2.638047
H       5.311317    -0.286245    -1.906330
N       6.113902    -0.693634     0.600574
O       6.304236    -0.827121     1.791351
O       6.945549    -0.895245    -0.260753
C       0.877083     0.982853    -1.105505
O       0.430333     2.188524    -0.505411
H       0.930618     1.200751    -2.177742
H      -3.421200     0.318335    -0.517843
O      -1.782259     1.458518    -1.699550
H      -1.108582     2.027555    -1.260224
43
     -1145.203196     -1144.901507   3.84   4.54
C      -2.998176     0.068717     1.385164
C      -2.674212    -1.149872    -0.737950
C      -2.927695    -2.117259     0.416004
C      -3.719323    -1.272151     1.412892
H      -3.639640     0.918801     1.623264
H      -3.490880    -1.158571    -1.464135
H      -1.744830    -1.339677    -1.268270
H      -3.466796    -3.003344     0.074697
H      -1.986289    -2.427817     0.873616
H      -4.762811    -1.164294     1.092328
H      -3.697644    -1.683879     2.420391
N      -2.640856     0.230252    -0.110391
C      -1.763692     0.144416     2.351707
O      -1.277673     1.309869     2.463560
O      -1.416351    -0.895498     2.901109
C      -1.453679     1.183145    -0.517557
C      -1.701216     1.517084    -1.986870
H      -1.579224     0.652183    -2.644273
H      -2.703049     1.938124    -2.117388
H      -0.992314     2.287053    -2.291947
C      -0.099305     0.491942    -0.290013
H      -0.042566    -0.431895    -0.870323
H       0.025533     0.236608     0.761396
H       0.298438     2.918214     0.130466
C       4.634585    -0.950786    -0.061560
C       4.136741    -0.179306     0.976981
C       3.001492     0.584208     0.754598
C       2.377130     0.574886    -0.491978
C       2.904809    -0.205926    -1.516879
C       4.039009    -0.978547    -1.310915
H       4.636669    -0.184316     1.937036
H       2.593123     1.198646     1.548125
H       2.429793    -0.207168    -2.494180
H       4.461873    -1.591155    -2.096694
N       5.843462    -1.769759     0.171173
O       6.257956    -2.435895    -0.755226
O       6.348480    -1.727235     1.273788
C       1.103779     1.365012    -0.716870
O       1.193430     2.574522     0.002611
H       1.030876     1.571141    -1.795367
H      -3.429690     0.746752    -0.490924
O      -1.626862     2.321844     0.227347
H      -1.482407     2.040932     1.231459
43
     -1145.202918     -1144.899799   4.02   5.61
C      -3.492412    -0.231973     0.724116
C      -2.127281     0.875279    -0.941576
C      -3.589489     1.335839    -1.064977
C      -4.198854     1.055934     0.312920
H      -3.550134    -0.436035     1.792089
H      -1.435831     1.710902    -0.857727
H      -1.819115     0.215748    -1.746972
H      -3.651321     2.388473    -1.348622
H      -4.101255     0.741881    -1.824128
H      -3.975769     1.866889     1.018400
H      -5.277624     0.905055     0.287763
N      -2.048441     0.087749     0.361464
C      -4.096458    -1.439580    -0.062791
O      -3.422781    -1.901113    -1.028387
O      -5.204954    -1.766058     0.350448
C      -1.005533    -1.095350     0.416624
C      -1.447544    -2.077716     1.504499
H      -0.657840    -2.826876     1.596070
H      -1.569236    -1.588952     2.476528
H      -2.367357    -2.593841     1.235450
C       0.373713    -0.540357     0.797714
H       1.038762    -1.402847     0.728938
H       0.378219    -0.229783     1.849978
H       0.837959     2.004924     1.319249
C       5.158152     0.311418    -0.563384
C       4.655868     1.423689     0.083524
C       3.279736     1.534712     0.250505
C       2.425785     0.542957    -0.219904
C       2.966803    -0.560737    -0.884679
C       4.333970    -0.687410    -1.058649
H       5.332116     2.187356     0.445504
H       2.886224     2.420543     0.735990
H       2.304346    -1.327223    -1.277322
H       4.765382    -1.538661    -1.569015
N       6.622286     0.185466    -0.741212
O       7.318417     1.075775    -0.301141
O       7.032893    -0.800729    -1.315482
C       0.914300     0.611828    -0.060212
O       0.449125     1.860541     0.450154
H       0.488637     0.534395    -1.063477
H      -1.721758     0.751587     1.062063
O      -0.919276    -1.669043    -0.820933
H      -1.882426    -1.914654    -1.049400
43
     -1145.203483     -1144.899541   3.66   5.78
C      -2.151301    -1.695761    -0.629680
C      -3.270541     0.367382    -0.250289
C      -4.378980    -0.633016    -0.577473
C      -3.635926    -1.945389    -0.928753
H      -1.666432    -2.506131    -0.088504
H      -3.546282     1.140072     0.469047
H      -2.883251     0.817162    -1.162260
H      -5.038950    -0.773520     0.284704
H      -4.987316    -0.264973    -1.404008
H      -4.018680    -2.781535    -0.337650
H      -3.738951    -2.192618    -1.983985
N      -2.187024    -0.495883     0.313883
C      -1.290355    -1.330287    -1.886106
O      -1.897917    -0.871120    -2.856133
O      -0.050036    -1.497043    -1.719276
C      -0.799623     0.159999     0.724185
C      -1.015419     0.693684     2.134019
H      -0.075845     1.108848     2.493013
H      -1.763643     1.489941     2.164499
H      -1.304899    -0.122598     2.803836
C      -0.462701     1.256410    -0.299728
H      -1.245189     2.019495    -0.282096
H      -0.434231     0.818625    -1.296926
H       1.389217     3.550304     1.000960
C       4.369544    -0.416381     0.148916
C       3.644798    -0.381389    -1.032500
C       2.510793     0.410513    -1.090670
C       2.097393     1.146310     0.020122
C       2.842161     1.085791     1.193267
C       3.987581     0.304200     1.266354
H       3.967734    -0.969036    -1.881922
H       1.925382     0.424386    -2.003835
H       2.518691     1.640395     2.066422
H       4.576216     0.245639     2.173129
N       5.585282    -1.254921     0.218744
O       6.200715    -1.267491     1.265154
O       5.895313    -1.879936    -0.774344
C       0.856084     2.018592    -0.090972
O       0.687874     2.891946     1.020217
H       0.973787     2.620865    -1.003157
H      -2.528399    -0.864732     1.201118
O       0.096803    -0.870084     0.781690
H       0.246525    -1.196719    -0.163010
43
     -1145.204879     -1144.899459   2.79   5.83
C      -2.401748     0.997318     1.195575
C      -2.860056    -1.084703    -0.037091
C      -3.390520    -1.193395     1.386542
C      -2.525758    -0.188613     2.143463
H      -3.268604     1.656791     1.289892
H      -3.569441    -1.395738    -0.804978
H      -1.935772    -1.643145    -0.171670
H      -4.448523    -0.908416     1.425042
H      -3.306283    -2.214208     1.765891
H      -2.959304     0.133393     3.091718
H      -1.535928    -0.591893     2.362157
N      -2.556910     0.381073    -0.223090
C      -1.144369     1.910619     1.395872
O      -0.325333     1.530293     2.235943
O      -1.136358     2.941408     0.675425
C      -1.569919     0.769295    -1.386403
C      -2.000996    -0.044959    -2.601724
H      -1.476793     0.371010    -3.463492
H      -1.741472    -1.099354    -2.513073
H      -3.074175     0.070828    -2.784852
C      -0.072457     0.593387    -1.057901
H       0.259604     1.472806    -0.509973
H       0.428072     0.625832    -2.030925
H       0.563729    -2.557470    -0.640164
C       4.637844    -0.154447     0.324121
C       4.210279    -0.813506    -0.816245
C       2.846277    -0.977511    -1.012785
C       1.933507    -0.493016    -0.077683
C       2.391888     0.170348     1.060207
C       3.752465     0.344629     1.265553
H       4.935432    -1.182963    -1.529949
H       2.489741    -1.479452    -1.906135
H       1.674812     0.569466     1.772192
H       4.128735     0.860596     2.139334
N       6.090333     0.027604     0.540468
O       6.440028     0.612686     1.544063
O       6.843601    -0.419867    -0.299606
C       0.437541    -0.634342    -0.303297
O       0.118668    -1.808919    -1.051463
H      -0.036890    -0.674815     0.684174
H      -3.397862     0.814577    -0.597960
O      -1.865284     2.090788    -1.645906
H      -1.581803     2.615987    -0.831263
43
     -1145.199421     -1144.899119   6.21   6.04
C      -2.958500     1.424476     0.003012
C      -2.540477    -0.715661     1.098031
C      -3.752316    -0.017232     1.735524
C      -4.255838     0.937138     0.647133
H      -3.102077     1.823301    -1.000489
H      -2.768081    -1.729242     0.761098
H      -1.664892    -0.736386     1.743170
H      -4.509066    -0.737064     2.053877
H      -3.429809     0.553538     2.608335
H      -4.879904     0.406025    -0.083595
H      -4.823159     1.780785     1.037824
N      -2.186155     0.111286    -0.120989
C      -2.307719     2.540675     0.882088
O      -2.942308     3.589736     0.834611
O      -1.274636     2.251905     1.549581
C      -0.639303     0.132754    -0.472543
C      -0.445800     1.224855    -1.519641
H      -1.046993     1.048981    -2.418072
H      -0.684304     2.201389    -1.097974
H       0.602243     1.229109    -1.812836
C      -0.352883    -1.288766    -0.987778
H      -1.094716    -1.570758    -1.747340
H      -0.473033    -1.971189    -0.141543
H       0.672400    -1.530257    -3.553712
C       4.369025    -0.366387     0.766640
C       3.516389    -1.356643     1.231818
C       2.441544    -1.724144     0.442309
C       2.213358    -1.111028    -0.789342
C       3.089515    -0.126587    -1.231952
C       4.175828     0.254062    -0.453025
H       3.700005    -1.818718     2.193056
H       1.765023    -2.494656     0.799996
H       2.928088     0.343422    -2.193726
H       4.865105     1.020406    -0.783332
N       5.521121     0.035257     1.600814
O       5.666125    -0.527251     2.666748
O       6.252509     0.902766     1.170093
C       1.028331    -1.553792    -1.629147
O       1.124115    -0.966696    -2.919953
H       1.102514    -2.646279    -1.724285
H      -2.612424    -0.344594    -0.923896
O       0.061024     0.341321     0.672986
H      -0.349870     1.180139     1.106429
43
     -1145.201375     -1144.895742   4.99   8.16
C      -2.641306    -1.075469    -1.079184
C      -2.642103     1.168424    -0.033731
C      -2.605929     1.285704    -1.556041
C      -3.211920    -0.033263    -2.034228
H      -3.310165    -1.918704    -0.904679
H      -3.595586     1.520629     0.369743
H      -1.841401     1.696302     0.477584
H      -3.166189     2.160797    -1.892062
H      -1.580330     1.365334    -1.918503
H      -4.306099    -0.005653    -1.966736
H      -2.931115    -0.274736    -3.058712
N      -2.564205    -0.319261     0.261623
C      -1.255609    -1.664168    -1.499747
O      -0.588006    -1.003123    -2.303286
O      -0.976044    -2.750223    -0.928639
C      -1.553889    -0.827544     1.354975
C      -1.994340    -0.148669     2.649043
H      -1.389493    -0.552871     3.462830
H      -1.869071     0.933906     2.621909
H      -3.038209    -0.394889     2.868438
C      -0.058249    -0.612293     1.033618
H       0.255810    -1.402672     0.355748
H       0.450417    -0.814920     1.984943
H       0.543549     1.618535     2.223578
C       4.598899     0.214865    -0.504281
C       3.625924    -0.359214    -1.308025
C       2.293265    -0.172100    -0.979620
C       1.941509     0.578440     0.145071
C       2.939803     1.151982     0.926066
C       4.280129     0.973227     0.607574
H       3.916199    -0.939435    -2.174334
H       1.511848    -0.605477    -1.599332
H       2.687990     1.764048     1.785156
H       5.068192     1.413375     1.205048
N       6.023003     0.016199    -0.849761
O       6.276145    -0.651952    -1.830336
O       6.853135     0.533613    -0.130693
C       0.463702     0.720638     0.483651
O       0.189950     1.816994     1.350440
H      -0.046637     0.950876    -0.452778
H      -3.433707    -0.565979     0.727042
O      -1.830356    -2.173194     1.473585
H      -1.489514    -2.618078     0.637046
43
     -1145.196900     -1144.895538   7.80   8.29
C      -1.835082    -1.544928    -0.158961
C      -3.464584    -0.273644     1.067757
C      -3.766721    -1.754798     1.348020
C      -2.603386    -2.543641     0.706691
H      -0.766903    -1.743925    -0.190108
H      -3.568909     0.379309     1.935436
H      -4.071912     0.076879     0.238045
H      -3.836020    -1.952849     2.420876
H      -4.718024    -2.015768     0.887151
H      -1.944272    -2.960032     1.476629
H      -2.960037    -3.366025     0.086732
N      -2.030639    -0.252305     0.619931
C      -2.391093    -1.372681    -1.605118
O      -3.634011    -1.359563    -1.686790
O      -1.513104    -1.211008    -2.474254
C      -1.523568     1.077851     0.038505
C      -2.346432     1.589471    -1.134223
H      -1.981430     2.596415    -1.356421
H      -2.213534     0.964617    -2.016028
H      -3.411668     1.649897    -0.902427
C      -0.056669     0.908740    -0.365527
H       0.219449     1.823969    -0.896375
H       0.015619     0.090285    -1.086703
H       1.159854    -0.495231     2.299818
C       4.904923     0.379273    -0.740369
C       4.037633    -0.695370    -0.861571
C       2.754126    -0.571203    -0.354685
C       2.346724     0.611115     0.265593
C       3.243668     1.669262     0.375222
C       4.533447     1.563356    -0.130296
H       4.370867    -1.603911    -1.346365
H       2.060739    -1.400671    -0.444450
H       2.935430     2.589521     0.863088
H       5.242699     2.377438    -0.054996
N       6.276812     0.254091    -1.282861
O       6.576136    -0.795714    -1.811480
O       7.014705     1.209563    -1.164465
C       0.931436     0.752087     0.790978
O       0.548280    -0.395997     1.564053
H       0.869617     1.644140     1.423434
H      -1.438977    -0.359295     1.447821
O      -1.577480     1.972492     1.130017
H      -2.387710     2.488785     1.078676
43
     -1145.196900     -1144.895534   7.80   8.29
C      -2.018500    -1.281881     0.249255
C      -3.589613     0.536504     0.212593
C      -4.181955    -0.532152     1.145734
C      -3.079310    -1.602959     1.302188
H      -1.009826    -1.521133     0.576230
H      -3.724820     1.562024     0.559186
H      -3.981077     0.407538    -0.792522
H      -4.462198    -0.107425     2.113266
H      -5.073235    -0.952365     0.682566
H      -2.638791    -1.564546     2.304725
H      -3.462053    -2.610454     1.139936
N      -2.118583     0.234407     0.167762
C      -2.287416    -1.899498    -1.156597
O      -3.478562    -1.868066    -1.519742
O      -1.261991    -2.285597    -1.749748
C      -1.302564     1.001517    -0.885875
C      -1.818552     0.830947    -2.306726
H      -2.881497     1.063921    -2.396042
H      -1.255567     1.531828    -2.929902
H      -1.648425    -0.180297    -2.672962
C       0.160730     0.562487    -0.787636
H       0.673387     1.022605    -1.636846
H       0.212164    -0.519549    -0.935086
H       0.657677     0.782789     2.415431
C       4.951630    -0.344607     0.336080
C       4.690424     0.997891     0.131851
C       3.371405     1.430287     0.191107
C       2.338590     0.533034     0.444946
C       2.636691    -0.815447     0.648245
C       3.946743    -1.263525     0.595938
H       5.505166     1.682240    -0.066391
H       3.147134     2.482188     0.039093
H       1.837159    -1.521395     0.846349
H       4.196764    -2.305263     0.750170
N       6.353290    -0.817624     0.275661
O       6.553655    -1.999606     0.459772
O       7.212704     0.006956     0.045652
C       0.900330     1.012166     0.472989
O       0.203621     0.495481     1.617617
H       0.886398     2.106650     0.511658
H      -1.700589     0.566666     1.040572
O      -1.385080     2.348738    -0.470096
H      -2.075459     2.794534    -0.970405
43
     -1145.201070     -1144.894863   5.18   8.71
C       1.527377    -1.550316    -1.193498
C       2.959050    -0.848806     0.581757
C       3.600834    -2.112633     0.022708
C       2.521699    -2.692069    -0.917869
H       1.376708    -1.337562    -2.250702
H       3.661275    -0.102534     0.954258
H       2.222339    -1.091961     1.345987
H       4.513412    -1.858953    -0.529070
H       3.880883    -2.799690     0.822314
H       2.958753    -3.070468    -1.844206
H       1.977257    -3.501467    -0.432869
N       2.214577    -0.317844    -0.602388
C       0.126292    -1.730545    -0.516352
O      -0.781533    -1.040883    -1.056370
O       0.074930    -2.456750     0.478184
C       1.372065     1.000879    -0.424582
C       2.397816     2.127500    -0.527386
H       1.901397     3.074772    -0.322463
H       3.205949     2.008365     0.199620
H       2.814700     2.165485    -1.538617
C       0.660556     0.984656     0.941941
H       1.392682     1.275667     1.701714
H       0.314506    -0.019831     1.183844
H      -0.332457     2.844479    -0.671284
C      -4.246149    -0.124600     0.322372
C      -3.902261     0.915272    -0.521732
C      -2.715437     1.597160    -0.290924
C      -1.882225     1.237591     0.761877
C      -2.269436     0.196616     1.606085
C      -3.446815    -0.496359     1.392394
H      -4.553104     1.178058    -1.345710
H      -2.445234     2.415876    -0.946537
H      -1.632076    -0.097387     2.434621
H      -3.743103    -1.319963     2.028691
N      -5.502318    -0.861577     0.076079
O      -6.184153    -0.514865    -0.867211
O      -5.779430    -1.770719     0.831884
C      -0.560683     1.949676     1.027522
O      -0.395798     3.120222     0.252969
H      -0.600124     2.303927     2.062590
H       2.913945    -0.045564    -1.293244
O       0.524176     1.074428    -1.503747
H      -0.140842     0.292713    -1.432650
43
     -1145.201070     -1144.894846   5.18   8.72
C      -1.847456    -1.654331    -0.104418
C      -2.966625     0.266044    -0.972255
C      -3.833720    -0.920814    -1.373740
C      -2.953166    -2.148487    -1.053943
H      -1.785648    -2.206882     0.831801
H      -3.514274     1.184191    -0.758086
H      -2.191589     0.450488    -1.714722
H      -4.756686    -0.929603    -0.782384
H      -4.118006    -0.864145    -2.425320
H      -3.536138    -2.952748    -0.600488
H      -2.475422    -2.529554    -1.955791
N      -2.289695    -0.236711     0.263616
C      -0.418738    -1.596090    -0.744368
O       0.510562    -1.593470     0.108759
O      -0.359010    -1.500324    -1.971697
C      -1.259381     0.708971     0.987738
C      -2.125285     1.658770     1.812470
H      -2.640718     1.106145     2.604146
H      -1.483753     2.407336     2.274917
H      -2.857985     2.182300     1.192087
C      -0.411805     1.456036    -0.059859
H      -1.009354     2.292248    -0.436203
H      -0.183219     0.806553    -0.904379
H       0.645111     1.618058     2.369781
C       4.198340    -0.629532    -0.358582
C       3.910591    -0.343471     0.963336
C       2.861269     0.520214     1.245756
C       2.106616     1.080607     0.221839
C       2.436874     0.786192    -1.101218
C       3.477267    -0.072970    -1.403746
H       4.497383    -0.795688     1.752492
H       2.636219     0.751203     2.279740
H       1.859553     1.215766    -1.914419
H       3.725212    -0.324630    -2.426574
N       5.306658    -1.556284    -0.666021
O       5.922510    -2.028796     0.267993
O       5.537014    -1.790733    -1.835020
C       0.932672     2.012896     0.498918
O       0.846743     2.409433     1.852702
H       1.133444     2.938431    -0.050175
H      -3.016062    -0.358877     0.969311
O      -0.532604    -0.083379     1.843809
H       0.022307    -0.734362     1.272199
43
     -1145.198078     -1144.894476   7.06   8.95
C      -2.076823    -0.151858     0.716496
C      -3.152520     1.827919    -0.147954
C      -3.727397     1.610826     1.244111
C      -3.344028     0.151460     1.545891
H      -1.197184    -0.311122     1.332200
H      -3.024152     2.872465    -0.437085
H      -3.728130     1.279267    -0.893395
H      -3.263302     2.302630     1.957712
H      -4.805110     1.782249     1.267638
H      -3.167574    -0.019827     2.609479
H      -4.138791    -0.519422     1.216108
N      -1.818004     1.162195    -0.040734
C      -2.271848    -1.367924    -0.240376
O      -1.428562    -2.272783    -0.105570
O      -3.241372    -1.265814    -1.018382
C      -0.934994     1.210210    -1.305732
C      -1.709915     0.854739    -2.564816
H      -2.489227     1.596407    -2.770366
H      -1.004593     0.860308    -3.399418
H      -2.184440    -0.123661    -2.480975
C       0.277459     0.301236    -1.109649
H       0.781542     0.248930    -2.078609
H      -0.065232    -0.706902    -0.874915
H       1.323201     1.378590     1.777129
C       4.214221    -2.248889     0.747840
C       4.652304    -1.007770     0.324651
C       3.699489    -0.035900     0.043806
C       2.341215    -0.304650     0.183757
C       1.929313    -1.571009     0.612066
C       2.868492    -2.549633     0.894282
H       5.712048    -0.814304     0.220012
H       4.023288     0.944945    -0.293044
H       0.873829    -1.809751     0.708534
H       2.569434    -3.536932     1.221157
N       5.217509    -3.295027     1.050494
O       6.387766    -3.005415     0.911532
O       4.808219    -4.375661     1.418365
C       1.321787     0.781960    -0.099829
O       0.657296     1.173710     1.114350
H       1.832747     1.659143    -0.511372
H      -1.250986     1.710066     0.610161
O      -0.481082     2.547924    -1.349778
H      -0.985889     3.037075    -2.005775
43
     -1145.197983     -1144.893704   7.12   9.44
C      -3.260470     0.070188     1.272003
C      -2.620073    -0.353869    -1.000092
C      -4.137128    -0.222166    -1.016930
C      -4.526711    -0.290419     0.473784
H      -3.375618     0.946627     1.907888
H      -2.106750     0.013290    -1.887178
H      -2.310781    -1.378386    -0.803864
H      -4.426572     0.738014    -1.461258
H      -4.598372    -1.011044    -1.613173
H      -5.351801     0.385261     0.708833
H      -4.815185    -1.303872     0.751873
N      -2.246917     0.468577     0.190710
C      -2.684206    -1.101532     2.147143
O      -1.910207    -0.713927     3.063109
O      -3.003087    -2.246491     1.817977
C      -0.732692     0.584238     0.608916
C      -0.112388     1.556843    -0.385285
H       0.913755     1.752847    -0.075961
H      -0.105541     1.176644    -1.406339
H      -0.650871     2.509092    -0.341726
C      -0.079748    -0.822556     0.674761
H      -0.846287    -1.592789     0.761249
H       0.453469    -0.839737     1.625049
H       0.650351    -1.901819    -2.261334
C       4.707842     0.683203    -0.447843
C       3.938495     0.714274    -1.596515
C       2.697650     0.089897    -1.585347
C       2.232983    -0.554540    -0.442439
C       3.038930    -0.571915     0.697684
C       4.277432     0.048844     0.706643
H       4.307773     1.220841    -2.479060
H       2.079794     0.121140    -2.475010
H       2.698866    -1.078582     1.595948
H       4.908088     0.043631     1.586276
N       6.029803     1.346607    -0.451227
O       6.379859     1.893691    -1.475913
O       6.681094     1.302058     0.571418
C       0.893577    -1.284985    -0.417041
O       0.230417    -1.263341    -1.677848
H       1.121509    -2.327393    -0.154781
H      -2.476574     1.435100    -0.038717
O      -0.744149     1.210635     1.832471
H      -1.119561     0.547814     2.501154
43
     -1145.197979     -1144.893340   7.12   9.67
C      -1.352021    -0.732659    -1.424379
C      -2.825561    -2.286175    -0.315136
C      -2.536100    -2.890667    -1.681485
C      -1.948618    -1.704066    -2.469506
H      -0.272945    -0.633556    -1.509474
H      -2.929104    -2.996951     0.505432
H      -3.676932    -1.608543    -0.362247
H      -1.808778    -3.706859    -1.589810
H      -3.437161    -3.300653    -2.140894
H      -1.192964    -2.020441    -3.191223
H      -2.740587    -1.183518    -3.010011
N      -1.608007    -1.442832    -0.091617
C      -2.014536     0.675907    -1.493674
O      -3.244940     0.682664    -1.305536
O      -1.220216     1.605722    -1.731158
C      -1.542623    -0.701809     1.269370
C      -2.888723    -0.113387     1.649594
H      -2.755154     0.423059     2.590952
H      -3.257650     0.562322     0.877597
H      -3.615783    -0.909190     1.820327
C      -0.450448     0.375078     1.226626
H      -0.607005     1.005968     2.105031
H      -0.610499     1.012420     0.357594
H       2.013115    -1.551217     0.364844
C       3.947113     2.620284    -0.121216
C       4.161963     1.951088     1.069745
C       3.178244     1.078871     1.516198
C       2.007454     0.881237     0.785912
C       1.817377     1.575687    -0.412746
C       2.792010     2.451584    -0.867201
H       5.075606     2.113640     1.626523
H       3.326098     0.548627     2.453144
H       0.904534     1.465675    -0.993492
H       2.662033     3.003104    -1.789160
N       4.986781     3.555062    -0.612297
O       4.774171     4.131361    -1.657393
O       5.986079     3.684079     0.063595
C       0.994594    -0.127466     1.289816
O       1.085783    -1.359352     0.535946
H       1.243777    -0.359473     2.333869
H      -0.820042    -2.084629    -0.014951
O      -1.264198    -1.717164     2.205616
H      -0.336132    -1.972835     2.136875
43
     -1145.196464     -1144.893149   8.07   9.79
C      -2.116062     1.514505    -0.269670
C      -3.823840    -0.166586    -0.287043
C      -4.430026     1.029772    -1.008085
C      -3.439531     2.176503    -0.705610
H      -1.260787     1.818834    -0.870250
H      -4.128092    -1.148236    -0.649309
H      -3.960142    -0.071579     0.788975
H      -4.494183     0.834316    -2.085358
H      -5.439209     1.238078    -0.649899
H      -3.293047     2.823657    -1.573300
H      -3.800988     2.785462     0.122733
N      -2.358736     0.029291    -0.556840
C      -1.784347     1.703651     1.257654
O      -2.764541     1.589058     2.012505
O      -0.577705     1.892892     1.510393
C      -1.410123    -1.031375    -0.000763
C      -1.707847    -1.384072     1.449016
H      -1.475906    -0.569573     2.134238
H      -2.752467    -1.671009     1.566697
H      -1.104428    -2.259645     1.699448
C       0.014946    -0.524732    -0.240379
H       0.111799     0.470153     0.200055
H       0.195038    -0.469241    -1.321571
H       1.526254    -3.319226     0.334777
C       4.867718     0.526786    -0.175585
C       3.951020     1.065898     0.714827
C       2.739593     0.419049     0.889738
C       2.451739    -0.749363     0.179825
C       3.384672    -1.260658    -0.715094
C       4.607093    -0.623810    -0.896737
H       4.189347     1.974783     1.251572
H       1.999676     0.837134     1.567180
H       3.155784    -2.155241    -1.283408
H       5.347896    -1.005957    -1.587366
N       6.165804     1.211286    -0.366428
O       6.949268     0.720244    -1.152263
O       6.366566     2.221293     0.274821
C       1.094631    -1.395739     0.391450
O       0.988246    -2.704112    -0.174180
H       0.916973    -1.443591     1.472375
H      -2.244375    -0.096489    -1.564127
O      -1.715874    -2.125308    -0.845964
H      -0.941808    -2.707109    -0.839048
43
     -1145.196464     -1144.893148   8.07   9.79
C      -2.231176     0.764544     1.131950
C      -3.804218     0.008240    -0.510182
C      -4.513869     1.126331     0.241419
C      -3.609473     1.369068     1.470526
H      -1.412993     1.477694     1.214434
H      -4.038335    -0.079173    -1.570839
H      -3.927924    -0.939347     0.011539
H      -4.582273     2.024177    -0.384704
H      -5.529472     0.836828     0.515063
H      -3.529154     2.431825     1.709800
H      -4.001734     0.846995     2.343004
N      -2.363716     0.405077    -0.351443
C      -1.887235    -0.532759     1.954945
O      -2.841648    -1.314721     2.100712
O      -0.694378    -0.626736     2.307037
C      -1.326151    -0.490600    -1.026337
C      -1.569304    -1.969980    -0.767067
H      -0.895808    -2.528093    -1.421578
H      -1.388234    -2.248603     0.270383
H      -2.586402    -2.245411    -1.044655
C       0.050964     0.004529    -0.575399
H       0.078790     0.016078     0.516490
H       0.206345     1.020754    -0.959645
H       1.783244    -1.591726    -2.783240
C       4.808500     0.610849     0.712697
C       4.624799     0.783319    -0.646845
C       3.458710     0.297932    -1.227809
C       2.505132    -0.352328    -0.452884
C       2.714421    -0.505984     0.919939
C       3.868903    -0.023165     1.512066
H       5.380501     1.291260    -1.232254
H       3.289566     0.437665    -2.289649
H       1.956662    -0.987213     1.532650
H       4.045801    -0.127901     2.574471
N       6.046177     1.127779     1.337945
O       6.179579     0.967701     2.533018
O       6.851182     1.679710     0.616961
C       1.206120    -0.875579    -1.038685
O       1.191011    -0.901379    -2.467752
H       1.052476    -1.888504    -0.648005
H      -2.258314     1.276369    -0.874189
O      -1.562061    -0.184639    -2.388391
H      -0.745015    -0.390882    -2.865500
43
     -1145.195540     -1144.891384   8.65  10.89
C      -1.541033    -1.208483    -0.691097
C      -0.479276    -1.410339     1.402416
C      -1.780632    -2.213369     1.521306
C      -2.485871    -2.051946     0.154500
H      -0.772132    -1.849089    -1.135597
H       0.341811    -2.034851     1.038551
H      -0.169618    -0.909124     2.314319
H      -1.554369    -3.256035     1.754815
H      -2.397095    -1.829864     2.336857
H      -2.654698    -3.006899    -0.346190
H      -3.457396    -1.567356     0.237624
N      -0.729099    -0.395343     0.322601
C      -2.103885    -0.365671    -1.879187
O      -3.327353    -0.390481    -2.043531
O      -1.199807     0.225047    -2.517567
C      -1.245097     1.002272     0.822509
C      -2.757926     0.984281     0.974515
H      -3.058288     0.252265     1.725571
H      -3.052147     1.969764     1.341216
H      -3.268473     0.784258     0.031457
C      -0.800492     2.082778    -0.178613
H      -1.370891     2.981726     0.070411
H      -1.077465     1.771018    -1.187729
H       1.828671     3.547810     1.029455
C       3.231372    -0.864121    -0.959984
C       2.471885    -0.332662    -1.990363
C       1.680495     0.776146    -1.731401
C       1.639120     1.336076    -0.451842
C       2.417267     0.778870     0.563884
C       3.222924    -0.325405     0.314784
H       2.493128    -0.790719    -2.970470
H       1.043792     1.166964    -2.516103
H       2.380442     1.191421     1.565329
H       3.827882    -0.770234     1.094176
N       4.069259    -2.055479    -1.226691
O       4.735908    -2.487052    -0.309577
O       4.029831    -2.526889    -2.342933
C       0.682042     2.490764    -0.187125
O       0.953782     3.147659     1.055925
H       0.792208     3.213784    -1.004759
H       0.153722    -0.186394    -0.141555
O      -0.675354     1.198519     2.086805
H      -0.037142     1.926389     2.053288
43
     -1145.194751     -1144.890960   9.14  11.16
C      -0.800962    -0.341951    -1.393057
C      -2.327008    -1.065178     0.287310
C      -1.766975    -2.350364    -0.315813
C      -0.895001    -1.873386    -1.503314
H       0.212283     0.029600    -1.512841
H      -2.553397    -1.103484     1.352591
H      -3.178879    -0.714676    -0.291739
H      -1.163600    -2.891779     0.420988
H      -2.576633    -3.009334    -0.630514
H       0.100367    -2.325460    -1.468668
H      -1.353931    -2.122759    -2.459190
N      -1.209002    -0.088196     0.053059
C      -1.746685     0.443753    -2.362404
O      -2.856833    -0.080805    -2.556233
O      -1.266026     1.517768    -2.776400
C      -1.436981     1.336047     0.597735
C      -2.795962     1.880549     0.184521
H      -2.904841     2.854058     0.668119
H      -2.877136     2.006813    -0.894324
H      -3.598934     1.239524     0.548857
C      -0.316401     2.274168     0.120842
H      -0.670061     3.289214     0.324793
H      -0.242401     2.188935    -0.968863
H       1.780873     2.610896     2.569141
C       2.994429    -1.607933     0.198230
C       3.111273    -0.629120    -0.775667
C       2.502926     0.597851    -0.557622
C       1.778197     0.843312     0.609225
C       1.699475    -0.156232     1.580543
C       2.304451    -1.391563     1.378184
H       3.662509    -0.834476    -1.684160
H       2.581558     1.371817    -1.315833
H       1.153181     0.023551     2.500039
H       2.239910    -2.178462     2.118678
N       3.625173    -2.928156    -0.030718
O       3.473776    -3.774100     0.825010
O       4.246420    -3.078258    -1.060745
C       1.070602     2.179024     0.775176
O       0.915807     2.534935     2.154142
H       1.682948     2.941582     0.277963
H      -0.427433    -0.418797     0.620367
O      -1.429105     1.127333     1.992922
H      -0.741970     1.673741     2.399668
43
     -1145.195734     -1144.890707   8.53  11.32
C      -0.622652    -0.714078    -1.872257
C      -0.111468    -1.987841     0.040842
C      -0.935671    -2.915283    -0.858813
C      -1.272175    -2.071860    -2.111172
H       0.430674    -0.752074    -2.170145
H       0.957583    -2.059467    -0.181138
H      -0.265591    -2.133551     1.105508
H      -0.361158    -3.812718    -1.098387
H      -1.840854    -3.242910    -0.343069
H      -0.868008    -2.502944    -3.028667
H      -2.344094    -1.958908    -2.266163
N      -0.516546    -0.595137    -0.348283
C      -1.195943     0.554762    -2.580690
O      -2.161767     0.375895    -3.328353
O      -0.561029     1.598312    -2.293526
C      -1.699606     0.020627     0.486677
C      -3.037146    -0.337933    -0.141869
H      -3.139145     0.038651    -1.160003
H      -3.185931    -1.418290    -0.129551
H      -3.812458     0.106845     0.485530
C      -1.502126     1.545793     0.556091
H      -2.456515     1.958941     0.899872
H      -1.322252     1.927108    -0.453141
H      -1.424998     2.317709     3.165208
C       3.431178     0.499772     0.448827
C       2.789451     1.366217    -0.421914
C       1.563675     1.897592    -0.049367
C       0.984456     1.554238     1.176504
C       1.659861     0.688634     2.036054
C       2.891003     0.155404     1.675459
H       3.238375     1.605189    -1.377032
H       1.029490     2.532694    -0.747135
H       1.222017     0.425976     2.990738
H       3.424551    -0.521621     2.329729
N       4.732495    -0.082445     0.050411
O       5.289654    -0.807328     0.847616
O       5.155133     0.197462    -1.051327
C      -0.404005     2.079103     1.498563
O      -0.690323     1.769596     2.870915
H      -0.385816     3.168482     1.374141
H       0.268188     0.033112    -0.179616
O      -1.650937    -0.568806     1.754260
H      -1.299573     0.065080     2.398671
43
     -1145.192811     -1144.890123  10.36  11.69
C      -1.742851    -0.528672     1.915711
C      -3.771122    -0.537634     0.638763
C      -4.204053    -0.287720     2.077569
C      -2.928224    -0.574847     2.902185
H      -0.958317     0.165650     2.211131
H      -4.361322    -0.039494    -0.130198
H      -3.675287    -1.605282     0.449029
H      -4.531711     0.751137     2.203764
H      -5.038480    -0.933148     2.354966
H      -2.800190     0.148650     3.710621
H      -2.968580    -1.573255     3.336967
N      -2.379126     0.028565     0.638660
C      -1.112886    -1.940500     1.623136
O      -1.944399    -2.848513     1.457513
O       0.132716    -1.952970     1.555103
C      -1.618984    -0.011319    -0.686196
C      -1.735617    -1.358859    -1.382435
H      -2.782830    -1.625346    -1.524933
H      -1.294688    -1.258952    -2.376584
H      -1.228991    -2.154333    -0.837126
C      -0.177406     0.402261    -0.379957
H       0.229765    -0.318755     0.330223
H      -0.185138     1.393312     0.096699
H       0.452876     2.348219    -2.099819
C       4.865159     0.775508    -0.538585
C       4.064081    -0.151975     0.108305
C       2.726164    -0.238877    -0.239794
C       2.192521     0.601789    -1.223369
C       3.028727     1.510780    -1.866908
C       4.372395     1.607329    -1.525996
H       4.487264    -0.792790     0.870699
H       2.104946    -0.973234     0.263343
H       2.643013     2.139592    -2.661376
H       5.031440     2.310877    -2.018240
N       6.294159     0.872308    -0.166731
O       6.971983     1.690464    -0.753012
O       6.699433     0.128235     0.701174
C       0.725193     0.468170    -1.611147
O       0.280536     1.491651    -2.509210
H       0.630210    -0.457315    -2.185481
H      -2.491349     1.033336     0.784380
O      -2.307024     0.986864    -1.417163
H      -1.694007     1.309096    -2.095684
43
     -1145.192811     -1144.890121  10.36  11.69
C      -2.156688     1.462896    -0.441293
C      -3.822438    -0.259690    -0.488942
C      -4.439081     0.915343    -1.236675
C      -3.476008     2.087916    -0.940448
H      -1.283427     1.780627    -1.008144
H      -4.092361    -1.250970    -0.852653
H      -3.989901    -0.160652     0.582134
H      -4.485816     0.703095    -2.311508
H      -5.456224     1.109441    -0.893852
H      -3.311928     2.707365    -1.825189
H      -3.873212     2.719961    -0.146582
N      -2.355538    -0.029925    -0.720621
C      -1.896688     1.686024     1.094350
O      -2.898312     1.527943     1.812097
O      -0.714165     1.950236     1.391208
C      -1.394960    -1.062384    -0.132432
C      -1.742030    -1.427075     1.303113
H      -1.589350    -0.596997     1.991932
H      -2.774190    -1.770671     1.370691
H      -1.107560    -2.266421     1.595812
C       0.017416    -0.496942    -0.301141
H       0.064780     0.444133     0.248536
H       0.191567    -0.286414    -1.366415
H       1.479554    -2.401069    -1.474716
C       4.898772     0.583283     0.470887
C       4.855041    -0.665438    -0.119431
C       3.629122    -1.312728    -0.215202
C       2.466724    -0.714772     0.265282
C       2.547240     0.543141     0.873655
C       3.763665     1.197916     0.975086
H       5.764739    -1.119701    -0.490533
H       3.592938    -2.305122    -0.650183
H       1.662517     1.024711     1.278256
H       3.838036     2.172897     1.438607
N       6.199110     1.281746     0.575499
O       7.176264     0.717459     0.129083
O       6.207768     2.375067     1.100605
C       1.123174    -1.429391     0.191507
O       1.160363    -2.627413    -0.592731
H       0.889231    -1.773615     1.202537
H      -2.212273    -0.159627    -1.723644
O      -1.626385    -2.161387    -0.994212
H      -0.829480    -2.712795    -0.964333
43
     -1145.194727     -1144.890065   9.16  11.72
C      -1.898272     0.333610     1.874863
C      -2.510263     2.280548     0.571933
C      -2.655032     2.672047     2.033464
C      -2.733040     1.307463     2.734361
H      -0.971651     0.046137     2.366008
H      -2.136675     3.059883    -0.092916
H      -3.435229     1.851541     0.190453
H      -1.780626     3.245760     2.365096
H      -3.540198     3.287816     2.200841
H      -2.364788     1.336853     3.761286
H      -3.766219     0.955841     2.749198
N      -1.504924     1.166362     0.644532
C      -2.698829    -0.941886     1.480181
O      -2.195495    -2.016133     1.871432
O      -3.725313    -0.722355     0.817776
C      -1.118352     0.531298    -0.715194
C      -2.300194     0.494278    -1.670019
H      -3.136156    -0.050061    -1.227792
H      -2.602215     1.504342    -1.951209
H      -1.968859    -0.018202    -2.576289
C      -0.514249    -0.858057    -0.543615
H      -0.181354    -1.153021    -1.544010
H      -1.300781    -1.559062    -0.272754
H      -0.419697    -2.210882     1.564442
C       4.351920    -1.203992    -1.687658
C       4.014002    -0.020698    -1.058024
C       2.822801     0.029532    -0.342680
C       1.988213    -1.082800    -0.266187
C       2.364628    -2.264776    -0.905771
C       3.548787    -2.333436    -1.619960
H       4.672785     0.835434    -1.125710
H       2.556018     0.945485     0.178161
H       1.723835    -3.135678    -0.826118
H       3.857574    -3.242088    -2.120677
N       5.616483    -1.269141    -2.453415
O       5.890916    -2.319492    -2.994331
O       6.300003    -0.267484    -2.493203
C       0.660808    -1.011279     0.463107
O       0.510628    -2.169181     1.240338
H       0.714470    -0.123263     1.114350
H      -0.628723     1.622474     0.895917
O      -0.153991     1.464505    -1.179995
H       0.647256     1.001754    -1.450212
43
     -1145.190610     -1144.889634  11.74  11.99
C      -2.224247    -1.713849     0.786337
C      -3.257931    -0.151770    -0.738799
C      -4.019353    -1.488122    -0.849615
C      -3.554549    -2.334614     0.357853
H      -1.975549    -1.853040     1.835938
H      -3.905799     0.725089    -0.732309
H      -2.498426    -0.071610    -1.511807
H      -5.101456    -1.335118    -0.835586
H      -3.744335    -1.972146    -1.784557
H      -4.283496    -2.283822     1.176225
H      -3.417553    -3.384876     0.099021
N      -2.551286    -0.233708     0.588153
C      -1.043931    -2.212094    -0.119153
O      -0.140869    -2.793660     0.502380
O      -1.168613    -1.956560    -1.334052
C      -1.486342     0.807341     0.941786
C      -2.012946     2.179796     0.530855
H      -1.359967     2.938754     0.965245
H      -2.032698     2.310169    -0.553809
H      -3.014135     2.344906     0.940199
C      -0.145734     0.455739     0.303222
H      -0.256282     0.386903    -0.781291
H       0.148939    -0.530714     0.656019
H       1.957036     1.869584     2.298364
C       4.641934     0.081780    -1.178845
C       4.204476     1.369534    -1.426231
C       3.017594     1.785567    -0.835310
C       2.287896     0.929527    -0.015604
C       2.757051    -0.367230     0.213325
C       3.937193    -0.797253    -0.370431
H       4.782047     2.023636    -2.066631
H       2.656809     2.793170    -1.022644
H       2.194504    -1.059011     0.830596
H       4.310309    -1.800422    -0.210603
N       5.904200    -0.376454    -1.803498
O       6.499001     0.413040    -2.507171
O       6.264106    -1.511179    -1.572686
C       0.999847     1.410815     0.626016
O       1.124436     1.452517     2.056480
H       0.783846     2.420186     0.252325
H      -3.254309    -0.045323     1.304656
O      -1.465379     0.708993     2.343402
H      -0.556033     0.865533     2.642236
43
     -1145.194698     -1144.889622   9.18  12.00
C      -0.783744    -2.771183    -1.386708
C      -2.712134    -1.390914    -1.078618
C      -3.255952    -2.794950    -1.297702
C      -2.027280    -3.583310    -1.800025
H      -0.083092    -3.344170    -0.783015
H      -3.280569    -0.757961    -0.398515
H      -2.536529    -0.896108    -2.032595
H      -3.637229    -3.208148    -0.356182
H      -4.078619    -2.792708    -2.013994
H      -1.996461    -4.593190    -1.385158
H      -2.034867    -3.654080    -2.887231
N      -1.361325    -1.673016    -0.481183
C      -0.021683    -2.099311    -2.589141
O      -0.743182    -1.739573    -3.527679
O       1.213122    -1.968410    -2.415241
C      -0.521151    -0.449562    -0.105997
C      -0.533525     0.599576    -1.208035
H       0.060868     1.449897    -0.877596
H      -0.121265     0.242834    -2.147820
H      -1.557393     0.944008    -1.360215
C       0.850251    -0.971855     0.368525
H       1.143450    -1.826492    -0.238602
H       0.719093    -1.309055     1.401377
H       2.157302    -0.523881    -1.609739
C       1.575859     3.667656     2.417917
C       1.921208     3.711007     1.078917
C       2.072971     2.516350     0.387525
C       1.878217     1.294146     1.027409
C       1.544519     1.285897     2.384786
C       1.386557     2.470097     3.089129
H       2.067683     4.666487     0.591689
H       2.346426     2.521639    -0.660238
H       1.417797     0.342865     2.908976
H       1.127113     2.475216     4.140022
N       1.412295     4.937097     3.159839
O       1.587998     5.970176     2.549138
O       1.111992     4.865421     4.333296
C       2.056361    -0.019880     0.281026
O       2.420711     0.235889    -1.052215
H       2.875049    -0.554580     0.790782
H      -1.541508    -2.107326     0.426021
O      -1.275501     0.021078     1.006878
H      -0.843833     0.812333     1.350201
43
     -1145.194698     -1144.889619   9.18  12.00
C      -2.836912     0.632232     1.329996
C      -1.267246    -0.114387     2.972355
C      -2.634609    -0.293520     3.615218
C      -3.580861     0.479617     2.671642
H      -3.393262     0.227997     0.486942
H      -0.511190    -0.850545     3.242058
H      -0.905977     0.902207     3.119886
H      -2.898706    -1.356867     3.661263
H      -2.645520     0.093456     4.635015
H      -4.533376    -0.038245     2.539527
H      -3.778833     1.478058     3.060235
N      -1.593252    -0.251020     1.510762
C      -2.380884     2.104024     1.007667
O      -2.073416     2.782531     1.995558
O      -2.338165     2.380143    -0.214645
C      -0.411861    -0.141937     0.543336
C       0.496591     1.026738     0.895832
H       0.908434     0.869166     1.893657
H       1.325015     1.041315     0.189403
H      -0.003369     1.990321     0.851517
C      -0.991775    -0.191197    -0.884938
H      -1.934517     0.352311    -0.913239
H      -1.191670    -1.243797    -1.108020
H      -0.896571     2.155577    -1.438248
C       3.776711    -1.195520    -2.467561
C       3.631028     0.173039    -2.326530
C       2.354296     0.698854    -2.179105
C       1.238067    -0.134876    -2.169563
C       1.419633    -1.511614    -2.329326
C       2.688096    -2.053053    -2.475040
H       4.505707     0.810757    -2.333101
H       2.211703     1.766796    -2.070581
H       0.559926    -2.175244    -2.354628
H       2.840142    -3.117680    -2.598190
N       5.134421    -1.761768    -2.624592
O       5.228559    -2.965080    -2.749105
O       6.068699    -0.988351    -2.618625
C      -0.165542     0.434196    -2.022842
O      -0.102070     1.833840    -1.910178
H      -0.705416     0.162774    -2.945267
H      -1.899844    -1.217128     1.381338
O       0.251061    -1.366567     0.843114
H       1.036756    -1.427556     0.287005
43
     -1145.194698     -1144.889617   9.18  12.00
C      -3.160086     0.070161     0.475144
C      -2.072236     1.824347     1.682663
C      -3.439849     1.679053     2.333477
C      -4.215300     0.780396     1.346301
H      -3.243448    -1.014176     0.505744
H      -1.253893     2.103261     2.345088
H      -2.128871     2.483496     0.817757
H      -3.346233     1.203065     3.316963
H      -3.912449     2.651013     2.481130
H      -4.849288     0.059337     1.866927
H      -4.841365     1.383129     0.689157
N      -1.832528     0.436620     1.155467
C      -3.123554     0.557160    -1.021359
O      -2.769543    -0.318852    -1.845624
O      -3.397196     1.752314    -1.187356
C      -0.499534     0.208784     0.438004
C      -0.188131     1.333144    -0.538797
H      -0.103216     2.270587     0.012649
H       0.775923     1.127413    -1.001201
H      -0.927470     1.435776    -1.328264
C      -0.524091    -1.231233    -0.113774
H      -1.525831    -1.467416    -0.468325
H      -0.287703    -1.894127     0.724305
H      -1.013299    -0.765399    -2.430198
C       4.552152    -0.794047    -0.654551
C       3.934671    -0.232775    -1.758076
C       2.584297    -0.479548    -1.967467
C       1.860590    -1.275127    -1.081765
C       2.518725    -1.838910     0.014999
C       3.866244    -1.600208     0.239951
H       4.506504     0.385557    -2.438122
H       2.077316    -0.055582    -2.825276
H       1.979090    -2.486297     0.700435
H       4.385367    -2.030713     1.086645
N       5.990543    -0.534470    -0.425834
O       6.503523    -1.043336     0.548963
O       6.567272     0.170973    -1.226343
C       0.384006    -1.562312    -1.311404
O      -0.048663    -0.920322    -2.484587
H       0.298950    -2.654649    -1.436176
H      -1.749781    -0.164793     1.977394
O       0.383835     0.289040     1.552558
H       1.284551     0.159668     1.232772
43
     -1145.192566     -1144.888473  10.51  12.72
C      -0.319858    -1.566059    -0.655230
C      -2.173454    -0.616304     0.511850
C      -1.605209    -1.670985     1.456335
C      -0.545423    -2.413201     0.610070
H       0.728804    -1.373799    -0.859901
H      -2.580185     0.264575     1.009082
H      -2.887925    -1.063725    -0.177390
H      -1.143237    -1.193074     2.327455
H      -2.394053    -2.331856     1.816879
H       0.386520    -2.540313     1.166532
H      -0.902739    -3.395914     0.304347
N      -0.963907    -0.229834    -0.290058
C      -1.001504    -2.133317    -1.941800
O      -2.146943    -2.588895    -1.764777
O      -0.327586    -1.995022    -2.978887
C      -1.155244     0.860022    -1.356639
C      -2.231549     0.524112    -2.376537
H      -1.897115    -0.248517    -3.066181
H      -3.159662     0.192881    -1.906262
H      -2.426201     1.440039    -2.942189
C       0.187367     1.143549    -2.042041
H      -0.047293     1.734296    -2.932136
H       0.585446     0.191288    -2.403180
H      -0.051199     3.345792    -0.916820
C       2.304914     0.023620     2.420854
C       2.853111    -0.435894     1.233866
C       2.528112     0.221539     0.056796
C       1.659738     1.314383     0.057603
C       1.153984     1.772881     1.274955
C       1.470179     1.127278     2.464439
H       3.513367    -1.293639     1.240570
H       2.952276    -0.126601    -0.880951
H       0.507797     2.641889     1.294408
H       1.073954     1.467889     3.412462
N       2.622145    -0.686050     3.680174
O       3.356290    -1.648697     3.609645
O       2.121163    -0.264271     4.701064
C       1.252669     1.951142    -1.266299
O       0.891130     3.310292    -1.117556
H       2.142046     1.952896    -1.904901
H      -0.318439     0.213872     0.369666
O      -1.528567     2.005628    -0.600675
H      -2.483711     2.116104    -0.638644
43
     -1145.191321     -1144.888411  11.30  12.76
C      -0.237492    -1.787398     1.760466
C      -1.906617    -0.770770     3.138468
C      -1.162708    -1.770137     4.035004
C       0.017436    -2.292135     3.182575
H       0.676172    -1.590296     1.206494
H      -2.195874     0.159980     3.621676
H      -2.758682    -1.247949     2.663349
H      -0.805949    -1.293625     4.952006
H      -1.839610    -2.578060     4.306442
H       0.972305    -1.906929     3.558053
H       0.072201    -3.380120     3.177620
N      -0.914907    -0.451243     2.041836
C      -1.184428    -2.726369     0.934262
O      -0.901820    -2.817577    -0.282737
O      -2.100358    -3.247647     1.582107
C      -1.441213     0.436620     0.923609
C      -2.717594    -0.089441     0.287022
H      -2.946719     0.544510    -0.573397
H      -2.622190    -1.107636    -0.078357
H      -3.539701    -0.031931     1.002605
C      -0.316630     0.821674    -0.056742
H       0.518453     1.209897     0.539956
H      -0.721316     1.684738    -0.598420
H      -0.977255    -1.571185    -1.528934
C       2.924981     2.164719    -3.524172
C       3.372418     1.647331    -2.319543
C       2.495052     0.884560    -1.564003
C       1.193392     0.644917    -2.002283
C       0.776852     1.171955    -3.222338
C       1.641727     1.937241    -3.992010
H       4.385590     1.841803    -1.991913
H       2.835885     0.462915    -0.621974
H      -0.227912     0.967855    -3.572708
H       1.334822     2.353700    -4.942934
N       3.850399     2.981642    -4.338173
O       3.435375     3.422519    -5.389670
O       4.969671     3.162162    -3.904656
C       0.228656    -0.146415    -1.133906
O      -0.795899    -0.690161    -1.921480
H       0.793832    -0.955097    -0.662602
H      -0.201744     0.137273     2.476979
O      -1.723289     1.610609     1.686384
H      -2.255308     2.203498     1.146040
43
     -1145.191356     -1144.887577  11.27  13.28
C      -1.312541    -1.345773     0.208077
C      -3.574634    -0.546356    -0.060042
C      -3.631270    -2.030441     0.357407
C      -2.226367    -2.357229     0.902421
H      -0.386162    -1.165429     0.749423
H      -4.282004     0.094749     0.468754
H      -3.682645    -0.444076    -1.134314
H      -4.408535    -2.215380     1.101994
H      -3.844614    -2.634733    -0.523895
H      -2.186534    -2.228631     1.991732
H      -1.908100    -3.374180     0.672326
N      -2.177460    -0.099008     0.300682
C      -0.990914    -1.812377    -1.246711
O      -1.825695    -1.520539    -2.124486
O       0.066789    -2.459359    -1.305875
C      -1.718572     1.272252    -0.251113
C      -2.043806     1.471078    -1.718204
H      -3.124315     1.571816    -1.862961
H      -1.552874     2.389274    -2.042801
H      -1.703228     0.632318    -2.323849
C      -0.239824     1.467152     0.109716
H      -0.057539     1.048867     1.104323
H      -0.097758     2.546597     0.199707
H       1.533365     1.666313    -2.562793
C       4.440708     0.038509     1.169927
C       3.654037    -0.999554     0.703776
C       2.482605    -0.695708     0.020623
C       2.114934     0.633395    -0.180787
C       2.932551     1.660045     0.292918
C       4.104044     1.369785     0.973505
H       3.958371    -2.024580     0.871336
H       1.853314    -1.492308    -0.371384
H       2.651039     2.693422     0.118418
H       4.752836     2.150711     1.349173
N       5.688198    -0.281294     1.898838
O       5.961973    -1.452344     2.058710
O       6.362231     0.647961     2.293272
C       0.811136     0.956541    -0.890231
O       0.977550     1.999278    -1.850668
H       0.469869     0.045244    -1.386354
H      -2.214679     0.111652     1.298943
O      -2.442824     2.178223     0.561068
H      -3.182655     2.534120     0.059397
43
     -1145.191861     -1144.887512  10.96  13.32
C      -1.130510    -0.247269     0.878551
C      -3.110493     0.488857    -0.239761
C      -3.110487     1.225423     1.097770
C      -1.919600     0.617796     1.877021
H      -0.060793    -0.053730     0.898125
H      -3.519934     1.061094    -1.073617
H      -3.594740    -0.480881    -0.137564
H      -2.970594     2.300823     0.943995
H      -4.062015     1.083956     1.611308
H      -1.285257     1.400773     2.300358
H      -2.263464    -0.021214     2.689482
N      -1.653846     0.231807    -0.473161
C      -1.390946    -1.781483     1.020196
O      -2.579403    -2.088855     1.228498
O      -0.384265    -2.494601     0.843347
C      -1.282150    -0.535236    -1.747692
C      -2.047860    -1.837767    -1.925162
H      -3.129181    -1.681423    -1.895789
H      -1.779745    -2.231592    -2.909887
H      -1.781733    -2.573608    -1.170094
C       0.225599    -0.785755    -1.745277
H       0.426666    -1.305764    -2.684898
H       0.416693    -1.489093    -0.931047
H      -0.024582     1.774615    -2.484624
C       3.754068     0.389902     1.758780
C       3.123827     1.574983     1.425901
C       2.275077     1.595017     0.326928
C       2.061745     0.442581    -0.427780
C       2.718547    -0.735672    -0.067435
C       3.564095    -0.771901     1.029281
H       3.296262     2.463211     2.020040
H       1.774697     2.515562     0.054911
H       2.559310    -1.647514    -0.632027
H       4.067221    -1.683564     1.323434
N       4.656865     0.361173     2.930326
O       4.804559     1.393684     3.550336
O       5.193682    -0.693263     3.198610
C       1.154816     0.461855    -1.649554
O       0.434196     1.698445    -1.640277
H       1.807662     0.456355    -2.531438
H      -1.195572     1.134201    -0.638630
O      -1.600728     0.362655    -2.802005
H      -2.437688     0.105422    -3.199477
43
     -1145.191861     -1144.887508  10.96  13.33
C      -1.006758    -0.915279    -0.509555
C      -3.131937    -0.221945     0.336421
C      -2.996415    -1.685717     0.749353
C      -1.699557    -2.167511     0.056042
H       0.050012    -0.862203    -0.259452
H      -3.658969     0.406286     1.056127
H      -3.565819    -0.148448    -0.659410
H      -2.914015    -1.771550     1.838181
H      -3.873436    -2.253237     0.436477
H      -1.046725    -2.689221     0.760517
H      -1.920165    -2.841862    -0.770549
N      -1.705968     0.222621     0.229910
C      -1.193970    -0.724272    -2.049096
O      -2.336997    -0.984194    -2.468878
O      -0.191507    -0.277583    -2.639658
C      -1.464063     1.673258    -0.203775
C      -2.199287     2.063626    -1.477135
H      -3.274008     1.880830    -1.398828
H      -2.038176     3.136113    -1.620243
H      -1.818367     1.533793    -2.346956
C       0.040832     1.894002    -0.354255
H       0.145179     2.944919    -0.634266
H       0.353470     1.291372    -1.210568
H      -0.386756     1.986446     2.286428
C       3.922777    -1.379947     0.213377
C       3.215558    -1.402525     1.401547
C       2.240216    -0.437828     1.617412
C       1.978156     0.536061     0.655093
C       2.714796     0.533406    -0.531026
C       3.687266    -0.425682    -0.762311
H       3.426982    -2.164309     2.140918
H       1.678515    -0.443549     2.542742
H       2.520839     1.273560    -1.299228
H       4.254071    -0.443111    -1.683843
N       4.960808    -2.406844    -0.024026
O       5.563082    -2.362279    -1.076291
O       5.145559    -3.230003     0.848087
C       0.930312     1.613260     0.894410
O       0.172999     1.238267     2.049565
H       1.471758     2.538232     1.129397
H      -1.303101     0.223036     1.172994
O      -1.938973     2.448816     0.888123
H      -2.808219     2.801191     0.676228
43
     -1145.190622     -1144.886862  11.73  13.73
C      -2.815830    -0.099770     0.465686
C      -2.798126    -0.959185    -1.762223
C      -4.267249    -0.955966    -1.349607
C      -4.247009    -0.572288     0.149411
H      -2.779453     0.845075     1.003693
H      -2.616932    -0.746781    -2.816940
H      -2.317071    -1.882511    -1.444865
H      -4.830838    -0.221569    -1.935568
H      -4.715262    -1.934562    -1.524247
H      -4.977732     0.210862     0.366984
H      -4.471061    -1.432828     0.778562
N      -2.222349     0.142585    -0.921549
C      -1.950738    -1.172872     1.216697
O      -2.099358    -2.335307     0.799147
O      -1.194768    -0.713227     2.094692
C      -0.710008     0.429346    -1.085233
C       0.113208    -0.846445    -1.077922
H      -0.195555    -1.510031    -1.890879
H       1.156980    -0.572323    -1.237577
H       0.035204    -1.388494    -0.138068
C      -0.360818     1.465193    -0.016617
H      -0.575747     1.045215     0.967949
H      -1.012070     2.332919    -0.175313
H       1.161830     3.016948     1.610421
C       4.216895    -0.520920     1.365350
C       4.452629     0.315952     0.287089
C       3.409638     1.106583    -0.169635
C       2.153283     1.064843     0.434470
C       1.948316     0.210981     1.519897
C       2.982455    -0.589087     1.987222
H       5.431530     0.341406    -0.174113
H       3.574946     1.773945    -1.010292
H       0.974975     0.122309     1.993511
H       2.835128    -1.263346     2.820775
N       5.318603    -1.373660     1.864022
O       5.084326    -2.100701     2.806308
O       6.389630    -1.293174     1.298811
C       1.071411     2.009070    -0.066483
O       1.126235     3.230513     0.671477
H       1.306409     2.297331    -1.094802
H      -2.637179     1.009688    -1.266663
O      -0.632622     1.068517    -2.340895
H      -0.315853     0.445769    -3.002685
43
     -1145.190622     -1144.886860  11.73  13.73
C      -2.396972     1.293365     0.858769
C      -3.375317    -0.676011    -0.072295
C      -4.551819     0.141219     0.453594
C      -3.895670     1.319749     1.212019
H      -2.004979     2.262135     0.556554
H      -3.581608    -1.247095    -0.978762
H      -2.964820    -1.301792     0.717991
H      -5.170977     0.503061    -0.374679
H      -5.183862    -0.470167     1.098261
H      -4.350194     2.273070     0.930587
H      -3.996259     1.198372     2.289845
N      -2.351395     0.380998    -0.366338
C      -1.494866     0.684095     1.989673
O      -1.977671    -0.317867     2.547044
O      -0.396244     1.252146     2.144546
C      -0.993245    -0.099628    -0.932578
C      -0.447600    -1.289948    -0.163949
H      -0.244746    -1.056359     0.878889
H      -1.147540    -2.129608    -0.204377
H       0.484098    -1.597776    -0.640681
C      -0.098352     1.138605    -0.985470
H       0.016886     1.536226     0.024759
H      -0.611575     1.888597    -1.598965
H       2.161010     2.627709    -1.212654
C       4.274164    -1.131320     0.607792
C       3.379914    -0.324371     1.289236
C       2.389137     0.335507     0.574486
C       2.295985     0.179055    -0.809742
C       3.212725    -0.643579    -1.463939
C       4.208997    -1.306845    -0.764621
H       3.457625    -0.220865     2.363660
H       1.671980     0.937399     1.124920
H       3.147519    -0.763085    -2.541376
H       4.925792    -1.946850    -1.262818
N       5.329923    -1.834088     1.370081
O       6.099373    -2.535263     0.746109
O       5.361866    -1.666928     2.571087
C       1.272118     0.935965    -1.641456
O       1.802265     2.211457    -2.004190
H       1.137093     0.412896    -2.592207
H      -2.721411     0.925621    -1.147061
O      -1.302361    -0.460117    -2.261379
H      -1.368987    -1.417679    -2.330366
43
     -1145.189492     -1144.886586  12.44  13.90
C      -2.539428    -1.701585    -0.491799
C      -3.785803    -0.316083     0.982664
C      -4.596598    -0.410580    -0.322428
C      -3.700511    -1.178708    -1.317645
H      -2.842035    -2.596408     0.059479
H      -4.111343    -1.069316     1.704483
H      -3.803223     0.657817     1.464667
H      -5.535457    -0.934840    -0.129980
H      -4.855832     0.581012    -0.697750
H      -4.217909    -2.020730    -1.781302
H      -3.333050    -0.549733    -2.127010
N      -2.364208    -0.669267     0.622911
C      -1.173020    -2.025072    -1.174191
O      -0.977859    -1.495231    -2.281507
O      -0.442695    -2.731520    -0.454497
C      -1.437087     0.576754     0.447361
C      -1.825359     1.360171    -0.794056
H      -2.859880     1.703540    -0.737997
H      -1.189623     2.247720    -0.833015
H      -1.657440     0.764075    -1.692426
C       0.028126     0.107175     0.391663
H       0.264583    -0.185913    -0.630859
H       0.182706    -0.780886     1.011640
H       1.479394     2.000858     2.577674
C       4.962450     0.024643    -0.365572
C       4.409809    -0.560916     0.762249
C       3.138474    -0.173185     1.156676
C       2.434915     0.788925     0.432156
C       3.019195     1.359658    -0.695453
C       4.289981     0.980643    -1.106087
H       4.971163    -1.306098     1.311175
H       2.686144    -0.624552     2.033053
H       2.477536     2.109702    -1.264578
H       4.757517     1.412960    -1.981261
N       6.318655    -0.387593    -0.793698
O       6.885945    -1.226569    -0.126281
O       6.776854     0.139958    -1.785397
C       1.027058     1.178027     0.837339
O       0.906520     1.292512     2.264656
H       0.780265     2.140209     0.370875
H      -1.932043    -1.166549     1.398270
O      -1.699245     1.341759     1.589173
H      -0.917644     1.343212     2.166628
43
     -1145.189593     -1144.885638  12.38  14.50
C      -2.614881    -0.515989    -1.520103
C      -3.838876    -0.700153     0.513609
C      -4.626511     0.266773    -0.388228
C      -3.739278     0.498375    -1.630020
H      -2.958974    -1.501391    -1.847766
H      -4.210679    -1.723130     0.416213
H      -3.823825    -0.437748     1.568573
H      -5.587036    -0.182067    -0.651152
H      -4.842074     1.202569     0.130349
H      -4.278513     0.336965    -2.565291
H      -3.328145     1.505889    -1.673085
N      -2.426681    -0.713815    -0.014792
C      -1.257949    -0.238157    -2.243133
O      -1.045531     0.942769    -2.562011
O      -0.542833    -1.255860    -2.338645
C      -1.446560     0.168234     0.822308
C      -1.818073     1.636564     0.713873
H      -1.696763     1.992183    -0.310492
H      -2.832624     1.817774     1.072550
H      -1.137436     2.193241     1.362329
C      -0.024177    -0.102691     0.319862
H       0.144655     0.520986    -0.557348
H       0.063926    -1.141396    -0.013148
H       1.420551    -1.532148     2.242720
C       5.029132    -0.130821    -0.308680
C       4.857586     0.316975     0.992159
C       3.568233     0.413996     1.486551
C       2.465948     0.071454     0.698888
C       2.671463    -0.379519    -0.605236
C       3.961820    -0.479379    -1.114048
H       5.719598     0.579373     1.591785
H       3.408045     0.759374     2.503673
H       1.840496    -0.653429    -1.247042
H       4.138346    -0.824649    -2.124548
N       6.402477    -0.238981    -0.852475
O       7.319552     0.073559    -0.122146
O       6.524968    -0.632862    -1.992794
C       1.083744     0.180749     1.324320
O       0.993851    -0.697327     2.466957
H       0.969292     1.185032     1.745571
H      -2.036869    -1.645879     0.103942
O      -1.653865    -0.293923     2.126162
H      -0.815533    -0.641516     2.479792
43
     -1145.188682     -1144.885562  12.95  14.55
C      -2.275480     0.873210     1.491087
C      -2.647889    -1.482556     1.635498
C      -3.797802    -0.850757     2.414604
C      -3.455755     0.659001     2.457164
H      -2.416498     1.711263     0.811178
H      -2.891076    -2.395915     1.092120
H      -1.780558    -1.614545     2.278823
H      -4.751972    -1.023123     1.904226
H      -3.870411    -1.289336     3.410150
H      -4.316770     1.267537     2.168196
H      -3.141363     0.963818     3.454492
N      -2.294834    -0.402922     0.651809
C      -0.886475     1.010681     2.212086
O      -0.731691     0.252062     3.184491
O      -0.110423     1.833796     1.687666
C      -1.145800    -0.726073    -0.333805
C       0.021667    -1.378373     0.380388
H       0.434438    -0.745151     1.163397
H      -0.289268    -2.334479     0.803180
H       0.795217    -1.579521    -0.360127
C      -0.835425     0.572121    -1.078158
H      -0.540553     1.333922    -0.354358
H      -1.755961     0.919281    -1.569768
H       0.788161     1.771671    -3.535027
C       4.326585     0.308896    -0.987307
C       3.465500     1.130767    -0.278551
C       2.129023     1.182017    -0.644494
C       1.662011     0.405456    -1.706358
C       2.553929    -0.415197    -2.395336
C       3.895870    -0.472179    -2.044780
H       3.841515     1.717593     0.549338
H       1.456051     1.805979    -0.066722
H       2.194366    -1.029120    -3.216854
H       4.596710    -1.106247    -2.572119
N       5.753489     0.257632    -0.595880
O       6.483000    -0.472315    -1.234491
O       6.104842     0.947237     0.337682
C       0.219913     0.470746    -2.181090
O       0.014319     1.639140    -2.977538
H       0.031924    -0.421797    -2.797336
H      -3.102302    -0.318790     0.034059
O      -1.707859    -1.696820    -1.191468
H      -2.022365    -1.278611    -2.000060
43
     -1145.188682     -1144.885559  12.95  14.55
C      -2.408260     1.511527    -0.281207
C      -3.158170    -0.031744     1.381678
C      -4.352659     0.881081     1.120334
C      -3.805158     1.976025     0.171930
H      -2.252189     1.586561    -1.355695
H      -3.398439    -1.070183     1.610899
H      -2.502659     0.405838     2.131615
H      -5.169215     0.324113     0.647386
H      -4.730674     1.292334     2.056666
H      -4.468026     2.124604    -0.684615
H      -3.697763     2.928131     0.689981
N      -2.417974     0.026254     0.075307
C      -1.229985     2.228019     0.471331
O      -1.431369     2.419579     1.682874
O      -0.234780     2.472303    -0.239044
C      -1.127768    -0.823966    -0.017103
C      -0.280373    -0.671655     1.230789
H       0.023005     0.359356     1.402262
H      -0.825913    -1.045860     2.097916
H       0.608842    -1.289086     1.107193
C      -0.453396    -0.445740    -1.335391
H      -0.229978     0.622506    -1.325438
H      -1.164264    -0.628988    -2.154341
H       1.878537    -1.275018    -3.331753
C       4.431770    -0.185509     0.335137
C       4.155614    -1.517764     0.084848
C       2.962919    -1.829323    -0.553415
C       2.066608    -0.832143    -0.935365
C       2.375834     0.502844    -0.669038
C       3.560410     0.829068    -0.026342
H       4.858193    -2.283773     0.386374
H       2.723411    -2.871040    -0.749734
H       1.686254     1.300331    -0.923054
H       3.810043     1.857932     0.197863
N       5.696869     0.165655     1.019320
O       6.440001    -0.744451     1.323111
O       5.912209     1.339618     1.233749
C       0.809131    -1.234758    -1.687638
O       0.982033    -1.020284    -3.089713
H       0.642245    -2.307595    -1.506224
H      -3.029744    -0.420995    -0.607630
O      -1.607027    -2.152044    -0.039118
H      -1.648144    -2.471757    -0.946704
43
     -1145.187873     -1144.885527  13.46  14.57
C      -2.535639     1.279417    -0.240637
C      -3.214657    -0.709139     0.892358
C      -4.499595     0.088348     0.685501
C      -4.027118     1.442683     0.103804
H      -2.276215     1.640550    -1.233581
H      -3.332979    -1.792319     0.835921
H      -2.721350    -0.400238     1.811949
H      -5.166525    -0.428019    -0.013649
H      -5.032514     0.202966     1.629767
H      -4.608175     1.716617    -0.780667
H      -4.124406     2.242112     0.837230
N      -2.352907    -0.237739    -0.243193
C      -1.569995     1.912076     0.823946
O      -1.920669     1.731782     2.004562
O      -0.560057     2.463628     0.348383
C      -0.937801    -0.853887    -0.349065
C      -0.226551    -0.876639     0.991893
H      -0.053503     0.122275     1.386473
H      -0.800190    -1.450347     1.725350
H       0.737572    -1.366671     0.850640
C      -0.228054    -0.093815    -1.469736
H      -0.154258     0.959762    -1.197438
H      -0.863512    -0.174162    -2.362133
H       1.009255    -0.412324    -3.808646
C       4.381346     0.184569     0.818272
C       3.437828     1.174414     0.597783
C       2.381400     0.915979    -0.262514
C       2.270704    -0.326935    -0.885878
C       3.236044    -1.300802    -0.642187
C       4.301808    -1.056954     0.211936
H       3.533163     2.129784     1.097023
H       1.634908     1.687807    -0.413201
H       3.156411    -2.267397    -1.131319
H       5.058389    -1.805458     0.408678
N       5.508772     0.461084     1.735482
O       6.320574    -0.424545     1.909733
O       5.553908     1.555016     2.258015
C       1.152414    -0.635542    -1.864324
O       1.549476    -0.042982    -3.102600
H       1.091318    -1.725154    -1.980659
H      -2.797405    -0.581689    -1.095890
O      -1.184765    -2.165059    -0.811483
H      -1.126448    -2.783048    -0.075898
43
     -1145.190746     -1144.885386  11.66  14.66
C      -0.410541    -2.055459     0.106545
C       0.107826    -0.506510     1.791131
C      -0.582870    -1.667061     2.514296
C      -0.906523    -2.692481     1.399909
H       0.658914    -2.252189    -0.018327
H       1.183961    -0.680478     1.700731
H      -0.039941     0.477821     2.226199
H       0.074699    -2.074258     3.284991
H      -1.490754    -1.328786     3.021475
H      -0.393136    -3.643804     1.548383
H      -1.969389    -2.920490     1.329692
N      -0.422543    -0.549824     0.388716
C      -1.058886    -2.442689    -1.263258
O      -2.003063    -3.239211    -1.218280
O      -0.506571    -1.871426    -2.229983
C      -1.711505     0.286946     0.104162
C      -2.974057    -0.526214     0.345678
H      -3.031841    -1.403351    -0.299476
H      -3.044782    -0.852910     1.387234
H      -3.824686     0.126035     0.133617
C      -1.640586     0.818062    -1.335057
H      -2.646661     1.166828    -1.582533
H      -1.400509    -0.018672    -1.995721
H      -1.492543     3.042469    -0.201084
C       3.322717     0.998265    -0.459054
C       2.731098     0.315418    -1.510253
C       1.448088     0.674140    -1.898068
C       0.760442     1.695129    -1.231888
C       1.389408     2.370472    -0.187936
C       2.675777     2.026422     0.205948
H       3.265248    -0.485339    -2.004931
H       0.960521     0.117482    -2.691824
H       0.866749     3.172269     0.318492
H       3.174245     2.541035     1.017336
N       4.686693     0.614335    -0.033107
O       5.199632     1.259803     0.856875
O       5.203855    -0.327222    -0.596748
C      -0.683161     1.997694    -1.620311
O      -1.145833     3.221648    -1.082077
H      -0.699057     2.133701    -2.706846
H       0.277918    -0.146469    -0.235703
O      -1.677638     1.400304     0.976102
H      -2.230713     1.228564     1.744954
43
     -1145.188710     -1144.885344  12.93  14.68
C      -2.615186     1.135055    -0.000888
C      -3.231024    -1.158500     0.266875
C      -4.549327    -0.390736     0.270051
C      -4.129732     1.099565     0.279072
H      -2.333209     1.847398    -0.774038
H      -3.261286    -2.147306    -0.191363
H      -2.807230    -1.191157     1.268351
H      -5.137251    -0.628268    -0.623643
H      -5.146823    -0.660516     1.141236
H      -4.682608     1.671046    -0.471025
H      -4.308110     1.552350     1.253586
N      -2.341511    -0.264013    -0.549311
C      -1.742034     1.380012     1.281307
O      -2.142744     0.793573     2.300536
O      -0.739127     2.098922     1.095008
C      -0.892593    -0.763927    -0.773165
C      -0.301659    -1.315964     0.509413
H      -0.868360    -2.191027     0.830063
H       0.716515    -1.640193     0.296044
H      -0.281074    -0.577868     1.308964
C      -0.126779     0.386661    -1.428129
H      -0.164689     1.257673    -0.769561
H      -0.642718     0.653232    -2.361964
H       2.013449     1.829450    -2.373787
C       4.282742     0.053137     1.273181
C       3.217555     0.928148     1.390474
C       2.239022     0.935346     0.404903
C       2.330939     0.064773    -0.681934
C       3.417670    -0.805677    -0.768406
C       4.402862    -0.821977     0.206060
H       3.154223     1.589259     2.244866
H       1.390532     1.601801     0.528125
H       3.495392    -1.480972    -1.615479
H       5.250200    -1.492994     0.149047
N       5.324367     0.046846     2.324639
O       6.246459    -0.731493     2.194968
O       5.192685     0.819006     3.250651
C       1.325195     0.081056    -1.822636
O       1.737134     1.019587    -2.816862
H       1.372581    -0.890147    -2.327283
H      -2.730745    -0.276563    -1.492104
O      -1.051279    -1.850515    -1.660923
H      -0.882426    -1.564081    -2.564917
43
     -1145.188710     -1144.885341  12.93  14.69
C      -2.583549     1.057798     0.577486
C      -2.800350    -1.031947     1.716444
C      -4.124693    -0.312315     1.952254
C      -3.905029     1.104574     1.368062
H      -2.659300     1.485724    -0.420436
H      -2.862970    -2.115736     1.615865
H      -2.068869    -0.738332     2.466346
H      -4.942211    -0.828036     1.436052
H      -4.364750    -0.291846     3.015600
H      -4.738197     1.401518     0.725756
H      -3.803521     1.845111     2.160411
N      -2.342853    -0.441536     0.412753
C      -1.371273     1.707231     1.335776
O      -0.579023     2.334805     0.603752
O      -1.340089     1.476514     2.556059
C      -1.000779    -0.977663    -0.144833
C       0.041517    -1.084477     0.951143
H      -0.279674    -1.813741     1.695928
H       0.962917    -1.453508     0.501505
H       0.237434    -0.128497     1.433021
C      -0.636254    -0.093799    -1.338639
H      -0.557563     0.942462    -1.001328
H      -1.459309    -0.144996    -2.066147
H       0.884976     0.982255    -3.359737
C       4.424645     0.487079    -0.388298
C       4.288424    -0.683713    -1.116093
C       3.042103    -0.987833    -1.640169
C       1.949859    -0.142880    -1.442193
C       2.119534     1.030139    -0.705429
C       3.362211     1.346397    -0.171891
H       5.142593    -1.331909    -1.263507
H       2.915156    -1.898968    -2.217499
H       1.286700     1.695296    -0.497504
H       3.506738     2.246556     0.411115
N       5.748036     0.825784     0.181321
O       6.660888     0.053033    -0.024647
O       5.839044     1.853714     0.818609
C       0.629423    -0.500584    -2.106652
O       0.575702     0.071242    -3.414008
H       0.622206    -1.582126    -2.280924
H      -3.017276    -0.758806    -0.283678
O      -1.313872    -2.292921    -0.552306
H      -1.488705    -2.311070    -1.499337
43
     -1145.190106     -1144.884253  12.06  15.37
C      -3.122400     1.145088     0.136241
C      -2.917209    -0.513770    -1.574392
C      -3.890445    -1.074856    -0.523787
C      -3.866196    -0.076212     0.650015
H      -3.777936     1.763469    -0.481445
H      -3.453011    -0.030376    -2.394450
H      -2.228024    -1.240304    -1.994642
H      -4.887013    -1.161674    -0.962087
H      -3.591440    -2.074717    -0.204676
H      -4.868005     0.223901     0.963428
H      -3.361408    -0.475605     1.528350
N      -2.125150     0.582413    -0.894085
C      -2.457744     2.091886     1.189689
O      -1.947429     1.522011     2.183744
O      -2.468023     3.284844     0.866476
C      -0.704465     0.174628    -0.459580
C      -0.765923    -0.881201     0.630862
H      -1.175695    -0.481564     1.554631
H      -1.353257    -1.729995     0.274820
H       0.245468    -1.234983     0.825930
C       0.082815     1.475360    -0.175744
H      -0.573419     2.280407     0.150515
H       0.487884     1.796600    -1.140604
H      -0.128073     1.436595     2.266857
C       4.333581    -1.335152    -0.277973
C       3.720996    -1.484547     0.953715
C       2.719025    -0.593994     1.315551
C       2.332068     0.430984     0.454673
C       2.984092     0.563830    -0.774917
C       3.984879    -0.318873    -1.153124
H       4.027989    -2.286101     1.613396
H       2.225824    -0.683649     2.275436
H       2.723486     1.378876    -1.444613
H       4.495338    -0.225472    -2.103126
N       5.401292    -2.281165    -0.669461
O       5.922499    -2.120359    -1.753433
O       5.689049    -3.158809     0.116781
C       1.235322     1.412799     0.845254
O       0.799951     1.138144     2.149086
H       1.691171     2.415980     0.808722
H      -1.958195     1.324837    -1.570366
O      -0.212353    -0.405509    -1.661916
H       0.730081    -0.573765    -1.539759
43
     -1145.184475     -1144.881988  15.59  16.79
C      -2.192208    -1.736901    -0.522180
C      -3.297047    -0.082104     0.799003
C      -4.382614    -1.092765     0.440689
C      -3.696352    -2.066009    -0.549291
H      -1.556667    -2.615006    -0.423100
H      -3.387980     0.380681     1.781948
H      -3.194911     0.660583     0.010745
H      -4.729602    -1.622007     1.335253
H      -5.242517    -0.588114    -0.000381
H      -3.877216    -3.107259    -0.269351
H      -4.060656    -1.916889    -1.564873
N      -2.051704    -0.923230     0.763289
C      -1.710169    -0.876048    -1.745509
O      -2.512859     0.000505    -2.108828
O      -0.569679    -1.161777    -2.160135
C      -0.727193    -0.197116     1.108392
C      -0.649870     1.149813     0.417248
H      -1.457069     1.792668     0.769935
H       0.293284     1.615560     0.699214
H      -0.693229     1.061811    -0.666568
C       0.403829    -1.180106     0.795399
H       0.361905    -1.440636    -0.264359
H       0.211194    -2.102094     1.366933
H       2.536989    -2.435876     1.809876
C       3.590587     2.236297    -1.379336
C       3.767061     2.325409    -0.009677
C       3.170582     1.361795     0.790614
C       2.414438     0.333081     0.234804
C       2.258089     0.267565    -1.149494
C       2.844196     1.225650    -1.962626
H       4.357028     3.130073     0.409498
H       3.298546     1.412440     1.868132
H       1.655796    -0.506864    -1.611202
H       2.725044     1.196513    -3.037778
N       4.216042     3.257707    -2.248233
O       4.043697     3.160239    -3.445050
O       4.863754     4.131796    -1.709663
C       1.825924    -0.720165     1.155319
O       2.710710    -1.838279     1.075531
H       1.840343    -0.312637     2.176690
H      -2.152483    -1.590781     1.528035
O      -0.835735     0.057177     2.493555
H      -0.411278    -0.644694     2.997531
43
     -1145.184475     -1144.881967  15.59  16.80
C      -0.431830     1.173534     2.555617
C      -0.156812    -1.108942     3.203087
C      -0.396404    -0.353312     4.506865
C      -0.405277     1.139492     4.095008
H      -1.176456     1.855152     2.148521
H      -0.565232    -2.118878     3.160174
H       0.898821    -1.088606     2.941155
H      -1.354455    -0.643811     4.952417
H       0.387790    -0.581221     5.229189
H      -1.269317     1.660590     4.515906
H       0.497580     1.646700     4.432575
N      -0.867484    -0.246463     2.197750
C       0.966559     1.475021     1.904741
O       1.930087     0.940375     2.479591
O       0.916194     2.176305     0.875224
C      -0.840988    -0.744416     0.730753
C       0.543764    -1.225809     0.345278
H       1.292945    -0.441018     0.429553
H       0.825551    -2.076118     0.967203
H       0.501944    -1.568786    -0.687472
C      -1.423288     0.384324    -0.123807
H      -0.805247     1.276100     0.000661
H      -2.423154     0.620972     0.273803
H      -3.313605     1.006323    -1.911507
C       1.958512     0.016850    -3.994414
C       0.979507    -0.936358    -4.213433
C      -0.157348    -0.900705    -3.419003
C      -0.311854     0.065056    -2.427883
C       0.690532     1.015098    -2.233757
C       1.834742     0.990097    -3.016539
H       1.112127    -1.681577    -4.986941
H      -0.938713    -1.638801    -3.576066
H       0.611014     1.764991    -1.454659
H       2.627242     1.712868    -2.873203
N       3.179751    -0.008349    -4.829513
O       3.261261    -0.872605    -5.678057
O       4.025029     0.835088    -4.615767
C      -1.597404     0.085301    -1.621732
O      -2.403811     1.106962    -2.209347
H      -2.086844    -0.890578    -1.754356
H      -1.856498    -0.304144     2.440942
O      -1.681176    -1.879728     0.747208
H      -2.577756    -1.636968     0.494236
43
     -1145.184061     -1144.879721  15.85  18.21
C      -1.408393    -0.556557     2.324791
C      -3.036397     1.094058     1.906862
C      -3.710806    -0.243063     1.576696
C      -2.633149    -1.320082     1.841224
H      -1.500341    -0.358749     3.398070
H      -3.172256     1.353966     2.960087
H      -3.355181     1.926019     1.285792
H      -4.597027    -0.374407     2.201162
H      -4.046246    -0.258031     0.537674
H      -2.933069    -2.031451     2.612420
H      -2.394591    -1.903708     0.953677
N      -1.562656     0.851088     1.730156
C       0.018344    -1.163301     2.135984
O       0.081870    -2.263591     1.579444
O       0.917725    -0.420168     2.595215
C      -0.988309     1.168038     0.293179
C      -1.148645    -0.034008    -0.617564
H      -0.745403     0.233307    -1.594018
H      -0.626135    -0.916120    -0.250549
H      -2.208761    -0.254024    -0.750281
C       0.438929     1.675713     0.526614
H       0.944744     1.032535     1.249920
H       0.364292     2.670301     0.991661
H       3.065111     2.251186     0.002105
C       2.851341    -1.730652    -2.479219
C       2.748836    -1.658141    -1.101522
C       2.247226    -0.498646    -0.525891
C       1.833070     0.565056    -1.328057
C       1.953323     0.459436    -2.713758
C       2.464200    -0.685853    -3.303243
H       3.042623    -2.498843    -0.487312
H       2.153423    -0.465741     0.554865
H       1.640053     1.287761    -3.342847
H       2.561201    -0.779742    -4.377242
N       3.386946    -2.965324    -3.094965
O       3.710033    -3.869334    -2.353889
O       3.469719    -2.997126    -4.305772
C       1.294882     1.856938    -0.734054
O       2.367742     2.750508    -0.436990
H       0.712216     2.373928    -1.504440
H      -1.030344     1.459395     2.347791
O      -1.781028     2.190546    -0.252975
H      -1.389111     3.046881    -0.050797
43
     -1145.184061     -1144.879700  15.85  18.23
C      -2.689472     0.090979     0.676051
C      -2.335294    -0.845769     2.808159
C      -2.568100     0.650677     3.049057
C      -2.788425     1.260571     1.645182
H      -3.654828    -0.423632     0.623434
H      -3.278870    -1.397875     2.820114
H      -1.636345    -1.310625     3.497272
H      -3.428787     0.790015     3.706620
H      -1.706908     1.097690     3.549893
H      -3.770627     1.724221     1.540013
H      -2.053940     2.025378     1.398461
N      -1.817975    -0.946316     1.399499
C      -2.269224     0.335949    -0.808079
O      -2.024695     1.503121    -1.127934
O      -2.244408    -0.723492    -1.478171
C      -0.246330    -0.900750     1.246837
C       0.236199     0.534785     1.166018
H      -0.184424     1.076171     0.319975
H       0.001777     1.052874     2.096866
H       1.321260     0.515035     1.067128
C       0.074427    -1.808201     0.053947
H      -0.617719    -1.598645    -0.764434
H      -0.116709    -2.845787     0.366853
H       1.451048    -2.833405    -2.080365
C       2.644901     1.660669    -2.742481
C       1.362732     1.160685    -2.883422
C       0.991226     0.047207    -2.142118
C       1.891701    -0.541276    -1.253714
C       3.177673    -0.013202    -1.138681
C       3.568277     1.089642    -1.881194
H       0.659866     1.641135    -3.550879
H      -0.024629    -0.319819    -2.248260
H       3.885580    -0.472388    -0.454557
H       4.562914     1.508841    -1.799541
N       3.043442     2.846910    -3.532675
O       2.215270     3.334536    -4.272386
O       4.176444     3.259476    -3.391180
C       1.527528    -1.771478    -0.437946
O       1.789655    -2.958104    -1.186919
H       2.208482    -1.831137     0.418216
H      -2.079085    -1.841492     0.992868
O       0.299577    -1.439083     2.423402
H       0.446816    -2.384089     2.309067
43
     -1145.183910     -1144.879633  15.95  18.27
C      -2.071948    -1.633685     0.855195
C      -3.746795    -0.193845     0.036785
C      -3.682056    -1.359022    -0.958480
C      -2.571347    -2.292252    -0.422742
H      -2.730268    -1.904093     1.687521
H      -4.450235    -0.406315     0.846254
H      -3.988201     0.767023    -0.408202
H      -4.654441    -1.853101    -1.013105
H      -3.451167    -0.995214    -1.961831
H      -2.942911    -3.290107    -0.183830
H      -1.754434    -2.424204    -1.130219
N      -2.386861    -0.141000     0.676779
C      -0.621978    -1.908976     1.368518
O       0.079150    -2.650827     0.673114
O      -0.380439    -1.318478     2.446593
C      -1.339658     0.807036    -0.028006
C      -0.625901     0.070696    -1.145122
H      -0.074505    -0.799766    -0.792051
H      -1.346172    -0.225313    -1.908895
H       0.072173     0.767368    -1.608299
C      -0.467548     1.358267     1.103997
H      -0.187921     0.553029     1.784738
H      -1.081396     2.060333     1.688461
H       2.057448     3.189981     1.707928
C       4.063074    -0.232993    -0.709687
C       3.325912    -0.688481     0.370827
C       2.263698     0.075292     0.829239
C       1.929132     1.270234     0.190965
C       2.691677     1.700024    -0.894347
C       3.768955     0.955981    -1.354409
H       3.572789    -1.632349     0.838400
H       1.684080    -0.296814     1.666597
H       2.434332     2.627661    -1.399091
H       4.366916     1.278460    -2.197029
N       5.199949    -1.046334    -1.197154
O       5.829826    -0.618146    -2.142614
O       5.432477    -2.089123    -0.623637
C       0.774338     2.135765     0.666229
O       1.150839     2.886598     1.821784
H       0.513224     2.831208    -0.146343
H      -2.456384     0.228897     1.622043
O      -2.063883     1.846972    -0.633114
H      -2.133540     2.589614    -0.023759
43
     -1145.181515     -1144.878914  17.45  18.72
C      -1.351818     2.448946    -0.350909
C      -1.823044     1.068025    -2.247761
C      -1.426878     2.421064    -2.828996
C      -1.316104     3.352848    -1.598174
H      -0.556080     2.657395     0.360912
H      -1.522500     0.197639    -2.831295
H      -2.885288     1.048715    -2.012345
H      -0.467932     2.348841    -3.354815
H      -2.172941     2.764106    -3.546308
H      -0.398151     3.945469    -1.630948
H      -2.163116     4.035910    -1.546924
N      -1.093525     1.058143    -0.934096
C      -2.731545     2.462900     0.400218
O      -3.723203     2.460081    -0.354991
O      -2.644155     2.431236     1.637655
C      -1.279841    -0.215284    -0.078215
C      -2.739011    -0.637826    -0.039343
H      -3.395556     0.194802     0.206681
H      -3.030483    -1.063016    -1.001481
H      -2.850590    -1.402774     0.729504
C      -0.670941     0.043478     1.310602
H      -1.447570     0.484932     1.937230
H       0.114646     0.799391     1.229335
H      -1.071886    -2.563304     1.063367
C       3.952383    -1.993393     0.638119
C       3.650513    -0.748805     1.168377
C       2.357918    -0.511770     1.605126
C       1.368490    -1.495764     1.510147
C       1.713758    -2.740523     0.985643
C       3.007003    -2.997035     0.544566
H       4.420038     0.009179     1.237104
H       2.122433     0.455099     2.039589
H       0.972369    -3.528810     0.935558
H       3.281943    -3.961314     0.136872
N       5.331124    -2.257652     0.169995
O       6.136680    -1.356157     0.268736
O       5.567144    -3.357674    -0.282605
C      -0.050226    -1.192963     2.001650
O      -0.889286    -2.328517     1.980917
H       0.039280    -0.931114     3.060486
H      -0.099958     1.038009    -1.167798
O      -0.584430    -1.214489    -0.797461
H       0.350338    -1.228021    -0.553922
43
     -1145.178877     -1144.876595  19.10  20.17
C      -3.079817     0.878046     0.796974
C      -3.223218    -1.013208    -0.646872
C      -3.669127    -1.490044     0.745048
C      -3.422286    -0.299149     1.693002
H      -3.986931     1.314333     0.370863
H      -4.080011    -0.711601    -1.254023
H      -2.633965    -1.728635    -1.212745
H      -4.723348    -1.773909     0.710284
H      -3.110728    -2.374639     1.057189
H      -4.302949    -0.049062     2.287637
H      -2.607633    -0.478922     2.393126
N      -2.411150     0.243446    -0.433481
C      -2.232962     2.053195     1.394373
O      -1.486264     1.747150     2.343473
O      -2.395167     3.123885     0.787692
C      -0.883618     0.047171    -0.475260
C      -0.409515    -0.769098     0.714504
H       0.652593    -0.984717     0.585789
H      -0.534774    -0.192353     1.633136
H      -0.946068    -1.718107     0.778363
C      -0.217932     1.434260    -0.581766
H      -0.025417     1.810083     0.426471
H      -0.906761     2.146874    -1.042760
H       1.532515     3.219843    -0.638025
C       4.216301    -1.060454     0.009802
C       3.720432    -0.073585     0.849368
C       2.703168     0.742852     0.384258
C       2.182087     0.579385    -0.901414
C       2.707583    -0.419272    -1.717056
C       3.729713    -1.249245    -1.270061
H       4.129880     0.040749     1.844839
H       2.304441     1.508052     1.043633
H       2.328259    -0.540302    -2.728392
H       4.147254    -2.025889    -1.897909
N       5.302519    -1.938095     0.500355
O       5.700537    -1.755799     1.631437
O       5.724551    -2.783976    -0.259556
C       1.071114     1.480268    -1.416034
O       1.514801     2.827282    -1.517539
H       0.844295     1.185944    -2.442801
H      -2.582366     0.880811    -1.207983
O      -0.729223    -0.664047    -1.693877
H       0.089188    -1.169524    -1.644067
43
     -1145.178877     -1144.876593  19.10  20.18
C      -2.994292     0.132646    -1.381392
C      -2.985007     1.647142     0.459365
C      -3.048829     2.506063    -0.814145
C      -2.897516     1.520384    -1.990289
H      -4.038006    -0.135769    -1.198675
H      -3.984613     1.454480     0.856053
H      -2.368803     2.050449     1.257427
H      -4.002724     3.037360    -0.845424
H      -2.261938     3.262710    -0.820117
H      -3.685353     1.636853    -2.736914
H      -1.947709     1.628697    -2.512100
N      -2.443302     0.298622     0.044345
C      -2.329982    -1.066623    -2.139991
O      -2.833048    -2.162940    -1.847151
O      -1.371211    -0.769043    -2.877707
C      -0.945003     0.082146     0.330335
C      -0.090699     0.981903    -0.545570
H       0.949929     0.884927    -0.231213
H      -0.166425     0.664837    -1.587656
H      -0.384539     2.028176    -0.438095
C      -0.631521    -1.419429     0.170629
H      -0.342159    -1.609740    -0.866145
H      -1.533295    -2.011892     0.345594
H       0.642480    -3.565010     0.002465
C       4.272791    -0.082091     0.799524
C       3.737319    -0.707110    -0.317298
C       2.497412    -1.313839    -0.206722
C       1.795275    -1.298164     1.000739
C       2.366155    -0.664581     2.101376
C       3.610334    -0.050181     2.012200
H       4.289389    -0.709248    -1.248371
H       2.070139    -1.793033    -1.082564
H       1.841478    -0.667256     3.053241
H       4.063999     0.441635     2.863090
N       5.596907     0.569998     0.688756
O       6.045521     1.097956     1.684294
O       6.148313     0.535458    -0.390943
C       0.437895    -1.970941     1.125586
O       0.548438    -3.376593     0.942474
H       0.094366    -1.852609     2.155303
H      -2.891072    -0.422300     0.605749
O      -0.867662     0.455032     1.697704
H       0.036564     0.730916     1.882237
