24
      -518.290734      -518.118240   0.00   0.00
C      -0.755221     0.696312    -0.844502
C      -0.924555    -0.867726     0.889558
C      -2.337841    -0.690894     0.347612
C      -2.238497     0.628870    -0.438057
H      -0.629329     0.732451    -1.931475
H      -0.697809    -1.890559     1.197989
H      -0.778056    -0.204647     1.756639
H      -2.581095    -1.519727    -0.323868
H      -3.089910    -0.659892     1.138950
H      -2.897623     0.647358    -1.307154
H      -2.493254     1.486626     0.189252
N      -0.092361    -0.479026    -0.261886
C       0.015775     1.872302    -0.238820
O      -0.297135     3.027568    -0.213929
O       1.150904     1.396014     0.310650
C       1.266158    -0.038449     0.006660
C       2.124562    -0.170693    -1.248681
H       1.651182     0.319509    -2.102219
H       3.102018     0.289228    -1.085328
H       2.257557    -1.227793    -1.489806
C       1.928742    -0.710647     1.195208
H       2.944586    -0.326294     1.307344
H       1.386741    -0.521378     2.121845
H       1.984466    -1.788511     1.024019
24
      -518.289103      -518.116381   1.02   1.17
C      -0.917113    -0.531419    -0.902213
C      -0.714054    -0.260901     1.455718
C      -2.000786     0.426572     0.992136
C      -2.310771    -0.323142    -0.306368
H      -0.876972    -1.393379    -1.577731
H      -0.956900    -1.177948     2.005443
H      -0.109174     0.357774     2.116202
H      -2.801886     0.361541     1.732112
H      -1.818521     1.486437     0.782044
H      -2.767429    -1.293819    -0.090409
H      -2.961296     0.221135    -0.992831
N       0.015318    -0.642391     0.226291
C      -0.432124     0.704401    -1.662623
O      -0.995295     1.292101    -2.541262
O       0.762011     1.071870    -1.168210
C       1.212739     0.071880    -0.190370
C       2.148928    -0.880895    -0.931611
H       1.607609    -1.419229    -1.713398
H       2.969473    -0.326138    -1.393281
H       2.554813    -1.613212    -0.229590
C       1.951036     0.826151     0.900461
H       1.344377     1.639036     1.302968
H       2.234696     0.145007     1.706441
H       2.861321     1.258566     0.480083
