40
     -1068.729493     -1068.456314   0.00   0.00
C      -1.373683    -0.961411    -0.406383
C      -3.064960     0.544342    -1.199269
C      -3.752497    -0.690456    -0.628138
C      -2.698165    -1.223527     0.343144
H      -0.582335    -0.697449     0.299472
H      -3.157937     1.391261    -0.500953
H      -3.479312     0.848905    -2.163457
H      -4.702173    -0.457149    -0.141742
H      -3.936908    -1.418144    -1.423640
H      -2.705223    -0.641424     1.269680
H      -2.831963    -2.275779     0.604669
N      -1.668963     0.115037    -1.344249
C      -0.957304    -2.234040    -1.134569
O      -1.361641    -2.613188    -2.199617
O      -0.080481    -2.949825    -0.391706
C      -0.672044     1.101121    -1.557314
C      -1.096657     2.120439    -2.601566
H      -1.354601     1.616569    -3.537125
H      -1.956375     2.695881    -2.253629
H      -0.277690     2.818744    -2.788426
C       0.774712     0.591181    -1.735517
H       1.236738     0.844447    -2.689724
H       0.919109    -0.470305    -1.537972
H       0.105339    -3.764834    -0.881371
C       3.065353    -0.255421     2.820860
C       3.710376    -0.251152     1.593479
C       3.063252     0.319486     0.509639
C       1.791095     0.874697     0.650105
C       1.169592     0.857127     1.895586
C       1.804685     0.289017     2.991835
H       4.696604    -0.687455     1.501922
H       3.554300     0.330989    -0.459536
H       0.182476     1.291149     2.001801
H       1.336202     0.265930     3.967372
N       3.747513    -0.861311     3.983929
O       3.162266    -0.851783     5.046995
O       4.852070    -1.331697     3.804809
C       1.118301     1.502872    -0.545196
O      -0.262269     1.818469    -0.325825
H       1.683200     2.398689    -0.838375
40
     -1068.729493     -1068.456314  -0.00   0.00
C      -1.443647     0.618153    -0.714303
C      -2.333764     2.241075     0.812194
C      -3.485624     1.674171    -0.009672
C      -2.932864     0.314771    -0.440549
H      -0.822476    -0.234347    -0.428770
H      -2.345827     1.818953     1.829656
H      -2.370374     3.330203     0.893239
H      -4.413081     1.596405     0.561882
H      -3.666637     2.304159    -0.885292
H      -3.005525    -0.403638     0.381626
H      -3.441092    -0.112633    -1.308054
N      -1.145171     1.813858     0.064622
C      -1.255581     0.865877    -2.206441
O      -1.462861     1.893182    -2.792317
O      -0.861115    -0.265321    -2.837158
C       0.122001     1.894527     0.696580
C       0.312397     3.218245     1.418582
H       1.322762     3.270683     1.830487
H       0.167978     4.050529     0.724221
H      -0.393272     3.312931     2.245851
C       1.341496     1.463041    -0.146956
H       2.090510     2.239567    -0.302221
H       1.102297     0.999513    -1.103278
H      -0.808721    -0.058350    -3.782123
C       1.998201    -3.663777    -0.053013
C       2.911218    -2.752826    -0.562038
C       2.772589    -1.417699    -0.219514
C       1.736712    -0.999830     0.616380
C       0.836531    -1.938146     1.113404
C       0.961652    -3.280080     0.779617
H       3.707974    -3.093966    -1.210259
H       3.479221    -0.690498    -0.609912
H       0.034448    -1.610650     1.764144
H       0.270561    -4.023191     1.156260
N       2.137661    -5.090986    -0.411898
O       1.326488    -5.868204     0.047064
O       3.055499    -5.398834    -1.144152
C       1.620970     0.458721     0.984120
O       0.392831     0.787509     1.645385
H       2.485634     0.736903     1.602607
40
     -1068.729954     -1068.454969  -0.29   0.84
C      -1.603798     0.512619     0.165367
C      -2.557964    -0.087145    -1.955804
C      -3.260479     1.171961    -1.462668
C      -2.234995     1.755811    -0.488578
H      -0.536574     0.661919     0.339575
H      -1.841629     0.164343    -2.753180
H      -3.254565    -0.834034    -2.344658
H      -3.509258     1.856036    -2.277135
H      -4.181128     0.910637    -0.935767
H      -1.458949     2.297604    -1.037609
H      -2.668248     2.440254     0.244162
N      -1.863139    -0.596604    -0.763197
C      -2.214231     0.220753     1.528893
O      -1.587809     0.116783     2.552828
O      -3.556720     0.104532     1.491983
C      -0.800312    -1.519961    -0.990838
C      -1.233583    -2.655259    -1.905220
H      -0.421945    -3.380228    -2.000179
H      -2.112610    -3.157469    -1.491871
H      -1.468941    -2.282984    -2.903849
C       0.000227    -1.985113     0.245106
H      -0.015840    -3.061421     0.416818
H      -0.229848    -1.466896     1.173988
H      -3.844771    -0.079814     2.397955
C       3.658058     1.453160     1.495352
C       3.513995     0.192307     2.053859
C       2.717692    -0.733034     1.398971
C       2.075110    -0.402562     0.205848
C       2.238502     0.871627    -0.330653
C       3.032847     1.810528     0.313529
H       4.018907    -0.046904     2.980843
H       2.590956    -1.724348     1.824797
H       1.736789     1.125439    -1.256992
H       3.171015     2.805938    -0.088744
N       4.505923     2.447738     2.186065
O       5.042315     2.107190     3.220323
O       4.614576     3.544317     1.677582
C       1.231765    -1.437340    -0.496949
O       0.417911    -0.893630    -1.545686
H       1.890750    -2.226751    -0.884270
40
     -1068.728171     -1068.453580   0.83   1.72
C      -2.986673    -0.294744     1.040525
C      -1.489286     0.868544    -0.452134
C      -2.814749     0.577388    -1.169732
C      -3.818111     0.436310    -0.021366
H      -3.409543    -0.154568     2.038282
H      -1.295667     1.947512    -0.424595
H      -0.638465     0.388579    -0.949176
H      -3.081804     1.364831    -1.877074
H      -2.751520    -0.363163    -1.726144
H      -4.101580     1.419495     0.365919
H      -4.720965    -0.113512    -0.286122
N      -1.689932     0.355689     0.911767
C      -3.057730    -1.813114     0.765121
O      -4.107156    -2.394100     0.834048
O      -1.936904    -2.458379     0.417248
C      -0.590364     0.096837     1.756258
C      -1.002692    -0.246571     3.176750
H      -0.110927    -0.404607     3.786559
H      -1.586941     0.569930     3.609643
H      -1.593222    -1.165250     3.202991
C       0.595287     1.081238     1.651976
H       0.870161     1.558872     2.592092
H       0.489522     1.838301     0.877322
H      -1.142662    -1.900471     0.499525
C       3.546128     0.057597    -2.469417
C       3.803709     1.009066    -1.494694
C       3.105978     0.936240    -0.300049
C       2.164414    -0.070524    -0.084381
C       1.929936    -1.013176    -1.081083
C       2.620671    -0.954013    -2.284182
H       4.536571     1.783875    -1.678889
H       3.296894     1.674018     0.474393
H       1.203262    -1.799873    -0.916134
H       2.450411    -1.678512    -3.070135
N       4.285035     0.126578    -3.748148
O       4.041053    -0.718460    -4.583925
O       5.090127     1.024579    -3.882844
C       1.444661    -0.132267     1.240144
O       0.297073    -0.997067     1.243545
H       2.155999    -0.443103     2.016115
40
     -1068.726851     -1068.453449   1.66   1.80
C      -0.486184     1.657020     0.795479
C       0.111520     3.009561    -1.097477
C       1.064014     3.310380     0.063143
C       0.242693     2.915595     1.288373
H       0.158307     0.779746     0.933542
H       0.661867     2.689391    -1.985899
H      -0.481815     3.892607    -1.363326
H       1.955830     2.679274    -0.008753
H       1.387677     4.353308     0.081364
H       0.837825     2.718182     2.181799
H      -0.486876     3.697111     1.524814
N      -0.772649     1.930948    -0.608330
C      -1.722958     1.412474     1.643947
O      -1.780355     0.598842     2.530738
O      -2.747068     2.232287     1.345837
C      -0.960687     0.831758    -1.494649
C      -1.578307     1.284638    -2.809934
H      -2.555194     1.737436    -2.620231
H      -0.944637     2.015388    -3.315198
H      -1.704192     0.428463    -3.477275
C      -1.609849    -0.452484    -0.933749
H      -2.550788    -0.732587    -1.407078
H      -1.720988    -0.500028     0.147124
H      -3.457328     2.022265     1.970007
C       1.832810    -3.553964     1.342240
C       0.571945    -3.966124     0.938013
C      -0.121420    -3.178264     0.034075
C       0.435097    -1.996113    -0.455653
C       1.703407    -1.609406    -0.032776
C       2.412092    -2.388543     0.872158
H       0.154542    -4.884979     1.329014
H      -1.110491    -3.486368    -0.293742
H       2.134227    -0.693577    -0.418898
H       3.399567    -2.103372     1.211821
N       2.581712    -4.387633     2.306291
O       2.048994    -5.403751     2.702768
O       3.683414    -4.006136     2.643163
C      -0.344799    -1.166770    -1.444137
O       0.282354     0.078949    -1.770625
H      -0.523314    -1.765522    -2.347979
40
     -1068.726851     -1068.453449   1.66   1.80
C      -1.783769    -0.376669    -0.539473
C      -2.663442    -0.579731     1.686474
C      -2.703776    -1.946594     0.997392
C      -2.736610    -1.579702    -0.484474
H      -0.749695    -0.729569    -0.640419
H      -2.091844    -0.624405     2.617046
H      -3.673501    -0.224331     1.923044
H      -1.792002    -2.509023     1.223537
H      -3.559581    -2.549148     1.309341
H      -2.418071    -2.382590    -1.151758
H      -3.744591    -1.267144    -0.776404
N      -2.018809     0.328996     0.715347
C      -2.071997     0.452433    -1.779968
O      -1.412973     0.407033    -2.787598
O      -3.174347     1.215549    -1.669326
C      -0.986751     1.162304     1.234569
C      -1.514218     2.069763     2.336760
H      -0.704980     2.692033     2.726812
H      -2.300796     2.714905     1.936250
H      -1.923467     1.490410     3.166031
C      -0.073164     1.899875     0.231251
H      -0.107688     2.987266     0.296478
H      -0.162642     1.597398    -0.809614
H      -3.287066     1.660134    -2.522441
C       3.843045    -1.049649    -1.385793
C       3.007114    -1.725279    -0.514302
C       2.108070    -0.993190     0.249870
C       2.051328     0.392893     0.137934
C       2.909240     1.046126    -0.747673
C       3.811010     0.330421    -1.517840
H       3.065180    -2.803669    -0.440121
H       1.443900    -1.496404     0.942037
H       2.870898     2.128251    -0.838157
H       4.482360     0.820949    -2.210713
N       4.802029    -1.823162    -2.202665
O       4.811579    -3.029174    -2.067717
O       5.522144    -1.204805    -2.959333
C       1.087420     1.204139     0.966131
O       0.181414     0.407615     1.738423
H       1.659054     1.885747     1.611069
40
     -1068.727180     -1068.453430   1.45   1.81
C      -1.194557    -1.462149    -0.476510
C      -3.209399    -0.433407     0.323749
C      -2.883742    -1.652387     1.191572
C      -2.033373    -2.516732     0.263737
H      -0.309473    -1.217367     0.128161
H      -3.283906     0.473474     0.929829
H      -4.159078    -0.567255    -0.207963
H      -2.293936    -1.347827     2.062396
H      -3.779286    -2.163340     1.551384
H      -1.409643    -3.248053     0.779643
H      -2.669900    -3.049079    -0.451908
N      -2.095429    -0.334595    -0.640682
C      -0.718535    -2.034742    -1.801698
O      -1.213060    -1.862482    -2.881377
O       0.357724    -2.833555    -1.610755
C      -1.550992     0.964733    -0.834595
C      -2.607366     1.934547    -1.343043
H      -2.990402     1.586210    -2.305817
H      -3.439763     2.016617    -0.642150
H      -2.172555     2.929166    -1.469317
C      -0.206352     1.094118    -1.581243
H      -0.250653     1.655278    -2.514115
H       0.335550     0.165971    -1.747949
H       0.590062    -3.202683    -2.475375
C       3.868537     0.475264     1.511809
C       3.938850     1.101442     0.276455
C       2.762933     1.543400    -0.306984
C       1.536093     1.360404     0.332448
C       1.497913     0.730269     1.572818
C       2.667827     0.282105     2.171825
H       4.898395     1.234034    -0.206322
H       2.799450     2.037121    -1.274296
H       0.544314     0.595788     2.068802
H       2.656853    -0.209470     3.136209
N       5.117522    -0.000059     2.143603
O       6.155955     0.182364     1.542083
O       5.029484    -0.543802     3.224953
C       0.276149     1.853410    -0.332706
O      -0.918888     1.525526     0.384320
H       0.356682     2.937738    -0.490998
40
     -1068.727180     -1068.453423   1.45   1.81
C      -0.969172     0.534537    -1.602266
C      -2.246219    -1.484392    -1.828834
C      -1.263696    -1.372538    -2.998130
C      -1.003196     0.129367    -3.084949
H       0.043358     0.368467    -1.207114
H      -2.097927    -2.416541    -1.277065
H      -3.284918    -1.457114    -2.179375
H      -0.333757    -1.899403    -2.760253
H      -1.662902    -1.792032    -3.923979
H      -0.080825     0.394670    -3.603494
H      -1.837877     0.633328    -3.584980
N      -1.966659    -0.313593    -0.973343
C      -1.289363     2.015130    -1.475952
O      -2.351385     2.502940    -1.203732
O      -0.194787     2.760008    -1.758578
C      -1.879183    -0.567556     0.423140
C      -3.177000    -1.153741     0.958924
H      -3.424494    -2.091288     0.458303
H      -3.082628    -1.356459     2.028634
H      -3.992350    -0.443247     0.799565
C      -1.294248     0.532002     1.334806
H      -1.982641     0.922965     2.083389
H      -0.809872     1.362510     0.826339
H      -0.465782     3.688210    -1.705620
C       3.851897     0.406464     1.573613
C       3.061317     1.040776     2.520058
C       1.715708     0.717714     2.579158
C       1.168196    -0.222229     1.704961
C       1.987620    -0.843657     0.767180
C       3.338887    -0.531754     0.695425
H       3.501688     1.768345     3.189459
H       1.081578     1.204288     3.315299
H       1.560122    -1.577323     0.094563
H       3.990902    -1.005600    -0.027174
N       5.289343     0.743580     1.502051
O       5.959905     0.173943     0.666233
O       5.711978     1.570239     2.284015
C      -0.300801    -0.548451     1.797289
O      -0.752160    -1.459398     0.789231
H      -0.518660    -0.933166     2.803200
40
     -1068.729017     -1068.453187   0.30   1.96
C      -0.129036    -2.887012    -0.670643
C      -0.829300    -1.361005     1.017155
C      -2.012031    -2.306731     0.726401
C      -1.404591    -3.475408    -0.066681
H       0.614291    -3.652440    -0.895681
H      -0.657039    -1.258412     2.092331
H      -1.022139    -0.364634     0.606888
H      -2.487819    -2.654598     1.645640
H      -2.765355    -1.792842     0.128861
H      -1.119379    -4.292961     0.600473
H      -2.080069    -3.872619    -0.827243
N       0.342427    -1.995405     0.389042
C      -0.447399    -2.127701    -1.960671
O      -1.359568    -1.355786    -2.109469
O       0.415718    -2.431017    -2.950708
C       1.506583    -1.210543     0.131745
C       2.694741    -2.077882    -0.256215
H       3.586196    -1.454599    -0.357943
H       2.873264    -2.837301     0.509745
H       2.520512    -2.564890    -1.217446
C       1.827741    -0.114085     1.170357
H       2.817958    -0.194124     1.618451
H       1.084354     0.022459     1.952791
H       0.185193    -1.871624    -3.707319
C      -1.173808     4.005124     0.331010
C      -0.040397     4.039784     1.129157
C       0.882524     3.013912     1.006986
C       0.673959     1.970818     0.104278
C      -0.471970     1.963781    -0.686765
C      -1.406035     2.985028    -0.574865
H       0.104376     4.856251     1.824697
H       1.777778     3.025024     1.622988
H      -0.635374     1.151371    -1.385797
H      -2.303983     2.994789    -1.179107
N      -2.165612     5.094237     0.453309
O      -3.149696     5.042004    -0.254671
O      -1.935507     5.976004     1.255532
C       1.702962     0.872444    -0.006535
O       1.322546    -0.174249    -0.905039
H       2.662987     1.314833    -0.305038
40
     -1068.729017     -1068.453187   0.30   1.96
C       0.358226     0.400558     2.917607
C       0.014005    -1.341649     1.332052
C       1.097468    -1.819814     2.319601
C       1.011965    -0.848957     3.508675
H      -0.149636     0.999781     3.673956
H      -0.748069    -2.110247     1.174882
H       0.457212    -1.098415     0.361141
H       0.930328    -2.851567     2.635723
H       2.081357    -1.763829     1.853274
H       0.352498    -1.242275     4.286645
H       1.984412    -0.636671     3.957878
N      -0.599757    -0.161969     1.965764
C       1.405196     1.278159     2.227857
O       2.268369     0.883461     1.486783
O       1.268572     2.578552     2.555669
C      -1.356061     0.745927     1.165016
C      -2.134363     1.735034     2.019663
H      -1.455499     2.401063     2.555430
H      -2.768036     2.353520     1.379776
H      -2.762209     1.200585     2.737617
C      -2.170137     0.117389     0.013365
H      -3.238211     0.331340     0.047539
H      -2.017438    -0.948581    -0.141122
H       1.923578     3.070334     2.038329
C       0.949533    -0.860964    -3.985649
C      -0.433401    -0.844382    -4.086028
C      -1.159304    -0.229603    -3.078936
C      -0.513275     0.355855    -1.989756
C       0.876981     0.326838    -1.916982
C       1.617691    -0.286241    -2.918693
H      -0.917647    -1.304493    -4.937589
H      -2.244004    -0.205185    -3.141302
H       1.378562     0.778976    -1.068840
H       2.698710    -0.321283    -2.877654
N       1.734224    -1.514652    -5.054177
O       2.942647    -1.517420    -4.944208
O       1.121666    -2.009818    -5.978084
C      -1.335269     1.021765    -0.913447
O      -0.552535     1.503230     0.183418
H      -1.918347     1.835648    -1.365194
40
     -1068.728082     -1068.452942   0.89   2.12
C      -2.894090    -1.160369     0.061691
C      -0.841609    -1.076133     1.294786
C      -1.997703    -0.980790     2.309911
C      -3.253858    -1.405782     1.530947
H      -3.450885    -1.817701    -0.606960
H      -0.112243    -1.834153     1.595838
H      -0.317612    -0.118424     1.207305
H      -1.830339    -1.625469     3.175131
H      -2.099798     0.042757     2.672011
H      -3.444586    -2.474363     1.657731
H      -4.152091    -0.864955     1.837852
N      -1.467259    -1.467043     0.023334
C      -3.244512     0.257337    -0.385991
O      -3.948512     0.517072    -1.326699
O      -2.710755     1.213988     0.402945
C      -0.753418    -1.256132    -1.190011
C      -1.487131    -1.830502    -2.392725
H      -0.865205    -1.721766    -3.284250
H      -1.696129    -2.892370    -2.234911
H      -2.422345    -1.297006    -2.571855
C       0.753330    -1.590550    -1.159090
H       1.067229    -2.366407    -1.857259
H       1.153941    -1.805251    -0.169951
H      -2.970736     2.063085     0.016994
C       3.545678     2.319551     0.735311
C       4.085379     1.263178     0.017138
C       3.232509     0.475312    -0.738238
C       1.862494     0.737445    -0.772986
C       1.350408     1.806283    -0.043113
C       2.192040     2.605958     0.718729
H       5.150186     1.073362     0.056427
H       3.638319    -0.355881    -1.308579
H       0.285857     2.006104    -0.073656
H       1.811733     3.440983     1.293057
N       4.446646     3.166767     1.544612
O       5.629083     2.892216     1.541337
O       3.950326     4.085201     2.163336
C       0.963413    -0.135066    -1.612612
O      -0.428954     0.162070    -1.463351
H       1.271194    -0.052563    -2.664188
40
     -1068.725208     -1068.452290   2.69   2.53
C      -2.404365     1.635132     0.029858
C      -1.424973    -0.499845     0.505729
C      -2.920474    -0.704445     0.292731
C      -3.294731     0.513391    -0.555700
H      -2.052621     2.299761    -0.768379
H      -0.864014    -0.843982    -0.379078
H      -1.033998    -1.035467     1.371996
H      -3.154577    -1.652049    -0.197542
H      -3.441498    -0.669898     1.253508
H      -3.021152     0.347591    -1.602277
H      -4.358100     0.761341    -0.521767
N      -1.324172     0.943327     0.717511
C      -3.238465     2.474726     0.993451
O      -3.526299     2.189592     2.122682
O      -3.690277     3.599648     0.388727
C      -0.024222     1.556282     0.650140
C      -0.051267     2.958994     1.235617
H      -0.452651     2.916838     2.250343
H       0.963768     3.362673     1.269070
H      -0.666909     3.636483     0.636887
C       0.797485     1.417744    -0.663152
H       1.136887     2.351246    -1.113260
H       0.326662     0.790760    -1.421527
H      -4.252088     4.056842     1.031917
C       2.979953    -3.272859    -0.894002
C       3.211457    -2.227108    -1.774249
C       2.821022    -0.951390    -1.400479
C       2.207150    -0.725596    -0.168075
C       1.989930    -1.795115     0.695706
C       2.375197    -3.079594     0.335855
H       3.687716    -2.420136    -2.726798
H       2.995194    -0.120345    -2.078403
H       1.514013    -1.617284     1.652509
H       2.213189    -3.923595     0.993976
N       3.392284    -4.638129    -1.282837
O       3.178986    -5.535991    -0.494821
O       3.919313    -4.778034    -2.367332
C       1.817518     0.678761     0.220074
O       0.938695     0.738907     1.355431
H       2.730433     1.260821     0.405958
40
     -1068.726070     -1068.451411   2.15   3.08
C      -2.701474    -0.849259     0.730882
C      -0.355650    -0.903404     1.218666
C      -0.984903    -2.143039     1.842757
C      -2.269192    -2.304632     1.024018
H      -3.084581    -0.753802    -0.291713
H       0.179908    -1.174460     0.294128
H       0.356630    -0.400993     1.874624
H      -0.335477    -3.019755     1.788797
H      -1.224255    -1.952362     2.891934
H      -2.055793    -2.810926     0.077846
H      -3.045493    -2.875033     1.539117
N      -1.509351    -0.037796     0.971762
C      -3.862880    -0.449615     1.631255
O      -4.983853    -0.242363     1.242948
O      -3.526100    -0.398003     2.933993
C      -1.326083     1.089859     0.091849
C      -2.483820     2.067568     0.202709
H      -3.419760     1.632313    -0.157171
H      -2.608041     2.361137     1.247701
H      -2.267754     2.958763    -0.391781
C      -0.841269     0.825800    -1.361396
H      -1.467534     1.240116    -2.151952
H      -0.616115    -0.219227    -1.578005
H      -4.330921    -0.164302     3.419044
C       4.262953    -0.058990    -1.381828
C       3.453062     0.066543    -2.499923
C       2.192707     0.620344    -2.342953
C       1.749063     1.039508    -1.088439
C       2.585606     0.902557     0.015526
C       3.851258     0.349334    -0.125057
H       3.812651    -0.264747    -3.465518
H       1.545214     0.726143    -3.209001
H       2.239467     1.229360     0.988745
H       4.515047     0.233783     0.722132
N       5.609481    -0.648732    -1.537988
O       6.298710    -0.747908    -0.544149
O       5.943705    -0.998069    -2.651390
C       0.382754     1.664098    -0.954615
O      -0.078558     1.752048     0.404210
H       0.400640     2.658146    -1.421765
40
     -1068.725069     -1068.451265   2.78   3.17
C      -2.515663    -0.630684    -0.458875
C      -2.050374    -0.310693     1.874752
C      -3.556512    -0.155302     1.624235
C      -3.622428     0.237803     0.147094
H      -2.898822    -1.644296    -0.635606
H      -1.836957    -1.114681     2.589527
H      -1.626312     0.612905     2.287378
H      -4.069980    -1.110601     1.778591
H      -4.016029     0.582571     2.285172
H      -4.594082     0.053595    -0.315637
H      -3.364766     1.292267     0.011884
N      -1.466185    -0.581127     0.550910
C      -2.028535    -0.071350    -1.789335
O      -1.596087     1.036633    -1.959891
O      -2.184886    -0.957980    -2.790693
C      -0.437118    -1.592705     0.485352
C      -0.935954    -3.031073     0.573075
H      -1.540621    -3.186389     1.472257
H      -1.538542    -3.276111    -0.304441
H      -0.088469    -3.721083     0.599742
C       0.786897    -1.257896     1.360586
H       1.109380    -2.044892     2.042528
H       0.709615    -0.308106     1.888334
H      -1.849740    -0.536297    -3.596040
C       3.432574     2.566426    -0.794979
C       4.223719     1.464554    -0.519236
C       3.597602     0.251349    -0.270738
C       2.209077     0.147368    -0.294607
C       1.437342     1.274769    -0.574756
C       2.048772     2.491991    -0.830417
H       5.301311     1.563153    -0.503114
H       4.200676    -0.626956    -0.058832
H       0.357021     1.197851    -0.608334
H       1.468164     3.376951    -1.056631
N       4.087167     3.864657    -1.062865
O       3.374420     4.816649    -1.304056
O       5.300386     3.900972    -1.025171
C       1.553752    -1.169102     0.026662
O       0.346456    -1.423006    -0.720338
H       2.273734    -1.982132    -0.123493
40
     -1068.725069     -1068.451264   2.78   3.17
C      -1.507589     0.812018     2.001174
C      -2.651149     0.880588    -0.108862
C      -3.677339     0.850933     1.031934
C      -2.900774     0.200480     2.178532
H      -1.484284     1.811635     2.454688
H      -2.763239     1.774233    -0.734706
H      -2.769733     0.008057    -0.762888
H      -3.968645     1.869632     1.310260
H      -4.584120     0.304620     0.764092
H      -3.319830     0.403218     3.166182
H      -2.836546    -0.882858     2.041355
N      -1.337638     0.833557     0.554044
C      -0.433388    -0.035418     2.670659
O      -0.225099    -1.197113     2.445259
O       0.243277     0.661831     3.602995
C      -0.306344     1.693802     0.022073
C      -0.447012     3.170106     0.377293
H      -0.317618     3.313957     1.452353
H       0.323587     3.753840    -0.133086
H      -1.428467     3.556205     0.084131
C       0.021153     1.392344    -1.453802
H       0.008898     2.251077    -2.125242
H      -0.555650     0.571662    -1.878502
H       0.907287     0.063229     3.976476
C       2.581689    -3.036989    -1.764432
C       3.240417    -1.998611    -2.399981
C       2.857955    -0.698087    -2.103336
C       1.835113    -0.445702    -1.192578
C       1.188676    -1.511988    -0.567885
C       1.563514    -2.816122    -0.849969
H       4.032040    -2.212405    -3.106246
H       3.366855     0.131227    -2.586327
H       0.401263    -1.322296     0.151930
H       1.079157    -3.657099    -0.370815
N       2.980418    -4.427305    -2.070532
O       3.874878    -4.591467    -2.875288
O       2.390864    -5.321721    -1.500517
C       1.406795     0.972413    -0.925631
O       0.996783     1.216778     0.435329
H       2.213841     1.657739    -1.210136
40
     -1068.726315     -1068.451196   1.99   3.21
C      -2.455253    -1.026578     0.695318
C      -2.394318    -0.377915    -1.618824
C      -3.268813    -1.621055    -1.460064
C      -3.723009    -1.515370    -0.002432
H      -2.677804    -0.422911     1.582789
H      -3.029655     0.493706    -1.839391
H      -1.663813    -0.472339    -2.427844
H      -4.096117    -1.641956    -2.172732
H      -2.673199    -2.528021    -1.602950
H      -4.510291    -0.760009     0.093671
H      -4.078268    -2.455462     0.417021
N      -1.723236    -0.247999    -0.318193
C      -1.584829    -2.196712     1.197922
O      -1.987093    -3.320198     1.330289
O      -0.326883    -1.864918     1.516491
C      -1.282292     1.073004     0.046518
C      -2.377825     2.056892     0.438675
H      -2.949992     1.684747     1.291488
H      -1.938107     3.017750     0.718560
H      -3.065518     2.222729    -0.395051
C      -0.208825     1.648975    -0.897671
H      -0.438055     2.612706    -1.351521
H       0.114009     0.936129    -1.655521
H      -0.178812    -0.920563     1.316987
C       4.500011    -0.251724     0.201901
C       4.120815     0.567319    -0.849064
C       2.875423     1.174238    -0.798591
C       2.025142     0.964286     0.286248
C       2.437073     0.140115     1.330861
C       3.678966    -0.477578     1.293053
H       4.793167     0.718917    -1.683518
H       2.564403     1.818035    -1.615983
H       1.788016    -0.020441     2.184234
H       4.012085    -1.124182     2.094338
N       5.826358    -0.904479     0.156359
O       6.134422    -1.615815     1.089632
O       6.524884    -0.687946    -0.812109
C       0.695708     1.671489     0.342700
O      -0.301119     0.972647     1.127075
H       0.842641     2.680489     0.749330
40
     -1068.725214     -1068.450138   2.69   3.88
C      -1.669467    -0.496333    -0.103991
C      -2.812189     0.287758     1.771815
C      -2.193251    -1.036441     2.220837
C      -1.797623    -1.682470     0.882475
H      -0.672908    -0.442119    -0.536959
H      -2.874557     1.039572     2.555223
H      -3.826500     0.118490     1.393587
H      -1.308620    -0.845242     2.834898
H      -2.888415    -1.650387     2.798598
H      -0.861726    -2.240675     0.949334
H      -2.573758    -2.365734     0.532651
N      -1.980355     0.739434     0.643495
C      -2.672552    -0.567313    -1.247881
O      -3.730357    -1.139614    -1.231959
O      -2.252396     0.144322    -2.316796
C      -0.866401     1.600057     0.908680
C      -1.225336     2.753105     1.832584
H      -2.132685     3.254048     1.484664
H      -1.371366     2.403391     2.855969
H      -0.406584     3.476098     1.845859
C      -0.058682     2.036112    -0.333854
H      -0.024033     3.112834    -0.500363
H      -0.343656     1.537480    -1.258625
H      -2.958182     0.103678    -2.978813
C       3.421541    -1.560906    -1.651300
C       2.775636    -1.903308    -0.476334
C       2.035308    -0.932149     0.184237
C       1.943438     0.358179    -0.330153
C       2.607665     0.673552    -1.515747
C       3.351558    -0.283679    -2.186304
H       2.856958    -2.911752    -0.091452
H       1.521837    -1.171744     1.107643
H       2.541400     1.679126    -1.921744
H       3.872172    -0.056685    -3.107649
N       4.212241    -2.589706    -2.359580
O       4.768008    -2.261640    -3.387535
O       4.257560    -3.699346    -1.870469
C       1.154809     1.425318     0.387782
O       0.328793     0.913449     1.443664
H       1.852674     2.181241     0.773510
40
     -1068.724558     -1068.449751   3.10   4.12
C      -1.923665    -1.781972     0.658809
C      -0.448725    -2.444372    -1.104922
C      -1.003557    -3.693402    -0.401346
C      -1.388157    -3.178371     0.987926
H      -2.952361    -1.868344     0.284728
H      -0.745912    -2.411811    -2.160857
H       0.647308    -2.431779    -1.075146
H      -1.895782    -4.058723    -0.920379
H      -0.278766    -4.509445    -0.369198
H      -2.130685    -3.796427     1.496325
H      -0.505881    -3.092475     1.628709
N      -0.983259    -1.300831    -0.345701
C      -2.018148    -0.877950     1.876837
O      -3.054054    -0.460089     2.321484
O      -0.825611    -0.634526     2.452039
C      -1.364517    -0.132455    -1.106932
C      -2.726669    -0.219887    -1.785602
H      -3.518903    -0.240967    -1.033872
H      -2.886891     0.657871    -2.417008
H      -2.801945    -1.117007    -2.408803
C      -0.217204     0.415791    -1.979985
H      -0.468201     0.590173    -3.026298
H       0.714542    -0.143355    -1.906252
H      -0.994023    -0.042773     3.199527
C       3.295442     2.553646     1.075885
C       2.833809     3.457986     0.135954
C       1.659936     3.160636    -0.543358
C       0.967807     1.981140    -0.286031
C       1.457950     1.087565     0.667271
C       2.625471     1.371976     1.356434
H       3.385238     4.369909    -0.052668
H       1.278073     3.859992    -1.281517
H       0.911973     0.173825     0.873047
H       3.021463     0.695035     2.102714
N       4.544217     2.858257     1.806158
O       4.929307     2.049939     2.625344
O       5.110157     3.899384     1.542068
C      -0.279655     1.651663    -1.062550
O      -1.317038     1.046476    -0.265361
H      -0.653080     2.555697    -1.557474
40
     -1068.723283     -1068.448599   3.90   4.84
C      -1.535121     0.531218     0.277455
C      -3.054246    -0.234140    -1.409742
C      -3.702832     0.944711    -0.696644
C      -2.489262     1.678287    -0.122896
H      -0.504544     0.792485     0.011630
H      -2.652969     0.081644    -2.386345
H      -3.748651    -1.060593    -1.576239
H      -4.298692     1.568239    -1.366747
H      -4.342514     0.585247     0.113492
H      -2.014267     2.289653    -0.896355
H      -2.734414     2.327534     0.720254
N      -1.988636    -0.631721    -0.482231
C      -1.639750     0.294155     1.787708
O      -2.617064    -0.120204     2.338516
O      -0.543463     0.632796     2.511820
C      -0.999987    -1.558349    -0.911557
C      -1.587028    -2.664192    -1.770942
H      -0.805063    -3.384153    -2.021342
H      -2.384130    -3.181409    -1.229840
H      -1.986904    -2.262170    -2.703527
C      -0.022315    -2.062308     0.174619
H       0.000084    -3.145752     0.291598
H      -0.137879    -1.604923     1.155123
H       0.171244     0.930125     1.934592
C       3.662169     1.495059     0.995529
C       3.491170     0.291585     1.661425
C       2.644756    -0.657513     1.107291
C       1.977749    -0.405126    -0.092280
C       2.167174     0.816823    -0.735165
C       3.012662     1.776368    -0.194271
H       4.015324     0.111137     2.591004
H       2.503425    -1.606487     1.616481
H       1.645080     1.013671    -1.664472
H       3.172436     2.729297    -0.682323
N       4.566447     2.511722     1.577123
O       4.706093     3.551310     0.968186
O       5.110632     2.241334     2.627146
C       1.087240    -1.462770    -0.702193
O       0.134232    -0.932170    -1.634179
H       1.721813    -2.220415    -1.181706
40
     -1068.723222     -1068.448497   3.94   4.91
C       0.325860     0.451453    -2.385930
C      -1.246780    -1.214850    -1.711723
C      -0.302484    -1.877799    -2.738664
C       0.863669    -0.884998    -2.927877
H       1.125319     1.090015    -2.004249
H      -1.413295    -1.835902    -0.828282
H      -2.225926    -1.014158    -2.164804
H       0.062801    -2.844030    -2.384568
H      -0.825704    -2.047901    -3.680709
H       1.721684    -1.175031    -2.316625
H       1.200926    -0.811731    -3.964662
N      -0.546790     0.008186    -1.317566
C      -0.312322     1.255462    -3.517263
O       0.103063     2.309068    -3.925268
O      -1.379413     0.638098    -4.073371
C      -1.250614     0.965749    -0.491561
C      -2.418546     1.686660    -1.151403
H      -3.116342     0.969512    -1.589290
H      -2.952089     2.273473    -0.399106
H      -2.074577     2.366459    -1.935823
C      -0.306265     1.859250     0.339721
H      -0.541114     2.923305     0.318234
H       0.755425     1.705438     0.151410
H      -1.683269     1.206544    -4.795986
C       1.990695    -1.177676     3.784703
C       1.708125    -1.553243     2.479611
C       0.776616    -0.820069     1.763775
C       0.134951     0.272628     2.348711
C       0.438485     0.623163     3.660720
C       1.371788    -0.099596     4.391906
H       2.215552    -2.404842     2.044638
H       0.537286    -1.088025     0.740586
H      -0.062284     1.469398     4.122097
H       1.619457     0.160389     5.412864
N       2.986306    -1.955407     4.552742
O       3.515328    -2.896227     3.997983
O       3.214961    -1.605793     5.692546
C      -0.854178     1.087227     1.556408
O      -1.700305     0.288215     0.706586
H      -1.455995     1.697583     2.239489
40
     -1068.723010     -1068.448306   4.07   5.03
C      -0.014487     2.336994    -0.356209
C       0.232662     1.753501    -2.691357
C      -0.964711     2.708441    -2.540484
C      -0.709880     3.417510    -1.204396
H       0.608945     2.776606     0.425830
H       0.984025     2.167826    -3.377898
H      -0.081052     0.781136    -3.095211
H      -1.042718     3.408682    -3.374673
H      -1.895461     2.138264    -2.491153
H      -0.013080     4.250172    -1.336504
H      -1.617745     3.802071    -0.734455
N       0.773283     1.640759    -1.343624
C      -1.067465     1.523289     0.388819
O      -1.465554     1.786656     1.493279
O      -1.572708     0.500200    -0.336835
C       1.655902     0.552127    -1.012585
C       3.063937     0.820765    -1.526974
H       3.738380     0.000034    -1.265382
H       3.056525     0.928641    -2.615941
H       3.438183     1.747129    -1.085236
C       1.177632    -0.904525    -1.248231
H       1.765459    -1.497437    -1.949881
H       0.115339    -0.972915    -1.474960
H      -2.232833     0.067350     0.224612
C      -1.464763    -2.823865     2.790622
C      -1.072878    -3.505438     1.648913
C      -0.122178    -2.922118     0.826403
C       0.426835    -1.678999     1.141320
C       0.016461    -1.019663     2.296072
C      -0.938435    -1.588744     3.127589
H      -1.509104    -4.469184     1.419984
H       0.193847    -3.441163    -0.074165
H       0.432370    -0.049666     2.538709
H      -1.275360    -1.085565     4.024622
N      -2.477450    -3.437968     3.676017
O      -2.917905    -4.523241     3.357004
O      -2.806695    -2.820456     4.667198
C       1.483541    -1.087546     0.246330
O       1.666967     0.333030     0.416934
H       2.432170    -1.612689     0.425896
40
     -1068.720799     -1068.445613   5.46   6.71
C      -1.577088     0.568131     0.447817
C      -3.085771    -0.325141    -1.176977
C      -3.326419     1.185277    -1.046177
C      -2.774100     1.519022     0.337421
H      -0.729637     0.982119    -0.120867
H      -2.734628    -0.569429    -2.184369
H      -3.999868    -0.897920    -0.989759
H      -2.765751     1.727087    -1.814699
H      -4.380139     1.449088    -1.155879
H      -2.485432     2.565697     0.456572
H      -3.496349     1.265749     1.118484
N      -2.066353    -0.664892    -0.157099
C      -1.193674     0.427073     1.921862
O      -1.874298    -0.107403     2.746637
O      -0.022025     1.007721     2.277342
C      -1.122495    -1.667296    -0.528789
C      -1.810724    -2.895871    -1.105329
H      -1.062335    -3.655631    -1.340875
H      -2.510728    -3.303075    -0.370646
H      -2.353233    -2.664438    -2.022243
C      -0.011997    -2.033940     0.482358
H       0.018156    -3.094257     0.731911
H       0.026234    -1.462483     1.404443
H       0.445598     1.347898     1.502969
C       3.656772     1.571610     0.442689
C       3.720389     0.370280     1.132280
C       2.845958    -0.644053     0.775926
C       1.919924    -0.461806    -0.251998
C       1.886160     0.753456    -0.932231
C       2.754619     1.781864    -0.586074
H       4.440826     0.245238     1.930233
H       2.878921    -1.588407     1.311690
H       1.175643     0.889053    -1.739217
H       2.740484     2.732497    -1.104002
N       4.581324     2.663710     0.818524
O       4.487371     3.710377     0.212508
O       5.373385     2.444545     1.710659
C       0.973643    -1.583267    -0.608671
O      -0.092203    -1.180183    -1.477566
H       1.549845    -2.407994    -1.048858
40
     -1068.719836     -1068.445487   6.06   6.79
C      -2.210410     1.409393     1.195663
C      -0.005628     1.718535     0.485274
C       0.125655     1.009433     1.841193
C      -1.318113     0.974195     2.383665
H      -3.053658     0.734044     1.042958
H       0.731004     1.405579    -0.250095
H       0.094967     2.800448     0.622144
H       0.527883    -0.000393     1.714654
H       0.805461     1.544038     2.508331
H      -1.599387    -0.023737     2.729204
H      -1.451920     1.663136     3.218600
N      -1.364961     1.457762    -0.005772
C      -2.772937     2.813332     1.377516
O      -2.300253     3.678278     2.067356
O      -3.875193     3.007192     0.624012
C      -1.580209     0.349369    -0.925728
C      -2.886228     0.550258    -1.677026
H      -3.026291    -0.254984    -2.403075
H      -3.746141     0.565352    -1.002845
H      -2.843200     1.506596    -2.201359
C      -1.325765    -1.107598    -0.444815
H      -2.161542    -1.795182    -0.578643
H      -0.936539    -1.195560     0.567849
H      -4.138426     3.931452     0.743924
C       3.785420    -1.977872    -0.446561
C       2.780408    -2.828065    -0.013900
C       1.471581    -2.538457    -0.367894
C       1.174184    -1.415791    -1.139232
C       2.206217    -0.581398    -1.561345
C       3.521561    -0.857111    -1.215616
H       3.028888    -3.694456     0.585325
H       0.673079    -3.196192    -0.036708
H       1.975038     0.290900    -2.162022
H       4.335868    -0.218643    -1.533156
N       5.184154    -2.277690    -0.073752
O       6.045260    -1.517337    -0.464683
O       5.385578    -3.266340     0.600926
C      -0.252264    -1.133952    -1.543684
O      -0.489666     0.248441    -1.865852
H      -0.513476    -1.776974    -2.394831
40
     -1068.717811     -1068.442110   7.33   8.91
C      -1.898871    -1.826986     0.164161
C      -2.343721     0.214409     1.141902
C      -3.734636    -0.421664     0.886147
C      -3.435770    -1.726025     0.117478
H      -1.599248    -2.328625     1.090982
H      -2.034827     0.036186     2.178764
H      -2.317922     1.291988     0.978916
H      -4.248334    -0.612229     1.831373
H      -4.376831     0.239720     0.300859
H      -3.896055    -2.606345     0.572422
H      -3.779916    -1.674527    -0.916213
N      -1.378527    -0.455871     0.257372
C      -1.311392    -2.648252    -0.972339
O      -1.712037    -2.677934    -2.106321
O      -0.263015    -3.388210    -0.559424
C      -1.070269     0.287561    -0.962439
C      -2.219315     0.549778    -1.927906
H      -1.860617     1.192492    -2.736337
H      -2.594748    -0.377490    -2.362584
H      -3.032800     1.073065    -1.419734
C       0.261443    -0.142493    -1.614139
H       0.217536    -0.316109    -2.688731
H       0.760331    -0.971726    -1.115790
H       0.061556    -3.876910    -1.330958
C       4.059422     1.264599     1.543439
C       2.843294     0.744531     1.961888
C       1.778699     0.747370     1.076342
C       1.930906     1.267402    -0.210136
C       3.162833     1.783484    -0.599963
C       4.241197     1.785955     0.274870
H       2.746023     0.347516     2.964276
H       0.816082     0.345292     1.372484
H       3.283693     2.193852    -1.598342
H       5.206056     2.183130    -0.012562
N       5.199636     1.261939     2.484468
O       6.252768     1.722180     2.093246
O       5.015316     0.799956     3.591468
C       0.776956     1.242158    -1.177941
O      -0.486147     1.551340    -0.560468
H       0.981252     1.925493    -2.010530
40
     -1068.715072     -1068.439313   9.05  10.67
C       1.151530     0.420378     2.296029
C      -0.317061    -1.352443     2.215816
C       0.621091    -1.661763     3.411514
C       1.682555    -0.540802     3.380855
H       0.433259     1.107099     2.756473
H      -1.240565    -0.883378     2.575370
H      -0.606110    -2.235018     1.644744
H       0.059704    -1.667143     4.348710
H       1.087444    -2.644190     3.312250
H       1.787474    -0.023998     4.337845
H       2.664536    -0.930964     3.110459
N       0.376593    -0.390030     1.347797
C       2.181745     1.353162     1.678594
O       1.993284     2.523394     1.480041
O       3.362201     0.760716     1.394450
C       1.016834    -0.990243     0.181896
C       2.091652    -2.040031     0.440476
H       1.683957    -2.857695     1.039602
H       2.417358    -2.456429    -0.516511
H       2.958662    -1.617465     0.948584
C       1.326041     0.030219    -0.934424
H       2.325006    -0.043155    -1.363710
H       1.095248     1.064312    -0.684847
H       3.934180     1.447498     1.021103
C      -3.171293     1.664245    -2.810173
C      -2.356564     1.166005    -3.811288
C      -1.262185     0.392832    -3.447128
C      -0.991303     0.128142    -2.108177
C      -1.831263     0.645439    -1.120734
C      -2.928318     1.416304    -1.467107
H      -2.581220     1.381690    -4.847786
H      -0.614054    -0.012757    -4.218639
H      -1.612376     0.436863    -0.079319
H      -3.592955     1.825793    -0.717149
N      -4.340050     2.488468    -3.184885
O      -5.040331     2.913076    -2.289276
O      -4.529287     2.691408    -4.366836
C       0.215911    -0.687709    -1.725818
O      -0.029297    -1.584246    -0.626322
H       0.577970    -1.237582    -2.602481
40
     -1068.715365     -1068.438869   8.87  10.95
C      -1.996504    -0.490390    -2.358689
C      -1.626387    -0.779526    -0.139917
C      -2.352476     0.589400    -0.270792
C      -2.354812     0.880500    -1.786105
H      -2.870104    -1.147688    -2.232284
H      -2.347256    -1.580403     0.057165
H      -0.900849    -0.783465     0.670452
H      -3.368322     0.518765     0.127847
H      -1.833976     1.371464     0.283610
H      -3.311273     1.243905    -2.166202
H      -1.585240     1.607933    -2.052874
N      -0.986940    -1.056382    -1.443812
C      -1.761998    -0.538685    -3.853219
O      -1.827182     0.404687    -4.596064
O      -1.576742    -1.799120    -4.296505
C       0.388736    -0.634281    -1.509713
C       0.969163    -0.579154    -2.910468
H       0.518351     0.222601    -3.497053
H       2.038176    -0.365751    -2.838095
H       0.835576    -1.534127    -3.421951
C       1.318103    -1.361540    -0.512692
H       2.118873    -1.944332    -0.967967
H       0.794102    -1.975650     0.218883
H      -1.491843    -1.744773    -5.259750
C       1.350802     0.933038     4.140759
C       2.101516    -0.163278     3.746186
C       2.195547    -0.447591     2.393033
C       1.548136     0.351154     1.450552
C       0.804254     1.447702     1.877797
C       0.698684     1.745465     3.229225
H       2.596581    -0.773077     4.490848
H       2.779498    -1.303926     2.067715
H       0.306117     2.069429     1.143614
H       0.123258     2.593044     3.578779
N       1.243591     1.244063     5.581851
O       0.579927     2.208639     5.900845
O       1.826001     0.515422     6.358460
C       1.690853     0.043806    -0.019191
O       0.676027     0.650446    -0.835330
H       2.690030     0.361673    -0.348952
