40
     -1068.733307     -1068.457561   0.00   0.00
C       1.885025     0.470153     2.145021
C       2.679526    -1.554378     1.132524
C       3.396545    -1.368399     2.464456
C       2.412719    -0.484136     3.232268
H       0.834548     0.704711     2.328831
H       1.892075    -2.314709     1.230929
H       3.347503    -1.852229     0.320753
H       3.602838    -2.318040     2.962299
H       4.349832    -0.849612     2.316411
H       1.585008    -1.090273     3.612196
H       2.854025     0.058153     4.069312
N       2.087785    -0.227674     0.862571
C       2.649704     1.803804     2.175382
O       2.544264     2.590635     3.075079
O       3.453054     2.010042     1.123917
C       0.986313    -0.199233    -0.062356
C       1.312589    -0.958553    -1.338279
H       0.492312    -0.843468    -2.049469
H       2.228742    -0.568787    -1.791453
H       1.438449    -2.024072    -1.137752
C       0.330151     1.179060    -0.293061
H       0.300625     1.497851    -1.334717
H       0.712090     1.993087     0.321381
H       3.324298     1.221518     0.552964
C      -4.170017     0.127860    -2.546825
C      -3.497285    -1.013977    -2.149706
C      -2.451988    -0.891801    -1.243398
C      -2.091163     0.357482    -0.747944
C      -2.791720     1.490586    -1.163718
C      -3.835827     1.385479    -2.067756
H      -3.791932    -1.977184    -2.546035
H      -1.911116    -1.770580    -0.913459
H      -2.517141     2.468237    -0.776925
H      -4.388454     2.253877    -2.402244
N      -5.282638     0.003965    -3.512725
O      -5.555826    -1.107369    -3.916082
O      -5.854714     1.022109    -3.843299
C      -0.957027     0.516615     0.236054
O      -0.259713    -0.708979     0.516802
H      -1.343463     0.968233     1.158052
40
     -1068.729482     -1068.455980   2.40   0.99
C       1.526524     2.396065     0.249787
C       2.909199     0.850357     1.449171
C       3.514745     2.240914     1.596826
C       2.303050     3.142974     1.358964
H       0.449071     2.497616     0.410633
H       2.389901     0.559798     2.376421
H       3.656599     0.086580     1.221970
H       3.979058     2.398144     2.572861
H       4.269258     2.404899     0.821734
H       1.683273     3.192322     2.259008
H       2.562933     4.164520     1.072668
N       1.973763     1.012222     0.330645
C       1.866415     3.021084    -1.097649
O       2.763298     2.706629    -1.830657
O       1.034125     4.055323    -1.367764
C       1.014786    -0.005422     0.085792
C       1.621219    -1.393937     0.203591
H       0.879108    -2.144000    -0.077137
H       2.484886    -1.484446    -0.460795
H       1.934607    -1.594869     1.229898
C       0.115778     0.185334    -1.155598
H       0.153283    -0.633982    -1.873715
H       0.243107     1.128199    -1.684996
H       1.332293     4.444665    -2.203001
C      -3.758819    -3.136636    -0.527693
C      -2.920676    -3.084028     0.571946
C      -2.044013    -2.013636     0.692658
C      -2.011423    -1.015644    -0.276592
C      -2.872388    -1.094344    -1.372142
C      -3.751821    -2.155723    -1.507920
H      -2.959462    -3.869401     1.315895
H      -1.378658    -1.945631     1.544891
H      -2.853867    -0.316032    -2.130252
H      -4.424555    -2.232818    -2.352295
N      -4.692957    -4.274326    -0.662366
O      -5.416200    -4.294816    -1.637074
O      -4.680436    -5.118916     0.208980
C      -1.064171     0.155996    -0.166973
O      -0.180860     0.080943     0.958726
H      -1.649976     1.084017    -0.148443
40
     -1068.730130     -1068.455396   1.99   1.36
C       1.050620     1.995225    -1.772667
C       0.255635     3.261239     0.103417
C       0.628484     4.244326    -0.998913
C       0.544901     3.371132    -2.252473
H       0.480698     1.187254    -2.236512
H      -0.838234     3.145884     0.156313
H       0.615030     3.572779     1.087098
H      -0.043284     5.104877    -1.035869
H       1.649105     4.606255    -0.853131
H      -0.495327     3.272838    -2.576157
H       1.123376     3.758219    -3.094390
N       0.902541     2.007668    -0.312006
C       2.500807     1.773434    -2.176483
O       2.886299     0.873665    -2.879185
O       3.332935     2.715168    -1.690334
C       0.436424     0.807663     0.302559
C       0.357353     0.951151     1.814624
H       0.091892    -0.009091     2.261563
H       1.323896     1.272234     2.212537
H      -0.406543     1.677797     2.097773
C       1.083403    -0.512826    -0.169952
H       1.545920    -1.098625     0.624582
H       1.774657    -0.426077    -1.005596
H       4.220383     2.492428    -2.007497
C      -2.039088    -4.194166     1.609996
C      -2.545106    -2.923568     1.819706
C      -1.996534    -1.861421     1.112833
C      -0.957101    -2.074528     0.212403
C      -0.471101    -3.368540     0.019486
C      -1.006383    -4.438512     0.717273
H      -3.353688    -2.776115     2.524150
H      -2.375409    -0.856545     1.255382
H       0.338071    -3.541624    -0.684797
H      -0.639548    -5.447606     0.580681
N      -2.617915    -5.328437     2.360589
O      -3.521771    -5.088738     3.134130
O      -2.153660    -6.431569     2.157743
C      -0.344203    -0.934330    -0.565871
O      -0.871518     0.352015    -0.214436
H      -0.466011    -1.130930    -1.638570
40
     -1068.730148     -1068.455099   1.98   1.54
C       2.846383    -0.268518     1.493709
C       1.356143     1.536693     2.030640
C       2.695316     1.799521     2.711636
C       3.662240     0.993389     1.839897
H       3.079710    -0.613871     0.481501
H       1.257570     2.182979     1.146361
H       0.488592     1.711633     2.668608
H       2.941270     2.862400     2.757265
H       2.683757     1.411634     3.735553
H       3.888134     1.545274     0.921883
H       4.606122     0.746856     2.327780
N       1.436186     0.113584     1.659789
C       3.219022    -1.421058     2.444718
O       4.267631    -2.000791     2.379105
O       2.291039    -1.696778     3.366545
C       0.535653    -0.334799     0.609136
C       0.468007    -1.850936     0.552921
H      -0.224967    -2.155168    -0.234498
H       1.444418    -2.294927     0.341193
H       0.104753    -2.239028     1.507276
C       0.625631     0.377992    -0.765647
H       0.699558    -0.285356    -1.627670
H       1.387012     1.155508    -0.834851
H       1.540031    -1.100340     3.148840
C      -3.898990    -0.441722    -3.056446
C      -3.003898     0.521018    -3.497620
C      -2.006825     0.939786    -2.632111
C      -1.904670     0.402776    -1.348182
C      -2.819788    -0.559410    -0.932081
C      -3.825958    -0.988967    -1.787844
H      -3.096761     0.925407    -4.497236
H      -1.297443     1.694539    -2.960685
H      -2.743284    -0.968691     0.068058
H      -4.546853    -1.736326    -1.482227
N      -4.967099    -0.896709    -3.972090
O      -5.737968    -1.739268    -3.561944
O      -5.007101    -0.399303    -5.078513
C      -0.796549     0.879996    -0.441770
O      -0.773709     0.223691     0.839206
H      -0.872313     1.967290    -0.320200
40
     -1068.729116     -1068.454405   2.63   1.98
C       2.001863     2.519772    -0.989352
C       1.904430     1.869256     1.325520
C       3.208821     2.639316     1.060903
C       2.890734     3.474660    -0.183036
H       1.401033     3.062365    -1.722625
H       1.323952     2.350149     2.120627
H       2.101764     0.834428     1.632526
H       3.508390     3.246228     1.917401
H       4.025698     1.944457     0.843489
H       2.306537     4.360086     0.084227
H       3.772106     3.787239    -0.742570
N       1.169127     1.934423     0.053220
C       2.910253     1.573981    -1.806136
O       3.624257     2.018204    -2.664880
O       2.916934     0.267434    -1.516124
C       0.115833     1.030629    -0.207411
C      -0.608526     1.327390    -1.507642
H      -1.001724     2.347365    -1.496152
H       0.058603     1.209756    -2.364829
H      -1.439409     0.629938    -1.628065
C      -0.799914     0.706299     0.993470
H      -1.863072     0.814667     0.780137
H      -0.560056     1.230694     1.916086
H       2.216623     0.008715    -0.887497
C      -3.184103    -3.742290     0.081636
C      -3.088952    -3.216477     1.361023
C      -2.130038    -2.247310     1.605929
C      -1.282712    -1.809214     0.587521
C      -1.399163    -2.358589    -0.685659
C      -2.354677    -3.332060    -0.946827
H      -3.755790    -3.566548     2.138315
H      -2.040351    -1.824908     2.603097
H      -0.733512    -2.025426    -1.472685
H      -2.459914    -3.771188    -1.930577
N      -4.204578    -4.777074    -0.191271
O      -4.918255    -5.117538     0.729443
O      -4.266145    -5.221996    -1.318414
C      -0.268218    -0.735634     0.893927
O       0.568374    -0.398185    -0.223942
H       0.333775    -1.043015     1.757198
40
     -1068.728377     -1068.453326   3.09   2.66
C       1.901492     0.333105     2.637750
C       2.569908     1.460197     0.663214
C       3.418080     2.029049     1.819299
C       3.198961     1.058169     2.993540
H       1.825601    -0.647942     3.107623
H       3.183718     1.256336    -0.217420
H       1.779592     2.165691     0.378318
H       4.474843     2.091519     1.550996
H       3.075477     3.030377     2.080009
H       4.001701     0.318022     3.041291
H       3.138965     1.564468     3.958812
N       2.005643     0.203660     1.181621
C       0.689399     1.168544     3.057504
O       0.612443     2.367159     2.988565
O      -0.313866     0.404510     3.539174
C       0.923254    -0.395524     0.469945
C       0.519156    -1.733683     1.069460
H      -0.228991    -2.207368     0.430217
H       1.391543    -2.389239     1.140040
H       0.080403    -1.603434     2.059414
C       1.063562    -0.405483    -1.067755
H       0.939229    -1.389811    -1.519148
H       1.961443     0.063614    -1.463672
H      -1.056793     0.999262     3.719919
C      -3.622948    -1.181707    -3.010780
C      -2.587075    -0.676187    -3.781615
C      -1.487750    -0.135320    -3.135399
C      -1.422882    -0.102825    -1.741798
C      -2.480160    -0.614383    -0.995218
C      -3.590099    -1.159033    -1.627661
H      -2.652289    -0.710914    -4.861443
H      -0.667209     0.266795    -3.723493
H      -2.430209    -0.578887     0.086244
H      -4.421616    -1.561211    -1.063195
N      -4.801059    -1.761834    -3.689458
O      -5.694929    -2.195454    -2.992563
O      -4.802671    -1.769406    -4.903311
C      -0.199189     0.476772    -1.074852
O      -0.267923     0.472703     0.355556
H      -0.026754     1.489692    -1.459728
40
     -1068.726824     -1068.453101   4.07   2.80
C       2.371595    -0.625923     1.629940
C       0.669126    -2.088616     2.472573
C       1.444670    -1.485599     3.647137
C       2.790226    -1.129165     3.021501
H       2.097889     0.436406     1.700279
H      -0.397934    -1.866949     2.553874
H       0.789198    -3.177659     2.433404
H       0.945393    -0.577672     4.000606
H       1.533067    -2.174682     4.489732
H       3.357123    -0.378663     3.574384
H       3.412454    -2.024710     2.915370
N       1.247753    -1.470943     1.260338
C       3.552433    -0.756268     0.682383
O       3.794394    -1.678771    -0.045509
O       4.368156     0.319326     0.793530
C       0.309837    -0.975785     0.309558
C      -0.621049    -2.079347    -0.171112
H      -1.201884    -2.500177     0.651204
H      -1.319183    -1.681970    -0.911144
H      -0.031096    -2.877424    -0.629352
C       0.838894    -0.085999    -0.837104
H       0.603869    -0.456448    -1.834725
H       1.891878     0.181259    -0.799417
H       5.126017     0.157526     0.212696
C      -3.345045     2.166279    -2.809975
C      -3.625637     1.432978    -1.670643
C      -2.574735     1.051040    -0.846984
C      -1.265781     1.400063    -1.165343
C      -1.015063     2.143974    -2.319228
C      -2.051734     2.531836    -3.151843
H      -4.649799     1.170058    -1.438821
H      -2.765579     0.478680     0.052809
H       0.004697     2.422580    -2.570897
H      -1.874305     3.107201    -4.051263
N      -4.459291     2.574431    -3.691389
O      -5.581598     2.243140    -3.369793
O      -4.183916     3.216468    -4.684126
C      -0.108083     0.994395    -0.284000
O      -0.485667     0.165834     0.820862
H       0.408712     1.899298     0.060482
40
     -1068.728284     -1068.453037   3.15   2.84
C       1.376354     1.015802     2.774228
C       2.426185     1.643244     0.724225
C       3.009471     2.547383     1.828883
C       2.562653     1.906922     3.155568
H       1.264252     0.171235     3.454613
H       3.216563     1.230734     0.091324
H       1.733416     2.204982     0.086227
H       4.098095     2.606870     1.767666
H       2.615413     3.559780     1.736142
H       3.350231     1.266431     3.559790
H       2.302945     2.642934     3.919783
N       1.736792     0.556197     1.433695
C       0.045035     1.763628     2.832477
O      -0.930736     1.371674     3.418250
O       0.069223     2.939354     2.172140
C       0.792488    -0.229722     0.708719
C       0.207785    -1.347510     1.558342
H      -0.406153    -0.946515     2.366808
H      -0.426567    -1.982242     0.936082
H       1.012495    -1.957358     1.978591
C       1.234314    -0.671300    -0.703409
H       1.184763    -1.746688    -0.874060
H       2.202958    -0.296737    -1.028116
H      -0.827095     3.302054     2.219441
C      -3.048291    -2.117636    -3.142273
C      -1.857418    -1.881620    -3.812351
C      -0.875219    -1.144861    -3.171174
C      -1.078336    -0.654712    -1.880513
C      -2.285642    -0.904587    -1.234775
C      -3.280908    -1.640706    -1.864360
H      -1.715404    -2.270677    -4.812323
H       0.063957    -0.949058    -3.681605
H      -2.442133    -0.515570    -0.235971
H      -4.225999    -1.845067    -1.377711
N      -4.103532    -2.903118    -3.816470
O      -5.136677    -3.095122    -3.209491
O      -3.872317    -3.308822    -4.936979
C       0.021911     0.132675    -1.209782
O      -0.306561     0.563316     0.115500
H       0.291690     0.984416    -1.847131
40
     -1068.726973     -1068.452730   3.97   3.03
C       1.562496     0.334431    -2.483322
C       3.081110     0.890279    -0.710048
C       3.241616     1.899358    -1.850731
C       2.745593     1.121218    -3.066609
H       0.662460     0.962337    -2.494368
H       2.831282     1.395428     0.226172
H       4.002175     0.316785    -0.552776
H       2.599981     2.768966    -1.676198
H       4.269820     2.251888    -1.957185
H       2.442135     1.748291    -3.906868
H       3.516212     0.425530    -3.414456
N       1.987568    -0.012502    -1.131028
C       1.258506    -0.861590    -3.369086
O       0.351602    -0.897329    -4.161969
O       2.134521    -1.871801    -3.224179
C       0.981085    -0.262962    -0.152027
C       1.579790    -0.871878     1.108068
H       2.300062    -0.198476     1.575466
H       0.789365    -1.078429     1.832976
H       2.085840    -1.807528     0.855673
C      -0.313430    -0.970268    -0.612467
H      -0.536575    -1.889705    -0.071312
H      -0.420222    -1.148600    -1.679265
H       1.876720    -2.553440    -3.862142
C      -3.659571    -0.210526     3.222271
C      -4.017898    -0.743052     1.992996
C      -3.156560    -0.568463     0.922464
C      -1.954991     0.124205     1.077943
C      -1.624419     0.649990     2.323287
C      -2.477480     0.484609     3.406614
H      -4.952519    -1.279074     1.889768
H      -3.421823    -0.977907    -0.048513
H      -0.693713     1.192377     2.438396
H      -2.236310     0.886429     4.382399
N      -4.570967    -0.391020     4.371980
O      -4.234807     0.084633     5.436636
O      -5.600870    -1.004605     4.181313
C      -1.041871     0.291767    -0.113281
O       0.196570     0.941722     0.196046
H      -1.582486     0.828911    -0.902635
40
     -1068.725449     -1068.452413   4.93   3.23
C       2.306141    -1.649141     0.675469
C       1.461892    -2.848512    -1.229724
C       2.520906    -3.701210    -0.522392
C       3.371075    -2.648334     0.193013
H       1.910092    -1.975950     1.646616
H       0.514342    -3.382546    -1.355164
H       1.806513    -2.558291    -2.231326
H       2.047560    -4.361861     0.212619
H       3.096230    -4.320383    -1.214213
H       3.970280    -3.043992     1.015017
H       4.041401    -2.153732    -0.517756
N       1.314314    -1.662079    -0.381660
C       2.905829    -0.262481     0.864408
O       3.139992     0.533628    -0.003851
O       3.227361    -0.047346     2.158033
C      -0.019126    -1.231280    -0.013072
C      -0.826619    -2.228273     0.802205
H      -1.796835    -1.798443     1.063350
H      -0.996094    -3.152494     0.243352
H      -0.301002    -2.476653     1.728372
C      -0.707920    -0.519829    -1.192068
H      -1.795014    -0.618158    -1.182735
H      -0.308153    -0.730785    -2.182966
H       3.636531     0.829521     2.201349
C      -3.129662     3.830354     0.073103
C      -2.989068     2.857464     1.048615
C      -2.032418     1.868675     0.870747
C      -1.228562     1.857945    -0.267295
C      -1.389485     2.856103    -1.228055
C      -2.342667     3.849490    -1.067137
H      -3.620660     2.881792     1.927367
H      -1.896600     1.101961     1.623975
H      -0.759395     2.858175    -2.112772
H      -2.480981     4.629424    -1.804713
N      -4.149530     4.884599     0.255448
O      -4.251118     5.724791    -0.614819
O      -4.824027     4.846802     1.263698
C      -0.220009     0.768482    -0.496437
O       0.100896     0.020131     0.695697
H       0.693591     1.172434    -0.944296
40
     -1068.726388     -1068.452069   4.34   3.45
C       0.697424     2.626447    -1.195662
C       2.467752     2.312753     0.408368
C       2.953032     3.279877    -0.686842
C       1.658808     3.823134    -1.304411
H      -0.348303     2.939777    -1.207553
H       2.547929     2.767883     1.404036
H       3.065128     1.391565     0.416094
H       3.587562     4.073417    -0.286924
H       3.526139     2.735251    -1.441180
H       1.254445     4.642996    -0.704202
H       1.781231     4.178808    -2.330151
N       1.067773     2.057122     0.077771
C       0.915386     1.714416    -2.395557
O       1.745402     0.844067    -2.484811
O       0.095195     2.033879    -3.417254
C       0.444229     0.850542     0.573312
C       0.087780     1.011370     2.043318
H       0.990133     1.197405     2.633556
H      -0.588137     1.861611     2.161655
H      -0.395230     0.107621     2.424527
C       1.065088    -0.527535     0.217678
H       1.268298    -1.175855     1.070791
H       1.923749    -0.478282    -0.447225
H       0.327102     1.452968    -4.156675
C      -2.739574    -3.881910     1.072970
C      -3.133074    -2.567283     1.250385
C      -2.333350    -1.555255     0.735321
C      -1.158464    -1.861608     0.055020
C      -0.790863    -3.197664    -0.111803
C      -1.576629    -4.218547     0.396735
H      -4.049825    -2.347394     1.782389
H      -2.620170    -0.517695     0.857521
H       0.123306    -3.442030    -0.645749
H      -1.304358    -5.259291     0.277456
N      -3.586127    -4.962945     1.620576
O      -4.598860    -4.642223     2.207353
O      -3.216659    -6.106627     1.450204
C      -0.267391    -0.783348    -0.510509
O      -0.725925     0.551289    -0.219805
H      -0.159953    -0.928705    -1.590722
40
     -1068.726005     -1068.451841   4.58   3.59
C       1.442934     2.717341    -0.852483
C       2.061488     1.590860     1.169082
C       2.893810     2.864440     1.080488
C       2.056362     3.734746     0.138365
H       0.400527     2.970610    -1.078217
H       1.236240     1.733873     1.887834
H       2.629783     0.714632     1.484457
H       3.058416     3.331434     2.054199
H       3.865745     2.643769     0.632151
H       1.249864     4.225735     0.691163
H       2.634905     4.511918    -0.366243
N       1.587376     1.415893    -0.203561
C       2.168656     2.779701    -2.189930
O       1.678381     3.188860    -3.210849
O       3.451050     2.376312    -2.112223
C       0.523603     0.466639    -0.424594
C       0.360101     0.156309    -1.902043
H       0.033428     1.033262    -2.466718
H       1.314340    -0.189585    -2.306808
H      -0.386576    -0.631033    -2.028574
C      -0.804982     0.662151     0.359396
H      -1.711383     0.603798    -0.244190
H      -0.842084     1.548183     0.993933
H       3.828141     2.479557    -2.998122
C      -3.077690    -3.939882     0.567774
C      -1.875731    -3.948274    -0.117719
C      -1.004313    -2.879765     0.048964
C      -1.338339    -1.822562     0.890002
C      -2.555804    -1.844911     1.571583
C      -3.436379    -2.902630     1.415277
H      -1.633050    -4.779358    -0.767450
H      -0.054498    -2.862934    -0.471751
H      -2.819657    -1.023855     2.232681
H      -4.385300    -2.934811     1.934872
N      -4.009797    -5.073899     0.392757
O      -3.672161    -5.969733    -0.352970
O      -5.056869    -5.039729     1.005907
C      -0.413658    -0.644874     1.076833
O       0.803602    -0.740970     0.320803
H      -0.200475    -0.521220     2.145921
40
     -1068.727530     -1068.451751   3.62   3.65
C       1.496542     0.931878     2.715875
C       2.840881     0.550004     0.761613
C       3.474742    -0.179522     1.946247
C       2.942615     0.614885     3.138120
H       0.829217     0.131325     3.056028
H       2.710883    -0.081635    -0.116884
H       3.462375     1.398482     0.453498
H       3.124604    -1.216595     1.995114
H       4.565410    -0.196710     1.892640
H       2.975743     0.083057     4.089710
H       3.509872     1.545135     3.254800
N       1.536812     1.054410     1.252287
C       1.040983     2.231788     3.385668
O       0.666185     2.286732     4.523879
O       1.159248     3.311605     2.603682
C       0.353202     0.562815     0.563613
C      -0.902798     1.278398     1.033641
H      -0.806634     2.351990     0.858300
H      -1.759113     0.908819     0.465482
H      -1.101486     1.107903     2.094995
C       0.191460    -0.969619     0.380004
H      -0.749465    -1.390071     0.735416
H       1.025379    -1.563732     0.754473
H       1.409111     2.960318     1.721639
C      -3.274793    -1.394373    -3.401127
C      -2.561204    -2.466814    -2.887955
C      -1.416456    -2.205719    -2.153032
C      -0.994272    -0.894184    -1.932230
C      -1.729179     0.161648    -2.462746
C      -2.878673    -0.083685    -3.202683
H      -2.904162    -3.477549    -3.067401
H      -0.844202    -3.034284    -1.744563
H      -1.395780     1.178644    -2.294422
H      -3.463553     0.724473    -3.622706
N      -4.498655    -1.661390    -4.186731
O      -5.104567    -0.706028    -4.625509
O      -4.822350    -2.820510    -4.344388
C       0.261108    -0.653414    -1.127913
O       0.519770     0.736250    -0.860808
H       1.111194    -1.114736    -1.645625
40
     -1068.725041     -1068.451643   5.19   3.71
C       2.270037     0.194499    -1.942895
C       0.920969     2.114571    -2.463904
C       1.999396     1.942620    -3.539615
C       3.092912     1.173358    -2.795161
H       2.032063    -0.695605    -2.539961
H      -0.087812     2.144703    -2.889473
H       1.069872     3.053313    -1.914116
H       1.616799     1.337193    -4.368764
H       2.344073     2.895538    -3.947166
H       3.799140     0.656888    -3.447417
H       3.655701     1.848966    -2.142302
N       1.099670     0.968159    -1.564550
C       3.080027    -0.319987    -0.764769
O       3.664279    -1.371692    -0.767554
O       3.158181     0.552108     0.259452
C      -0.077132     0.216333    -1.180714
C      -0.770744    -0.536354    -2.304861
H      -0.091754    -1.270189    -2.746569
H      -1.642190    -1.068491    -1.915541
H      -1.103280     0.146015    -3.092087
C      -0.948725     1.029764    -0.205277
H      -2.012957     0.799987    -0.279625
H      -0.786808     2.106783    -0.194170
H       3.732990     0.138471     0.919962
C      -2.729223    -1.677055     3.781671
C      -2.237807    -0.406506     4.034995
C      -1.413878     0.183178     3.089193
C      -1.089843    -0.484868     1.908500
C      -1.596312    -1.763251     1.684664
C      -2.420241    -2.368651     2.622507
H      -2.500289     0.099465     4.955054
H      -1.015839     1.176980     3.273226
H      -1.332180    -2.286819     0.773810
H      -2.821254    -3.361776     2.465760
N      -3.609164    -2.315689     4.783207
O      -4.024707    -3.429315     4.538433
O      -3.863075    -1.687053     5.790101
C      -0.233656     0.201422     0.881658
O       0.293727    -0.691044    -0.120278
H       0.579031     0.754035     1.364577
40
     -1068.725041     -1068.451641   5.19   3.71
C      -0.412319    -1.798696    -2.358122
C      -0.049409     0.358089    -3.355488
C      -0.516312    -0.628737    -4.431555
C      -0.093739    -1.979889    -3.850553
H      -1.469028    -2.037955    -2.180576
H      -0.685340     1.248475    -3.305792
H       0.973180     0.700277    -3.562559
H      -1.606493    -0.592076    -4.534355
H      -0.076965    -0.424124    -5.410364
H      -0.617016    -2.835092    -4.281531
H       0.982882    -2.130690    -3.983018
N      -0.082686    -0.406714    -2.102869
C       0.368915    -2.786402    -1.507919
O      -0.084641    -3.828112    -1.112206
O       1.652792    -2.429869    -1.307423
C      -0.708926     0.206023    -0.949683
C      -2.206730     0.440571    -1.063326
H      -2.582198     0.905096    -0.148231
H      -2.442205     1.095035    -1.907219
H      -2.730413    -0.508402    -1.204238
C       0.165378     1.347938    -0.397933
H      -0.410120     2.143845     0.077721
H       0.906662     1.762850    -1.079588
H       2.055267    -3.151506    -0.802421
C       0.590548     1.385205     4.721739
C      -0.535413     0.793035     4.174957
C      -0.510490     0.420912     2.838610
C       0.627433     0.638584     2.064899
C       1.748142     1.231025     2.646575
C       1.738584     1.611049     3.979472
H      -1.410250     0.629977     4.791196
H      -1.375167    -0.052475     2.389409
H       2.641227     1.396299     2.050732
H       2.599169     2.073763     4.444985
N       0.568861     1.786704     6.144258
O      -0.447630     1.576098     6.772861
O       1.569516     2.303208     6.597471
C       0.653035     0.282558     0.605093
O      -0.412112    -0.604287     0.208197
H       1.624014    -0.141595     0.328796
40
     -1068.724889     -1068.450091   5.28   4.69
C      -1.172695     0.901771     2.494005
C      -3.003241     1.217446     1.094312
C      -2.389248     2.611417     1.236893
C      -1.411420     2.429203     2.412055
H      -0.114450     0.655167     2.440676
H      -3.461518     1.027137     0.126369
H      -3.772480     1.066650     1.859466
H      -1.846789     2.876779     0.325204
H      -3.141147     3.381265     1.426087
H      -0.471725     2.958852     2.247021
H      -1.844710     2.784460     3.348747
N      -1.905089     0.276970     1.374356
C      -1.725656     0.279000     3.768582
O      -2.609201     0.722679     4.453173
O      -1.118741    -0.897017     4.043294
C      -1.079683    -0.164984     0.287413
C      -1.887051    -0.562481    -0.937148
H      -2.298293     0.317382    -1.435853
H      -1.237115    -1.074201    -1.649940
H      -2.701436    -1.235585    -0.656302
C       0.011608    -1.186221     0.677486
H      -0.028310    -2.125364     0.125286
H       0.078524    -1.395416     1.743855
H      -1.554396    -1.263277     4.826944
C       3.247813    -1.283806    -3.314057
C       2.250387    -0.335109    -3.453234
C       1.523699     0.039216    -2.330457
C       1.795754    -0.532047    -1.091090
C       2.811277    -1.483077    -0.981864
C       3.544561    -1.868135    -2.091934
H       2.052366     0.098478    -4.425123
H       0.739584     0.782358    -2.410762
H       3.030629    -1.930162    -0.016050
H       4.333851    -2.605694    -2.024751
N       4.023577    -1.687390    -4.505920
O       4.891792    -2.522144    -4.354590
O       3.745682    -1.160281    -5.563112
C       1.014198    -0.146599     0.142635
O      -0.033179     0.800245    -0.112059
H       1.712270     0.232517     0.900388
40
     -1068.724092     -1068.449769   5.78   4.89
C       1.032878     0.331107     2.666173
C       3.110002     0.069691     1.494614
C       3.445008     0.414023     2.962653
C       2.128776     0.212148     3.737044
H       0.134862    -0.232579     2.918306
H       3.681573    -0.795956     1.147033
H       3.346512     0.914704     0.831463
H       4.237093    -0.226197     3.356482
H       3.783959     1.447717     3.041605
H       2.078035    -0.795038     4.157305
H       1.999325     0.925294     4.554916
N       1.683452    -0.248278     1.507661
C       0.574123     1.780989     2.537079
O      -0.544850     2.171383     2.748495
O       1.572713     2.630082     2.193192
C       0.970730    -0.412149     0.269455
C       1.706896    -1.377840    -0.645913
H       1.088340    -1.591448    -1.520328
H       2.653344    -0.953739    -0.991255
H       1.905259    -2.310952    -0.112754
C       0.380604     0.829222    -0.460403
H       0.603123     0.869727    -1.527647
H       0.597321     1.795792    -0.010556
H       1.187537     3.518494     2.180775
C      -3.468767    -0.852055    -3.413762
C      -3.340732     0.484206    -3.065956
C      -2.536603     0.810165    -1.986281
C      -1.868307    -0.182237    -1.267764
C      -2.019717    -1.515224    -1.638110
C      -2.823521    -1.858799    -2.717357
H      -3.864355     1.241817    -3.634622
H      -2.426181     1.851588    -1.696824
H      -1.507606    -2.283846    -1.071819
H      -2.953236    -2.890141    -3.019604
N      -4.324084    -1.212064    -4.564437
O      -4.878215    -0.308951    -5.156778
O      -4.420684    -2.388161    -4.847776
C      -0.989977     0.218242    -0.109213
O      -0.364326    -0.896005     0.552057
H      -1.570306     0.815265     0.602854
40
     -1068.723402     -1068.449100   6.22   5.31
C       2.409489    -1.761713    -1.185595
C       1.318140    -2.544655     0.803472
C       2.824852    -2.775473     0.936613
C       3.276746    -2.845114    -0.521331
H       2.913249    -0.787690    -1.105818
H       0.903207    -1.992340     1.648986
H       0.778576    -3.497118     0.749016
H       3.301886    -1.924929     1.437185
H       3.065322    -3.677407     1.503786
H       4.342336    -2.662389    -0.671753
H       3.031976    -3.824247    -0.945464
N       1.145542    -1.808193    -0.461326
C       2.293456    -2.037320    -2.677235
O       2.931324    -1.456604    -3.517658
O       1.448530    -3.041341    -2.970239
C       0.383541    -0.586917    -0.414962
C       0.107012    -0.048457    -1.808891
H      -0.562313     0.811765    -1.738315
H       1.023430     0.276496    -2.308637
H      -0.373937    -0.823754    -2.409636
C       0.775060     0.501825     0.625061
H       0.935223     1.502794     0.223168
H       1.606988     0.228164     1.275584
H       1.487139    -3.162722    -3.930222
C      -3.428237     3.444277     1.027651
C      -2.336451     3.549505     1.876050
C      -1.436754     2.497518     1.925987
C      -1.623167     1.360657     1.138624
C      -2.730208     1.282540     0.299090
C      -3.642199     2.328206     0.238254
H      -2.205852     4.439187     2.478452
H      -0.575974     2.562366     2.586033
H      -2.874193     0.395795    -0.306490
H      -4.508720     2.285367    -0.409074
N      -4.394837     4.561123     0.965880
O      -5.342972     4.443733     0.217637
O      -4.180879     5.528140     1.667709
C      -0.620236     0.234285     1.222664
O      -0.862676    -0.825281     0.285269
H      -0.603414    -0.150077     2.250480
40
     -1068.722759     -1068.448836   6.62   5.48
C       2.236528     0.002074    -2.278962
C       1.128232     2.080524    -1.827353
C       1.308856     1.929545    -3.339242
C       2.503815     0.982702    -3.435872
H       1.585908    -0.810078    -2.637577
H       0.091071     2.280122    -1.549856
H       1.727430     2.912862    -1.441108
H       0.423898     1.463393    -3.787907
H       1.477340     2.884428    -3.841899
H       2.595055     0.470145    -4.395113
H       3.434862     1.526343    -3.243978
N       1.611968     0.814710    -1.248593
C       3.555838    -0.620708    -1.842183
O       4.345785    -0.157995    -1.068285
O       3.776352    -1.781445    -2.504702
C       0.737437     0.134338    -0.329122
C       1.436837    -1.030220     0.352205
H       2.354032    -0.678698     0.828046
H       0.775358    -1.454457     1.110889
H       1.684305    -1.825047    -0.357794
C      -0.723830    -0.167964    -0.771660
H      -1.044902    -1.204819    -0.666135
H      -0.980909     0.198337    -1.766677
H       4.649442    -2.098217    -2.230084
C      -3.248041    -0.977668     3.639423
C      -1.945811    -0.558705     3.847394
C      -1.250883     0.011967     2.788978
C      -1.856366     0.156571     1.544404
C      -3.172490    -0.271708     1.366700
C      -3.878888    -0.843838     2.411808
H      -1.491047    -0.679754     4.822212
H      -0.230685     0.350733     2.923948
H      -3.651461    -0.157913     0.397956
H      -4.899535    -1.183038     2.290569
N      -3.992164    -1.587244     4.761971
O      -5.132481    -1.945774     4.550722
O      -3.418370    -1.692475     5.826069
C      -1.119666     0.776303     0.380389
O       0.255051     1.075546     0.661519
H      -1.657872     1.677125     0.058907
40
     -1068.721443     -1068.447121   7.44   6.55
C      -0.141266     2.808101    -0.583837
C       1.152920     2.025218    -2.438726
C       1.063333     3.542846    -2.535033
C       0.789548     3.939589    -1.083137
H       0.116933     2.537735     0.449890
H       2.143933     1.722456    -2.064133
H       0.984317     1.531504    -3.398207
H       1.972625     3.996501    -2.935119
H       0.220689     3.828107    -3.171149
H       1.718768     3.927692    -0.505323
H       0.339218     4.930050    -0.980536
N       0.085391     1.693740    -1.489354
C      -1.590890     3.304294    -0.630869
O      -2.317928     3.223495    -1.574753
O      -2.011579     3.929961     0.500654
C       0.014084     0.381754    -0.949753
C       0.309538    -0.677742    -1.998049
H       0.162367    -1.670166    -1.567638
H      -0.363441    -0.559824    -2.851632
H       1.343233    -0.606750    -2.341851
C      -1.215040     0.065933    -0.068892
H      -1.815634    -0.776639    -0.411853
H      -1.872881     0.909242     0.134887
H      -1.323891     3.906917     1.176326
C       0.014186    -4.301701     2.354713
C       1.075692    -3.782109     1.635266
C       1.010190    -2.462339     1.207760
C      -0.104218    -1.681395     1.498556
C      -1.157302    -2.232422     2.229960
C      -1.107844    -3.547241     2.662672
H       1.934213    -4.404578     1.417968
H       1.828376    -2.029358     0.644949
H      -2.028516    -1.626147     2.462921
H      -1.916601    -3.990691     3.228999
N       0.077649    -5.706396     2.811061
O      -0.867754    -6.135757     3.439802
O       1.070364    -6.345073     2.529553
C      -0.197234    -0.243590     1.044078
O       0.899420     0.175415     0.221441
H      -0.294968     0.399375     1.928386
40
     -1068.715201     -1068.442349  11.36   9.55
C       2.212900    -2.082486     0.720808
C       2.446221    -1.131677    -1.447174
C       3.239726    -2.456783    -1.433676
C       2.754850    -3.208422    -0.179485
H       1.461523    -2.458014     1.426432
H       1.806660    -1.032772    -2.326435
H       3.131063    -0.275881    -1.426559
H       3.064804    -3.045789    -2.336198
H       4.309686    -2.254318    -1.366852
H       1.926871    -3.879760    -0.421172
H       3.542993    -3.794434     0.300666
N       1.604752    -1.201928    -0.247621
C       3.402256    -1.502018     1.502264
O       4.259480    -0.821656     1.016238
O       3.487864    -1.867931     2.805824
C       0.910284     0.000340     0.172771
C       1.765765     1.118388     0.745678
H       2.597816     1.353893     0.079675
H       1.147852     2.010874     0.872786
H       2.180011     0.844058     1.719039
C      -0.392844    -0.334681     0.928635
H      -0.646512     0.397404     1.696652
H      -0.490543    -1.345496     1.322643
H       2.725483    -2.401563     3.059303
C      -4.332392     2.701421    -0.354082
C      -3.058422     3.183799    -0.601847
C      -2.000803     2.286241    -0.637575
C      -2.219951     0.926630    -0.428890
C      -3.516043     0.470714    -0.188169
C      -4.582993     1.354281    -0.146993
H      -2.906539     4.243319    -0.763148
H      -0.995636     2.636405    -0.838676
H      -3.694846    -0.589445    -0.032093
H      -5.594090     1.016767     0.040626
N      -5.462713     3.653200    -0.312031
O      -6.568524     3.202631    -0.093729
O      -5.217064     4.826996    -0.497935
C      -1.078174    -0.052563    -0.422415
O       0.144739     0.480353    -0.957759
H      -1.365509    -0.970092    -0.949524
40
     -1068.716606     -1068.441703  10.48   9.95
C       2.402138    -1.720601     1.534052
C       2.769271     0.554581     1.572956
C       2.914073     0.100197     3.048368
C       2.551330    -1.399467     3.034776
H       3.384151    -1.979816     1.123363
H       3.756870     0.621783     1.102411
H       2.290328     1.526882     1.459600
H       3.932570     0.272031     3.404594
H       2.246115     0.658444     3.707855
H       3.318642    -2.029811     3.490640
H       1.614483    -1.594139     3.558384
N       1.997691    -0.476418     0.863835
C       1.501679    -2.914475     1.261752
O       0.499573    -3.200738     1.862666
O       1.971480    -3.669827     0.247718
C       0.577234    -0.164879     0.710373
C      -0.256818    -0.039459     1.977234
H       0.164052     0.724672     2.635496
H      -1.268650     0.270463     1.703916
H      -0.317867    -0.988104     2.511224
C      -0.052343    -0.940707    -0.466462
H      -1.085097    -1.243253    -0.291413
H       0.528136    -1.771950    -0.859960
H       1.351340    -4.405571     0.131972
C      -3.466299     1.904780    -3.036768
C      -2.689341     0.995001    -3.736675
C      -1.529995     0.522788    -3.142554
C      -1.154595     0.950128    -1.868638
C      -1.954334     1.868036    -1.192314
C      -3.117575     2.352321    -1.773912
H      -2.995161     0.671814    -4.723347
H      -0.907212    -0.188363    -3.678057
H      -1.653699     2.208372    -0.208867
H      -3.749997     3.067040    -1.263064
N      -4.705307     2.415250    -3.660395
O      -5.367162     3.211684    -3.027544
O      -4.986268     2.006606    -4.768407
C       0.089152     0.385716    -1.236572
O       0.490926     1.071161    -0.041205
H       0.906487     0.367829    -1.967031
40
     -1068.714095     -1068.440773  12.06  10.53
C       1.707484     1.713892     2.108281
C       0.459472     2.915409     0.449661
C       1.804061     3.613723     0.665115
C       2.181548     3.178124     2.079785
H       2.500648     1.071790     1.677987
H       0.288138     2.664737    -0.599497
H      -0.373380     3.553123     0.765629
H       2.548071     3.246714    -0.051503
H       1.738942     4.698165     0.555397
H       3.245051     3.279270     2.308880
H       1.613811     3.750406     2.820154
N       0.507148     1.710231     1.296365
C       1.470531     1.297202     3.564970
O       0.476330     1.515599     4.186372
O       2.532858     0.697202     4.164627
C       0.123185     0.460862     0.689742
C      -0.023089    -0.646077     1.720285
H      -0.413328    -1.541799     1.232045
H       0.936552    -0.907371     2.176622
H      -0.713549    -0.329434     2.503456
C       0.833624     0.024038    -0.624591
H       1.260288    -0.979580    -0.621152
H       1.568983     0.736770    -1.001450
H       3.258204     0.585897     3.538839
C      -2.350272    -3.449336    -2.693454
C      -2.888822    -2.844771    -1.571401
C      -2.310407    -1.672683    -1.101813
C      -1.209435    -1.121185    -1.750048
C      -0.691410    -1.751698    -2.882006
C      -1.256146    -2.921721    -3.362330
H      -3.745103    -3.288647    -1.080003
H      -2.712971    -1.177064    -0.226561
H       0.165799    -1.323395    -3.394430
H      -0.865796    -3.424584    -4.237670
N      -2.960909    -4.698004    -3.196894
O      -2.467585    -5.206459    -4.182572
O      -3.917657    -5.138957    -2.594588
C      -0.565822     0.153551    -1.257948
O      -1.120750     0.642387    -0.027805
H      -0.634296     0.913673    -2.046493
40
     -1068.714167     -1068.439120  12.01  11.57
C       2.296709     2.327039    -0.631328
C       1.119325     2.747374     1.301704
C       2.611159     2.854230     1.711642
C       3.397532     2.454412     0.444566
H       2.111041     3.316716    -1.061740
H       0.716318     3.744110     1.088843
H       0.485490     2.299883     2.067197
H       2.849086     3.869691     2.037005
H       2.847704     2.187833     2.543968
H       4.141087     3.198784     0.149503
H       3.920152     1.507086     0.583569
N       1.057490     1.956671     0.064958
C       2.658455     1.481749    -1.841768
O       2.437063     1.807037    -2.977730
O       3.289745     0.326040    -1.540300
C       0.704447     0.553898     0.265717
C       1.633607    -0.288951     1.128887
H       2.626589    -0.380167     0.689573
H       1.719681     0.149514     2.126206
H       1.207526    -1.289601     1.236452
C       0.159079    -0.087312    -1.028239
H       0.411564    -1.143670    -1.129525
H       0.351670     0.442979    -1.957987
H       3.473187    -0.117613    -2.381508
C      -3.803342    -3.236681    -0.163867
C      -3.803091    -2.465323    -1.315402
C      -2.970088    -1.359204    -1.368472
C      -2.148511    -1.030999    -0.289789
C      -2.174140    -1.823655     0.855089
C      -3.004117    -2.933623     0.925238
H      -4.444938    -2.734284    -2.144364
H      -2.959376    -0.741295    -2.261972
H      -1.545384    -1.559236     1.696621
H      -3.037761    -3.559656     1.807665
N      -4.687659    -4.419109    -0.095921
O      -5.377850    -4.660921    -1.064811
O      -4.670431    -5.076932     0.923791
C      -1.225251     0.151950    -0.397252
O      -0.621775     0.529261     0.849998
H      -1.751992     1.001976    -0.846222
40
     -1068.713987     -1068.437534  12.12  12.57
C       2.780043    -1.935687     0.395214
C       1.952685    -0.914612     2.238294
C       1.397610    -2.365355     2.288238
C       1.773979    -2.967394     0.916419
H       3.708932    -2.059906     0.971250
H       2.883761    -0.838027     2.810196
H       1.256859    -0.187977     2.652585
H       1.853826    -2.919938     3.112841
H       0.317479    -2.372213     2.435775
H       2.209313    -3.966372     0.980772
H       0.902997    -3.017576     0.260029
N       2.266706    -0.622847     0.824311
C       3.289122    -2.052111    -1.029591
O       4.129217    -1.343262    -1.513451
O       2.766098    -3.108664    -1.687681
C       1.172983    -0.003093     0.117661
C       1.313430    -0.003507    -1.392127
H       0.508473     0.600321    -1.816575
H       2.273619     0.416663    -1.695054
H       1.210179    -1.012365    -1.797650
C       0.765287     1.372408     0.691162
H       0.778564     2.185781    -0.034332
H       1.311959     1.674861     1.583276
H       3.200297    -3.137186    -2.553315
C      -3.886932     2.373108    -1.255171
C      -3.417209     1.119293    -1.604046
C      -2.354007     0.582315    -0.890043
C      -1.773929     1.295063     0.154896
C      -2.273054     2.555586     0.485990
C      -3.332060     3.105881    -0.216737
H      -3.880272     0.579217    -2.419938
H      -1.968480    -0.398583    -1.140230
H      -1.826607     3.115442     1.303360
H      -3.729623     4.082917     0.025871
N      -5.017369     2.950540    -2.012484
O      -5.485397     2.289396    -2.916123
O      -5.408914     4.051703    -1.684357
C      -0.613163     0.733937     0.941391
O      -0.160732    -0.541412     0.468096
H      -0.895671     0.683655     2.001280
40
     -1068.710373     -1068.435578  14.39  13.79
C       0.070378     1.292746     3.083098
C       1.913948     0.030784     2.547018
C       2.480068     1.374204     3.080495
C       1.239938     2.266509     3.300701
H      -0.096468     0.761482     4.032811
H       1.904708    -0.717853     3.347432
H       2.485718    -0.386556     1.719148
H       3.035608     1.212909     4.007405
H       3.172451     1.830461     2.370152
H       1.197911     2.705005     4.300493
H       1.191075     3.086762     2.585115
N       0.519551     0.265907     2.132459
C      -1.255820     1.949936     2.715078
O      -1.370606     2.997384     2.147573
O      -2.356876     1.257980     3.091322
C       0.365441     0.511552     0.692065
C       1.003586     1.769059     0.120447
H       2.071019     1.803165     0.350094
H       0.891942     1.752382    -0.966380
H       0.519505     2.668819     0.502911
C      -1.056420     0.179880     0.189165
H      -1.380320     0.824973    -0.628166
H      -1.842746     0.095901     0.933923
H      -2.099136     0.423783     3.503115
C      -1.049842    -2.154763    -4.384493
C       0.093761    -1.454660    -4.039597
C       0.303400    -1.135729    -2.705485
C      -0.620045    -1.514984    -1.734284
C      -1.759729    -2.224852    -2.112608
C      -1.985116    -2.549344    -3.440868
H       0.801583    -1.169260    -4.807209
H       1.194510    -0.596441    -2.407955
H      -2.480658    -2.529084    -1.358953
H      -2.865143    -3.097857    -3.750948
N      -1.279851    -2.495155    -5.804415
O      -2.290296    -3.109603    -6.078237
O      -0.445211    -2.139818    -6.610577
C      -0.428019    -1.141623    -0.289616
O       0.889083    -0.653627     0.011905
H      -0.682889    -1.990374     0.355868
