40
     -1068.729467     -1068.455103   0.00   0.00
C      -0.883327     2.489365     1.631073
C       0.323859     0.799574     2.820389
C      -0.162370     1.820911     3.840416
C      -1.334082     2.478117     3.109112
H      -1.718290     2.235329     0.973214
H      -0.316141    -0.096257     2.840161
H       1.356063     0.492506     3.005082
H      -0.455437     1.361944     4.787288
H       0.623614     2.554495     4.038179
H      -2.233566     1.863077     3.202429
H      -1.573299     3.477590     3.479652
N       0.210036     1.512489     1.543510
C      -0.442148     3.887940     1.225556
O      -1.049866     4.602547     0.470986
O       0.686463     4.285478     1.846732
C       0.273254     0.745841     0.341889
C       0.261644     1.626484    -0.897350
H      -0.669563     2.188637    -0.986151
H       1.095765     2.332689    -0.858682
H       0.367012     1.003782    -1.788201
C       1.337941    -0.371596     0.305089
H       1.923866    -0.497271     1.212986
H       2.007587    -0.321088    -0.553450
H       0.860511     5.190478     1.549278
C      -0.009877    -3.553627    -3.494809
C       0.924150    -3.902317    -2.530940
C       0.957173    -3.176104    -1.352008
C       0.073819    -2.116590    -1.140520
C      -0.854932    -1.792832    -2.124940
C      -0.901994    -2.511821    -3.312197
H       1.603405    -4.725398    -2.711585
H       1.681659    -3.436111    -0.584934
H      -1.544369    -0.975094    -1.953514
H      -1.617571    -2.274086    -4.088863
N      -0.054124    -4.321344    -4.757219
O      -0.881446    -3.997751    -5.584004
O       0.740434    -5.229377    -4.890470
C       0.151002    -1.341333     0.152705
O      -0.796730    -0.270708     0.241003
H       0.039874    -2.038569     0.993107
40
     -1068.729766     -1068.453922  -0.19   0.74
C       0.737875     0.536411    -2.877584
C       0.240753    -1.795492    -2.780902
C       0.288171    -1.405595    -4.271492
C       0.915923    -0.000609    -4.303089
H       1.514853     1.258698    -2.625186
H       0.805585    -2.709982    -2.582958
H      -0.794027    -1.958150    -2.454396
H       0.879647    -2.113618    -4.855686
H      -0.718673    -1.388964    -4.689966
H       1.987182    -0.060710    -4.509775
H       0.465561     0.653026    -5.053485
N       0.858474    -0.667900    -2.064375
C      -0.578940     1.291636    -2.713085
O      -0.664387     2.418467    -2.294845
O      -1.649184     0.593459    -3.140494
C       0.657937    -0.583494    -0.655788
C       0.897728    -1.926946     0.017101
H       0.831430    -1.812874     1.100874
H       0.145776    -2.655077    -0.292523
H       1.891442    -2.304360    -0.239375
C       1.320000     0.604951     0.074296
H       1.775301     1.352580    -0.571992
H       2.024349     0.323632     0.857364
H      -2.428141     1.137699    -2.955421
C      -0.895783     0.592571     4.718202
C      -1.496313    -0.300738     3.848749
C      -1.240640    -0.183240     2.488730
C      -0.394949     0.814249     2.012588
C       0.191720     1.703435     2.914436
C      -0.051764     1.599207     4.273912
H      -2.151030    -1.070908     4.236090
H      -1.699700    -0.868206     1.786031
H       0.848317     2.487850     2.548156
H       0.397001     2.279809     4.985916
N      -1.162868     0.471484     6.166948
O      -0.622546     1.268335     6.906340
O      -1.905706    -0.416908     6.530019
C      -0.103442     0.964427     0.538521
O      -0.675103    -0.076471    -0.269746
H      -0.441825     1.948315     0.197890
40
     -1068.727315     -1068.453815   1.35   0.81
C       1.389270    -1.088275    -2.790432
C      -0.177937    -2.449860    -1.588060
C       0.054180    -3.073948    -2.976973
C       1.389398    -2.480595    -3.443496
H       2.403670    -0.692538    -2.700451
H       0.008361    -3.161096    -0.777775
H      -1.212804    -2.100268    -1.490538
H       0.078257    -4.164770    -2.940321
H      -0.745482    -2.779547    -3.661711
H       2.231399    -3.046367    -3.035858
H       1.495776    -2.440241    -4.529779
N       0.790003    -1.353047    -1.505095
C       0.590320    -0.128145    -3.667725
O      -0.580690     0.126174    -3.554126
O       1.354747     0.394846    -4.651388
C       0.584111    -0.319939    -0.537288
C       1.737274     0.670108    -0.523349
H       1.607755     1.360631     0.312397
H       2.684825     0.139945    -0.396252
H       1.772449     1.258626    -1.444939
C      -0.819789     0.332579    -0.400729
H      -1.562501    -0.020843    -1.111507
H      -0.814238     1.422989    -0.399787
H       0.775894     0.950510    -5.194021
C      -1.027278     2.308826     4.343332
C      -2.153992     2.141753     3.552214
C      -2.078301     1.279742     2.470805
C      -0.895572     0.597412     2.182095
C       0.217774     0.783355     2.996262
C       0.158186     1.643412     4.085098
H      -3.062998     2.679725     3.788513
H      -2.951253     1.136175     1.839903
H       1.131659     0.246030     2.772781
H       1.014148     1.800023     4.729014
N      -1.096236     3.226484     5.499898
O      -0.097337     3.354773     6.177132
O      -2.148490     3.796923     5.702569
C      -0.850716    -0.326874     0.990110
O       0.433619    -0.930916     0.777170
H      -1.627456    -1.093775     1.102308
40
     -1068.727749     -1068.453766   1.08   0.84
C       0.224458    -2.924502     1.174372
C       0.611947    -1.134278     2.722807
C       1.648655    -2.235553     2.953489
C       0.942815    -3.477865     2.416716
H       0.920149    -2.930873     0.324497
H       1.094904    -0.172871     2.535312
H      -0.042796    -1.022359     3.595811
H       2.549663    -2.033754     2.365073
H       1.939327    -2.325905     4.002397
H       1.613030    -4.301961     2.167330
H       0.202314    -3.838928     3.138748
N      -0.175417    -1.575401     1.555026
C      -0.949355    -3.830776     0.837552
O      -2.067024    -3.748878     1.266008
O      -0.557507    -4.826248     0.008287
C      -0.388389    -0.623393     0.518982
C      -1.198426    -1.180636    -0.639274
H      -1.359477    -0.391266    -1.376290
H      -0.671798    -1.997276    -1.139339
H      -2.166132    -1.541203    -0.284089
C      -0.851474     0.772931     0.985937
H      -0.905509     0.898449     2.066526
H      -1.781338     1.116984     0.533049
H      -1.327307    -5.398914    -0.123577
C      -0.055098     3.894171    -3.022262
C       0.428519     2.616191    -3.239908
C       0.591672     1.769665    -2.151110
C       0.272655     2.201706    -0.867350
C      -0.208771     3.498121    -0.679421
C      -0.378333     4.354449    -1.754666
H       0.671136     2.296874    -4.245371
H       0.971156     0.764857    -2.292015
H      -0.456140     3.842293     0.321191
H      -0.752508     5.361943    -1.626349
N      -0.232391     4.799196    -4.177419
O      -0.658154     5.914435    -3.956952
O       0.057995     4.373054    -5.275989
C       0.440111     1.296757     0.330668
O       0.866682    -0.029435    -0.004006
H       1.136157     1.770201     1.035607
40
     -1068.729114     -1068.453526   0.22   0.99
C      -2.129284     1.144435    -1.649028
C      -1.236281    -0.436154    -3.171621
C      -2.508676     0.147473    -3.821525
C      -2.869341     1.380520    -2.971472
H      -1.932037     2.075712    -1.116539
H      -0.408056    -0.498601    -3.881402
H      -1.432586    -1.441097    -2.780054
H      -2.339686     0.425566    -4.864046
H      -3.313488    -0.587664    -3.795175
H      -2.476490     2.294329    -3.424202
H      -3.945546     1.503271    -2.830825
N      -0.896920     0.512737    -2.098577
C      -2.985771     0.249402    -0.750325
O      -3.429054    -0.825970    -1.055134
O      -3.276048     0.845623     0.428581
C       0.082654     0.164733    -1.124583
C       1.219256    -0.644277    -1.725927
H       1.674784    -0.098731    -2.556958
H       1.980473    -0.824222    -0.964213
H       0.860323    -1.610703    -2.084649
C       0.548859     1.313518    -0.202190
H       0.033096     2.261134    -0.349687
H       1.625605     1.485908    -0.201389
H      -3.836296     0.226526     0.920074
C       2.904708    -0.961923     3.759520
C       2.337413    -1.867322     2.880401
C       1.394626    -1.411281     1.968113
C       1.031047    -0.068206     1.941232
C       1.617316     0.819801     2.844286
C       2.559917     0.381226     3.759488
H       2.632469    -2.908249     2.915452
H       0.932023    -2.099301     1.270826
H       1.333675     1.868659     2.831139
H       3.025326     1.057159     4.465192
N       3.909979    -1.441277     4.731637
O       4.390397    -0.625288     5.491137
O       4.194289    -2.620863     4.711622
C       0.013001     0.451262     0.954939
O      -0.467650    -0.549316     0.044907
H      -0.818028     0.911450     1.500973
40
     -1068.727759     -1068.453206   1.07   1.19
C       1.620317    -0.258905    -2.719634
C      -0.749958    -0.623283    -2.836051
C      -0.033777    -1.666927    -3.695578
C       1.281451    -0.971621    -4.038027
H       2.147632    -0.952816    -2.053475
H      -1.398884    -1.099145    -2.097867
H      -1.366850     0.039274    -3.455710
H       0.161820    -2.569073    -3.106960
H      -0.611742    -1.953291    -4.577053
H       2.079157    -1.648089    -4.349711
H       1.125632    -0.232045    -4.830434
N       0.323390     0.151426    -2.182780
C       2.587012     0.882414    -2.990317
O       3.775011     0.813270    -2.807945
O       1.997213     1.969573    -3.522703
C       0.216439     0.350392    -0.776770
C       1.383604     1.138340    -0.205960
H       1.214625     1.313645     0.858379
H       2.324175     0.593490    -0.310235
H       1.469656     2.104201    -0.710777
C      -1.164014     0.828925    -0.278089
H      -1.929466     0.897414    -1.050050
H      -1.144040     1.754657     0.297145
H       2.706147     2.603586    -3.705476
C      -1.139927    -0.001572     4.795759
C      -2.283383     0.339223     4.089048
C      -2.280423     0.178369     2.713410
C      -1.152402    -0.311737     2.053809
C      -0.021009    -0.648463     2.790693
C      -0.008025    -0.494223     4.170838
H      -3.148965     0.719905     4.615695
H      -3.168200     0.439373     2.143659
H       0.850221    -1.034756     2.275662
H       0.863143    -0.750597     4.760003
N      -1.131457     0.166299     6.264363
O      -0.119264    -0.139595     6.859879
O      -2.138093     0.600407     6.785749
C      -1.187382    -0.468542     0.551666
O       0.055442    -0.907534    -0.011033
H      -2.004823    -1.151970     0.286875
40
     -1068.726695     -1068.452956   1.74   1.35
C      -1.241934     3.036109     0.285288
C      -2.324202     1.237148     1.389086
C      -3.346431     2.369355     1.357245
C      -2.500335     3.606016     1.008220
H      -1.168397     3.426970    -0.732830
H      -2.765945     0.256074     1.203587
H      -1.804949     1.210968     2.360612
H      -4.079624     2.176675     0.568941
H      -3.881719     2.483564     2.302403
H      -3.031631     4.314475     0.370989
H      -2.208349     4.140300     1.917026
N      -1.441554     1.601392     0.290161
C      -0.007701     3.501513     1.046063
O       0.584428     2.879939     1.889339
O       0.337566     4.760068     0.694643
C      -0.415264     0.691652    -0.121460
C       0.390150     1.248435    -1.284274
H       0.993771     2.110249    -0.987010
H       1.068431     0.476656    -1.653279
H      -0.282085     1.539646    -2.095634
C       0.426060    -0.049596     0.951810
H       0.161174     0.192522     1.978066
H       1.505851     0.034372     0.830010
H       1.091077     5.011742     1.248850
C       2.384423    -4.139213    -1.488296
C       2.451520    -3.967945    -0.113730
C       1.597517    -3.052784     0.479115
C       0.692795    -2.318066    -0.288601
C       0.646959    -2.514077    -1.665714
C       1.495743    -3.428547    -2.275675
H       3.160082    -4.544142     0.467201
H       1.635837    -2.905379     1.554984
H      -0.061053    -1.945843    -2.257090
H       1.473841    -3.593605    -3.345293
N       3.291177    -5.112927    -2.131925
O       3.212608    -5.244979    -3.335817
O       4.060384    -5.722106    -1.417094
C      -0.221420    -1.329821     0.394566
O      -1.031951    -0.571701    -0.514560
H      -0.846846    -1.865113     1.120080
40
     -1068.726491     -1068.452062   1.87   1.91
C      -2.481445    -0.926211     0.906173
C      -3.098787    -0.852129    -1.401230
C      -4.368531    -0.761947    -0.534375
C      -3.944362    -1.367845     0.806726
H      -2.435304     0.114275     1.261982
H      -2.947447     0.075271    -1.970944
H      -3.161510    -1.673825    -2.122787
H      -4.658599     0.284207    -0.393812
H      -5.216192    -1.282816    -0.984211
H      -4.540035    -1.020732     1.653127
H      -3.990107    -2.459954     0.771484
N      -2.000238    -1.099510    -0.454996
C      -1.705236    -1.731453     1.934389
O      -1.331622    -1.280874     2.987309
O      -1.546979    -3.020380     1.593378
C      -0.722790    -0.515073    -0.776459
C      -0.230110    -1.004830    -2.126670
H      -0.203640    -2.097029    -2.124991
H      -0.880971    -0.666315    -2.936818
H       0.776554    -0.622564    -2.310857
C      -0.518609     1.000749    -0.495460
H      -1.401877     1.536903    -0.147466
H      -0.049120     1.556520    -1.308122
H      -1.047977    -3.434786     2.311875
C       4.505740     1.792470     0.196007
C       4.181256     0.490437    -0.142168
C       2.863884     0.073093    -0.004224
C       1.891488     0.951248     0.465390
C       2.250645     2.256718     0.803222
C       3.560003     2.688831     0.669974
H       4.950864    -0.178694    -0.505165
H       2.584036    -0.942718    -0.255892
H       1.496731     2.944931     1.175405
H       3.854830     3.698303     0.925995
N       5.906290     2.242595     0.049420
O       6.162433     3.389212     0.354506
O       6.714797     1.439162    -0.367020
C       0.451638     0.526903     0.606336
O       0.222643    -0.851411     0.263767
H       0.107655     0.729263     1.627197
40
     -1068.724689     -1068.451656   3.00   2.16
C       2.338437     1.480979    -1.491559
C       0.857112     0.342132    -2.998579
C       1.543654     1.460272    -3.775993
C       2.809541     1.700102    -2.946667
H       3.105924     0.976755    -0.895345
H       1.314566    -0.625033    -3.262140
H      -0.215712     0.268205    -3.186857
H       1.762329     1.182588    -4.809665
H       0.916882     2.355306    -3.782027
H       3.569820     0.952068    -3.191120
H       3.251344     2.687623    -3.098944
N       1.100442     0.714402    -1.603966
C       2.113428     2.814727    -0.792118
O       2.740369     3.196970     0.162961
O       1.152321     3.559998    -1.371493
C       0.854726    -0.304249    -0.600407
C       1.771394    -1.516756    -0.664543
H       1.521656    -2.214154     0.138703
H       1.648860    -2.036070    -1.617819
H       2.821023    -1.228263    -0.557512
C       0.588272     0.306506     0.790885
H       0.908048     1.332086     0.961608
H       0.929748    -0.332448     1.606825
H       1.101146     4.386438    -0.869465
C      -3.232636    -1.976773     3.353385
C      -3.161233    -0.593679     3.398985
C      -2.410533     0.060585     2.434891
C      -1.739908    -0.656082     1.443984
C      -1.834287    -2.045795     1.422442
C      -2.583558    -2.715875     2.378743
H      -3.685733    -0.052197     4.175590
H      -2.346628     1.144870     2.452912
H      -1.324340    -2.599943     0.643700
H      -2.669051    -3.794928     2.376110
N      -4.030091    -2.685331     4.376677
O      -4.078382    -3.896298     4.313373
O      -4.588415    -2.012679     5.218895
C      -0.895343     0.079822     0.441251
O      -0.526711    -0.716384    -0.699866
H      -1.398478     1.000502     0.124165
40
     -1068.725598     -1068.451294   2.43   2.39
C       0.051378    -2.294085    -1.637052
C      -0.063651    -3.493472     0.434767
C       0.670833    -4.350773    -0.609630
C       0.181306    -3.788493    -1.946146
H       1.038183    -1.812314    -1.712182
H       0.595312    -3.250226     1.279126
H      -0.936823    -4.017388     0.839402
H       1.753635    -4.212207    -0.521409
H       0.462014    -5.416360    -0.494727
H       0.858750    -3.983797    -2.779860
H      -0.806926    -4.184059    -2.197656
N      -0.494315    -2.287753    -0.289724
C      -0.882293    -1.607941    -2.625386
O      -2.046515    -1.851859    -2.774286
O      -0.215031    -0.718650    -3.397262
C      -0.434651    -1.043074     0.432850
C      -1.332984    -1.086476     1.655821
H      -0.993644    -1.838526     2.372712
H      -1.331759    -0.112417     2.150687
H      -2.350916    -1.329221     1.342708
C       0.959253    -0.386382     0.645748
H       1.806992    -0.965610     0.277935
H       1.159557    -0.048929     1.663427
H      -0.864664    -0.340901    -4.008099
C       0.167618     4.644010     1.310935
C      -0.995881     3.912221     1.151333
C      -0.911994     2.632079     0.619257
C       0.321301     2.099548     0.255545
C       1.476574     2.863837     0.423886
C       1.409833     4.141749     0.954333
H      -1.946108     4.343190     1.439613
H      -1.807730     2.039336     0.478320
H       2.441432     2.454707     0.137019
H       2.296130     4.747293     1.093137
N       0.084330     6.006639     1.878483
O      -1.014286     6.423704     2.181147
O       1.120627     6.625368     2.007346
C       0.438789     0.706275    -0.309827
O      -0.824415     0.034257    -0.449438
H       0.960740     0.746700    -1.272858
40
     -1068.725096     -1068.451010   2.74   2.57
C       0.711615    -2.785238     1.715067
C       2.274482    -0.972644     1.682398
C       3.042958    -2.197378     2.168564
C       1.925558    -3.148685     2.618381
H       0.487395    -3.594659     1.015938
H       2.839047    -0.367410     0.969999
H       1.987184    -0.333820     2.533576
H       3.602469    -2.632253     1.335170
H       3.746041    -1.968492     2.972503
H       2.188812    -4.202816     2.519627
H       1.681785    -2.967902     3.669905
N       1.130835    -1.580512     1.020281
C      -0.516869    -2.661634     2.605420
O      -1.315701    -3.541653     2.792782
O      -0.594165    -1.466763     3.232197
C       0.240686    -0.777883     0.244864
C      -0.840535    -1.614744    -0.419344
H      -1.424953    -0.979578    -1.087941
H      -0.379292    -2.410509    -1.009785
H      -1.525145    -2.058892     0.307864
C      -0.249952     0.577668     0.823892
H       0.150304     0.812763     1.808079
H      -1.331189     0.718709     0.825659
H      -1.368401    -1.508317     3.812731
C      -1.828085     3.274789    -3.267016
C      -1.234910     2.075719    -3.620496
C      -0.472907     1.403135    -2.673995
C      -0.312319     1.928040    -1.395169
C      -0.919753     3.141579    -1.069942
C      -1.683726     3.824304    -2.002021
H      -1.370811     1.682360    -4.619783
H       0.005511     0.463790    -2.924143
H      -0.794971     3.557520    -0.073858
H      -2.162958     4.765520    -1.765444
N      -2.641413     3.994502    -4.269824
O      -3.150261     5.043601    -3.932096
O      -2.751567     3.493492    -5.369656
C       0.512708     1.213988    -0.351364
O       1.001815    -0.064948    -0.778624
H       1.340679     1.865249    -0.044400
40
     -1068.724954     -1068.450753   2.83   2.73
C      -0.379267    -0.918518     3.169070
C      -0.621308    -2.492117     1.391115
C      -0.715482    -3.291195     2.707122
C      -0.815355    -2.233904     3.825910
H      -0.869609    -0.053643     3.618022
H      -1.396230    -2.767444     0.673419
H       0.351466    -2.665616     0.909895
H      -1.588310    -3.947052     2.714296
H       0.168678    -3.916562     2.838330
H      -1.850840    -2.117684     4.153421
H      -0.213136    -2.481975     4.702661
N      -0.808899    -1.095621     1.788904
C       1.117158    -0.648800     3.304143
O       1.601699     0.416367     3.587347
O       1.879098    -1.739282     3.054414
C      -0.505509    -0.069969     0.823194
C      -0.949441     1.297778     1.313194
H      -0.340585     1.634123     2.155921
H      -0.840208     2.021933     0.502911
H      -1.999841     1.256595     1.612146
C       0.880775    -0.084076     0.117084
H       1.554871    -0.879452     0.432622
H       1.409695     0.868991     0.124677
H       2.801235    -1.463592     3.162475
C       0.255589     2.545079    -4.257799
C       1.360533     1.741832    -4.019318
C       1.281549     0.794176    -3.012228
C       0.118580     0.653307    -2.253957
C      -0.975277     1.471853    -2.518582
C      -0.912483     2.426260    -3.525587
H       2.255331     1.865312    -4.615618
H       2.137364     0.155316    -2.811766
H      -1.878606     1.354393    -1.932144
H      -1.753172     3.071686    -3.745654
N       0.328573     3.560178    -5.330012
O      -0.651510     4.250345    -5.519137
O       1.365145     3.641830    -5.956382
C       0.074963    -0.386468    -1.161048
O      -1.158915    -0.401973    -0.427474
H       0.281679    -1.372409    -1.595589
40
     -1068.724123     -1068.450702   3.35   2.76
C       1.076060    -0.404583    -2.968294
C       0.298792    -2.400340    -1.881528
C       0.847067    -2.754472    -3.267906
C       1.815313    -1.604385    -3.560736
H       1.741446     0.414472    -2.678268
H       0.924768    -2.847991    -1.100708
H      -0.720994    -2.759076    -1.722085
H       1.332317    -3.733062    -3.281747
H       0.046649    -2.762848    -4.011684
H       2.757516    -1.748837    -3.021626
H       2.034157    -1.478109    -4.621738
N       0.339473    -0.925230    -1.807664
C       0.077142     0.174756    -3.969450
O      -0.236109    -0.317378    -5.021111
O      -0.442289     1.347046    -3.543999
C       0.728412    -0.391940    -0.509047
C       2.179200    -0.623694    -0.108985
H       2.417701    -1.689979    -0.102316
H       2.865860    -0.121631    -0.796900
H       2.350779    -0.227993     0.894881
C       0.158241     1.019571    -0.267489
H      -0.184156     1.559249    -1.145986
H       0.807774     1.645843     0.346691
H      -1.075163     1.633157    -4.219102
C      -1.567527     1.714368     4.521535
C      -2.278068     2.277386     3.473250
C      -2.064466     1.789265     2.194011
C      -1.153473     0.757752     1.965550
C      -0.457481     0.209926     3.040451
C      -0.661326     0.685725     4.327984
H      -2.979744     3.078468     3.666537
H      -2.615108     2.216557     1.360707
H       0.239684    -0.600072     2.863439
H      -0.130053     0.270668     5.174845
N      -1.786852     2.227153     5.890398
O      -2.586525     3.129589     6.030803
O      -1.154426     1.715544     6.791025
C      -0.913902     0.282601     0.559034
O      -0.164413    -0.943948     0.482326
H      -1.866280     0.186472     0.024896
40
     -1068.724123     -1068.450695   3.35   2.77
C      -1.334177     2.743316    -0.909084
C       0.982926     2.887627    -0.293897
C       0.458855     4.285150    -0.640793
C      -1.048917     4.157551    -0.403541
H      -2.219751     2.290274    -0.452779
H       1.245817     2.834499     0.769109
H       1.876297     2.614569    -0.860821
H       0.921516     5.062674    -0.028665
H       0.649602     4.522124    -1.690270
H      -1.275102     4.209821     0.666675
H      -1.637714     4.914019    -0.923770
N      -0.125342     1.962690    -0.609019
C      -1.566110     2.735835    -2.419694
O      -1.389687     3.661625    -3.166758
O      -2.011466     1.537526    -2.856492
C      -0.288287     0.865064     0.334783
C      -0.780287     1.255901     1.721764
H      -0.107167     1.980752     2.185865
H      -1.781671     1.694302     1.678934
H      -0.821937     0.369787     2.359598
C      -0.950120    -0.365606    -0.315783
H      -1.474398    -0.194099    -1.251711
H      -1.567892    -0.938224     0.378332
H      -2.111739     1.610409    -3.817110
C       1.165142    -4.813222     1.147146
C       1.368253    -3.723159     1.976168
C       1.162000    -2.449387     1.465635
C       0.759571    -2.273832     0.143832
C       0.569204    -3.392124    -0.668143
C       0.768688    -4.671030    -0.173220
H       1.682334    -3.877710     3.000455
H       1.322447    -1.579642     2.091151
H       0.261439    -3.261677    -1.701799
H       0.623173    -5.548601    -0.789768
N       1.380649    -6.172586     1.686152
O       1.194688    -7.109794     0.937394
O       1.730117    -6.269867     2.844273
C       0.491241    -0.902972    -0.413111
O       0.971732     0.165627     0.423112
H       0.906071    -0.817613    -1.424149
40
     -1068.722745     -1068.450623   4.22   2.81
C       1.026299     1.914161     2.243725
C       0.702081     3.030424     0.151221
C       1.731632     3.814725     0.964945
C       1.378122     3.411027     2.396305
H       1.937489     1.320446     2.400151
H       1.022552     2.820075    -0.870834
H      -0.240595     3.587028     0.084833
H       2.747532     3.485502     0.718782
H       1.675083     4.892884     0.798889
H       2.177921     3.569717     3.121121
H       0.496122     3.965785     2.735663
N       0.487505     1.781653     0.902208
C       0.046334     1.510893     3.336119
O      -1.139745     1.362057     3.231862
O       0.696789     1.369567     4.515570
C       0.797118     0.556363     0.184208
C       2.265790     0.353821    -0.160834
H       2.878618     0.261684     0.740371
H       2.384845    -0.558503    -0.750345
H       2.641983     1.195028    -0.749400
C       0.031484    -0.658280     0.746621
H      -0.380606    -0.568092     1.748179
H       0.579919    -1.595307     0.635856
H       0.027221     1.153623     5.180943
C      -1.923758    -3.742170    -2.871700
C      -2.683561    -3.484744    -1.741520
C      -2.358839    -2.384129    -0.964706
C      -1.290416    -1.555883    -1.309475
C      -0.548094    -1.838993    -2.453618
C      -0.861455    -2.935851    -3.243674
H      -3.508137    -4.137675    -1.486141
H      -2.945747    -2.164910    -0.077283
H       0.272861    -1.187538    -2.727544
H      -0.295966    -3.169380    -4.136646
N      -2.260618    -4.913472    -3.707837
O      -1.581335    -5.115912    -4.692993
O      -3.196752    -5.602845    -3.358425
C      -0.938439    -0.395817    -0.421098
O      -0.006138     0.525576    -1.016101
H      -1.845102     0.127467    -0.097401
40
     -1068.723687     -1068.450456   3.63   2.92
C      -1.376835    -2.577245    -0.268144
C      -3.105493    -0.941119    -0.288002
C      -3.747252    -2.294281     0.097306
C      -2.565968    -3.205567     0.480980
H      -0.413601    -2.822884     0.179611
H      -3.432253    -0.134384     0.375834
H      -3.380080    -0.667363    -1.314618
H      -4.454199    -2.190883     0.923124
H      -4.288037    -2.707555    -0.755966
H      -2.359366    -3.148789     1.552452
H      -2.728921    -4.253884     0.219000
N      -1.669743    -1.167476    -0.129315
C      -1.400916    -3.116926    -1.695396
O      -2.149743    -2.767218    -2.572419
O      -0.511225    -4.118791    -1.864019
C      -0.731734    -0.178896    -0.621652
C      -0.650098    -0.003168    -2.129173
H      -1.637504     0.174593    -2.560778
H      -0.001266     0.844302    -2.365537
H      -0.231122    -0.895902    -2.597221
C      -0.797450     1.104742     0.232893
H      -1.679862     1.226544     0.858386
H      -0.602748     2.015650    -0.334718
H      -0.626375    -4.446606    -2.768374
C       3.809031     3.169392     1.156385
C       3.674024     2.363486     0.038303
C       2.592933     1.496958    -0.032040
C       1.663521     1.439646     1.004353
C       1.830891     2.259279     2.120177
C       2.904113     3.132471     2.204997
H       4.406326     2.419943    -0.756825
H       2.468909     0.849126    -0.891483
H       1.113910     2.214040     2.935067
H       3.046851     3.776553     3.063038
N       4.957218     4.096982     1.235661
O       5.050800     4.791618     2.226750
O       5.736591     4.108378     0.305491
C       0.461447     0.539842     0.918997
O       0.577578    -0.485196    -0.083615
H       0.247646     0.100588     1.900491
40
     -1068.722291     -1068.449718   4.50   3.38
C       1.147430    -2.921180     0.910346
C       2.750651    -1.161792     0.825272
C       3.444941    -2.450976     1.304343
C       2.300008    -3.322846     1.830082
H       1.249075    -3.430254    -0.059835
H       3.110141    -0.860566    -0.166094
H       2.932888    -0.320945     1.499181
H       3.941896    -2.950981     0.466855
H       4.202669    -2.254116     2.065369
H       2.511280    -4.393726     1.788157
H       2.038678    -3.057647     2.857626
N       1.308594    -1.475908     0.818023
C      -0.206872    -3.295350     1.495146
O      -0.571736    -3.085716     2.619705
O      -0.989310    -3.915682     0.582492
C       0.523297    -0.772187    -0.185643
C       0.621188    -1.335584    -1.596599
H       0.123852    -0.657935    -2.294705
H       1.666363    -1.440592    -1.901665
H       0.135375    -2.312810    -1.662616
C      -0.891736    -0.402767     0.311398
H      -1.226141    -0.893632     1.222449
H      -1.657594    -0.461985    -0.463421
H      -1.828377    -4.119765     1.021993
C      -2.398719     4.179823    -1.449252
C      -1.322569     3.600156    -2.099023
C      -0.632475     2.576758    -1.464312
C      -1.017158     2.144212    -0.197811
C      -2.102496     2.752391     0.433538
C      -2.803268     3.773965    -0.187159
H      -1.036483     3.949788    -3.082703
H       0.218716     2.112279    -1.947155
H      -2.403834     2.423501     1.424144
H      -3.648429     4.254626     0.288365
N      -3.139014     5.268601    -2.121283
O      -2.763888     5.606436    -3.224862
O      -4.077907     5.758833    -1.528300
C      -0.304851     1.010783     0.489427
O       0.915534     0.617052    -0.160778
H      -0.119713     1.265738     1.539304
40
     -1068.722062     -1068.448299   4.65   4.27
C      -2.500186    -1.400483     0.706776
C      -2.491799    -1.175871    -1.674990
C      -3.955964    -1.415130    -1.242004
C      -3.968166    -1.210956     0.286171
H      -2.247992    -0.853743     1.615425
H      -2.410964    -0.344445    -2.382215
H      -2.085350    -2.070571    -2.165459
H      -4.642108    -0.724707    -1.736939
H      -4.263869    -2.429585    -1.499495
H      -4.261071    -0.188845     0.537490
H      -4.647085    -1.893038     0.803998
N      -1.797259    -0.845099    -0.433711
C      -2.252567    -2.870765     1.035004
O      -2.045756    -3.301928     2.138963
O      -2.354683    -3.684606    -0.044322
C      -0.350515    -0.766455    -0.422367
C       0.396254    -2.080235    -0.590188
H       0.063334    -2.611935    -1.484990
H       1.469154    -1.888769    -0.672673
H       0.233994    -2.722801     0.278412
C       0.142014     0.437194    -1.253181
H      -0.572064     0.875429    -1.947943
H       1.097032     0.259765    -1.749406
H      -2.225754    -4.587204     0.281180
C       4.079684     2.924228     0.904378
C       3.082389     3.685802     0.316673
C       1.851332     3.093515     0.082199
C       1.622654     1.761444     0.426281
C       2.644169     1.023043     1.019695
C       3.881357     1.601644     1.263540
H       3.276490     4.717569     0.053568
H       1.056557     3.677037    -0.373882
H       2.459940    -0.007207     1.299525
H       4.685723     1.043379     1.725078
N       5.396769     3.545249     1.158866
O       6.252290     2.857759     1.676722
O       5.542758     4.705697     0.833983
C       0.292402     1.133605     0.113337
O       0.064908    -0.110982     0.798554
H      -0.518052     1.843000     0.317948
40
     -1068.719526     -1068.445568   6.24   5.98
C       1.427597     2.349951    -1.570449
C       0.733573     2.856654     0.667338
C       0.421775     4.048329    -0.240765
C       1.423182     3.874669    -1.379552
H       0.565285     2.063934    -2.199048
H      -0.168575     2.501533     1.170499
H       1.467977     3.127611     1.435180
H      -0.600310     3.972378    -0.626394
H       0.520149     5.006068     0.274378
H       1.154558     4.409685    -2.293329
H       2.421099     4.200122    -1.068765
N       1.295226     1.819695    -0.221631
C       2.726397     1.938102    -2.268677
O       3.774748     1.771442    -1.722842
O       2.635431     1.834527    -3.619674
C       0.792377     0.494898    -0.073970
C       1.452573    -0.496930    -1.016671
H       1.229106    -0.266390    -2.061463
H       2.534803    -0.494152    -0.872366
H       1.065606    -1.497316    -0.812687
C       0.673810    -0.013021     1.378094
H       0.931763     0.718310     2.142643
H       1.201331    -0.946138     1.575135
H       1.727362     1.984324    -3.908258
C      -2.415233    -4.116315     1.145240
C      -2.303063    -3.466074    -0.070907
C      -1.789943    -2.175747    -0.093277
C      -1.396109    -1.552531     1.086970
C      -1.525896    -2.232719     2.298721
C      -2.034663    -3.520270     2.338135
H      -2.614002    -3.966423    -0.979055
H      -1.694001    -1.642320    -1.031223
H      -1.223503    -1.749813     3.224034
H      -2.139911    -4.062368     3.269024
N      -2.959167    -5.490454     1.175125
O      -3.046421    -6.036478     2.255790
O      -3.285313    -5.989654     0.118162
C      -0.832532    -0.151156     1.086318
O      -0.679043     0.408256    -0.225089
H      -1.468045     0.485780     1.715309
40
     -1068.715177     -1068.438407   8.97  10.48
C      -1.911967     2.246232     1.244899
C      -0.972666     3.354254    -0.478676
C      -2.276596     2.794045    -1.081189
C      -2.938444     2.063817     0.108940
H      -2.104888     3.205460     1.740071
H      -1.160408     4.328511    -0.012899
H      -0.175245     3.496862    -1.202655
H      -2.900648     3.589650    -1.495779
H      -2.053490     2.088279    -1.884836
H      -3.900298     2.496643     0.395368
H      -3.089334     1.006463    -0.100848
N      -0.589668     2.425778     0.603225
C      -2.034997     1.227606     2.362057
O      -2.584143     0.160395     2.298424
O      -1.503865     1.693914     3.514119
C       0.157703     1.258652     0.196534
C       1.283796     1.619395    -0.765725
H       1.952476     0.763320    -0.874621
H       0.893975     1.857899    -1.757059
H       1.859777     2.466926    -0.384169
C       0.634773     0.303888     1.312878
H       0.260140     0.516622     2.309852
H       1.717004     0.181995     1.364742
H      -1.647396     1.011454     4.186509
C       2.255228    -3.853643    -1.245061
C       2.138741    -3.801693     0.135866
C       1.361349    -2.801071     0.695027
C       0.713268    -1.863951    -0.111255
C       0.846309    -1.944956    -1.494261
C       1.620957    -2.942702    -2.071188
H       2.648911    -4.534436     0.747746
H       1.256634    -2.747022     1.775122
H       0.337414    -1.220234    -2.118331
H       1.735444    -3.019465    -3.144911
N       3.082353    -4.916919    -1.853065
O       3.627011    -5.702265    -1.104588
O       3.167519    -4.940964    -3.063496
C      -0.125603    -0.789467     0.539053
O      -0.643564     0.174260    -0.392728
H      -0.937560    -1.253536     1.106906
40
     -1068.714795     -1068.437783   9.21  10.87
C       0.429089     2.491772     1.883896
C       2.543084     2.313866     1.102629
C       1.929991     3.443854     0.245070
C       0.468017     3.524979     0.737546
H       0.802389     2.982090     2.795932
H       3.001867     2.738405     2.003239
H       3.315880     1.743505     0.594300
H       2.475164     4.381571     0.379037
H       1.967687     3.197519    -0.819396
H       0.184052     4.516787     1.094073
H      -0.229927     3.238933    -0.049540
N       1.429188     1.466517     1.552375
C      -0.936607     1.995886     2.309271
O      -1.139075     1.079390     3.063411
O      -1.931489     2.781407     1.854493
C       1.000474     0.366307     0.703107
C       2.001191    -0.006307    -0.381859
H       2.164296     0.818783    -1.078381
H       2.956427    -0.310736     0.054824
H       1.605000    -0.853054    -0.945453
C       0.450804    -0.886077     1.423998
H       0.301873    -0.740338     2.489705
H       1.001025    -1.807590     1.229349
H      -2.751652     2.435964     2.236544
C      -1.680408    -3.521986    -2.467072
C      -1.712875    -3.915476    -1.137821
C      -1.426571    -2.973239    -0.163840
C      -1.109052    -1.659363    -0.511251
C      -1.088496    -1.293976    -1.854134
C      -1.373621    -2.226130    -2.843067
H      -1.958962    -4.938567    -0.884259
H      -1.448655    -3.263066     0.882933
H      -0.845617    -0.272713    -2.122383
H      -1.360798    -1.958850    -3.891978
N      -1.983845    -4.519025    -3.515263
O      -2.249492    -5.647906    -3.156681
O      -1.948984    -4.149203    -4.670638
C      -0.817692    -0.662051     0.584300
O      -0.312158     0.595994     0.091553
H      -1.721526    -0.507879     1.181429
