40
     -1068.730868     -1068.454756   0.00   0.00
C       2.834450    -0.267530    -0.993791
C       1.429847     0.248420     0.886355
C       2.116461     1.525564     0.405962
C       3.368408     0.983595    -0.278464
H       2.456447     0.013048    -1.981487
H       0.352147     0.379138     0.973399
H       1.814077    -0.053441     1.868287
H       1.482548     2.041557    -0.322109
H       2.333355     2.217188     1.223028
H       3.838057     1.674063    -0.979765
H       4.118236     0.700533     0.469415
N       1.768135    -0.790193    -0.119312
C       3.969285    -1.274913    -1.185297
O       4.777519    -1.196357    -2.067503
O       4.021053    -2.223370    -0.237983
C       0.660831    -1.414174    -0.795413
C       1.109985    -2.442121    -1.822992
H       1.683291    -3.240640    -1.344996
H       0.228097    -2.880719    -2.295067
H       1.717242    -1.992239    -2.610534
C      -0.486808    -1.917604     0.104550
H      -0.402788    -1.644103     1.155672
H      -0.695892    -2.983958     0.023414
H       3.216117    -2.089429     0.303399
C      -3.732661     1.929658     1.312931
C      -3.955692     0.584639     1.564250
C      -3.180391    -0.349332     0.896248
C      -2.197188     0.055895    -0.006785
C      -1.998736     1.413749    -0.240820
C      -2.766865     2.361999     0.421166
H      -4.722055     0.288384     2.268736
H      -3.342725    -1.407667     1.081152
H      -1.236541     1.725679    -0.944863
H      -2.626109     3.421922     0.252588
N      -4.554137     2.934315     2.021206
O      -4.339030     4.104591     1.783402
O      -5.393378     2.526576     2.797356
C      -1.382294    -0.985563    -0.731938
O      -0.244967    -0.447320    -1.427958
H      -2.037331    -1.529844    -1.425437
40
     -1068.729357     -1068.454552   0.95   0.13
C      -0.086285    -1.449495    -2.489320
C      -0.510789    -1.624492    -0.136528
C      -0.100619    -3.003232    -0.637868
C       0.668399    -2.669983    -1.917644
H       0.616112    -0.720677    -2.901768
H       0.324257    -1.144501     0.394565
H      -1.367382    -1.671116     0.540718
H       0.502327    -3.551816     0.089287
H      -0.988522    -3.596704    -0.870967
H       1.693791    -2.373565    -1.678788
H       0.717121    -3.500144    -2.626138
N      -0.856746    -0.902406    -1.365834
C      -0.975621    -1.874430    -3.648829
O      -0.770400    -1.596978    -4.802316
O      -2.006902    -2.653581    -3.265590
C      -0.962354     0.517467    -1.313345
C      -1.509836     1.095143    -2.609340
H      -2.491849     0.663962    -2.823510
H      -1.610999     2.178830    -2.514270
H      -0.845964     0.893343    -3.451647
C      -1.612561     1.116588    -0.048473
H      -1.806943     0.407021     0.753337
H      -2.506561     1.712083    -0.232907
H      -2.485537    -2.893069    -4.072635
C       1.792360     1.533364     3.817625
C       2.395509     1.059534     2.665820
C       1.714242     1.173110     1.461313
C       0.448945     1.751302     1.417344
C      -0.131875     2.222224     2.595395
C       0.534192     2.116050     3.805381
H       3.379820     0.612267     2.718977
H       2.163206     0.810306     0.544492
H      -1.118267     2.677191     2.567357
H       0.097780     2.474841     4.728534
N       2.511870     1.414987     5.103374
O       3.611572     0.902033     5.087488
O       1.958680     1.838169     6.097539
C      -0.296370     1.896517     0.114087
O       0.310601     1.194023    -0.977415
H      -0.398408     2.965835    -0.117502
40
     -1068.729625     -1068.453674   0.78   0.68
C       0.533236    -0.558101    -1.622300
C       1.853380    -2.473784    -1.001924
C       2.772589    -1.385458    -1.567729
C       1.827342    -0.568949    -2.448605
H       0.552950     0.271316    -0.908279
H       2.161282    -2.783159     0.001643
H       1.860915    -3.366115    -1.638656
H       3.164643    -0.760760    -0.757808
H       3.623086    -1.799213    -2.113541
H       2.176479     0.440676    -2.668238
H       1.657589    -1.082000    -3.402171
N       0.499118    -1.877461    -0.982207
C      -0.675721    -0.345282    -2.535293
O      -1.025414     0.737777    -2.916996
O      -1.267492    -1.477413    -2.930993
C      -0.186185    -1.949555     0.299217
C      -0.550791    -3.388192     0.626384
H      -1.196897    -3.785779    -0.159790
H       0.337334    -4.020557     0.706533
H      -1.090254    -3.429123     1.575847
C       0.382372    -1.135419     1.488582
H       1.202678    -0.467616     1.221180
H       0.646636    -1.707734     2.378253
H      -0.838260    -2.186330    -2.408447
C      -1.128703     3.808463     1.346229
C      -0.517141     3.183454     2.422564
C      -0.480202     1.799220     2.445017
C      -1.044800     1.053348     1.408733
C      -1.655658     1.707466     0.343816
C      -1.697383     3.095345     0.306457
H      -0.084240     3.777737     3.216689
H      -0.004615     1.292372     3.280413
H      -2.092935     1.138482    -0.466481
H      -2.162004     3.620351    -0.517902
N      -1.172213     5.286178     1.310981
O      -0.663939     5.884755     2.236819
O      -1.712688     5.810951     0.360030
C      -0.997059    -0.450880     1.489253
O      -1.367250    -1.123969     0.268414
H      -1.639784    -0.785047     2.314308
40
     -1068.729625     -1068.453673   0.78   0.68
C       1.304960    -0.137791     1.226822
C       3.238572    -0.162295    -0.207767
C       3.082032    -1.534674     0.456770
C       2.287331    -1.209328     1.721176
H       0.411213    -0.613751     0.811104
H       3.266776    -0.241019    -1.298943
H       4.166421     0.326521     0.111437
H       2.503668    -2.205083    -0.188192
H       4.042732    -2.012084     0.660686
H       1.769088    -2.063180     2.159169
H       2.947422    -0.786303     2.487112
N       2.070254     0.629127     0.238011
C       0.852100     0.743056     2.392770
O      -0.024355     0.427492     3.149908
O       1.566298     1.864083     2.540064
C       1.298942     1.243390    -0.831862
C       2.100748     2.349901    -1.496999
H       1.503169     2.824387    -2.279265
H       2.363488     3.104659    -0.752074
H       3.018969     1.965937    -1.949228
C       0.525693     0.322292    -1.808763
H       0.532943    -0.732174    -1.528734
H       0.776266     0.426025    -2.864863
H       2.143082     1.905463     1.749205
C      -4.021306    -1.182380     0.142228
C      -3.381409    -0.316643     1.010614
C      -2.301851     0.423153     0.545210
C      -1.873392     0.285277    -0.771033
C      -2.539407    -0.595358    -1.625354
C      -3.619175    -1.337032    -1.175916
H      -3.723198    -0.227156     2.033473
H      -1.789889     1.100334     1.216666
H      -2.210025    -0.704043    -2.655237
H      -4.146970    -2.024756    -1.823743
N      -5.171938    -1.970819     0.633336
O      -5.712534    -2.723071    -0.151323
O      -5.506201    -1.818664     1.789591
C      -0.716777     1.085186    -1.313118
O       0.061768     1.762948    -0.305622
H      -1.095509     1.808380    -2.047306
40
     -1068.727926     -1068.453555   1.85   0.75
C      -2.590984    -1.051641     0.951825
C      -1.439339    -0.068485    -0.908518
C      -2.552394     0.873901    -0.450684
C      -3.535725    -0.078522     0.224887
H      -2.326910    -0.629760     1.930686
H      -0.475435     0.441723    -0.940122
H      -1.648632    -0.461008    -1.911523
H      -2.163067     1.590854     0.280081
H      -2.995881     1.434874    -1.276306
H      -4.229972     0.405832     0.913232
H      -4.117124    -0.622080    -0.527896
N      -1.434775    -1.171459     0.071783
C      -3.315015    -2.369395     1.180888
O      -3.345501    -3.312271     0.439623
O      -4.005087    -2.335096     2.345094
C      -0.190352    -1.529839     0.658227
C      -0.308193    -2.692184     1.630576
H      -0.941574    -2.436716     2.483389
H      -0.721182    -3.568133     1.125543
H       0.682724    -2.935882     2.020520
C       1.000934    -1.664916    -0.313219
H       0.794131    -1.343779    -1.333408
H       1.468556    -2.649262    -0.330270
H      -4.486911    -3.172783     2.408540
C       3.155402     2.925715    -1.334818
C       3.716113     1.699773    -1.659240
C       3.224855     0.563934    -1.036748
C       2.188511     0.651627    -0.106637
C       1.647467     1.897086     0.200156
C       2.128411     3.045047    -0.414927
H       4.518564     1.649409    -2.383795
H       3.653059    -0.404941    -1.278832
H       0.843688     1.961465     0.923849
H       1.719222     4.021450    -0.189127
N       3.671874     4.143917    -1.993463
O       3.164489     5.204343    -1.692180
O       4.572449     4.009529    -2.796152
C       1.685598    -0.602445     0.564445
O       0.496011    -0.403695     1.338546
H       2.491993    -1.016190     1.185979
40
     -1068.727468     -1068.453412   2.13   0.84
C       3.125726    -0.188353     0.225825
C       1.118841    -0.714820    -0.986031
C       2.284689    -0.590978    -1.981169
C       3.533577    -0.810218    -1.120085
H       3.729315    -0.586222     1.045503
H       0.629288    -1.691717    -1.053999
H       0.354069     0.045910    -1.177188
H       2.210536    -1.312476    -2.797187
H       2.304758     0.410848    -2.418773
H       3.716075    -1.876703    -0.962052
H       4.439307    -0.364203    -1.536554
N       1.736844    -0.567631     0.335246
C       3.359888     1.318862     0.166562
O       2.544035     2.151655    -0.132392
O       4.642137     1.630686     0.457505
C       0.931211    -0.153025     1.440884
C       1.716196    -0.174395     2.743203
H       2.183659    -1.152777     2.880413
H       2.486150     0.602585     2.764694
H       1.033609     0.004328     3.576837
C      -0.012312     1.072820     1.300128
H      -0.029063     1.516830     0.307476
H       0.134542     1.858737     2.041099
H       4.729815     2.589661     0.353396
C      -4.304451    -0.210060    -1.273802
C      -3.467797    -1.299004    -1.101918
C      -2.436455    -1.209447    -0.176431
C      -2.249288    -0.043979     0.560994
C      -3.110874     1.036718     0.366799
C      -4.144402     0.963378    -0.552363
H      -3.627537    -2.197142    -1.684695
H      -1.767742    -2.047276    -0.021574
H      -2.970239     1.948708     0.940443
H      -4.820220     1.792844    -0.715866
N      -5.403723    -0.299455    -2.257399
O      -5.522753    -1.336780    -2.876089
O      -6.121802     0.670749    -2.387411
C      -1.142758     0.067863     1.579026
O      -0.223862    -1.035072     1.550022
H      -1.588983     0.178548     2.576921
40
     -1068.727984     -1068.453304   1.81   0.91
C       1.249032     2.575888    -0.811442
C      -0.780565     1.485086    -0.137853
C      -0.944845     2.022065    -1.559318
C       0.066294     3.165495    -1.596950
H       1.887905     2.000356    -1.491995
H      -1.024651     0.423392    -0.082722
H      -1.436917     2.021077     0.559228
H      -0.668226     1.251954    -2.287270
H      -1.966729     2.343383    -1.773181
H       0.361148     3.473263    -2.601612
H      -0.331734     4.039691    -1.071021
N       0.631661     1.732629     0.212631
C       2.116004     3.700064    -0.268250
O       3.141552     4.066261    -0.781881
O       1.594199     4.301266     0.817697
C       1.393125     0.637034     0.706841
C       2.822356     1.026310     1.048896
H       3.373804     1.345984     0.162623
H       2.827758     1.833478     1.786518
H       3.342066     0.162335     1.469172
C       0.714106    -0.222931     1.793889
H      -0.331186     0.020394     1.980740
H       1.250184    -0.270476     2.741716
H       2.193120     5.028472     1.042202
C      -2.459094    -3.737008    -0.288434
C      -1.802723    -3.008597    -1.264987
C      -0.701058    -2.246255    -0.900749
C      -0.269499    -2.215793     0.422445
C      -0.950642    -2.962953     1.383980
C      -2.051552    -3.728789     1.036850
H      -2.152773    -3.043728    -2.288713
H      -0.168600    -1.666085    -1.644949
H      -0.617158    -2.945529     2.418006
H      -2.592071    -4.313263     1.770107
N      -3.632848    -4.550531    -0.669535
O      -3.969006    -4.541025    -1.835542
O      -4.189313    -5.178704     0.207452
C       0.934131    -1.402756     0.830411
O       1.418156    -0.533253    -0.201370
H       1.724587    -2.088199     1.166366
40
     -1068.727015     -1068.452592   2.42   1.36
C      -1.475563    -0.297525     0.963788
C      -2.907211    -1.518756    -0.524250
C      -3.787364    -0.872538     0.540791
C      -2.907772     0.277231     1.040285
H      -0.763417     0.461912     0.631235
H      -2.983535    -0.959617    -1.474171
H      -3.183667    -2.557613    -0.722658
H      -4.747676    -0.532951     0.146133
H      -3.975437    -1.585396     1.347577
H      -2.985704     1.134755     0.364732
H      -3.168257     0.620583     2.044166
N      -1.568638    -1.437956     0.057511
C      -0.994924    -0.719683     2.345808
O      -0.161616    -0.134254     2.988947
O      -1.648490    -1.795625     2.823624
C      -0.456846    -1.679406    -0.822384
C      -0.537879    -3.072836    -1.426842
H      -0.649631    -3.808119    -0.627021
H      -1.381778    -3.159844    -2.116271
H       0.379113    -3.287481    -1.981287
C      -0.029874    -0.582940    -1.835760
H      -0.528547     0.375996    -1.683852
H      -0.065688    -0.856606    -2.890807
H      -1.290184    -1.964768     3.707216
C       3.162497     2.940544     0.191731
C       3.023031     2.707325    -1.168376
C       2.423704     1.526861    -1.573935
C       1.970275     0.596271    -0.636694
C       2.125717     0.855295     0.721148
C       2.724048     2.036540     1.142198
H       3.379493     3.439643    -1.881066
H       2.306226     1.325707    -2.635434
H       1.770388     0.143389     1.455068
H       2.849013     2.257607     2.194234
N       3.800054     4.197789     0.637428
O       3.911787     4.380609     1.831695
O       4.173834     4.972429    -0.219601
C       1.336680    -0.676983    -1.133556
O       0.785883    -1.514316    -0.100070
H       2.077956    -1.235271    -1.721280
40
     -1068.728412     -1068.452572   1.54   1.37
C       0.106407    -1.588889    -0.737860
C       2.162963    -2.595172    -0.004996
C       1.749098    -3.205221    -1.341662
C       0.887240    -2.096742    -1.948844
H      -0.144483    -0.526130    -0.831006
H       3.026452    -1.925893    -0.155389
H       2.442934    -3.346201     0.738574
H       2.607737    -3.475918    -1.959894
H       1.146488    -4.104374    -1.181002
H       1.524398    -1.296470    -2.341025
H       0.223387    -2.440626    -2.740540
N       0.972245    -1.847779     0.426897
C      -1.238809    -2.326029    -0.573612
O      -1.725980    -3.026635    -1.417675
O      -1.866547    -2.110160     0.592364
C       1.187384    -0.783570     1.363374
C       1.973077    -1.263161     2.572151
H       1.991787    -0.477375     3.330825
H       1.493988    -2.150322     2.992592
H       3.003811    -1.505674     2.303665
C       1.603175     0.622679     0.853101
H       1.637179     0.712168    -0.233300
H       2.518976     1.027593     1.283577
H      -1.316687    -1.541147     1.161634
C      -2.436633     3.307844    -0.954981
C      -1.138489     3.766973    -0.795667
C      -0.270060     3.028843    -0.008250
C      -0.692032     1.850500     0.609248
C      -2.002881     1.416552     0.433565
C      -2.884427     2.144952    -0.354778
H      -0.827138     4.682448    -1.281780
H       0.750822     3.375260     0.126850
H      -2.346378     0.506598     0.909517
H      -3.906159     1.820375    -0.503613
N      -3.372323     4.087407    -1.794130
O      -4.502775     3.664575    -1.915845
O      -2.950540     5.102108    -2.308940
C       0.283933     1.102975     1.482946
O      -0.105335    -0.253314     1.791789
H       0.434192     1.666946     2.412124
40
     -1068.726578     -1068.452549   2.69   1.38
C       2.063788    -2.358113    -0.412877
C       0.405800    -0.940474    -1.328354
C       0.653232    -2.006293    -2.391237
C       1.967826    -2.666960    -1.938012
H       2.119645    -3.282144     0.167897
H      -0.644728    -0.660400    -1.236386
H       0.990798    -0.033298    -1.547570
H      -0.161934    -2.735226    -2.374632
H       0.720902    -1.591203    -3.399213
H       1.981664    -3.742464    -2.120609
H       2.820890    -2.235977    -2.469688
N       0.854066    -1.616744    -0.118330
C       3.348827    -1.580149    -0.162091
O       3.447197    -0.385768    -0.052252
O       4.419345    -2.404091    -0.117914
C       0.640355    -1.000670     1.155562
C       1.222213    -1.832638     2.287496
H       0.846743    -2.857161     2.224983
H       2.315403    -1.843168     2.269722
H       0.906474    -1.407493     3.242618
C       0.845789     0.527922     1.320197
H       1.067322     1.046638     0.389951
H       1.567623     0.825861     2.080057
H       5.202029    -1.844615    -0.005899
C      -3.256636     3.166477    -0.410511
C      -3.486805     1.802931    -0.467889
C      -2.631165     0.952208     0.218992
C      -1.562305     1.464395     0.949184
C      -1.357190     2.844035     0.989358
C      -2.201618     3.706286     0.309338
H      -4.322412     1.422117    -1.040999
H      -2.789706    -0.119290     0.191178
H      -0.524716     3.249588     1.557563
H      -2.055653     4.778564     0.329045
N      -4.163676     4.077226    -1.139689
O      -5.079666     3.580365    -1.761890
O      -3.937762     5.268114    -1.072430
C      -0.639000     0.553116     1.716973
O      -0.793677    -0.832562     1.375587
H      -0.799277     0.711062     2.792772
40
     -1068.728522     -1068.452258   1.47   1.57
C       2.228509    -0.135627    -0.230483
C       2.590546    -0.401940     2.122717
C       3.555539    -1.344530     1.378598
C       3.598051    -0.803727    -0.057319
H       2.252369     0.628349    -1.009292
H       3.118269     0.215562     2.855988
H       1.813509    -0.969086     2.648919
H       4.547539    -1.357297     1.834999
H       3.164977    -2.362739     1.384763
H       4.368369    -0.035057    -0.163184
H       3.782777    -1.579688    -0.803785
N       2.007004     0.457180     1.078684
C       1.197904    -1.189398    -0.631516
O       0.917406    -2.176271    -0.004297
O       0.654346    -0.906384    -1.835413
C       0.814734     1.162323     1.390116
C       0.981955     1.975428     2.667850
H       1.834570     2.653712     2.574620
H       0.080490     2.562065     2.860035
H       1.140195     1.315664     3.522510
C       0.114868     1.945788     0.258290
H       0.422539     1.661812    -0.746721
H       0.126777     3.031553     0.357067
H      -0.006458    -1.589591    -2.024152
C      -3.584969    -0.754611    -2.191551
C      -3.003674    -1.509940    -1.186395
C      -2.209176    -0.871290    -0.243262
C      -1.999550     0.503717    -0.316242
C      -2.598791     1.237906    -1.338913
C      -3.396712     0.615128    -2.286060
H      -3.178280    -2.577867    -1.146965
H      -1.733905    -1.441978     0.545526
H      -2.439011     2.310995    -1.399746
H      -3.868270     1.170126    -3.086749
N      -4.430631    -1.431782    -3.197419
O      -4.965925    -0.740051    -4.038655
O      -4.536229    -2.638479    -3.121849
C      -1.156349     1.208881     0.714391
O      -0.392947     0.318499     1.535915
H      -1.812367     1.842642     1.328981
40
     -1068.728522     -1068.452249   1.47   1.57
C       1.539127    -1.616431    -0.242934
C       3.029516    -0.198563    -1.471003
C       3.869506    -1.059198    -0.508146
C       2.943766    -2.218325    -0.113776
H       0.785846    -2.390230    -0.399719
H       3.412084    -0.252033    -2.494856
H       3.028721     0.853072    -1.160525
H       4.788675    -1.417583    -0.976353
H       4.140996    -0.478819     0.374338
H       3.027331    -3.044903    -0.824582
H       3.142763    -2.605864     0.888052
N       1.673291    -0.769917    -1.417604
C       1.188838    -0.867196     1.041337
O       1.810074     0.045863     1.517137
O       0.094276    -1.395627     1.630927
C       0.598980     0.026782    -1.893876
C       0.875070     0.522602    -3.307974
H       1.736545     1.192347    -3.316551
H       1.070632    -0.323154    -3.972930
H       0.014117     1.079554    -3.685173
C      -0.839632    -0.501854    -1.705206
H      -0.937066    -1.296933    -0.967838
H      -1.366265    -0.777059    -2.619375
H      -0.094585    -0.866955     2.420794
C      -3.145146     1.178449     2.635996
C      -3.788563     0.567135     1.571641
C      -3.118348     0.473414     0.361821
C      -1.827721     0.981353     0.219533
C      -1.206535     1.594181     1.305121
C      -1.863985     1.693181     2.524361
H      -4.790134     0.177152     1.699162
H      -3.607625    -0.004897    -0.482321
H      -0.199473     1.978476     1.196013
H      -1.397889     2.165556     3.380004
N      -3.847266     1.281733     3.932847
O      -4.985555     0.864924     3.990092
O      -3.241700     1.775128     4.861731
C      -1.130939     0.888013    -1.113208
O       0.265702     1.198050    -1.051957
H      -1.647428     1.548573    -1.824995
40
     -1068.726150     -1068.452124   2.96   1.65
C       2.248786    -1.259351    -0.605294
C       2.391457     1.105471    -0.245999
C       3.364451     0.436442     0.718822
C       3.612620    -0.915337     0.040913
H       2.384810    -1.705356    -1.596003
H       2.945172     1.525481    -1.101280
H       1.806647     1.911418     0.202495
H       4.281872     1.011654     0.862172
H       2.888963     0.293781     1.692815
H       4.363947    -0.811711    -0.747364
H       3.956502    -1.691463     0.728556
N       1.513738     0.000643    -0.631794
C       1.530785    -2.325249     0.210620
O       1.342552    -3.454669    -0.160390
O       1.156401    -1.890304     1.431104
C       0.618812     0.229136    -1.749169
C       1.304314     0.414696    -3.097129
H       0.554854     0.601761    -3.870440
H       1.979449     1.272765    -3.064231
H       1.878025    -0.472590    -3.380355
C      -0.616113    -0.697762    -1.747378
H      -0.635378    -1.451145    -0.962243
H      -0.845233    -1.157824    -2.708658
H       0.735451    -2.638857     1.878541
C      -3.456038     0.690957     2.313722
C      -2.074849     0.560889     2.305799
C      -1.415042     0.533156     1.088565
C      -2.132100     0.635377    -0.104989
C      -3.516776     0.765102    -0.064480
C      -4.193452     0.793705     1.147888
H      -1.538162     0.483220     3.242786
H      -0.336445     0.426034     1.055031
H      -4.077203     0.849814    -0.991011
H      -5.269906     0.894362     1.196526
N      -4.163963     0.720642     3.611369
O      -5.372550     0.833409     3.589939
O      -3.495263     0.630551     4.620087
C      -1.414528     0.582321    -1.428742
O      -0.209526     1.374713    -1.453443
H      -2.097078     0.894112    -2.227359
40
     -1068.726111     -1068.451976   2.99   1.74
C      -2.270377     1.186484    -0.576596
C      -2.311976    -0.707669     0.892397
C      -3.044846     0.441050     1.578454
C      -3.477100     1.299503     0.386918
H      -2.612129     1.180199    -1.618033
H      -3.041850    -1.440833     0.512508
H      -1.615090    -1.238194     1.544403
H      -3.886450     0.104764     2.188018
H      -2.354962     0.998416     2.219463
H      -4.359202     0.864787    -0.092910
H      -3.711552     2.333775     0.647511
N      -1.584236    -0.029788    -0.180787
C      -1.386539     2.419154    -0.409600
O      -0.424196     2.525142     0.301238
O      -1.858435     3.447215    -1.150866
C      -1.022528    -0.862050    -1.225813
C      -2.046844    -1.509329    -2.150408
H      -2.632741    -0.758992    -2.689719
H      -1.538500    -2.140661    -2.883816
H      -2.730323    -2.138561    -1.575338
C       0.206399    -0.233447    -1.917301
H       0.460404     0.769644    -1.579497
H       0.194484    -0.274245    -3.006811
H      -1.291937     4.211039    -0.967203
C       3.980385    -0.230752     1.606226
C       2.687661     0.247746     1.762311
C       1.723198    -0.123223     0.840626
C       2.053432    -0.963403    -0.224370
C       3.359190    -1.425989    -0.355020
C       4.337839    -1.063486     0.561075
H       2.453204     0.901117     2.592717
H       0.709381     0.249855     0.938236
H       3.617402    -2.082722    -1.180685
H       5.357557    -1.415351     0.474202
N       5.012908     0.163688     2.588682
O       4.677062     0.894915     3.496990
O       6.136369    -0.268064     2.427797
C       1.005070    -1.359794    -1.231171
O      -0.196375    -1.876151    -0.618397
H       1.426239    -2.095789    -1.925433
40
     -1068.725902     -1068.451784   3.12   1.86
C       1.187614    -1.332470     0.142134
C       0.524707    -3.024728    -1.426268
C       1.355412    -3.685496    -0.329926
C       1.185048    -2.711155     0.837989
H       0.522157    -0.632355     0.653584
H      -0.544598    -3.269610    -1.294565
H       0.822497    -3.345502    -2.428096
H       1.018153    -4.697555    -0.095192
H       2.404431    -3.728025    -0.635314
H       0.217077    -2.867018     1.325319
H       1.962751    -2.799381     1.600121
N       0.793927    -1.600784    -1.232537
C       2.597063    -0.750214     0.190571
O       3.517291    -1.060624    -0.514167
O       2.726393     0.141166     1.202053
C      -0.083604    -0.663820    -1.872754
C      -0.118411    -0.890085    -3.375716
H       0.902067    -0.887795    -3.764734
H      -0.595529    -1.842048    -3.622925
H      -0.684517    -0.088520    -3.856757
C      -1.477082    -0.372781    -1.249243
H      -1.618148    -0.819267    -0.263220
H      -2.343033    -0.582028    -1.878170
H       3.652535     0.424887     1.206780
C      -1.262438     3.204224     2.491570
C      -2.421621     2.737105     1.890917
C      -2.311324     2.043633     0.696949
C      -1.062961     1.819883     0.114328
C       0.082706     2.302026     0.739292
C      -0.011704     2.998061     1.937326
H      -3.381306     2.919212     2.356942
H      -3.209239     1.670579     0.211939
H       1.052115     2.124702     0.290927
H       0.868516     3.377943     2.439812
N      -1.368014     3.945996     3.765908
O      -0.339764     4.345971     4.271114
O      -2.477719     4.110112     4.229771
C      -0.987803     1.084420    -1.198796
O       0.343356     0.689635    -1.575927
H      -1.436999     1.711706    -1.981039
40
     -1068.726824     -1068.451229   2.54   2.21
C       2.121890    -0.979965    -0.336863
C       3.237195     1.110299     0.117525
C       4.065127    -0.054125     0.680753
C       3.622071    -1.250065    -0.166155
H       1.725614    -1.522699    -1.199446
H       3.819542     1.688203    -0.608987
H       2.908172     1.798182     0.906175
H       5.138356     0.137527     0.623164
H       3.813707    -0.229261     1.731524
H       4.101115    -1.224762    -1.149432
H       3.812709    -2.216538     0.298745
N       2.098757     0.459122    -0.549197
C       1.375736    -1.534812     0.898612
O       1.486673    -2.692268     1.204667
O       0.632478    -0.695327     1.622044
C       0.993169     1.213352    -0.977164
C       1.407854     2.539361    -1.598062
H       0.526982     3.080163    -1.949848
H       1.918964     3.166725    -0.866486
H       2.073445     2.361086    -2.446888
C      -0.128780     0.501891    -1.759123
H      -0.108430    -0.583342    -1.666876
H      -0.227465     0.782190    -2.807975
H       0.514936     0.172510     1.178183
C      -4.166034    -1.157687     1.082526
C      -3.409204    -0.305483     1.868844
C      -2.398932     0.431591     1.269293
C      -2.150924     0.310728    -0.095810
C      -2.930187    -0.554422    -0.862061
C      -3.945347    -1.296808    -0.277734
H      -3.612412    -0.227340     2.928972
H      -1.796423     1.103515     1.869862
H      -2.746023    -0.652754    -1.927963
H      -4.560054    -1.973564    -0.856950
N      -5.246528    -1.945135     1.714771
O      -5.893394    -2.684065     1.001573
O      -5.420410    -1.804237     2.907296
C      -1.091398     1.151664    -0.757794
O      -0.000364     1.517508     0.115922
H      -1.562185     2.059040    -1.159636
40
     -1068.725103     -1068.450186   3.62   2.87
C      -2.214470    -1.221193    -1.869650
C      -1.401914    -0.932614     0.359622
C      -2.932805    -1.094313     0.455605
C      -3.384969    -1.563966    -0.941301
H      -2.149883    -1.904553    -2.717652
H      -0.870965    -1.553511     1.083433
H      -1.111204     0.108856     0.551020
H      -3.212177    -1.821439     1.220659
H      -3.401159    -0.144134     0.715639
H      -3.519011    -2.647935    -0.958222
H      -4.322417    -1.105294    -1.263502
N      -1.059746    -1.374533    -0.994779
C      -2.324807     0.172485    -2.483050
O      -2.106817     0.435018    -3.637843
O      -2.683649     1.121398    -1.587676
C       0.244928    -1.046589    -1.509216
C       0.521031    -1.771830    -2.816164
H       0.332079    -2.840291    -2.687184
H      -0.099963    -1.382986    -3.626968
H       1.569288    -1.630839    -3.090180
C       0.724371     0.432879    -1.494359
H       0.036582     1.126909    -1.012199
H       1.036565     0.834192    -2.458300
H      -2.718699     1.959757    -2.071363
C       2.314340     1.766807     3.245066
C       1.989273     0.422484     3.195018
C       1.827963    -0.179680     1.954286
C       1.988709     0.558901     0.785680
C       2.318496     1.912226     0.868110
C       2.482939     2.527673     2.098321
H       1.867347    -0.135890     4.114287
H       1.574315    -1.230684     1.887786
H       2.447004     2.493650    -0.040704
H       2.737563     3.576427     2.180211
N       2.487405     2.413377     4.563014
O       2.334923     1.725901     5.551359
O       2.771625     3.593444     4.576680
C       1.839020    -0.085081    -0.569340
O       1.245877    -1.392819    -0.519969
H       2.823005    -0.122215    -1.056176
40
     -1068.725103     -1068.450171   3.62   2.88
C       2.479147     0.178597     1.926593
C       1.616610     0.523858    -0.275544
C       2.765634     1.533763    -0.078583
C       3.479713     1.096834     1.215888
H       2.977090    -0.575750     2.537550
H       1.681373    -0.000209    -1.230769
H       0.645153     1.035250    -0.251615
H       3.455002     1.527061    -0.925222
H       2.371251     2.546085     0.018786
H       4.369304     0.506714     0.984337
H       3.789127     1.939347     1.838323
N       1.772790    -0.442885     0.814303
C       1.555138     0.926793     2.884305
O       1.265944     0.554825     3.992460
O       1.059252     2.071531     2.360309
C       0.673896    -1.328300     1.102273
C       1.081050    -2.410135     2.089269
H       1.989464    -2.903487     1.735242
H       1.250893    -1.996711     3.086499
H       0.282035    -3.152198     2.157998
C      -0.739749    -0.734717     1.363388
H      -0.808311     0.345036     1.234333
H      -1.202085    -1.022608     2.307342
H       0.487285     2.461448     3.037691
C      -3.011064     0.548365    -3.104778
C      -3.632750     0.526789    -1.865655
C      -3.012631    -0.150089    -0.828105
C      -1.789991    -0.792936    -1.025475
C      -1.191003    -0.755680    -2.281178
C      -1.799717    -0.081435    -3.331378
H      -4.580410     1.031590    -1.729492
H      -3.485978    -0.177109     0.149505
H      -0.243044    -1.257475    -2.432653
H      -1.348248    -0.041149    -4.314361
N      -3.663925     1.267702    -4.218930
O      -4.725064     1.811441    -3.991213
O      -3.099994     1.271383    -5.293483
C      -1.153133    -1.539429     0.119230
O       0.207930    -1.923977    -0.133991
H      -1.767984    -2.418139     0.356803
40
     -1068.724203     -1068.450052   4.18   2.95
C       0.168580    -0.248995     2.272343
C       1.072181    -2.134636     1.139831
C       0.049301    -2.661982     2.173194
C      -0.767160    -1.426482     2.601136
H      -0.363855     0.691001     2.121086
H       0.946815    -2.611128     0.162471
H       2.096515    -2.327963     1.482310
H      -0.595449    -3.435323     1.750615
H       0.570794    -3.092554     3.029546
H      -1.670027    -1.323792     1.993587
H      -1.066705    -1.451847     3.651580
N       0.772254    -0.706815     1.038744
C       1.123340    -0.082110     3.452052
O       2.047883    -0.806365     3.720456
O       0.768997     0.957708     4.236828
C       1.673082     0.161775     0.311601
C       3.027000     0.425141     0.954811
H       3.537598    -0.508342     1.202726
H       3.652718     1.003397     0.269272
H       2.907706     1.005419     1.871887
C       1.701525    -0.163369    -1.197822
H       1.099994    -1.023103    -1.489254
H       2.696260    -0.232233    -1.637907
H       1.380033     0.963516     4.988711
C      -2.907559     1.094926    -3.090300
C      -2.693613     0.468701    -1.871015
C      -1.426096     0.511822    -1.315697
C      -0.387614     1.175674    -1.970725
C      -0.634465     1.795550    -3.191612
C      -1.899073     1.759811    -3.764362
H      -3.512325    -0.039893    -1.378158
H      -1.226461     0.027489    -0.366381
H       0.168941     2.317674    -3.703055
H      -2.107162     2.236400    -4.713488
N      -4.258434     1.049940    -3.689481
O      -4.418683     1.605146    -4.757027
O      -5.125794     0.460713    -3.078534
C       0.995912     1.195452    -1.374650
O       1.000100     1.417654     0.049502
H       1.602950     1.952025    -1.884820
40
     -1068.725069     -1068.450047   3.64   2.95
C       2.513055    -0.676972     0.454913
C       0.948924    -2.337670    -0.286078
C       2.361805    -2.724196    -0.739448
C       3.258642    -1.997629     0.267686
H       2.726997    -0.191177     1.412953
H       0.567552    -3.068653     0.435501
H       0.232372    -2.299403    -1.111418
H       2.512334    -3.805988    -0.743336
H       2.561630    -2.353340    -1.748375
H       3.281930    -2.537220     1.220057
H       4.281413    -1.854093    -0.081523
N       1.087295    -1.004607     0.335932
C       2.896065     0.329308    -0.632326
O       3.684623     0.141409    -1.520506
O       2.241624     1.501345    -0.488831
C       0.278873    -0.799553     1.528645
C       0.686513    -1.630059     2.741053
H       0.663807    -2.697502     2.510321
H       1.694432    -1.370318     3.079136
H      -0.009350    -1.445159     3.563335
C      -0.026796     0.684374     1.819961
H       0.469089     1.391098     1.159966
H       0.101997     0.979733     2.861845
H       2.528163     2.074736    -1.214759
C      -3.058395     2.290028    -2.013729
C      -3.703361     2.446543    -0.800188
C      -3.183399     1.796349     0.311532
C      -2.041766     1.008307     0.207043
C      -1.412490     0.870526    -1.031741
C      -1.918524     1.510852    -2.150166
H      -4.590565     3.062960    -0.735508
H      -3.678212     1.902943     1.272506
H      -0.519999     0.258605    -1.106815
H      -1.446156     1.416721    -3.119711
N      -3.601840     2.976105    -3.205228
O      -3.019620     2.821464    -4.258763
O      -4.598533     3.653453    -3.058122
C      -1.474190     0.328347     1.425985
O      -1.101728    -1.046224     1.188793
H      -2.194212     0.394559     2.249410
40
     -1068.725069     -1068.450045   3.64   2.96
C       2.312911    -0.121619     1.271346
C       2.277660     0.044765    -1.121258
C       3.573047     0.663428    -0.582366
C       3.753454    -0.035192     0.768897
H       2.153410    -0.931619     1.991115
H       2.501330    -0.845377    -1.719653
H       1.714184     0.728020    -1.762940
H       4.416399     0.509605    -1.259156
H       3.456089     1.739796    -0.430206
H       4.148089    -1.046740     0.628374
H       4.404200     0.504898     1.456968
N       1.484473    -0.308434     0.074235
C       1.899396     1.170282     1.979434
O       2.595522     2.136469     2.146423
O       0.625997     1.116845     2.424581
C       0.765954    -1.570599    -0.019740
C       1.643608    -2.817357    -0.053850
H       2.213423    -2.926920     0.874036
H       1.016866    -3.704090    -0.178192
H       2.346930    -2.778669    -0.888733
C      -0.460245    -1.654151     0.912887
H      -0.582433    -0.808075     1.583841
H      -0.552390    -2.592547     1.460856
H       0.439282     1.968028     2.847047
C      -3.826203     1.813511    -0.851061
C      -2.461686     2.010733    -0.695392
C      -1.641649     0.904457    -0.551665
C      -2.182254    -0.382834    -0.565278
C      -3.554475    -0.547860    -0.723485
C      -4.391356     0.551177    -0.867644
H      -2.062674     3.017086    -0.688117
H      -0.571616     1.027758    -0.423413
H      -3.978546    -1.547664    -0.738613
H      -5.460676     0.439638    -0.991731
N      -4.705667     2.991980    -1.004226
O      -5.895760     2.791882    -1.136435
O      -4.185924     4.088545    -0.988668
C      -1.288834    -1.582714    -0.385288
O      -0.086882    -1.521561    -1.182785
H      -1.852958    -2.494880    -0.610149
40
     -1068.724491     -1068.449961   4.00   3.01
C       2.381214    -0.850059    -0.593998
C       2.102666     0.682048     1.226580
C       3.550137     0.189497     1.214640
C       3.425672    -1.156066     0.500790
H       2.906411    -0.486634    -1.487624
H       2.014954     1.769567     1.260223
H       1.567517     0.291012     2.101031
H       4.180522     0.868968     0.630031
H       3.979732     0.105125     2.215216
H       4.359260    -1.532599     0.080273
H       3.029965    -1.912604     1.187749
N       1.498645     0.141288    -0.005578
C       1.669756    -2.135951    -0.985432
O       0.597652    -2.515516    -0.600177
O       2.442270    -2.866106    -1.821229
C       0.920908     1.133473    -0.898867
C       1.932062     2.045196    -1.585842
H       1.405406     2.816729    -2.153337
H       2.567728     2.539190    -0.845869
H       2.570942     1.488769    -2.277598
C      -0.206251     0.585910    -1.800527
H      -0.380442    -0.484804    -1.725937
H      -0.140870     0.888644    -2.846011
H       1.964917    -3.689718    -1.999463
C      -4.087941    -0.566764     1.397650
C      -2.762596    -0.964435     1.498959
C      -1.808811    -0.305486     0.741999
C      -2.181690     0.739219    -0.106317
C      -3.519066     1.113959    -0.187519
C      -4.487727     0.463320     0.565554
H      -2.495309    -1.778821     2.159866
H      -0.767550    -0.605389     0.797025
H      -3.810815     1.928377    -0.844266
H      -5.531846     0.743380     0.514669
N      -5.109044    -1.268625     2.204668
O      -6.261434    -0.901412     2.096492
O      -4.735822    -2.169488     2.926975
C      -1.143052     1.450833    -0.934560
O      -0.026277     1.922376    -0.149400
H      -1.611795     2.283598    -1.470838
40
     -1068.724491     -1068.449954   4.00   3.01
C       2.091105    -1.538066    -0.082154
C       0.329625    -1.867432    -1.672146
C       1.512819    -2.756137    -2.057037
C       2.689885    -2.016469    -1.422194
H       2.248208    -2.321551     0.671467
H      -0.617233    -2.407362    -1.613422
H       0.194064    -1.063349    -2.406340
H       1.406469    -3.750134    -1.608150
H       1.618098    -2.881337    -3.136880
H       3.581629    -2.627618    -1.275624
H       2.965456    -1.150073    -2.033971
N       0.689085    -1.287785    -0.364377
C       2.841479    -0.303577     0.393136
O       2.502895     0.841637     0.267687
O       4.018287    -0.656109     0.958221
C      -0.261945    -1.540101     0.707096
C      -0.334657    -2.990420     1.172818
H       0.599588    -3.309352     1.643743
H      -1.140325    -3.102222     1.902942
H      -0.543398    -3.654053     0.329209
C      -0.241587    -0.478326     1.827595
H       0.529721     0.282060     1.731478
H      -0.251745    -0.883900     2.839706
H       4.473157     0.164556     1.198162
C      -1.999646     3.855432    -0.352421
C      -2.898075     3.448898     0.617551
C      -2.766194     2.169378     1.141179
C      -1.756841     1.319114     0.700882
C      -0.864002     1.758411    -0.278883
C      -0.981833     3.031344    -0.810549
H      -3.678264     4.121980     0.948419
H      -3.463687     1.828562     1.900821
H      -0.069864     1.099601    -0.614303
H      -0.298296     3.392556    -1.568023
N      -2.128093     5.215581    -0.918135
O      -3.026896     5.916422    -0.499177
O      -1.328552     5.551255    -1.767036
C      -1.622873    -0.064369     1.283272
O      -1.563679    -1.094832     0.273002
H      -2.453886    -0.252212     1.972435
40
     -1068.725646     -1068.449536   3.28   3.28
C       1.789170    -1.110031    -0.216782
C       1.542766     0.603275    -1.887261
C       2.760709     0.946024    -1.034914
C       3.147394    -0.421535    -0.461120
H       1.837976    -2.187083    -0.409433
H       1.877646     0.219557    -2.863610
H       0.881957     1.454559    -2.070406
H       3.564556     1.400956    -1.618198
H       2.482566     1.632190    -0.232192
H       3.710073    -0.997210    -1.202377
H       3.753026    -0.359323     0.445753
N       0.852198    -0.415003    -1.096601
C       1.362311    -0.975985     1.243463
O       1.093374    -1.902823     1.965261
O       1.329466     0.302349     1.661048
C      -0.193656    -1.171684    -1.750883
C       0.227384    -1.885880    -3.025317
H      -0.598164    -2.491164    -3.406525
H       0.499973    -1.161414    -3.795731
H       1.086204    -2.538852    -2.839251
C      -1.056401    -1.968703    -0.750721
H      -0.634644    -2.205868     0.222227
H      -1.470349    -2.869790    -1.204421
H       1.015168     0.299148     2.577051
C      -1.863257     1.920448     2.461036
C      -2.163985     0.586045     2.688672
C      -2.220347    -0.273018     1.602269
C      -1.973171     0.193225     0.311753
C      -1.692550     1.541582     0.113053
C      -1.634443     2.416224     1.187809
H      -2.344630     0.237913     3.697682
H      -2.437903    -1.323863     1.768064
H      -1.494739     1.896346    -0.891026
H      -1.405213     3.465517     1.052365
N      -1.773996     2.838168     3.614765
O      -1.520077     4.003429     3.389728
O      -1.955041     2.370519     4.720956
C      -2.014272    -0.770625    -0.853172
O      -1.313157    -0.284090    -2.013848
H      -3.053921    -1.013527    -1.099166
40
     -1068.723630     -1068.449222   4.54   3.47
C       0.729973    -1.667047     0.258200
C       1.459911    -2.188941    -1.941475
C       0.641563    -3.393011    -1.483431
C       0.537270    -3.196193     0.038898
H      -0.150765    -1.217105     0.720236
H       1.288908    -1.942472    -2.993857
H       2.535856    -2.373139    -1.799735
H      -0.351902    -3.355500    -1.939967
H       1.105316    -4.345231    -1.750512
H      -0.419614    -3.534404     0.439901
H       1.325108    -3.755946     0.550824
N       0.945790    -1.136280    -1.076920
C       1.911123    -1.461513     1.195917
O       3.071757    -1.511786     0.881581
O       1.512786    -1.290169     2.475655
C       1.397597     0.235311    -1.235695
C       2.783877     0.368716    -1.846096
H       2.801775    -0.023878    -2.866362
H       3.061654     1.425255    -1.880144
H       3.512810    -0.170097    -1.238304
C       0.327053     1.190427    -1.820720
H      -0.613830     0.691960    -2.049904
H       0.655277     1.799720    -2.663880
H       2.316182    -1.215989     3.011725
C      -3.206525     2.060770     1.866242
C      -2.092721     1.447972     2.412872
C      -0.929113     1.380826     1.658282
C      -0.890752     1.917580     0.374026
C      -2.028840     2.531281    -0.149277
C      -3.196861     2.607216     0.592266
H      -2.141524     1.033901     3.411761
H      -0.046172     0.905524     2.068988
H      -2.004093     2.953243    -1.150044
H      -4.089253     3.078573     0.201265
N      -4.447461     2.135925     2.666020
O      -4.430199     1.651344     3.778407
O      -5.409025     2.678205     2.161127
C       0.374870     1.877635    -0.445810
O       1.336899     0.924368     0.038404
H       0.815294     2.882944    -0.470464
40
     -1068.722649     -1068.447949   5.16   4.27
C      -0.154308    -1.265136    -1.926187
C       1.235251     0.661465    -2.196613
C       0.202525     0.678954    -3.346541
C      -0.862449    -0.366132    -2.955579
H      -0.847078    -1.728930    -1.222879
H       1.326691     1.641470    -1.717856
H       2.227726     0.381724    -2.574237
H      -0.244539     1.667069    -3.473199
H       0.682359     0.409429    -4.288401
H      -1.710675     0.112444    -2.459638
H      -1.247793    -0.926412    -3.810839
N       0.697742    -0.308287    -1.245986
C       0.523800    -2.425427    -2.651859
O       0.166719    -3.572547    -2.592253
O       1.547610    -2.032780    -3.447644
C       1.507411    -0.732376    -0.124113
C       2.685645    -1.637707    -0.456045
H       3.275772    -1.822201     0.445706
H       2.331057    -2.602537    -0.825665
H       3.330481    -1.185290    -1.214042
C       1.806751     0.423352     0.855292
H       1.419040     1.393354     0.547529
H       2.849108     0.513696     1.160564
H       1.872591    -2.830597    -3.889477
C      -2.633835     1.685072     3.109837
C      -2.490693     1.365747     1.767455
C      -1.346419     0.700346     1.361443
C      -0.360435     0.356478     2.287546
C      -0.534335     0.688985     3.627331
C      -1.674491     1.358796     4.051471
H      -3.267359     1.639919     1.064982
H      -1.204736     0.441263     0.318188
H       0.227594     0.419205     4.352822
H      -1.824492     1.625191     5.089648
N      -3.852453     2.398064     3.548797
O      -4.679669     2.671373     2.703962
O      -3.952031     2.667336     4.728257
C       0.895797    -0.341382     1.835665
O       0.656165    -1.371619     0.856091
H       1.419957    -0.751371     2.706470
40
     -1068.720991     -1068.447529   6.20   4.54
C       1.895218    -1.000871     1.867507
C       1.672229     0.657667     0.156929
C       3.114067     0.166444     0.151261
C       2.986476    -1.216167     0.792700
H       1.228362    -1.874335     1.904532
H       1.111399     0.219848    -0.682689
H       1.608401     1.746010     0.083555
H       3.545302     0.131294    -0.851496
H       3.732612     0.816630     0.776087
H       2.632474    -1.945118     0.057310
H       3.923512    -1.587742     1.214505
N       1.169931     0.194335     1.453824
C       2.571772    -0.817932     3.231911
O       3.026318     0.208168     3.640010
O       2.698538    -1.957082     3.962344
C      -0.229951     0.195215     1.707156
C      -0.537105    -0.039820     3.178440
H      -0.197632    -1.025527     3.505123
H      -0.045017     0.722368     3.787444
H      -1.616204     0.006409     3.342819
C      -1.049730     1.340070     1.078714
H      -0.502628     1.977780     0.387527
H      -1.591458     1.957984     1.794440
H       2.275769    -2.696118     3.509454
C      -2.181228     0.348240    -3.860809
C      -2.770980     1.352718    -3.108446
C      -2.654485     1.298717    -1.729208
C      -1.957532     0.259243    -1.112045
C      -1.378360    -0.735823    -1.894012
C      -1.486402    -0.696814    -3.277781
H      -3.306633     2.152420    -3.603367
H      -3.111430     2.077073    -1.124122
H      -0.840124    -1.542703    -1.411558
H      -1.041943    -1.461690    -3.901617
N      -2.299273     0.396290    -5.333402
O      -2.913871     1.324374    -5.817526
O      -1.774764    -0.494471    -5.969129
C      -1.859819     0.225705     0.392556
O      -0.977263    -0.788400     0.890150
H      -2.868551     0.105611     0.810910
40
     -1068.723850     -1068.445968   4.40   5.51
C       1.437396     0.407821    -1.400690
C       2.177134    -0.668241     0.596767
C       3.351017    -0.678064    -0.382824
C       2.641249    -0.506217    -1.731364
H       1.629735     1.438877    -1.712604
H       2.448679    -0.406580     1.621095
H       1.699037    -1.655380     0.626561
H       4.017959     0.168603    -0.187612
H       3.944099    -1.594222    -0.330714
H       3.275144    -0.072672    -2.507593
H       2.286968    -1.475388    -2.091887
N       1.233167     0.307195     0.043519
C       0.159847    -0.012559    -2.119734
O      -0.492735     0.702381    -2.836876
O      -0.187283    -1.283421    -1.844999
C       1.046200     1.540038     0.782705
C       2.304958     2.352761     1.033028
H       2.763478     2.656313     0.086706
H       2.062873     3.249278     1.608342
H       3.035900     1.769379     1.598502
C      -0.207416     2.298143     0.302467
H      -0.563879     2.111672    -0.707907
H      -0.125068     3.371175     0.479962
H      -1.031308    -1.456477    -2.287090
C      -3.170940    -1.846703     0.265067
C      -2.173757    -2.007305     1.213828
C      -1.448467    -0.894546     1.611302
C      -1.716117     0.357354     1.064937
C      -2.741536     0.492705     0.130425
C      -3.475470    -0.609263    -0.280664
H      -1.968260    -2.990771     1.616896
H      -0.642904    -0.994713     2.328511
H      -2.956529     1.464494    -0.303687
H      -4.266970    -0.522378    -1.014060
N      -3.926013    -3.031685    -0.189115
O      -3.649190    -4.102506     0.310823
O      -4.775943    -2.865128    -1.040796
C      -0.900806     1.567871     1.464776
O       0.379234     1.220045     2.030507
H      -1.473485     2.198111     2.153497
40
     -1068.721664     -1068.445635   5.78   5.72
C       1.626469    -0.182337    -1.193593
C       2.687244    -1.043863     0.736386
C       3.609390     0.069195     0.198779
C       2.806125     0.753680    -0.927909
H       0.737962     0.361920    -1.523287
H       2.604826    -1.033342     1.828209
H       3.075789    -2.026902     0.438030
H       3.870972     0.785124     0.980927
H       4.535209    -0.360423    -0.185217
H       2.415375     1.717545    -0.591144
H       3.400153     0.919876    -1.826581
N       1.385129    -0.757794     0.131569
C       1.966658    -1.230893    -2.264419
O       3.085377    -1.561748    -2.551062
O       0.907650    -1.790828    -2.884756
C       0.327955    -1.747721     0.291745
C       0.749024    -3.202631     0.124261
H      -0.141620    -3.836376     0.129142
H       1.285635    -3.366524    -0.812275
H       1.390730    -3.508653     0.954371
C      -0.574608    -1.469794     1.513588
H      -0.225011    -0.671504     2.166238
H      -0.823226    -2.354727     2.100021
H       0.082607    -1.515086    -2.452961
C      -2.950042     2.993471     0.389730
C      -1.592333     2.728769     0.491372
C      -1.174084     1.409176     0.525822
C      -2.103157     0.368724     0.454874
C      -3.458113     0.668395     0.356018
C      -3.895291     1.986320     0.322728
H      -0.887791     3.548831     0.543587
H      -0.117608     1.176923     0.611984
H      -4.184840    -0.136728     0.300718
H      -4.945547     2.235442     0.244903
N      -3.402410     4.401922     0.354280
O      -2.553200     5.266176     0.416141
O      -4.595331     4.605880     0.265560
C      -1.648873    -1.068188     0.485985
O      -0.755739    -1.402961    -0.609518
H      -2.521452    -1.728346     0.465754
40
     -1068.721664     -1068.445627   5.78   5.73
C       1.392426    -1.195467     0.857455
C       1.749780     0.625024     2.323883
C       3.138161     0.230828     1.780490
C       2.861387    -0.811464     0.675861
H       0.919096    -1.463931    -0.090306
H       1.611473     1.709668     2.382215
H       1.613648     0.213995     3.333278
H       3.670136     1.094790     1.376377
H       3.748285    -0.195362     2.577532
H       2.983424    -0.364550    -0.314348
H       3.517050    -1.679617     0.743107
N       0.808475     0.049645     1.361583
C       1.233041    -2.381644     1.821545
O       2.052778    -2.698107     2.640714
O       0.079689    -3.071781     1.706061
C      -0.609933     0.082882     1.693631
C      -0.962555    -0.254444     3.137229
H      -2.048805    -0.331548     3.232222
H      -0.519087    -1.200123     3.454933
H      -0.616402     0.537555     3.806131
C      -1.331395     1.322856     1.122034
H      -0.673707     2.068730     0.678686
H      -2.027364     1.797497     1.814252
H      -0.523548    -2.615886     1.096604
C      -1.076629     0.724378    -4.016350
C      -0.043311     0.803004    -3.094481
C      -0.344187     0.682300    -1.748245
C      -1.661947     0.480991    -1.331412
C      -2.675583     0.409303    -2.281613
C      -2.391965     0.530875    -3.635841
H       0.971616     0.957765    -3.437378
H       0.446246     0.747396    -1.007645
H      -3.701983     0.253062    -1.963010
H      -3.169158     0.476175    -4.386930
N      -0.760724     0.854513    -5.456105
O       0.400697     1.024238    -5.763054
O      -1.683084     0.783501    -6.241435
C      -1.990122     0.343169     0.133299
O      -1.313609    -0.778236     0.761526
H      -3.072308     0.238014     0.257504
40
     -1068.719717     -1068.445456   7.00   5.84
C      -1.662708    -2.127070    -1.196432
C      -0.252086    -1.582588     0.664448
C       0.381373    -2.724867    -0.130541
C      -0.823801    -3.359181    -0.820133
H      -1.279846    -1.707929    -2.143969
H       0.438180    -0.743652     0.767276
H      -0.534426    -1.915178     1.670754
H       1.075084    -2.326792    -0.878991
H       0.930252    -3.424841     0.502874
H      -0.569116    -3.972005    -1.687863
H      -1.388332    -3.977350    -0.114677
N      -1.460033    -1.199290    -0.093552
C      -3.121589    -2.553107    -1.382322
O      -3.919009    -2.674148    -0.502502
O      -3.460370    -2.868821    -2.659295
C      -1.671057     0.184646    -0.350513
C      -2.978495     0.458513    -1.075680
H      -3.820639     0.067887    -0.500767
H      -3.098500     1.536585    -1.204431
H      -2.985508     0.010140    -2.072212
C      -1.418879     1.139761     0.834258
H      -0.985866     0.670166     1.716384
H      -2.280435     1.738847     1.128220
H      -2.717940    -2.708367    -3.253723
C       3.606371     2.266984     1.315226
C       2.581350     2.925676     1.977022
C       1.286557     2.769163     1.510081
C       1.020424     1.965520     0.400954
C       2.071014     1.318857    -0.244124
C       3.374285     1.465268     0.211359
H       2.805300     3.544172     2.836525
H       0.471299     3.278695     2.016441
H       1.860847     0.696931    -1.106116
H       4.203353     0.969602    -0.277256
N       4.991580     2.426834     1.805450
O       5.165588     3.134967     2.775819
O       5.870525     1.840561     1.208435
C      -0.398862     1.827450    -0.090933
O      -0.563349     0.822313    -1.100739
H      -0.742542     2.805646    -0.454752
40
     -1068.719528     -1068.445382   7.12   5.88
C       0.615294    -1.277767    -1.474207
C       2.323416    -1.883634     0.045973
C       3.024127    -1.557451    -1.289379
C       1.926811    -0.944426    -2.184652
H      -0.150754    -0.520743    -1.656910
H       2.862326    -1.486181     0.912601
H       2.245409    -2.972603     0.170404
H       3.849795    -0.856689    -1.148706
H       3.428605    -2.467116    -1.734698
H       2.028336     0.142802    -2.226659
H       1.947589    -1.334828    -3.202276
N       1.012598    -1.242901    -0.067603
C       0.060677    -2.640466    -1.919637
O       0.717214    -3.497657    -2.445581
O      -1.251235    -2.842880    -1.671290
C       0.032808    -1.516329     0.970122
C      -0.060467    -2.963886     1.436867
H      -0.200988    -3.650618     0.599548
H       0.847302    -3.247648     1.975126
H      -0.908781    -3.068613     2.118418
C       0.065496    -0.466760     2.101882
H       0.886265     0.243337     2.016817
H       0.013472    -0.880459     3.109351
H      -1.606915    -2.115770    -1.135978
C      -1.498409     3.977599    -0.036648
C      -1.026967     3.784144     1.252108
C      -0.951468     2.489645     1.741248
C      -1.338918     1.406233     0.953081
C      -1.813462     1.633698    -0.335269
C      -1.894445     2.923618    -0.841234
H      -0.728826     4.635708     1.849868
H      -0.583396     2.322487     2.749411
H      -2.127781     0.797412    -0.948211
H      -2.260253     3.117105    -1.841346
N      -1.582547     5.354677    -0.568149
O      -1.229310     6.259426     0.159414
O      -1.999537     5.495484    -1.698936
C      -1.279660     0.013242     1.529958
O      -1.263777    -1.027845     0.528053
H      -2.129639    -0.133349     2.207119
40
     -1068.717742     -1068.444158   8.24   6.65
C       0.945746    -1.794436    -1.642970
C       1.455095    -1.979669     0.690410
C       0.859301    -3.306366     0.231102
C       1.152494    -3.285179    -1.271991
H       1.685540    -1.483524    -2.396718
H       2.546643    -2.079000     0.807620
H       1.048575    -1.618499     1.636829
H       1.299652    -4.169018     0.735630
H      -0.220262    -3.314547     0.406836
H       2.194504    -3.564016    -1.457715
H       0.513741    -3.957018    -1.850897
N       1.084845    -1.073124    -0.395631
C      -0.453646    -1.630370    -2.253826
O      -1.448038    -1.378955    -1.640333
O      -0.522787    -1.862702    -3.589256
C       1.719457     0.230087    -0.423816
C       3.199459     0.211352    -0.787960
H       3.363636    -0.176890    -1.797964
H       3.605210     1.225126    -0.741577
H       3.753786    -0.410421    -0.080971
C       0.867108     1.314994    -1.116941
H      -0.068217     0.961493    -1.546945
H       1.404060     1.934273    -1.836015
H       0.353663    -2.034755    -3.953189
C      -3.169934     2.156574     1.995699
C      -2.722315     0.937682     1.507511
C      -1.453714     0.864115     0.957346
C      -0.645772     2.001175     0.897587
C      -1.123442     3.210195     1.393968
C      -2.392967     3.300156     1.949335
H      -3.365902     0.069040     1.559351
H      -1.092007    -0.077726     0.559299
H      -0.495192     4.095159     1.351575
H      -2.778653     4.232487     2.340690
N      -4.524303     2.238206     2.583781
O      -4.891410     3.317238     3.002605
O      -5.188510     1.223097     2.613225
C       0.732023     1.923453     0.293458
O       1.534804     0.862175     0.857179
H       1.237725     2.888141     0.413678
40
     -1068.718354     -1068.442637   7.85   7.60
C      -1.753967     1.409710     1.146073
C      -1.846446    -0.735208     1.994235
C      -2.496031     0.157569     3.083497
C      -2.332284     1.599722     2.559103
H      -2.577919     1.284486     0.433173
H      -2.622897    -1.195298     1.371906
H      -1.247737    -1.547435     2.413233
H      -3.545164    -0.113135     3.224089
H      -2.001395     0.033217     4.049210
H      -3.275796     2.148925     2.519581
H      -1.645469     2.180939     3.174886
N      -1.023828     0.131690     1.141729
C      -0.942822     2.593640     0.641083
O      -0.380934     3.401693     1.330563
O      -0.970813     2.671117    -0.702443
C       0.397290     0.121777     1.466965
C       0.801888     0.631046     2.845507
H       0.317865     0.054891     3.638926
H       1.884485     0.530672     2.960258
H       0.546345     1.685772     2.954590
C       1.050838    -1.210129     1.038674
H       0.357068    -1.925998     0.599999
H       1.672095    -1.690938     1.794670
H      -0.374915     3.390795    -0.957856
C       1.147023    -1.372765    -4.082593
C       0.169272    -0.661517    -3.404987
C       0.390107    -0.319915    -2.079928
C       1.578415    -0.683577    -1.447317
C       2.544942    -1.393487    -2.155857
C       2.336756    -1.747014    -3.481305
H      -0.744987    -0.385464    -3.914678
H      -0.356938     0.237669    -1.528567
H       3.475343    -1.672180    -1.669164
H       3.076330    -2.299974    -4.045734
N       0.913702    -1.742711    -5.494390
O      -0.135737    -1.402475    -6.000031
O       1.786541    -2.365575    -6.063937
C       1.809252    -0.355339     0.004711
O       1.134239     0.835796     0.446680
H       2.886283    -0.280985     0.195448
40
     -1068.716095     -1068.442043   9.27   7.98
C      -2.530482    -0.528530    -0.316633
C      -0.884187    -2.270714    -0.239802
C      -2.270056    -2.877662    -0.006034
C      -3.065280    -1.691815     0.539410
H      -3.085228    -0.513976    -1.272416
H      -0.355543    -2.735011    -1.075578
H      -0.246521    -2.386938     0.644352
H      -2.705515    -3.216103    -0.953049
H      -2.249723    -3.728384     0.677960
H      -4.148986    -1.807169     0.461819
H      -2.811949    -1.509959     1.588824
N      -1.127955    -0.836732    -0.488944
C      -2.775980     0.793247     0.415129
O      -2.049749     1.261128     1.241243
O      -3.947801     1.404770     0.116159
C      -0.432398    -0.274020    -1.636700
C      -0.996595    -0.696705    -2.988927
H      -0.336018    -0.347601    -3.786383
H      -1.067229    -1.786080    -3.054099
H      -1.989761    -0.271030    -3.160360
C      -0.079981     1.223194    -1.498347
H      -0.477788     1.720285    -0.617524
H      -0.279718     1.816602    -2.391069
H      -4.417358     0.924170    -0.575929
C       3.366466     1.422675     2.342996
C       4.011357     1.759687     1.166715
C       3.351605     1.530615    -0.033667
C       2.075898     0.975643    -0.052649
C       1.449655     0.647370     1.151886
C       2.093880     0.870280     2.357090
H       5.004196     2.189200     1.197922
H       3.841428     1.784828    -0.969127
H       0.450385     0.224576     1.141050
H       1.624859     0.626162     3.301517
N       4.056811     1.661904     3.628660
O       5.169033     2.147448     3.587858
O       3.471798     1.359215     4.647801
C       1.375486     0.735628    -1.365633
O       0.957720    -0.638312    -1.536074
H       2.031222     1.038121    -2.189449
40
     -1068.716048     -1068.440576   9.30   8.90
C      -0.582777     2.283093    -0.575288
C      -1.258765     1.907961     1.596359
C      -1.116831     3.448670     1.480704
C      -0.557132     3.688155     0.061516
H      -1.573408     2.111707    -1.010666
H      -2.305968     1.615228     1.456096
H      -0.946205     1.523686     2.570396
H      -2.083865     3.935114     1.628605
H      -0.439131     3.845972     2.239469
H      -1.160622     4.387416    -0.522021
H       0.457422     4.085964     0.096490
N      -0.461734     1.310474     0.520052
C       0.362975     2.045697    -1.744838
O       0.074678     1.387953    -2.708683
O       1.540488     2.689310    -1.634354
C       0.852763     0.836977     0.934004
C       1.810613     1.863521     1.528833
H       1.387008     2.324382     2.425485
H       2.742311     1.363906     1.807286
H       2.046710     2.641220     0.802568
C       0.729465    -0.480920     1.728672
H      -0.295515    -0.800912     1.909784
H       1.315398    -0.523509     2.647363
H       2.076462     2.422325    -2.395681
C      -0.951685    -4.077136    -1.503093
C      -1.001095    -2.771523    -1.960076
C      -0.232562    -1.807144    -1.322562
C       0.573631    -2.156423    -0.242971
C       0.608109    -3.481698     0.192348
C      -0.155829    -4.454045    -0.432383
H      -1.632505    -2.519764    -2.802424
H      -0.255405    -0.782293    -1.670064
H       1.241465    -3.758750     1.030902
H      -0.142318    -5.485977    -0.106399
N      -1.770977    -5.104746    -2.178734
O      -1.706777    -6.241697    -1.756758
O      -2.459076    -4.752549    -3.114211
C       1.391939    -1.129303     0.496901
O       1.486836     0.144199    -0.164629
H       2.391906    -1.534544     0.692004
40
     -1068.712712     -1068.437496  11.39  10.83
C       1.113521     2.280380    -0.725808
C      -0.961714     2.494242    -1.628656
C      -1.159694     2.597149    -0.086951
C       0.213337     2.216538     0.516210
H       1.275210     3.349115    -0.942654
H      -0.880868     3.491889    -2.074337
H      -1.779597     1.969973    -2.121299
H      -1.453638     3.612233     0.193233
H      -1.943486     1.921120     0.255504
H       0.549609     2.893687     1.302850
H       0.192617     1.205856     0.931715
N       0.314035     1.788535    -1.839288
C       2.531791     1.757303    -0.674375
O       3.183118     1.411403    -1.622956
O       3.036211     1.802742     0.578181
C       0.134294     0.363513    -2.044862
C       0.001396     0.105068    -3.538102
H      -0.224669    -0.945945    -3.738739
H      -0.802978     0.719527    -3.949988
H       0.936119     0.377172    -4.033688
C       1.022182    -0.678738    -1.332272
H       1.522195    -0.320590    -0.434654
H       1.732989    -1.213073    -1.960757
H       3.962531     1.526387     0.515723
C      -0.903678    -2.557148     3.081864
C      -1.732571    -1.587375     2.545622
C      -1.535497    -1.196808     1.228051
C      -0.521575    -1.768688     0.465240
C       0.296590    -2.745814     1.033222
C       0.112624    -3.147471     2.346279
H      -2.515496    -1.152376     3.153557
H      -2.172102    -0.441606     0.783612
H       1.088815    -3.198070     0.442927
H       0.738724    -3.903071     2.802871
N      -1.107855    -2.977983     4.484123
O      -0.366354    -3.830018     4.928456
O      -2.004055    -2.446208     5.105923
C      -0.304369    -1.362349    -0.968712
O      -1.043982    -0.197382    -1.354878
H      -0.543731    -2.213121    -1.622187
40
     -1068.707212     -1068.432059  14.84  14.24
C       2.741281    -0.730097    -0.920749
C       1.600636    -0.733741     1.052334
C       0.973892    -1.900164     0.259345
C       1.756628    -1.909285    -1.071330
H       3.663361    -1.121297    -0.466038
H       2.430821    -1.105374     1.665621
H       0.904896    -0.223441     1.711011
H       1.067820    -2.841888     0.805140
H      -0.093500    -1.731608     0.093577
H       2.306800    -2.838986    -1.234385
H       1.114465    -1.762079    -1.940245
N       2.178339     0.201825     0.072586
C       3.157539    -0.091960    -2.241245
O       2.516145    -0.123961    -3.251481
O       4.360158     0.526591    -2.217514
C       1.301381     1.279406    -0.409205
C       2.112723     2.474552    -0.890516
H       2.633897     2.286127    -1.829049
H       1.435442     3.318255    -1.048077
H       2.837759     2.746031    -0.119915
C       0.063812     0.970958    -1.295733
H      -0.144177    -0.083970    -1.450569
H       0.043483     1.487792    -2.254179
H       4.704035     0.542431    -1.315411
C      -3.858582    -0.679575     1.661006
C      -2.887783    -0.115084     2.470699
C      -1.870110     0.619198     1.877798
C      -1.827659     0.780815     0.495277
C      -2.821320     0.202111    -0.293711
C      -3.844650    -0.534027     0.282851
H      -2.935626    -0.251897     3.543372
H      -1.100644     1.072058     2.492455
H      -2.796226     0.324857    -1.372661
H      -4.622922    -0.990750    -0.314788
N      -4.945544    -1.462900     2.285623
O      -4.934692    -1.575265     3.493840
O      -5.782663    -1.946100     1.551502
C      -0.739944     1.602954    -0.149818
O       0.441012     1.720932     0.665247
H      -1.140285     2.596554    -0.392666
