40
     -1068.749362     -1068.473591   0.00   0.00
C       0.689185     3.132091     1.867066
C      -1.323241     2.184836     1.126645
C      -1.700443     3.488847     1.818567
C      -0.449747     3.800913     2.658015
H       1.438669     3.858597     1.537376
H      -1.936466     1.959759     0.251580
H      -1.417109     1.351922     1.840884
H      -1.865206     4.269545     1.070216
H      -2.605682     3.396226     2.422069
H      -0.282869     4.871954     2.779238
H      -0.521297     3.361436     3.656010
N       0.073753     2.433453     0.727866
C       1.412928     2.015976     2.621341
O       1.851194     2.025451     3.732819
O       1.478139     0.934324     1.807948
C       0.937381     1.292161     0.481991
C       2.118235     1.718671    -0.387663
H       2.570402     2.632788     0.001796
H       2.888935     0.946760    -0.412627
H       1.769800     1.918696    -1.403424
C       0.208765     0.075353    -0.086079
H      -0.164140     0.361924    -1.074074
H      -0.653316    -0.176011     0.534681
H       1.637840    -1.085398     1.636907
C      -1.136946    -3.997444    -2.601815
C      -1.202656    -4.104489    -1.222721
C      -0.479693    -3.209175    -0.447581
C       0.298074    -2.222255    -1.048988
C       0.349040    -2.145749    -2.440177
C      -0.368793    -3.030371    -3.229464
H      -1.810414    -4.878828    -0.772512
H      -0.507558    -3.280654     0.632636
H       0.964129    -1.386757    -2.915888
H      -0.339328    -2.982549    -4.310311
N      -1.907211    -4.946966    -3.431708
O      -1.830409    -4.829863    -4.637667
O      -2.570421    -5.786481    -2.858707
C       1.055333    -1.206195    -0.217453
O       1.341435    -1.784256     1.041593
H       1.989704    -0.978238    -0.748379
40
     -1068.749362     -1068.473588   0.00   0.00
C       3.645490     0.003614     0.693746
C       2.221325     1.688044    -0.099867
C       3.613621     2.304438    -0.044592
C       4.370942     1.347018     0.891416
H       4.316813    -0.769882     0.307397
H       1.625180     2.027600    -0.949428
H       1.677285     1.930986     0.826250
H       4.060006     2.298093    -1.043273
H       3.601801     3.334004     0.318871
H       5.431371     1.273461     0.646972
H       4.292276     1.665566     1.933814
N       2.519146     0.249563    -0.220303
C       2.970655    -0.542373     1.952692
O       3.421665    -0.660240     3.052803
O       1.698265    -0.880909     1.632924
C       1.500531    -0.704547     0.180883
C       1.771839    -2.054685    -0.479531
H       1.561068    -1.986547    -1.549168
H       2.819268    -2.337170    -0.357727
H       1.158126    -2.840783    -0.036976
C       0.070970    -0.220274    -0.055846
H      -0.053481    -0.116686    -1.138017
H      -0.076171     0.764545     0.391583
H      -0.213002    -1.182404     2.257573
C      -4.764598     0.183066    -1.143106
C      -3.968603    -0.677439    -1.881451
C      -2.773829    -1.107790    -1.326359
C      -2.378392    -0.683729    -0.058424
C      -3.203158     0.177870     0.661320
C      -4.403790     0.616467     0.121670
H      -4.288088    -0.997750    -2.864668
H      -2.141579    -1.790283    -1.887757
H      -2.905630     0.495283     1.653025
H      -5.057920     1.284197     0.667480
N      -6.041100     0.649480    -1.723299
O      -6.721992     1.400667    -1.056165
O      -6.331979     0.253086    -2.833348
C      -1.041409    -1.133856     0.495771
O      -1.107990    -1.094861     1.908305
H      -0.874929    -2.164840     0.154808
40
     -1068.747478     -1068.471144   1.18   1.54
C       1.548611    -2.588531     2.221770
C       2.447044    -1.472689     0.317326
C       3.347808    -1.188940     1.520717
C       3.052249    -2.387794     2.425684
H       1.236472    -3.621043     2.414920
H       2.942965    -2.174770    -0.362837
H       2.205800    -0.583783    -0.261816
H       4.401300    -1.103663     1.245108
H       3.050675    -0.257699     2.016091
H       3.590565    -3.274065     2.077031
H       3.295039    -2.226826     3.477205
N       1.241094    -2.141144     0.856359
C       0.724574    -1.661011     3.114049
O       0.794126    -1.517877     4.298874
O      -0.131462    -0.968614     2.332883
C      -0.041307    -1.461645     0.946142
C      -1.164483    -2.483234     0.771753
H      -0.955040    -3.370545     1.373191
H      -2.126546    -2.075702     1.087602
H      -1.222895    -2.790225    -0.275501
C      -0.193070    -0.252377     0.025657
H      -0.013330    -0.593550    -0.998309
H       0.567346     0.492506     0.275883
H      -1.459429     0.548507     2.025150
C      -1.652765     3.324073    -3.095764
C      -1.999272     2.009841    -3.363564
C      -1.981319     1.098696    -2.319193
C      -1.620118     1.491675    -1.031354
C      -1.281482     2.821792    -0.792889
C      -1.296649     3.747496    -1.826142
H      -2.276998     1.719309    -4.368482
H      -2.259359     0.065561    -2.509159
H      -1.016862     3.131922     0.210413
H      -1.038813     4.785366    -1.658814
N      -1.667828     4.305629    -4.200340
O      -1.361866     5.450940    -3.940351
O      -1.985333     3.906854    -5.302199
C      -1.559172     0.457899     0.075813
O      -1.783116     1.110380     1.311198
H      -2.357150    -0.272720    -0.114106
40
     -1068.746004     -1068.469787   2.11   2.39
C      -3.374170     0.039527     1.157017
C      -1.874533     0.526764    -0.625847
C      -3.089454    -0.216945    -1.187428
C      -4.167311     0.090625    -0.146095
H      -3.853211     0.604796     1.963091
H      -1.883433     1.570352    -0.963450
H      -0.933155     0.089611    -0.954819
H      -3.351326     0.113513    -2.195074
H      -2.899064    -1.295121    -1.224205
H      -4.570900     1.097165    -0.291741
H      -4.995767    -0.619346    -0.138343
N      -2.019863     0.520587     0.849756
C      -3.149218    -1.400320     1.630557
O      -3.968974    -2.259735     1.782994
O      -1.831828    -1.582142     1.832756
C      -1.145199    -0.289984     1.685365
C      -1.051583     0.321221     3.081709
H      -2.051164     0.461454     3.499703
H      -0.485748    -0.338068     3.743223
H      -0.552299     1.288803     3.036146
C       0.225369    -0.609195     1.097048
H       0.094645    -1.192222     0.184089
H       0.752021    -1.251832     1.807176
H       2.321135     1.708445     1.911126
C       3.811496    -0.148464    -2.389636
C       4.058242    -0.721759    -1.151316
C       3.181585    -0.457784    -0.111543
C       2.073769     0.368433    -0.307209
C       1.859723     0.934958    -1.560822
C       2.726508     0.679140    -2.615535
H       4.922289    -1.359893    -1.017339
H       3.358430    -0.892056     0.866666
H       1.010511     1.593327    -1.718670
H       2.572836     1.111791    -3.595710
N       4.741403    -0.427974    -3.505412
O       4.501928     0.087966    -4.577303
O       5.685636    -1.155729    -3.280136
C       1.101427     0.623586     0.830823
O       1.790474     0.916300     2.043622
H       0.458775     1.470204     0.554770
40
     -1068.744916     -1068.468783   2.79   3.02
C       2.226132    -2.597978     1.532010
C       2.609121    -0.863685     0.008051
C       3.952627    -1.556887     0.198908
C       3.745185    -2.353683     1.498262
H       1.983667    -3.665076     1.546619
H       2.444441    -0.515938    -1.013847
H       2.541241     0.003294     0.683503
H       4.139276    -2.233823    -0.640093
H       4.783452    -0.850713     0.259736
H       4.306086    -3.289320     1.507909
H       4.050026    -1.775797     2.374147
N       1.648733    -1.926887     0.357193
C       1.507561    -1.927819     2.705539
O       1.804890    -1.956688     3.865451
O       0.452252    -1.245087     2.223027
C       0.315924    -1.522512     0.789432
C      -0.653864    -2.691040     0.639595
H      -1.593102    -2.470142     1.148695
H      -0.838822    -2.886504    -0.419853
H      -0.231047    -3.595846     1.080118
C      -0.166653    -0.254784     0.079489
H       0.102881    -0.349903    -0.976606
H       0.370377     0.606786     0.482440
H      -2.999743     0.306891     1.536286
C      -2.458076     3.614352    -2.072923
C      -2.656162     2.391773    -2.690813
C      -2.412753     1.236086    -1.961885
C      -1.974469     1.303737    -0.641524
C      -1.788445     2.551737    -0.046733
C      -2.029495     3.716449    -0.758969
H      -2.995746     2.355397    -3.717840
H      -2.572342     0.268755    -2.430009
H      -1.453588     2.607112     0.983465
H      -1.890388     4.693000    -0.313290
N      -2.714817     4.852676    -2.839778
O      -2.534508     5.910832    -2.274206
O      -3.089903     4.733705    -3.987728
C      -1.669321     0.032833     0.135236
O      -2.052701     0.139638     1.496565
H      -2.207923    -0.794942    -0.345583
40
     -1068.744571     -1068.468704   3.01   3.07
C       0.554070    -1.264957     2.695896
C       2.546351    -0.277582     1.793993
C       2.497452    -0.026432     3.302459
C       0.999203    -0.120836     3.615426
H       0.501313    -2.213545     3.248502
H       3.524485    -0.637325     1.460241
H       2.334264     0.653790     1.256531
H       3.044775    -0.812810     3.832517
H       2.933286     0.935707     3.579703
H       0.780570    -0.322063     4.664689
H       0.489975     0.807859     3.337808
N       1.525749    -1.318213     1.604889
C      -0.775024    -1.055735     1.998980
O      -1.832690    -0.771008     2.483636
O      -0.599479    -1.227746     0.676064
C       0.797309    -1.508785     0.355555
C       0.864814    -2.965716    -0.087197
H       0.594878    -3.620609     0.744885
H       0.180011    -3.145433    -0.920007
H       1.884587    -3.205711    -0.399831
C       1.207454    -0.566574    -0.778861
H       0.875651    -1.002651    -1.724207
H       2.298274    -0.522482    -0.819155
H       1.369465     2.624559    -1.173802
C      -2.939015     1.459317    -2.888807
C      -3.011606     1.410587    -1.507856
C      -1.840222     1.222039    -0.787384
C      -0.619898     1.079445    -1.441530
C      -0.580362     1.136146    -2.835313
C      -1.739537     1.325944    -3.570547
H      -3.968184     1.516332    -1.012824
H      -1.886404     1.172040     0.295323
H       0.371456     1.035116    -3.346895
H      -1.726073     1.372882    -4.651765
N      -4.182140     1.661692    -3.664399
O      -5.218960     1.776677    -3.044716
O      -4.089421     1.700538    -4.873943
C       0.667352     0.869401    -0.661818
O       1.705221     1.722327    -1.145545
H       0.461055     1.103818     0.389308
40
     -1068.745422     -1068.468274   2.47   3.34
C      -2.913082    -1.343408     0.415820
C      -1.970234    -0.293504     2.340858
C      -3.015158     0.646460     1.732503
C      -3.913487    -0.320729     0.956485
H      -3.376399    -2.321655     0.240391
H      -2.355179    -0.719818     3.274795
H      -1.030415     0.200389     2.582010
H      -3.552923     1.219278     2.491277
H      -2.547490     1.359945     1.044549
H      -4.614590    -0.818889     1.632439
H      -4.482894     0.146798     0.151517
N      -1.803953    -1.400136     1.372221
C      -2.249606    -0.891438    -0.884204
O      -2.771964    -0.480484    -1.880583
O      -0.916314    -1.001715    -0.744785
C      -0.600947    -1.569248     0.573836
C      -0.330773    -3.056533     0.360009
H      -0.014222    -3.507305     1.303802
H      -1.237749    -3.565271     0.024524
H       0.450242    -3.197795    -0.391035
C       0.651271    -0.867287     1.095573
H       1.518930    -1.348011     0.638121
H       0.724939    -1.049178     2.170194
H       1.316850     2.180898     1.912903
C       3.243671     1.603483    -2.476500
C       1.871407     1.663955    -2.645004
C       1.055254     1.360762    -1.563851
C       1.607113     0.999490    -0.337850
C       2.994806     0.948319    -0.200340
C       3.824407     1.250054    -1.268646
H       1.457992     1.942742    -3.605665
H      -0.022129     1.395416    -1.683671
H       3.426009     0.671842     0.756284
H       4.902474     1.216297    -1.178572
N       4.120305     1.926871    -3.622949
O       3.587354     2.233834    -4.668947
O       5.319641     1.865539    -3.447642
C       0.719416     0.650765     0.844953
O       1.210834     1.233974     2.052566
H      -0.283402     1.035295     0.632612
40
     -1068.745603     -1068.468185   2.36   3.39
C      -2.266414    -1.169716    -1.262554
C      -1.281152    -0.065376     0.601311
C      -2.789859    -0.194229     0.832797
C      -3.161771    -1.387035    -0.048773
H      -2.107386    -2.087721    -1.837124
H      -0.728691    -0.686913     1.313890
H      -0.930945     0.955682     0.731845
H      -3.035591    -0.340664     1.886946
H      -3.313087     0.704013     0.487225
H      -2.896883    -2.330155     0.438684
H      -4.215595    -1.422575    -0.329552
N      -1.012035    -0.582853    -0.765727
C      -2.823276    -0.088095    -2.196688
O      -3.926985    -0.004106    -2.652984
O      -1.853667     0.819713    -2.419284
C      -0.598550     0.314139    -1.831163
C       0.095982    -0.484678    -2.938492
H       0.381513     0.176277    -3.760576
H       0.981774    -0.989327    -2.550835
H      -0.572948    -1.249491    -3.337087
C       0.200888     1.562762    -1.461243
H      -0.318886     2.148212    -0.700449
H       0.221455     2.183850    -2.360747
H       3.155644     2.604273    -0.811157
C       2.115418    -0.514853     2.776085
C       2.272537    -1.282022     1.634542
C       2.135768    -0.664743     0.399325
C       1.843272     0.693059     0.306846
C       1.705897     1.440602     1.476702
C       1.836373     0.841606     2.720242
H       2.494703    -2.337929     1.720026
H       2.253512    -1.256214    -0.502762
H       1.490041     2.501770     1.409783
H       1.727316     1.406922     3.636915
N       2.253372    -1.163084     4.098851
O       2.495866    -2.351797     4.118069
O       2.114165    -0.466685     5.082449
C       1.664514     1.358039    -1.047278
O       2.226549     2.668168    -1.056001
H       2.167159     0.741178    -1.802063
40
     -1068.744445     -1068.467891   3.09   3.58
C       0.510986     0.481092     3.036395
C      -0.430270    -1.662278     2.910495
C      -0.215434    -1.380220     4.392289
C       0.797340    -0.223710     4.374099
H       0.192306     1.517817     3.182181
H      -1.345036    -2.223056     2.706117
H       0.426085    -2.235126     2.519034
H      -1.157575    -1.058706     4.845875
H       0.145746    -2.255001     4.937014
H       0.677667     0.451920     5.221995
H       1.824809    -0.595677     4.389182
N      -0.517279    -0.307905     2.338537
C       1.686181     0.477768     2.058133
O       2.827433     0.772189     2.264138
O       1.236634     0.048960     0.860123
C      -0.225157    -0.114175     0.924016
C      -0.864125     1.196055     0.463323
H      -0.587848     1.435286    -0.561939
H      -1.949984     1.105020     0.534034
H      -0.548960     2.022023     1.104397
C      -0.611212    -1.296178     0.030922
H      -1.668082    -1.200074    -0.233917
H      -0.506123    -2.228409     0.589141
H      -0.070899    -3.422470    -1.373494
C      -0.113695     1.737664    -4.040445
C       1.056287     1.595596    -3.315192
C       1.156149     0.538466    -2.420645
C       0.100623    -0.352222    -2.252767
C      -1.063195    -0.186138    -3.003020
C      -1.179426     0.861518    -3.902385
H       1.866096     2.300005    -3.454363
H       2.062765     0.412490    -1.838391
H      -1.878832    -0.891833    -2.890571
H      -2.073828     1.004618    -4.494805
N      -0.229538     2.858301    -4.998441
O      -1.264450     2.957764    -5.624536
O       0.717099     3.610902    -5.100353
C       0.210057    -1.488239    -1.259977
O      -0.257972    -2.658931    -1.927942
H       1.264657    -1.605108    -0.988261
40
     -1068.743899     -1068.467781   3.43   3.65
C       2.272399     2.778075     0.585241
C      -0.035549     2.561533     0.011243
C       0.077898     3.291288     1.353459
C       1.492867     3.871868     1.309800
H       3.174078     3.164974     0.097698
H      -0.400609     3.243178    -0.765070
H      -0.718991     1.718310     0.071881
H      -0.695390     4.052602     1.477323
H      -0.017376     2.584029     2.184064
H       1.516854     4.788937     0.713759
H       1.918527     4.085286     2.291693
N       1.341462     2.145322    -0.354679
C       2.679684     1.632201     1.513710
O       3.217031     1.691460     2.581175
O       2.292538     0.466797     0.949024
C       1.737765     0.750115    -0.392806
C       2.893311     0.578423    -1.378757
H       2.523838     0.733360    -2.395242
H       3.683592     1.307546    -1.187620
H       3.316905    -0.425463    -1.294417
C       0.622714    -0.266438    -0.693583
H       1.018776    -1.005333    -1.394971
H      -0.190504     0.237569    -1.220181
H       0.354686     0.083972     2.050769
C      -3.120398    -3.519116    -0.916974
C      -3.432671    -2.313173    -0.312244
C      -2.400164    -1.520234     0.167226
C      -1.074958    -1.931349     0.041888
C      -0.794492    -3.154454    -0.565221
C      -1.813604    -3.958553    -1.051347
H      -4.467664    -2.009542    -0.221571
H      -2.625243    -0.578786     0.653777
H       0.235304    -3.489146    -0.654627
H      -1.610966    -4.910178    -1.525449
N      -4.215829    -4.366950    -1.431861
O      -5.351561    -3.959776    -1.300991
O      -3.913064    -5.419658    -1.955018
C       0.062641    -1.046906     0.511066
O      -0.414021    -0.201849     1.546437
H       0.860184    -1.689938     0.901401
40
     -1068.743992     -1068.467321   3.37   3.93
C      -0.977170    -1.351415    -2.427304
C       0.225551    -2.917114    -1.170625
C      -0.606201    -3.723558    -2.160170
C      -1.675513    -2.711377    -2.605267
H      -0.903948    -0.804377    -3.372291
H       1.211249    -3.345859    -0.978105
H      -0.315583    -2.847288    -0.213585
H       0.016900    -4.021913    -3.008427
H      -1.031712    -4.624861    -1.713799
H      -1.998373    -2.869237    -3.635191
H      -2.562116    -2.763433    -1.968464
N       0.349488    -1.615129    -1.849583
C      -1.633238    -0.432755    -1.394167
O      -2.790519    -0.146412    -1.286501
O      -0.675171     0.017606    -0.558601
C       0.637999    -0.433298    -1.045339
C       1.202013     0.664087    -1.942984
H       0.588949     0.767720    -2.840593
H       1.222172     1.620248    -1.424403
H       2.218698     0.406054    -2.242370
C       1.519207    -0.759270     0.159807
H       2.409403    -1.272139    -0.216849
H       0.977951    -1.460999     0.797388
H       3.475852     1.674362     0.978599
C      -1.099301     2.771306     2.774031
C      -0.930364     1.463346     3.202736
C       0.082812     0.709687     2.635387
C       0.911617     1.245436     1.649547
C       0.717709     2.561641     1.243980
C      -0.290904     3.335270     1.803800
H      -1.582396     1.057453     3.965351
H       0.228642    -0.314652     2.966770
H       1.356021     2.989102     0.479979
H      -0.454140     4.360060     1.495698
N      -2.174422     3.588298     3.374700
O      -2.867689     3.067321     4.224106
O      -2.298759     4.730271     2.982792
C       2.017706     0.379622     1.061691
O       2.990741     1.130883     0.350196
H       2.506832    -0.124689     1.908058
40
     -1068.744046     -1068.466486   3.34   4.46
C      -2.163535    -1.764738     0.431420
C      -1.342822     0.413062    -0.070274
C      -2.862763     0.394168    -0.255276
C      -3.291665    -0.762532     0.648535
H      -2.080238    -2.487571     1.249320
H      -1.068317     1.038794     0.785293
H      -0.824202     0.817250    -0.936251
H      -3.324117     1.347463     0.011958
H      -3.124490     0.173663    -1.295998
H      -3.309829    -0.451417     1.697388
H      -4.262368    -1.191350     0.394584
N      -0.933105    -0.982951     0.232113
C      -2.325022    -2.525730    -0.889704
O      -3.287935    -3.112630    -1.290961
O      -1.178860    -2.410294    -1.588615
C      -0.171442    -1.761047    -0.728100
C       0.564397    -2.896177    -0.009799
H      -0.143725    -3.531990     0.524513
H       1.099804    -3.518814    -0.731338
H       1.268329    -2.497488     0.721411
C       0.753726    -1.021758    -1.694134
H       0.216200    -0.234029    -2.225722
H       1.022210    -1.767782    -2.451269
H       3.047209    -0.761525    -2.796490
C       1.450304     2.882683     1.468143
C       1.487998     3.095839     0.099071
C       1.708510     2.011551    -0.735942
C       1.880125     0.731861    -0.208887
C       1.851043     0.554526     1.170856
C       1.634083     1.627983     2.022877
H       1.350249     4.094932    -0.293932
H       1.755096     2.158698    -1.808948
H       1.995490    -0.433600     1.594382
H       1.604381     1.503193     3.097627
N       1.212036     4.033713     2.365530
O       1.057826     5.123094     1.853851
O       1.183661     3.818318     3.559621
C       2.070791    -0.454308    -1.130588
O       2.884765    -0.013824    -2.213199
H       2.596203    -1.239234    -0.573072
40
     -1068.741235     -1068.466407   5.10   4.51
C       1.582604    -2.306932     1.426783
C       0.199641    -3.018563    -0.355266
C       1.290247    -4.071564    -0.185926
C       2.383148    -3.307479     0.575709
H       1.654155    -2.536554     2.495953
H      -0.779824    -3.454456    -0.569609
H       0.468849    -2.346532    -1.183658
H       0.909539    -4.900404     0.418352
H       1.636828    -4.474792    -1.139683
H       3.007902    -3.957344     1.189303
H       3.039631    -2.772129    -0.115505
N       0.192266    -2.354923     0.956050
C       1.980583    -0.848542     1.226744
O       3.075851    -0.366691     1.243091
O       0.863940    -0.132023     0.987487
C      -0.314409    -0.996694     1.098922
C      -0.879002    -0.804442     2.503079
H      -1.794792    -1.390833     2.610948
H      -0.163846    -1.142744     3.256596
H      -1.100051     0.251203     2.677602
C      -1.340817    -0.579633     0.038172
H      -2.060433     0.101981     0.496723
H      -1.909195    -1.472776    -0.237117
H      -1.694469    -1.123954    -2.494272
C      -0.587234     4.338305    -0.850885
C       0.588626     3.610032    -0.819735
C       0.518680     2.229978    -0.954192
C      -0.708199     1.594087    -1.111430
C      -1.875852     2.357156    -1.144386
C      -1.824882     3.735078    -1.013735
H       1.534987     4.119460    -0.692215
H       1.431661     1.646068    -0.925850
H      -2.831892     1.866096    -1.289395
H      -2.720733     4.341704    -1.040119
N      -0.522203     5.808236    -0.709375
O       0.572904     6.312833    -0.569904
O      -1.568332     6.423354    -0.740977
C      -0.794933     0.086158    -1.244938
O      -1.669370    -0.174159    -2.341626
H       0.208429    -0.287565    -1.471711
40
     -1068.743582     -1068.466115   3.63   4.69
C      -2.121455     0.289306     2.946545
C      -2.304238    -0.904312     0.902599
C      -3.164232    -1.596148     1.971694
C      -3.424810    -0.490338     2.994349
H      -2.214004     1.295009     3.364441
H      -2.921631    -0.571619     0.061865
H      -1.551101    -1.588351     0.510919
H      -4.078740    -2.018447     1.550404
H      -2.606623    -2.411997     2.441876
H      -4.247930     0.156879     2.677609
H      -3.635896    -0.860498     3.998628
N      -1.687343     0.300307     1.540491
C      -0.973308    -0.450134     3.652563
O      -0.970994    -0.938608     4.744020
O       0.076702    -0.507976     2.804213
C      -0.231768     0.336770     1.642045
C       0.261865     1.743449     1.993812
H       0.162983     2.411666     1.139212
H      -0.290295     2.164245     2.835791
H       1.314833     1.682331     2.277613
C       0.527344    -0.216416     0.433560
H       0.563919    -1.307206     0.492213
H       1.558137     0.135786     0.515967
H      -1.336260     1.500524    -0.312003
C       3.144032     0.023134    -3.790412
C       2.456467    -1.137725    -3.476880
C       1.411450    -1.060458    -2.569139
C       1.061838     0.154979    -1.983164
C       1.769938     1.305840    -2.322020
C       2.816874     1.246655    -3.230084
H       2.740301    -2.073982    -3.939842
H       0.857377    -1.960963    -2.319493
H       1.491645     2.254208    -1.878763
H       3.376408     2.131063    -3.506372
N       4.260271    -0.046740    -4.756318
O       4.524361    -1.131814    -5.232318
O       4.845778     0.984261    -5.015279
C      -0.044050     0.198410    -0.949929
O      -0.616554     1.493859    -0.958057
H      -0.801289    -0.534947    -1.252360
40
     -1068.743053     -1068.465860   3.96   4.85
C      -1.891151    -2.467405     1.113627
C      -3.019514    -0.637269     0.199858
C      -3.993085    -1.275951     1.182045
C      -3.388586    -2.674067     1.401656
H      -1.268019    -2.736240     1.972264
H      -3.073756     0.449939     0.160723
H      -3.207658    -1.039727    -0.809192
H      -3.997166    -0.708196     2.117162
H      -5.015000    -1.309556     0.797827
H      -3.557656    -3.048074     2.412523
H      -3.806005    -3.404622     0.704321
N      -1.713081    -1.057705     0.734982
C      -1.369673    -3.227810    -0.108774
O      -1.538007    -4.378504    -0.394662
O      -0.672227    -2.365034    -0.874362
C      -0.576295    -1.068718    -0.166863
C       0.725619    -1.099283     0.627612
H       0.779975    -0.231498     1.282805
H       0.767485    -1.997412     1.246920
H       1.588158    -1.107012    -0.041935
C      -0.583740    -0.025539    -1.287893
H      -1.558689    -0.044628    -1.777302
H       0.139262    -0.375341    -2.029079
H      -1.067611     2.818043     0.157344
C       3.923259     2.251697    -0.379322
C       3.478812     1.812335    -1.616569
C       2.128118     1.550643    -1.778159
C       1.231794     1.713045    -0.720695
C       1.711017     2.160924     0.506826
C       3.060960     2.432860     0.686931
H       4.182932     1.686826    -2.428908
H       1.768030     1.219929    -2.748517
H       1.025907     2.283789     1.337577
H       3.445758     2.777636     1.638175
N       5.362167     2.536280    -0.194799
O       5.722954     2.918936     0.898689
O       6.093328     2.369129    -1.148859
C      -0.250353     1.436463    -0.952799
O      -1.061340     1.856542     0.131965
H      -0.526917     2.004577    -1.853146
40
     -1068.741529     -1068.465718   4.92   4.94
C       0.757240    -3.210802    -0.935893
C      -1.480587    -2.979415    -0.155870
C      -1.479965    -3.912709    -1.368000
C      -0.044892    -4.445390    -1.353328
H       1.702671    -3.474517    -0.448995
H      -1.646925    -3.558503     0.760012
H      -2.256698    -2.218167    -0.197433
H      -2.235007    -4.698642    -1.293511
H      -1.665638    -3.350047    -2.289818
H       0.065784    -5.228811    -0.597569
H       0.297318    -4.838435    -2.311939
N      -0.121343    -2.399016    -0.082854
C       1.062751    -2.301745    -2.127339
O       1.581950    -2.600205    -3.164090
O       0.625022    -1.062422    -1.845579
C       0.152422    -1.016555    -0.454298
C       1.318034    -0.502728     0.389111
H       0.991347    -0.345573     1.419304
H       2.119374    -1.245138     0.395539
H       1.716567     0.430285    -0.009092
C      -1.070115    -0.102955    -0.442621
H      -1.529127    -0.151197     0.549489
H      -1.793300    -0.487396    -1.164487
H      -2.555864     2.221999    -0.542296
C       0.903474     3.993140     2.044443
C       1.401626     3.988394     0.752860
C       0.844510     3.113008    -0.167507
C      -0.190414     2.251778     0.191280
C      -0.670210     2.288346     1.501154
C      -0.126889     3.155695     2.437425
H       2.206381     4.659996     0.482923
H       1.220894     3.099519    -1.185557
H      -1.477165     1.631470     1.811498
H      -0.489175     3.189367     3.456759
N       1.489801     4.920183     3.036388
O       2.391648     5.641554     2.664763
O       1.032408     4.901134     4.160062
C      -0.821797     1.355048    -0.861387
O      -2.047589     1.937564    -1.308999
H      -0.178517     1.351887    -1.744549
40
     -1068.742080     -1068.465697   4.57   4.95
C       0.914475    -2.089398    -2.545034
C      -1.281753    -2.465619    -1.704915
C      -1.310563    -2.608407    -3.227851
C       0.145737    -2.964518    -3.537560
H       1.897629    -2.505695    -2.298822
H      -1.367470    -3.453070    -1.236641
H      -2.093133    -1.856454    -1.311823
H      -2.023020    -3.364606    -3.565255
H      -1.576302    -1.656674    -3.701686
H       0.336804    -4.019977    -3.321769
H       0.447759    -2.761421    -4.566173
N       0.051591    -1.920080    -1.368040
C       1.109205    -0.666855    -3.071451
O       1.577695    -0.328744    -4.119787
O       0.635774     0.198200    -2.156434
C       0.243691    -0.538953    -0.945740
C       1.429570    -0.476647     0.014268
H       1.142271    -0.876838     0.989062
H       2.249561    -1.083129    -0.376833
H       1.786203     0.545206     0.136716
C      -1.014291     0.141361    -0.416335
H      -1.423326    -0.456868     0.402085
H      -1.750764     0.145091    -1.224998
H      -2.458951     2.299227    -0.858882
C       0.646586     2.136035     4.005122
C       1.336695     2.701457     2.948381
C       0.841198     2.519170     1.664142
C      -0.314842     1.779425     1.440413
C      -0.995655     1.237203     2.530676
C      -0.518639     1.407677     3.819856
H       2.237841     3.271061     3.134922
H       1.366013     2.962964     0.823512
H      -1.920179     0.691812     2.374383
H      -1.035100     0.992741     4.675725
N       1.164653     2.319786     5.377796
O       2.184725     2.963639     5.511417
O       0.538697     1.815150     6.286708
C      -0.859894     1.605946     0.036475
O      -2.143815     2.232542     0.048052
H      -0.196675     2.128256    -0.663686
40
     -1068.743327     -1068.465471   3.79   5.10
C      -0.663367     2.506087    -0.240659
C      -0.378024     0.654809    -1.660481
C      -1.704845     1.294712    -2.050075
C      -2.043893     2.154574    -0.822325
H      -0.476735     3.585230    -0.253495
H       0.178118     0.276761    -2.521239
H      -0.557254    -0.178544    -0.968675
H      -1.566060     1.924985    -2.933556
H      -2.474356     0.553484    -2.275146
H      -2.615260     3.047742    -1.078068
H      -2.624066     1.587356    -0.090103
N       0.342401     1.775224    -1.027666
C      -0.436019     2.006409     1.182846
O      -1.155825     2.081911     2.134747
O       0.770782     1.400070     1.223789
C       1.424447     1.497752    -0.096456
C       2.361566     2.700726    -0.020213
H       1.807965     3.617642     0.193844
H       3.103834     2.548361     0.767285
H       2.870528     2.821402    -0.978986
C       2.223320     0.202235    -0.363534
H       3.275243     0.479374    -0.460459
H       1.927719    -0.214945    -1.327605
H       2.048410     0.241551     2.247059
C      -1.568781    -3.031575     0.618837
C      -1.331484    -2.154945     1.663178
C      -0.120103    -1.478406     1.708406
C       0.839216    -1.669756     0.717552
C       0.573205    -2.576245    -0.310465
C      -0.629737    -3.260333    -0.374485
H      -2.086603    -2.006273     2.424288
H       0.063000    -0.794308     2.527043
H       1.322781    -2.753049    -1.077672
H      -0.845338    -3.961273    -1.170579
N      -2.857240    -3.753670     0.565187
O      -3.035951    -4.513885    -0.364237
O      -3.657985    -3.542878     1.452069
C       2.168383    -0.923200     0.695745
O       2.606491    -0.493247     1.966860
H       2.921511    -1.651861     0.377436
40
     -1068.741728     -1068.465303   4.79   5.20
C      -0.933019    -2.902209    -1.310385
C       1.363922    -3.057586    -0.681299
C       0.653082    -4.404035    -0.424433
C      -0.827004    -4.025859    -0.276264
H      -1.123846    -3.326401    -2.305170
H       2.207741    -3.170448    -1.369586
H       1.762912    -2.650483     0.251330
H       0.779574    -5.064896    -1.287780
H       1.053708    -4.923218     0.449018
H      -1.514459    -4.849288    -0.475335
H      -1.036690    -3.644222     0.728608
N       0.336019    -2.183683    -1.265587
C      -1.966219    -1.834372    -1.063138
O      -3.157181    -1.939833    -1.059049
O      -1.330616    -0.658575    -0.867254
C       0.096208    -0.839201    -0.712053
C       0.806733     0.197772    -1.568813
H       0.482196     0.084883    -2.604585
H       0.607404     1.214943    -1.233426
H       1.884489     0.017386    -1.519990
C       0.408414    -0.696654     0.794415
H       1.471879    -0.474921     0.927752
H       0.211939    -1.648081     1.295606
H      -0.493277     0.780475     3.479594
C       0.081451     4.386071     0.279311
C       1.109540     3.777078     0.982516
C       0.939850     2.466460     1.400521
C      -0.238389     1.775369     1.115949
C      -1.254260     2.417967     0.413850
C      -1.101319     3.729968    -0.014023
H       2.016604     4.328376     1.194483
H       1.727428     1.972919     1.960199
H      -2.171105     1.883181     0.188316
H      -1.880112     4.241647    -0.564536
N       0.253637     5.785427    -0.168981
O       1.300031     6.336801     0.101992
O      -0.661978     6.295629    -0.780149
C      -0.411878     0.339303     1.573928
O       0.019351     0.182395     2.926093
H      -1.472762     0.079918     1.488352
40
     -1068.742108     -1068.465157   4.55   5.29
C      -0.690004     2.079948    -1.934430
C       1.066321     2.422036    -0.450459
C       0.317208     3.747449    -0.502678
C      -0.570035     3.601714    -1.752154
H      -1.731630     1.753049    -1.996538
H       1.489437     2.189247     0.522689
H       1.882248     2.430771    -1.190975
H      -0.299324     3.855752     0.394653
H       0.991901     4.604556    -0.556695
H      -1.547920     4.067949    -1.621933
H      -0.105714     4.047152    -2.635037
N       0.015024     1.445128    -0.807318
C       0.060333     1.535472    -3.157565
O       0.051113     1.952866    -4.279816
O       0.795310     0.475708    -2.762703
C       0.453612     0.174398    -1.353535
C      -0.709340    -0.820357    -1.419222
H      -0.356944    -1.785016    -1.791266
H      -1.167267    -0.955540    -0.442382
H      -1.475195    -0.461038    -2.108787
C       1.739718    -0.433450    -0.778796
H       2.571463     0.247051    -0.974989
H       1.924027    -1.326069    -1.383862
H       2.405108     0.017077     2.365746
C      -1.563128    -2.805240     2.372757
C      -0.618911    -3.559645     1.696687
C       0.487225    -2.910916     1.167382
C       0.641052    -1.533369     1.303218
C      -0.324611    -0.802611     1.994042
C      -1.435150    -1.435084     2.533198
H      -0.753517    -4.628926     1.596894
H       1.242337    -3.489930     0.642659
H      -0.216206     0.271434     2.088648
H      -2.197699    -0.882706     3.067286
N      -2.746355    -3.485415     2.943539
O      -3.560717    -2.800318     3.525912
O      -2.828846    -4.686640     2.793133
C       1.854514    -0.845294     0.702794
O       2.229371     0.298191     1.462080
H       2.681188    -1.569383     0.727824
40
     -1068.742002     -1068.464862   4.62   5.48
C      -0.921539     2.751148    -0.769363
C       0.415775     2.073200    -2.618534
C      -1.045757     2.136387    -3.067503
C      -1.642491     3.126811    -2.064755
H      -0.877712     3.585740    -0.061036
H       0.976011     2.909291    -3.053261
H       0.918730     1.159362    -2.927718
H      -1.151278     2.454764    -4.107166
H      -1.526151     1.157005    -2.962644
H      -1.388686     4.154399    -2.341874
H      -2.725655     3.054833    -1.954540
N       0.406168     2.250451    -1.148597
C      -1.580249     1.557302    -0.076123
O      -2.732749     1.425293     0.221841
O      -0.644809     0.616448     0.139943
C       0.675429     1.149902    -0.227983
C       1.301327     1.718207     1.043402
H       1.307695     0.982232     1.844649
H       2.327025     2.029047     0.840540
H       0.730638     2.589834     1.372491
C       1.472609     0.010860    -0.861065
H       2.358728     0.443332    -1.334966
H       0.851559    -0.432250    -1.643938
H       3.511561    -1.408398     1.196550
C      -1.092468    -3.211632     2.184993
C      -1.035818    -3.326365     0.804010
C      -0.037661    -2.647603     0.126710
C       0.886958    -1.858068     0.810807
C       0.804842    -1.767340     2.196204
C      -0.187328    -2.443885     2.894544
H      -1.761407    -3.938162     0.283724
H       0.019666    -2.734516    -0.954675
H       1.518935    -1.159733     2.739178
H      -0.263605    -2.379678     3.972419
N      -2.150801    -3.934776     2.920784
O      -2.177070    -3.816871     4.128495
O      -2.929235    -4.603164     2.272117
C       1.975099    -1.141020     0.022627
O       3.027218    -0.655726     0.843916
H       2.386492    -1.876659    -0.684202
40
     -1068.741542     -1068.463812   4.91   6.14
C       2.146287    -1.151036     2.335808
C       2.110606    -2.186945     0.186861
C       3.320707    -1.252419     0.258600
C       3.567276    -1.158719     1.766855
H       2.108851    -1.542968     3.358889
H       2.445799    -3.229556     0.241077
H       1.534990    -2.082789    -0.729942
H       4.179345    -1.638039    -0.295424
H       3.076067    -0.264367    -0.147647
H       4.098068    -2.046078     2.124039
H       4.126819    -0.274322     2.076058
N       1.309337    -1.908596     1.399561
C       1.528472     0.246181     2.336100
O       1.978083     1.254719     2.796236
O       0.344755     0.190815     1.692823
C       0.039913    -1.206370     1.352035
C      -0.875116    -1.737125     2.455237
H      -0.343600    -1.765947     3.409291
H      -1.756014    -1.099506     2.563847
H      -1.190023    -2.754329     2.209776
C      -0.701131    -1.217613     0.011898
H      -1.744299    -0.966072     0.214971
H      -0.700447    -2.251833    -0.344020
H      -0.608758    -1.527757    -2.568163
C      -2.750490     2.996901    -2.017988
C      -2.220823     2.256328    -3.058425
C      -1.385261     1.188135    -2.758797
C      -1.087909     0.861881    -1.437165
C      -1.628758     1.640228    -0.410423
C      -2.462843     2.709007    -0.693301
H      -2.458552     2.516919    -4.081780
H      -0.947856     0.615341    -3.567263
H      -1.383019     1.422847     0.621922
H      -2.886664     3.317841     0.094869
N      -3.642113     4.134206    -2.327403
O      -3.873141     4.365444    -3.496258
O      -4.089483     4.767607    -1.393898
C      -0.152929    -0.302216    -1.111804
O       0.176874    -1.053134    -2.275524
H       0.796984     0.133334    -0.791529
40
     -1068.742844     -1068.463437   4.09   6.37
C      -0.758373     2.006513    -1.412897
C      -0.252060    -0.263689    -1.936990
C      -1.670392    -0.196057    -1.366462
C      -2.068309     1.255054    -1.646481
H      -0.715645     2.948349    -1.972464
H      -0.285096    -0.482669    -3.010714
H       0.345580    -1.037868    -1.464458
H      -2.339979    -0.925344    -1.827744
H      -1.658635    -0.382420    -0.289340
H      -2.377049     1.378266    -2.688722
H      -2.864741     1.631284    -1.002315
N       0.329161     1.085818    -1.763984
C      -0.508335     2.320675     0.060010
O      -1.247401     2.814899     0.860027
O       0.744895     1.924653     0.367775
C       1.407355     1.380677    -0.834669
C       2.254973     2.520471    -1.399481
H       1.623151     3.356469    -1.708112
H       2.966071     2.874681    -0.648774
H       2.800662     2.161883    -2.275347
C       2.312727     0.206494    -0.405268
H       3.347284     0.551233    -0.467995
H       2.225579    -0.602855    -1.132637
H       1.973439     1.380972     1.874209
C      -1.551424    -2.374388     1.793142
C      -0.594020    -2.982615     0.996871
C       0.597237    -2.310968     0.772808
C       0.830374    -1.045225     1.313543
C      -0.147354    -0.472439     2.123687
C      -1.343695    -1.132888     2.368782
H      -0.785342    -3.959887     0.572707
H       1.365459    -2.787120     0.168343
H       0.014155     0.497753     2.575565
H      -2.111836    -0.691560     2.990714
N      -2.831208    -3.073571     2.032935
O      -2.993133    -4.148273     1.492067
O      -3.643265    -2.530337     2.752287
C       2.161159    -0.357595     1.026183
O       2.519549     0.596794     2.004767
H       2.928483    -1.135171     1.108427
40
     -1068.739360     -1068.463354   6.28   6.42
C       0.742409    -2.967354    -1.219068
C      -1.547569    -2.948346    -0.544545
C      -1.375641    -3.817971    -1.808698
C      -0.093894    -3.282786    -2.461603
H       1.272126    -3.869961    -0.886066
H      -1.976441    -3.520097     0.284703
H      -2.226270    -2.114143    -0.742213
H      -1.234553    -4.865756    -1.525548
H      -2.246309    -3.769005    -2.466343
H       0.392293    -3.996068    -3.128579
H      -0.294701    -2.369032    -3.031577
N      -0.193271    -2.487676    -0.208231
C       1.756420    -1.859261    -1.333237
O       2.740594    -1.820004    -2.010706
O       1.402359    -0.863851    -0.490811
C       0.074317    -1.061788     0.047295
C       0.117087    -0.814488     1.547703
H      -0.864274    -1.047902     1.970850
H       0.855311    -1.481685     1.995668
H       0.364707     0.218338     1.788680
C      -0.859976    -0.084072    -0.700727
H      -1.779393     0.059757    -0.124593
H      -1.144888    -0.542728    -1.654287
H      -1.428535     1.604769    -2.618372
C       0.814849     3.660389     2.328597
C       1.812797     3.080085     1.565460
C       1.445501     2.322920     0.461193
C       0.104564     2.146176     0.135094
C      -0.877840     2.749540     0.919807
C      -0.529521     3.510901     2.024017
H       2.850934     3.223423     1.835723
H       2.212101     1.855464    -0.147788
H      -1.922872     2.632420     0.654959
H      -1.277752     3.988541     2.643263
N       1.194856     4.471504     3.505346
O       0.300499     4.970891     4.156242
O       2.377985     4.588385     3.749154
C      -0.284756     1.300467    -1.057012
O      -1.277466     2.036051    -1.771903
H       0.604213     1.163946    -1.681849
40
     -1068.738741     -1068.460977   6.66   7.92
C      -1.084146     2.268273    -0.690478
C      -0.564660     1.035090    -2.633289
C      -1.730754     0.309105    -1.956711
C      -2.318257     1.419314    -1.075693
H      -1.317677     3.339698    -0.719507
H      -0.947702     1.674042    -3.438372
H       0.186582     0.384750    -3.080201
H      -2.451140    -0.095771    -2.671422
H      -1.368843    -0.519792    -1.338477
H      -3.014950     2.033578    -1.652266
H      -2.845368     1.052391    -0.193242
N       0.006053     1.906599    -1.600514
C      -0.549236     1.961620     0.689386
O      -1.113888     2.037719     1.740296
O       0.737180     1.577082     0.578948
C       1.174866     1.491725    -0.806304
C       2.300570     2.507564    -0.978989
H       1.946396     3.500166    -0.692014
H       3.171734     2.239139    -0.376931
H       2.591697     2.535624    -2.032070
C       1.685479     0.051187    -1.041441
H       2.512009     0.104211    -1.755584
H       0.906961    -0.559602    -1.495118
H       2.504052     0.783512     1.404693
C      -1.129690    -2.651952     2.173082
C      -0.486779    -1.620583     2.833558
C       0.586464    -0.994935     2.214509
C       1.009648    -1.388851     0.949173
C       0.346434    -2.444534     0.318654
C      -0.727574    -3.080962     0.917788
H      -0.828671    -1.311837     3.812858
H       1.083314    -0.185604     2.733860
H       0.680096    -2.784135    -0.658681
H      -1.247857    -3.897625     0.434187
N      -2.273533    -3.321612     2.825051
O      -2.602250    -2.930874     3.925916
O      -2.816027    -4.223249     2.219164
C       2.169366    -0.717123     0.215545
O       3.012630     0.043900     1.053410
H       2.807476    -1.527244    -0.152776
