40
     -1068.749829     -1068.472299   0.00   0.00
C      -0.765583    -1.816534     3.048850
C      -1.594474    -1.565589     0.892159
C      -2.726252    -2.207435     1.684507
C      -2.025354    -2.694915     2.966563
H      -0.669231    -1.318023     4.016882
H      -1.932690    -0.872367     0.121810
H      -0.985249    -2.348433     0.416001
H      -3.483091    -1.454577     1.923226
H      -3.212504    -3.013712     1.131888
H      -2.653710    -2.575681     3.850311
H      -1.741487    -3.747584     2.901106
N      -0.832677    -0.847126     1.941234
C       0.540687    -2.569172     2.757557
O       0.907273    -3.617246     3.199602
O       1.250792    -1.851706     1.854828
C       0.570571    -0.572845     1.644325
C       1.152305     0.414872     2.658084
H       1.107917     0.006630     3.668870
H       2.201018     0.611131     2.422095
H       0.599543     1.355935     2.649059
C       0.835138    -0.128234     0.209210
H       0.384891    -0.828778    -0.496301
H       1.916511    -0.166469     0.050412
H      -1.218971     1.090812     1.069328
C       1.039137     2.099745    -4.232502
C      -0.217627     1.670875    -3.838969
C      -0.448482     1.428066    -2.493011
C       0.565965     1.614221    -1.556535
C       1.817882     2.053981    -1.983654
C       2.066704     2.298928    -3.325148
H      -0.994885     1.533669    -4.579680
H      -1.427200     1.102778    -2.162392
H       2.610310     2.213827    -1.257718
H       3.033629     2.639749    -3.672030
N       1.291738     2.357017    -5.665438
O       0.374599     2.177779    -6.439868
O       2.402200     2.731979    -5.981877
C       0.343675     1.301337    -0.091547
O      -1.029856     1.483436     0.205681
H       0.946835     2.009664     0.493075
40
     -1068.747714     -1068.471752   1.33   0.34
C      -2.799433     2.234147    -0.354326
C      -2.579141    -0.003947    -1.009756
C      -4.066851     0.314360    -1.093981
C      -4.189080     1.583430    -0.232901
H      -2.853334     3.231932    -0.801057
H      -2.228878    -0.676238    -1.795907
H      -2.361740    -0.467266    -0.034420
H      -4.340556     0.526705    -2.131683
H      -4.692451    -0.505741    -0.735337
H      -4.980251     2.249808    -0.579154
H      -4.396976     1.336645     0.811232
N      -1.964546     1.326627    -1.156243
C      -2.032596     2.345575     0.965641
O      -2.422262     2.764073     2.017091
O      -0.789332     1.858592     0.774243
C      -0.616152     1.528698    -0.652328
C       0.015974     2.739750    -1.330881
H      -0.667199     3.591130    -1.302118
H       0.946114     3.022705    -0.838048
H       0.230682     2.500268    -2.373641
C       0.258160     0.280303    -0.715462
H       0.343801    -0.042451    -1.757300
H      -0.230008    -0.515774    -0.153271
H       3.359880     1.179131    -0.848070
C       3.059639    -3.235544     1.469659
C       3.322346    -2.953859     0.139323
C       2.885361    -1.745394    -0.384366
C       2.199082    -0.834406     0.416241
C       1.952241    -1.147016     1.752070
C       2.378790    -2.351426     2.290491
H       3.857743    -3.673456    -0.466726
H       3.077900    -1.505730    -1.424154
H       1.417663    -0.438357     2.378695
H       2.194375    -2.609515     3.325292
N       3.520893    -4.522568     2.032865
O       4.115193    -5.278848     1.293082
O       3.276624    -4.743667     3.200875
C       1.674080     0.472150    -0.152927
O       2.493582     0.962270    -1.207681
H       1.630665     1.202903     0.664935
40
     -1068.746517     -1068.470918   2.08   0.87
C      -0.193193     0.879578     3.234540
C       1.717589    -0.176083     2.419530
C       1.627390    -0.573705     3.887332
C       0.634591     0.454515     4.459953
H      -1.265049     0.721185     3.385488
H       2.119272    -0.961229     1.775920
H       2.360437     0.712319     2.319704
H       1.221937    -1.586227     3.970974
H       2.598394    -0.552051     4.386376
H       0.005038     0.031075     5.243811
H       1.150111     1.320869     4.881066
N       0.310223     0.115305     2.082889
C       0.019453     2.335448     2.802210
O       0.013533     3.319012     3.483836
O       0.251697     2.351486     1.472412
C       0.070013     0.990405     0.946914
C      -1.381060     0.881954     0.483584
H      -1.554669     1.538942    -0.371635
H      -1.613392    -0.144128     0.199977
H      -2.063444     1.176738     1.283281
C       1.066140     0.828326    -0.195787
H       2.075433     1.013294     0.171949
H       0.851865     1.604193    -0.934187
H       2.424207    -1.587777    -1.817958
C      -1.685413    -0.989429    -4.109468
C      -0.685444    -0.032223    -4.194921
C       0.195138     0.102352    -3.134296
C       0.075571    -0.702706    -2.000138
C      -0.930836    -1.662612    -1.954421
C      -1.824447    -1.812914    -3.007275
H      -0.607089     0.585769    -5.080070
H       0.994082     0.834361    -3.190638
H      -1.023162    -2.304152    -1.082772
H      -2.614363    -2.552417    -2.981594
N      -2.632037    -1.137363    -5.236723
O      -2.486128    -0.403390    -6.191587
O      -3.495796    -1.983482    -5.135649
C       1.062365    -0.558895    -0.853997
O       2.396152    -0.762506    -1.322656
H       0.814892    -1.313840    -0.095973
40
     -1068.746516     -1068.470875   2.08   0.89
C      -2.080929     0.540520    -2.576192
C      -2.936279     0.094895    -0.455006
C      -3.980974    -0.427010    -1.433233
C      -3.581988     0.253678    -2.755416
H      -1.477469     0.093281    -3.371520
H      -2.849189    -0.503052     0.454321
H      -3.189350     1.126532    -0.164944
H      -3.894520    -1.514012    -1.520066
H      -5.000243    -0.188989    -1.122096
H      -3.769746    -0.381753    -3.622060
H      -4.125394     1.189317    -2.906835
N      -1.695306     0.029733    -1.251673
C      -1.728326     2.030292    -2.487649
O      -2.087955     2.920356    -3.202156
O      -0.928952     2.212092    -1.415070
C      -0.601939     0.897169    -0.844124
C       0.708268     0.446466    -1.486170
H       0.636986     0.486501    -2.574917
H       1.526212     1.099772    -1.174180
H       0.939082    -0.578804    -1.198470
C      -0.481470     1.095029     0.662752
H      -1.411635     1.509976     1.051048
H       0.295016     1.843224     0.837184
H      -0.544047    -0.734213     3.301137
C       3.978826    -1.077267     1.921379
C       3.485218     0.116263     2.426630
C       2.138481     0.397185     2.265702
C       1.296422    -0.497618     1.603204
C       1.822756    -1.692337     1.121498
C       3.170657    -1.992479     1.272088
H       4.151275     0.800715     2.935978
H       1.731297     1.318381     2.669332
H       1.172929    -2.401989     0.617523
H       3.592969    -2.915998     0.897575
N       5.416785    -1.383440     2.086361
O       5.821002    -2.434984     1.635721
O       6.102221    -0.564113     2.661386
C      -0.183094    -0.186506     1.453880
O      -0.777767     0.010693     2.737497
H      -0.659824    -1.037504     0.949577
40
     -1068.747048     -1068.470829   1.74   0.92
C      -3.671551    -0.598332    -0.001325
C      -1.808462    -1.244862    -1.264925
C      -3.027643    -1.749133    -2.026513
C      -4.136219    -1.709136    -0.960182
H      -4.397824     0.218771     0.059662
H      -1.001532    -0.885472    -1.903470
H      -1.420971    -2.053177    -0.623430
H      -3.258781    -1.062699    -2.846434
H      -2.877537    -2.746009    -2.446896
H      -5.117983    -1.493406    -1.384220
H      -4.208257    -2.659256    -0.424911
N      -2.365920    -0.127733    -0.485179
C      -3.372105    -1.073162     1.421829
O      -4.047703    -1.759472     2.133199
O      -2.160834    -0.598923     1.777449
C      -1.662800     0.293092     0.711468
C      -2.072376     1.713930     1.091173
H      -1.574844     2.022671     2.014617
H      -1.815837     2.399563     0.282000
H      -3.150460     1.769156     1.253622
C      -0.142904     0.111911     0.713760
H       0.121696    -0.874219     0.328601
H       0.169431     0.132123     1.761764
H       0.698236     1.911745    -1.840858
C       4.829276     0.288399     0.337334
C       4.268124     1.219711     1.193713
C       2.918797     1.514549     1.056904
C       2.145452     0.885101     0.084550
C       2.742685    -0.045838    -0.765368
C       4.089616    -0.350711    -0.645072
H       4.881567     1.699466     1.945354
H       2.465805     2.249804     1.715996
H       2.145767    -0.533425    -1.528472
H       4.568721    -1.070565    -1.296179
N       6.266301    -0.033635     0.473613
O       6.732688    -0.853139    -0.289935
O       6.890066     0.541755     1.341030
C       0.659337     1.183502    -0.027722
O       0.226245     1.210461    -1.381134
H       0.472731     2.156595     0.444583
40
     -1068.746343     -1068.470739   2.19   0.98
C       2.561757    -1.578056     0.084764
C       2.974498     0.669253     0.600169
C       4.172989    -0.109671     1.127269
C       3.641804    -1.552365     1.181237
H       2.790310    -2.311133    -0.695315
H       3.233862     1.648209     0.192159
H       2.246606     0.814587     1.413556
H       5.003406    -0.032529     0.419274
H       4.515665     0.254595     2.098032
H       4.421751    -2.292839     0.998911
H       3.194158    -1.775117     2.152948
N       2.465054    -0.216282    -0.462749
C       1.146353    -1.853028     0.596670
O       0.780487    -2.720925     1.334744
O       0.321309    -0.914272     0.086991
C       1.071962    -0.080342    -0.861654
C       0.878022    -0.680312    -2.253085
H       1.364550    -1.655060    -2.321455
H      -0.181308    -0.819256    -2.473125
H       1.325121    -0.024435    -3.003908
C       0.572578     1.358022    -0.766412
H       1.260447     1.982085    -1.344808
H       0.618451     1.695252     0.270566
H      -1.845914     3.315958    -1.486038
C      -3.979639    -0.207142     0.938190
C      -3.214070     0.778090     1.544011
C      -2.198463     1.370870     0.812721
C      -1.946602     0.981802    -0.503376
C      -2.740404    -0.001509    -1.084008
C      -3.763370    -0.608716    -0.367595
H      -3.420684     1.066660     2.566592
H      -1.595921     2.150656     1.266323
H      -2.563901    -0.300652    -2.112820
H      -4.386082    -1.377660    -0.806250
N      -5.066933    -0.844633     1.711613
O      -5.237414    -0.471726     2.853782
O      -5.722676    -1.701937     1.156494
C      -0.835743     1.648807    -1.294685
O      -0.950886     3.070157    -1.229521
H      -0.911130     1.324593    -2.340214
40
     -1068.746899     -1068.470435   1.84   1.17
C      -0.831886    -3.380196     0.684879
C      -1.293009    -1.193029     1.437035
C      -2.355232    -2.100984     2.047077
C      -2.301553    -3.339832     1.139763
H      -0.311462    -4.262876     1.072386
H      -0.953513    -0.411661     2.121159
H      -1.701682    -0.713674     0.535956
H      -2.072226    -2.362340     3.071022
H      -3.341939    -1.634054     2.072882
H      -2.593163    -4.255612     1.655118
H      -2.959547    -3.221682     0.274885
N      -0.202475    -2.135950     1.146524
C      -0.636941    -3.344264    -0.828347
O      -1.170653    -4.008218    -1.666448
O       0.270113    -2.380115    -1.114146
C       0.797702    -1.814904     0.142741
C       2.093370    -2.557788     0.455092
H       1.903129    -3.618063     0.636651
H       2.792707    -2.464623    -0.379130
H       2.544017    -2.131371     1.354516
C       1.061772    -0.315258    -0.057333
H       2.117141    -0.174729    -0.305053
H       0.899047     0.184788     0.900365
H       0.604196    -0.910606    -2.560971
C       0.630398     4.611391    -0.610347
C      -0.289298     3.906366     0.149318
C      -0.405995     2.541627    -0.059088
C       0.383179     1.890025    -1.006731
C       1.295349     2.627154    -1.757681
C       1.423743     3.995395    -1.563074
H      -0.894851     4.424782     0.881397
H      -1.128141     1.975643     0.523002
H       1.899397     2.126674    -2.504278
H       2.126384     4.583840    -2.139025
N       0.764817     6.067417    -0.397776
O       1.576008     6.663191    -1.075926
O       0.055268     6.580311     0.443303
C       0.260622     0.388610    -1.170773
O       0.746788     0.036897    -2.452763
H      -0.801581     0.127717    -1.096181
40
     -1068.746852     -1068.470016   1.87   1.43
C      -2.231316     2.773785    -0.056722
C       0.108533     2.328189    -0.019538
C      -0.263659     2.856971    -1.406429
C      -1.544190     3.643349    -1.112521
H      -2.895387     3.356314     0.592210
H       0.659100     3.096242     0.536487
H       0.741697     1.443412    -0.044650
H       0.526921     3.467159    -1.848762
H      -0.478449     2.031966    -2.095172
H      -1.304422     4.619707    -0.681533
H      -2.184125     3.797462    -1.982687
N      -1.168458     2.083635     0.681774
C      -3.044020     1.640462    -0.679255
O      -3.880105     1.706579    -1.531161
O      -2.653408     0.475764    -0.117217
C      -1.671716     0.746965     0.950150
C      -2.447107     0.751181     2.265544
H      -3.158217     1.580451     2.289300
H      -2.993852    -0.186575     2.390253
H      -1.747544     0.876880     3.095638
C      -0.635052    -0.379899     0.937565
H      -1.021404    -1.207352     1.538748
H       0.261596    -0.019383     1.448887
H      -2.111127    -1.337994    -0.953183
C       3.364063    -3.174238    -0.060643
C       3.417262    -1.870072    -0.520336
C       2.226669    -1.170968    -0.660642
C       1.007215    -1.762953    -0.342045
C       0.987364    -3.081633     0.111538
C       2.166102    -3.796171     0.254606
H       4.372138    -1.422402    -0.763721
H       2.253572    -0.152640    -1.037130
H       0.038417    -3.552132     0.340387
H       2.168228    -4.820921     0.603264
N       4.625298    -3.929146     0.093116
O       4.551743    -5.071858     0.494983
O       5.659062    -3.360093    -0.191670
C      -0.279676    -0.969742    -0.443225
O      -1.292805    -1.846547    -0.903945
H      -0.128942    -0.163751    -1.172264
40
     -1068.746852     -1068.470012   1.87   1.44
C      -2.476344     2.185731    -1.328746
C      -1.340475     0.170912    -1.898886
C      -2.790024    -0.171012    -1.547472
C      -3.502348     1.158149    -1.812931
H      -2.588644     3.152885    -1.832189
H      -1.188957     0.082930    -2.981242
H      -0.610204    -0.482086    -1.424902
H      -3.182039    -0.998456    -2.143013
H      -2.882641    -0.442909    -0.489824
H      -3.676218     1.292876    -2.884440
H      -4.454797     1.267075    -1.291934
N      -1.151591     1.587489    -1.524764
C      -2.556813     2.418675     0.178474
O      -3.515449     2.693130     0.837880
O      -1.324979     2.242580     0.704452
C      -0.355379     1.996239    -0.379787
C       0.314184     3.335470    -0.679271
H       1.095098     3.188006    -1.429385
H      -0.412614     4.047343    -1.077938
H       0.756596     3.753283     0.228235
C       0.671986     0.979499     0.125601
H       1.452894     1.521388     0.665886
H       1.155680     0.527405    -0.744476
H      -0.670142     1.137200     2.326732
C       3.036464    -3.253021     1.262014
C       3.196174    -2.147548     2.082801
C       2.246418    -1.139543     2.034013
C       1.151090    -1.237171     1.176272
C       1.014316    -2.366096     0.372604
C       1.957263    -3.383770     0.405701
H       4.050971    -2.088499     2.744249
H       2.344819    -0.272096     2.675963
H       0.153639    -2.464847    -0.282335
H       1.863885    -4.266490    -0.213588
N       4.047497    -4.330092     1.306192
O       4.983306    -4.192634     2.066499
O       3.880820    -5.287426     0.578643
C       0.146408    -0.106608     1.087361
O      -0.039989     0.409770     2.393525
H      -0.799865    -0.517733     0.714025
40
     -1068.746112     -1068.469820   2.33   1.56
C      -2.814195     2.291765    -0.280709
C      -2.552785     0.259686    -1.494969
C      -3.655224     0.066466    -0.451939
C      -4.126111     1.505260    -0.223003
H      -2.966917     3.334440    -0.581062
H      -2.995152     0.332029    -2.495493
H      -1.834312    -0.557250    -1.523320
H      -4.449046    -0.599637    -0.797723
H      -3.243336    -0.349075     0.474745
H      -4.783777     1.827226    -1.035993
H      -4.644463     1.661994     0.724289
N      -1.917987     1.559025    -1.184843
C      -2.082029     2.276267     1.061565
O      -2.511410     2.582844     2.136608
O      -0.831474     1.825376     0.863258
C      -0.596668     1.647461    -0.579814
C       0.101413     2.910502    -1.076652
H      -0.579942     3.761049    -0.997807
H       0.999334     3.123904    -0.496124
H       0.380840     2.783767    -2.123953
C       0.254581     0.387967    -0.709243
H       0.372902     0.130629    -1.765842
H      -0.273024    -0.427164    -0.210514
H       3.371419     1.236679    -0.668536
C       2.915097    -3.354788     1.258807
C       3.237345    -2.963649    -0.030043
C       2.840606    -1.706378    -0.463234
C       2.135179    -0.855827     0.385673
C       1.827718    -1.278661     1.677916
C       2.213481    -2.532888     2.125614
H       3.786892    -3.637657    -0.674626
H       3.079913    -1.381033    -1.469469
H       1.277271    -0.617570     2.341720
H       1.981961    -2.876471     3.125505
N       3.333341    -4.694106     1.725464
O       3.947164    -5.393946     0.947083
O       3.036855    -5.011319     2.858711
C       1.653380     0.504737    -0.087429
O       2.514715     1.063305    -1.071995
H       1.596443     1.165037     0.787380
40
     -1068.745432     -1068.469751   2.76   1.60
C      -2.953938     1.988571     0.159342
C      -2.618802    -0.096227    -0.860916
C      -4.127650     0.105762    -0.797321
C      -4.275970     1.207290     0.266075
H      -3.119938     3.033319    -0.122831
H      -2.282243    -0.603644    -1.767395
H      -2.294087    -0.687727     0.009222
H      -4.494355     0.455878    -1.766729
H      -4.662801    -0.810347    -0.538988
H      -5.140711     1.847950     0.088524
H      -4.379193     0.781033     1.267068
N      -2.114893     1.288128    -0.825931
C      -2.100681     1.969944     1.428990
O      -2.437676     2.193355     2.554622
O      -0.839527     1.627251     1.085890
C      -0.752420     1.518643    -0.379090
C      -0.263365     2.867776    -0.902814
H      -1.016674     3.639711    -0.737266
H       0.643796     3.183181    -0.380456
H      -0.079684     2.803200    -1.978171
C       0.204254     0.372161    -0.687517
H       0.205424     0.185908    -1.765656
H      -0.168752    -0.525477    -0.193992
H       2.140483     2.115016    -1.401182
C       3.411121    -3.126722     0.863136
C       3.756820    -2.572607    -0.356992
C       3.202857    -1.351873    -0.718903
C       2.317470    -0.700474     0.134949
C       1.991405    -1.282605     1.360589
C       2.533651    -2.500740     1.734886
H       4.448436    -3.093086    -1.006847
H       3.465350    -0.897612    -1.666209
H       1.304024    -0.772733     2.030300
H       2.290707    -2.965693     2.681532
N       3.996876    -4.426563     1.251265
O       4.762767    -4.954507     0.471650
O       3.676520    -4.888654     2.327206
C       1.664358     0.612528    -0.243685
O       2.444103     1.213297    -1.268660
H       1.662939     1.247389     0.652306
40
     -1068.746728     -1068.469651   1.95   1.66
C      -2.345748     2.698576     0.781443
C      -0.338684     1.773871     1.666212
C      -0.268489     3.300010     1.748093
C      -1.746362     3.692691     1.770501
H      -3.423979     2.567472     0.911512
H      -0.418905     1.349027     2.672371
H       0.539735     1.328568     1.206051
H       0.284922     3.640585     2.625878
H       0.218850     3.716977     0.860241
H      -2.177723     3.531764     2.763089
H      -1.939861     4.722734     1.467556
N      -1.593574     1.439494     0.930740
C      -2.057719     3.118742    -0.665946
O      -2.269525     4.177256    -1.180527
O      -1.465854     2.085751    -1.301216
C      -1.533717     0.910297    -0.429739
C      -2.849740     0.199265    -0.761319
H      -3.012399    -0.651337    -0.096825
H      -3.694566     0.880478    -0.644976
H      -2.835419    -0.148667    -1.797157
C      -0.333619     0.033072    -0.770911
H       0.599716     0.559641    -0.565602
H      -0.362742    -0.130868    -1.852011
H      -1.205829    -0.662780     1.542638
C       3.318939    -3.326138    -1.046176
C       3.238421    -2.622580     0.144250
C       2.045390    -1.993624     0.467625
C       0.949986    -2.070896    -0.389896
C       1.060589    -2.792726    -1.576890
C       2.246372    -3.425516    -1.916905
H       4.098623    -2.575061     0.799516
H       1.956777    -1.447495     1.398868
H       0.206784    -2.868193    -2.244539
H       2.348087    -3.989030    -2.835348
N       4.588545    -3.995808    -1.397465
O       4.630476    -4.606302    -2.445930
O       5.512700    -3.895044    -0.617264
C      -0.338580    -1.341202    -0.073566
O      -0.464889    -1.246327     1.334840
H      -1.166983    -1.936677    -0.481221
40
     -1068.743722     -1068.468960   3.83   2.10
C      -3.377668    -1.286274     0.622524
C      -2.617643     0.919749     0.433826
C      -4.139251     0.997299     0.413882
C      -4.545581    -0.447076     0.074177
H      -3.707817    -1.993381     1.389763
H      -2.144013     1.752802     0.957882
H      -2.241529     0.901277    -0.601238
H      -4.507325     1.276503     1.405548
H      -4.512778     1.726340    -0.308287
H      -5.496448    -0.731704     0.526649
H      -4.635841    -0.591443    -1.005303
N      -2.376385    -0.345639     1.148187
C      -2.602860    -2.067365    -0.441976
O      -3.037695    -2.765776    -1.311265
O      -1.287178    -1.828478    -0.267526
C      -1.103657    -1.022693     0.951517
C      -0.846118    -1.987162     2.104955
H       0.005254    -2.632900     1.892604
H      -0.637662    -1.419601     3.013888
H      -1.725387    -2.610476     2.280409
C       0.060225    -0.070141     0.691083
H       0.145353     0.601661     1.551544
H      -0.174229     0.535953    -0.185669
H       2.486888    -0.436633     2.052565
C       4.116952     1.667352    -1.814733
C       3.821642     0.393217    -2.265751
C       2.934053    -0.380743    -1.530787
C       2.350417     0.109086    -0.365719
C       2.666985     1.402331     0.055992
C       3.552650     2.190218    -0.662276
H       4.282436     0.022366    -3.172216
H       2.694259    -1.383667    -1.869237
H       2.212712     1.814023     0.953256
H       3.806231     3.193779    -0.345967
N       5.062450     2.500875    -2.588760
O       5.300257     3.614504    -2.169824
O       5.541228     2.019384    -3.594082
C       1.409999    -0.765523     0.444889
O       2.035662    -1.188093     1.655310
H       1.231416    -1.683946    -0.119830
40
     -1068.746301     -1068.468853   2.21   2.16
C       2.049112    -1.919455     1.587079
C       2.257944     0.247124     2.454328
C       3.440234    -0.542413     3.002247
C       2.995283    -2.000422     2.798466
H       2.412621    -2.517649     0.745782
H       2.497503     1.285955     2.218186
H       1.441043     0.237278     3.192934
H       4.334503    -0.327154     2.410141
H       3.654956    -0.304706     4.046124
H       3.833673    -2.672815     2.612334
H       2.456091    -2.376738     3.671338
N       1.924225    -0.498246     1.227547
C       0.608504    -2.341839     1.878404
O       0.214121    -3.317290     2.444627
O      -0.215109    -1.383505     1.390273
C       0.587003    -0.374150     0.667722
C       0.616309    -0.787116    -0.801407
H       1.110707    -0.012560    -1.390785
H       1.178190    -1.715477    -0.920750
H      -0.389252    -0.942995    -1.187989
C      -0.040902     1.000085     0.911744
H       0.573515     1.727709     0.373915
H       0.032457     1.236617     1.974156
H      -1.959295    -0.455126     1.468869
C      -2.432699     1.132828    -3.646968
C      -1.464025     2.008386    -3.181034
C      -1.180776     2.019863    -1.825412
C      -1.843106     1.163320    -0.944263
C      -2.820452     0.306743    -1.442539
C      -3.120249     0.283593    -2.798192
H      -0.954062     2.665557    -3.873575
H      -0.434858     2.715912    -1.452679
H      -3.355663    -0.340604    -0.759120
H      -3.877134    -0.379402    -3.197479
N      -2.744811     1.113316    -5.090923
O      -2.126957     1.872282    -5.809223
O      -3.599128     0.340061    -5.471748
C      -1.524848     1.214503     0.546611
O      -2.386317     0.395991     1.310990
H      -1.748349     2.242541     0.860268
40
     -1068.744951     -1068.468786   3.06   2.20
C      -0.408118     3.324780    -1.687365
C      -0.387545     1.038011    -2.353223
C      -1.640900     1.704778    -2.922796
C      -1.226378     3.177574    -2.970726
H       0.315564     4.145570    -1.746926
H       0.333711     0.835638    -3.152393
H      -0.582418     0.086337    -1.866070
H      -1.923559     1.302742    -3.898591
H      -2.491891     1.574513    -2.244402
H      -0.587293     3.369363    -3.837900
H      -2.062470     3.878525    -2.994080
N       0.220886     2.022727    -1.432451
C      -1.298697     3.551171    -0.465270
O      -2.152127     4.378982    -0.319405
O      -0.990687     2.629513     0.463396
C       0.181058     1.856094     0.009131
C       1.407856     2.519388     0.633847
H       1.453041     3.570654     0.341090
H       1.363729     2.468852     1.725469
H       2.314541     2.030832     0.273035
C      -0.051675     0.451188     0.568580
H      -0.905349    -0.016821     0.074260
H      -0.343858     0.588231     1.613747
H       2.404735    -1.167524    -0.786629
C       0.005704    -4.246328     2.250464
C       0.641380    -3.316283     3.054562
C       1.024577    -2.107378     2.490687
C       0.771563    -1.833229     1.148814
C       0.132882    -2.793894     0.364779
C      -0.254575    -4.007973     0.910341
H       0.829824    -3.542999     4.095976
H       1.532245    -1.370627     3.106909
H      -0.059211    -2.588113    -0.682770
H      -0.751075    -4.764366     0.316182
N      -0.407095    -5.538292     2.840307
O      -0.166315    -5.720378     4.015629
O      -0.960956    -6.335844     2.112826
C       1.156161    -0.488452     0.553714
O       1.618078    -0.613406    -0.784287
H       1.944664    -0.053556     1.181544
40
     -1068.743909     -1068.468319   3.71   2.50
C       2.067953     0.343763    -2.480993
C       2.466500     1.494027    -0.497344
C       3.042658     2.374478    -1.599317
C       3.129168     1.411517    -2.797182
H       1.333646     0.240412    -3.284781
H       2.031752     2.065587     0.325748
H       3.260562     0.847730    -0.090975
H       2.350711     3.193730    -1.814686
H       4.008290     2.805251    -1.326999
H       2.926501     1.911585    -3.745213
H       4.115283     0.947295    -2.871691
N       1.429218     0.724986    -1.210401
C       2.643412    -1.044313    -2.173612
O       3.471223    -1.655083    -2.784399
O       2.072293    -1.495674    -1.036230
C       1.024249    -0.545959    -0.629276
C      -0.280106    -1.031838    -1.257595
H      -0.589757    -1.975595    -0.803624
H      -1.067826    -0.293052    -1.119840
H      -0.149765    -1.197657    -2.328685
C       1.001025    -0.573322     0.896219
H       2.009036    -0.350280     1.256046
H       0.784473    -1.597791     1.208255
H       1.295648     0.897300     2.979065
C      -4.036248    -0.953171     1.671231
C      -3.064790    -1.698489     2.322137
C      -1.753416    -1.254197     2.285182
C      -1.416781    -0.085339     1.602952
C      -2.417815     0.646480     0.973606
C      -3.738259     0.217528     0.997651
H      -3.343286    -2.603114     2.847008
H      -0.984869    -1.813281     2.807893
H      -2.165452     1.566379     0.454540
H      -4.526717     0.774602     0.508459
N      -5.438215    -1.422631     1.702935
O      -5.672761    -2.451092     2.302706
O      -6.268426    -0.750745     1.126535
C       0.019567     0.396988     1.579195
O       0.391350     0.569508     2.945827
H       0.039974     1.363474     1.059652
40
     -1068.743786     -1068.468240   3.79   2.55
C      -1.289111     2.758000    -0.046156
C      -0.106552     2.470149    -2.047159
C      -1.035211     3.656291    -2.275400
C      -2.068081     3.501629    -1.145862
H      -1.236041     3.338560     0.880179
H       0.863487     2.575624    -2.537095
H      -0.586407     1.552498    -2.422117
H      -0.476094     4.589351    -2.159042
H      -1.486923     3.649696    -3.269575
H      -2.449265     4.461020    -0.793612
H      -2.923842     2.903280    -1.468034
N       0.049914     2.468206    -0.581352
C      -1.840803     1.371471     0.291586
O      -2.972470     1.058523     0.521863
O      -0.817319     0.491990     0.270689
C       0.441163     1.223688     0.064306
C       1.028116     1.519387     1.442724
H       1.106234     0.604965     2.033309
H       2.015893     1.973737     1.334259
H       0.391426     2.219346     1.987068
C       1.369370     0.373360    -0.799759
H       2.172432     1.023196    -1.159272
H       0.823008     0.022802    -1.679067
H       2.515830    -1.981699    -1.635313
C      -0.444400    -3.933383     1.427798
C       0.563907    -3.418292     2.222488
C       1.348794    -2.393787     1.711463
C       1.130814    -1.889060     0.432299
C       0.102162    -2.431184    -0.338942
C      -0.691990    -3.455396     0.150635
H       0.726524    -3.818063     3.215038
H       2.150709    -1.985731     2.319266
H      -0.105902    -2.041265    -1.330227
H      -1.495766    -3.879837    -0.436884
N      -1.286520    -5.027245     1.958441
O      -1.048099    -5.425351     3.079737
O      -2.163668    -5.459461     1.239979
C       2.057176    -0.819663    -0.121545
O       2.990165    -1.396464    -1.035421
H       2.677340    -0.450889     0.698706
40
     -1068.744257     -1068.468129   3.50   2.62
C       1.498275     3.120656    -0.913477
C       2.491048     1.198842    -0.016272
C       3.636367     2.060106    -0.534175
C       2.922566     3.031518    -1.490137
H       1.239862     4.142452    -0.618630
H       2.730309     0.658943     0.902610
H       2.211687     0.464357    -0.788151
H       4.092811     2.605476     0.297087
H       4.413846     1.472091    -1.026347
H       3.405046     4.008966    -1.530305
H       2.890067     2.635802    -2.508266
N       1.434080     2.195365     0.228694
C       0.401652     2.603734    -1.847724
O       0.230208     2.858309    -3.004125
O      -0.380164     1.752133    -1.150605
C       0.050769     1.748618     0.257510
C      -0.806949     2.764431     1.005710
H      -1.866487     2.524241     0.921169
H      -0.527188     2.767271     2.061508
H      -0.641489     3.767063     0.606098
C      -0.125693     0.320945     0.766301
H       0.280528     0.258604     1.782984
H       0.471698    -0.345144     0.144830
H      -1.712316     0.048650     2.712213
C      -1.730105    -4.379749    -0.038844
C      -2.137239    -3.935790     1.205859
C      -2.098158    -2.573184     1.475050
C      -1.654333    -1.672718     0.512378
C      -1.263528    -2.153137    -0.740005
C      -1.294908    -3.507136    -1.025082
H      -2.480083    -4.648047     1.945324
H      -2.436112    -2.213508     2.439544
H      -0.937067    -1.453961    -1.505127
H      -0.993098    -3.892173    -1.990500
N      -1.766799    -5.827979    -0.330812
O      -2.155080    -6.569226     0.548172
O      -1.405916    -6.187964    -1.432282
C      -1.586189    -0.173761     0.772787
O      -2.277747     0.209805     1.950326
H      -2.124174     0.315096    -0.045284
40
     -1068.744005     -1068.467841   3.65   2.80
C      -1.303534     1.327649    -2.753039
C       0.170939     2.587935    -1.461632
C      -0.766907     3.597289    -2.111328
C      -1.415928     2.781436    -3.244215
H      -2.277322     0.831334    -2.708047
H       0.488149     2.869507    -0.455753
H       1.070411     2.470088    -2.085980
H      -1.522188     3.917542    -1.387763
H      -0.241260     4.483909    -2.471812
H      -2.453789     3.067935    -3.419769
H      -0.875683     2.900169    -4.186407
N      -0.651835     1.362438    -1.434368
C      -0.357636     0.451494    -3.583127
O      -0.306598     0.336828    -4.773124
O       0.474287    -0.191890    -2.736337
C       0.052364     0.092687    -1.356715
C      -0.902807    -1.025445    -0.944119
H      -0.374574    -1.981058    -0.914090
H      -1.328478    -0.820198     0.038035
H      -1.722343    -1.113046    -1.660056
C       1.321268     0.126539    -0.510432
H       1.996441     0.887409    -0.902324
H       1.823706    -0.835610    -0.638626
H       2.909174     0.460770     1.695178
C       0.054861    -2.884034     3.480975
C       1.138833    -3.004430     2.627453
C       1.457975    -1.933298     1.806298
C       0.705811    -0.758282     1.832619
C      -0.375114    -0.673399     2.707279
C      -0.711822    -1.733062     3.536906
H       1.713877    -3.921246     2.613338
H       2.307301    -2.028675     1.136238
H      -0.964461     0.237679     2.741934
H      -1.550371    -1.676334     4.218940
N      -0.294353    -4.022098     4.358692
O      -1.248958    -3.889095     5.095448
O       0.395557    -5.017541     4.286598
C       1.081257     0.441242     0.976048
O       2.213414     1.106969     1.535611
H       0.270336     1.169889     1.051475
40
     -1068.744570     -1068.467302   3.30   3.14
C       2.349262     0.955706     0.002196
C       0.326465     1.334262     1.203485
C       1.421269     1.000413     2.212837
C       2.439091     0.235763     1.357357
H       3.217779     1.605775    -0.163549
H      -0.310584     2.162394     1.526538
H      -0.303059     0.453077     1.049528
H       1.864337     1.920210     2.607879
H       1.044931     0.411285     3.051992
H       3.450632     0.250353     1.764883
H       2.136337    -0.809730     1.247764
N       1.093562     1.714084     0.007181
C       2.217588     0.027609    -1.192945
O       2.890481    -0.920971    -1.479218
O       1.156957     0.417819    -1.923977
C       0.544397     1.616340    -1.338167
C       1.037684     2.796873    -2.171093
H       0.577660     3.717244    -1.803115
H       2.122596     2.895760    -2.083222
H       0.778931     2.656947    -3.223804
C      -0.989166     1.481364    -1.440594
H      -1.335287     2.152625    -2.229150
H      -1.457166     1.831838    -0.518011
H      -3.316688    -0.467108    -2.452891
C      -1.300596    -2.668814     1.451063
C      -2.329907    -1.740315     1.435401
C      -2.416195    -0.867812     0.361791
C      -1.484560    -0.917560    -0.676848
C      -0.482434    -1.884833    -0.646795
C      -0.377824    -2.762849     0.423838
H      -3.038174    -1.707114     2.253283
H      -3.208396    -0.127270     0.330898
H       0.234085    -1.950349    -1.457688
H       0.405582    -3.508536     0.467190
N      -1.188053    -3.591059     2.602110
O      -0.267146    -4.381221     2.600673
O      -2.021159    -3.498199     3.479459
C      -1.558932     0.099058    -1.803395
O      -2.914337     0.359470    -2.166987
H      -1.009965    -0.292527    -2.665896
40
     -1068.744162     -1068.466880   3.56   3.40
C       0.151837    -3.245778    -0.650605
C       0.885220    -2.794043     1.570443
C       0.050530    -4.075935     1.582702
C       0.191336    -4.557594     0.136568
H       0.667892    -3.323468    -1.614091
H       1.946009    -3.038780     1.698804
H       0.620707    -2.099151     2.364330
H       0.406457    -4.801372     2.317660
H      -0.998678    -3.853021     1.807304
H       1.158938    -5.045626    -0.013145
H      -0.594730    -5.241651    -0.186978
N       0.717478    -2.207898     0.221831
C      -1.280469    -2.778458    -0.908681
O      -2.183306    -3.390626    -1.397947
O      -1.400170    -1.510515    -0.462632
C      -0.080501    -1.014376    -0.021792
C       0.516856    -0.256100    -1.204179
H       0.745802    -0.958804    -2.008693
H      -0.172143     0.495944    -1.586203
H       1.446447     0.229094    -0.900720
C      -0.323829    -0.156532     1.220880
H       0.652615     0.106883     1.635781
H      -0.842576    -0.774199     1.958451
H      -2.484285     0.055597     0.085742
C       0.663157     4.375676    -1.035032
C       1.345923     3.781471     0.014716
C       0.743756     2.728260     0.683349
C      -0.516842     2.262241     0.305963
C      -1.181154     2.890547    -0.743731
C      -0.594890     3.949830    -1.423093
H       2.324461     4.147924     0.297062
H       1.268524     2.272718     1.517940
H      -2.169189     2.547115    -1.023647
H      -1.101637     4.444457    -2.241899
N       1.294807     5.500871    -1.754128
O       0.673648     6.005590    -2.666435
O       2.397888     5.852444    -1.388772
C      -1.173306     1.123130     1.081101
O      -2.484361     0.855851     0.624628
H      -1.288222     1.498282     2.107150
40
     -1068.744767     -1068.466800   3.18   3.45
C       1.660921     2.170553    -0.608994
C      -0.490480     1.469806    -0.079376
C      -0.637535     2.303069    -1.345949
C       0.702603     3.056237    -1.422223
H       2.549734     1.892132    -1.181743
H      -1.188761     0.636340    -0.032174
H      -0.646441     2.110496     0.803447
H      -0.757157     1.639702    -2.207870
H      -1.501103     2.970464    -1.306907
H       1.048159     3.184508    -2.449089
H       0.636241     4.047915    -0.968598
N       0.900712     0.986542    -0.174473
C       2.118114     2.788594     0.718767
O       2.527955     3.895712     0.919220
O       1.959875     1.865450     1.688648
C       1.557630     0.586832     1.059332
C       2.854254    -0.165978     0.764021
H       3.537944     0.463675     0.191786
H       3.343726    -0.442746     1.698990
H       2.654965    -1.073150     0.198280
C       0.684531    -0.101866     2.112922
H      -0.196538     0.515883     2.301080
H       1.272261    -0.095473     3.035561
H       1.046136    -3.312335     1.823377
C      -2.454044    -2.032902    -1.409775
C      -1.089933    -2.123233    -1.635903
C      -0.226448    -1.988131    -0.559705
C      -0.719894    -1.757391     0.723030
C      -2.098454    -1.693647     0.918589
C      -2.979181    -1.826234    -0.145651
H      -0.720728    -2.290268    -2.639648
H       0.841748    -2.047286    -0.724321
H      -2.494847    -1.533901     1.917733
H      -4.051330    -1.771234    -0.007802
N      -3.380031    -2.165051    -2.555784
O      -2.892394    -2.310876    -3.657194
O      -4.570058    -2.116816    -2.323758
C       0.211931    -1.550658     1.905263
O       1.350169    -2.399573     1.844905
H      -0.364253    -1.785160     2.811986
40
     -1068.742517     -1068.466245   4.59   3.80
C      -0.389860    -3.333709     1.358682
C       1.497303    -2.561504     0.128416
C       1.897534    -2.703725     1.598138
C       0.886876    -3.738667     2.099422
H      -1.081241    -4.173919     1.230241
H       1.948643    -3.368925    -0.459990
H       1.820726    -1.623568    -0.319251
H       2.936749    -3.016600     1.722253
H       1.763157    -1.754840     2.129869
H       1.185708    -4.745759     1.793615
H       0.739604    -3.734457     3.180527
N       0.028914    -2.734746     0.084100
C      -1.127928    -2.202909     2.075599
O      -1.475085    -2.160836     3.220491
O      -1.322783    -1.197143     1.204039
C      -0.876252    -1.614992    -0.133994
C      -2.111093    -2.105894    -0.885039
H      -2.886519    -1.341158    -0.927522
H      -1.830128    -2.385058    -1.902983
H      -2.512745    -2.991894    -0.387436
C      -0.233401    -0.378400    -0.755808
H       0.238898    -0.654238    -1.706150
H       0.557867    -0.039507    -0.085718
H      -1.279260     0.398814    -2.916260
C       0.820142     4.534235    -0.534423
C       0.342393     4.196527    -1.787363
C      -0.321714     2.986283    -1.945459
C      -0.499403     2.128582    -0.864975
C      -0.016857     2.506678     0.390483
C       0.647897     3.707889     0.566007
H       0.488115     4.873735    -2.619115
H      -0.719251     2.722946    -2.918310
H      -0.171703     1.852640     1.244397
H       1.028047     4.011527     1.532792
N       1.529588     5.818883    -0.359944
O       1.663484     6.524703    -1.338054
O       1.935527     6.089614     0.751341
C      -1.210587     0.788658    -1.000512
O      -1.903358     0.658047    -2.231130
H      -1.988002     0.762684    -0.230976
40
     -1068.742550     -1068.466111   4.57   3.88
C       2.492381    -0.636701    -2.119407
C       2.381737     1.391227    -0.874103
C       3.835864     1.132041    -1.276496
C       3.677721     0.242005    -2.510827
H       1.976184    -1.057486    -2.988555
H       1.983792     2.245633    -1.433698
H       2.275171     1.623908     0.184139
H       4.383692     2.055988    -1.474908
H       4.365942     0.588741    -0.486541
H       3.417397     0.840523    -3.389031
H       4.559085    -0.356666    -2.746046
N       1.612754     0.185770    -1.276240
C       2.915885    -1.783161    -1.195126
O       3.791680    -2.581039    -1.367692
O       2.145916    -1.749034    -0.092018
C       1.093839    -0.738216    -0.280114
C      -0.119410    -1.478349    -0.842856
H      -0.929392    -0.779469    -1.051106
H       0.145803    -1.979338    -1.776582
H      -0.467428    -2.233779    -0.134371
C       0.833464    -0.152605     1.104083
H       1.773362     0.214234     1.519282
H       0.517112    -0.979771     1.745047
H      -0.211127     1.447327     3.054819
C      -4.315410    -0.154254     1.253613
C      -3.437445    -0.739114     2.151114
C      -2.099993    -0.376075     2.101987
C      -1.642098     0.555654     1.169592
C      -2.555546     1.124441     0.285122
C      -3.897835     0.775108     0.316902
H      -3.803146    -1.462430     2.868400
H      -1.411361    -0.836745     2.804291
H      -2.212545     1.853904    -0.441997
H      -4.614733     1.211140    -0.366830
N      -5.743396    -0.536885     1.297359
O      -6.079147    -1.354415     2.128619
O      -6.489401    -0.009577     0.499098
C      -0.186945     0.997028     1.142348
O       0.085449     1.867493     2.240752
H      -0.047870     1.622938     0.257978
40
     -1068.742221     -1068.465764   4.77   4.10
C      -2.163596     1.037401    -2.507627
C       0.123295     0.812625    -1.882696
C      -0.216608    -0.290741    -2.887964
C      -1.414758     0.311473    -3.627333
H      -2.762888     1.873797    -2.885143
H       0.757000     1.568372    -2.361969
H       0.667645     0.455022    -1.010457
H       0.621169    -0.531517    -3.546510
H      -0.518308    -1.211230    -2.374583
H      -1.078194     1.036954    -4.373766
H      -2.050350    -0.424518    -4.122187
N      -1.158986     1.451332    -1.522220
C      -3.082456     0.101536    -1.721969
O      -3.925977    -0.631340    -2.153096
O      -2.783376     0.202204    -0.415941
C      -1.784302     1.255494    -0.221159
C      -2.544079     2.521254     0.170530
H      -1.831625     3.317902     0.399105
H      -3.180108     2.856436    -0.652467
H      -3.171117     2.331236     1.044741
C      -0.840987     0.833173     0.908005
H      -1.301761     1.110648     1.858778
H       0.071829     1.426856     0.819154
H      -1.413826    -2.178059     1.875021
C       3.475725    -1.336881     2.372193
C       2.543185    -0.797857     3.246556
C       1.250833    -0.592992     2.793413
C       0.893861    -0.919719     1.483873
C       1.851677    -1.468656     0.636255
C       3.153937    -1.680218     1.072096
H       2.836506    -0.549844     4.258607
H       0.503218    -0.182720     3.464225
H       1.581340    -1.744633    -0.378989
H       3.908828    -2.105069     0.423082
N       4.858862    -1.556278     2.847613
O       5.653265    -2.030034     2.062099
O       5.114160    -1.248904     3.993198
C      -0.524764    -0.668875     0.998429
O      -1.475828    -1.218308     1.904699
H      -0.642441    -1.135325     0.014404
40
     -1068.743956     -1068.465470   3.69   4.29
C       0.394528    -2.392140    -1.044256
C      -0.853165    -0.473868    -1.715283
C       0.616810    -0.254515    -2.081121
C       1.153596    -1.685581    -2.166536
H       0.295119    -3.468675    -1.227082
H      -1.449606    -0.632779    -2.621458
H      -1.279364     0.376700    -1.190450
H       0.734991     0.307575    -3.010256
H       1.130824     0.293921    -1.287652
H       0.891112    -2.140890    -3.126052
H       2.233330    -1.764817    -2.029423
N      -0.900349    -1.715387    -0.913409
C       1.039913    -2.203708     0.326995
O       2.186926    -2.348552     0.640255
O       0.089684    -1.809169     1.193081
C      -1.210691    -1.741066     0.507674
C      -1.932851    -3.048158     0.834274
H      -2.929124    -3.031240     0.386138
H      -1.387605    -3.902106     0.425578
H      -2.022472    -3.173348     1.916284
C      -1.995005    -0.544807     1.078892
H      -2.778034    -0.936875     1.731234
H      -2.518314    -0.014261     0.281566
H      -1.816503     1.928969     3.092978
C       1.688431     2.867286    -0.076621
C       0.341745     3.133656    -0.271164
C      -0.589415     2.347655     0.389681
C      -0.183212     1.300923     1.219401
C       1.178151     1.071229     1.405056
C       2.125601     1.852536     0.756726
H       0.041377     3.943134    -0.923947
H      -1.648539     2.550531     0.266290
H       1.506896     0.267422     2.054248
H       3.185775     1.676503     0.884848
N       2.689271     3.694023    -0.786163
O       3.861142     3.453257    -0.584850
O       2.276386     4.560726    -1.528526
C      -1.219980     0.459069     1.945027
O      -2.236102     1.291374     2.506291
H      -0.711281    -0.094545     2.741731
40
     -1068.743207     -1068.465386   4.16   4.34
C      -2.589992     0.592963    -0.791747
C      -0.495683    -0.194275    -1.427719
C      -0.847128     0.887814    -2.440210
C      -2.359895     1.078385    -2.232552
H      -3.079574     1.352935    -0.176591
H       0.566629    -0.233233    -1.196123
H      -0.809187    -1.177156    -1.814944
H      -0.304982     1.806297    -2.195960
H      -0.588889     0.600979    -3.461809
H      -2.668879     2.116829    -2.360647
H      -2.943383     0.470930    -2.928377
N      -1.277553     0.210229    -0.243065
C      -3.398476    -0.705845    -0.684894
O      -4.422195    -0.991074    -1.235711
O      -2.743039    -1.541906     0.147329
C      -1.595708    -0.814301     0.735924
C      -2.114717    -0.182372     2.026678
H      -2.433894    -0.964557     2.720045
H      -1.343078     0.419294     2.501332
H      -2.979353     0.450886     1.821101
C      -0.537718    -1.896258     0.976049
H      -0.245125    -2.328264     0.015795
H      -1.055971    -2.696946     1.517346
H      -0.014565    -1.778841     3.550400
C       3.259167     1.227769    -0.268237
C       2.312946     1.709867     0.622150
C       1.515369     0.803186     1.302574
C       1.658302    -0.565801     1.089128
C       2.635553    -1.018931     0.205636
C       3.442726    -0.126993    -0.485885
H       2.207604     2.777007     0.769487
H       0.772727     1.166070     2.000968
H       2.768795    -2.085866     0.048857
H       4.199383    -0.464969    -1.182021
N       4.103773     2.190777    -1.006748
O       3.902819     3.372953    -0.820194
O       4.944885     1.740304    -1.756871
C       0.750400    -1.571152     1.764944
O       0.506297    -1.115258     3.087614
H       1.301607    -2.521481     1.806953
40
     -1068.741199     -1068.465293   5.42   4.40
C      -2.727409     2.116733     0.066354
C      -3.148146    -0.230628     0.092783
C      -3.537512     0.387235     1.455986
C      -2.722665     1.686186     1.536260
H      -3.638997     2.687021    -0.154851
H      -4.007010    -0.706032    -0.391601
H      -2.384933    -1.003702     0.216805
H      -4.606227     0.622211     1.466147
H      -3.343373    -0.291882     2.289154
H      -3.157486     2.437768     2.196728
H      -1.700314     1.490529     1.876370
N      -2.656631     0.890518    -0.720706
C      -1.550423     2.924571    -0.416102
O      -1.225197     4.030524    -0.102353
O      -0.880971     2.193088    -1.338046
C      -1.325813     0.814034    -1.343025
C      -1.452265     0.355567    -2.787271
H      -2.084360     1.055768    -3.336001
H      -0.475947     0.271655    -3.267236
H      -1.931671    -0.627873    -2.800243
C      -0.264100    -0.007116    -0.567667
H      -0.265269    -1.034205    -0.946133
H      -0.528724    -0.052736     0.492068
H       1.187949     1.667765    -2.228401
C       3.791217    -2.312758     1.135228
C       3.640846    -2.307501    -0.241652
C       2.803671    -1.363209    -0.817576
C       2.128441    -0.438060    -0.024023
C       2.307301    -0.464707     1.357975
C       3.138531    -1.403094     1.950547
H       4.174275    -3.032138    -0.843265
H       2.679893    -1.335287    -1.893602
H       1.796926     0.262737     1.982906
H       3.286791    -1.436241     3.022164
N       4.679647    -3.318052     1.754874
O       5.241246    -4.102742     1.018857
O       4.793839    -3.298348     2.963287
C       1.169160     0.559231    -0.640466
O       1.589593     0.832335    -1.967147
H       1.206118     1.480834    -0.047124
40
     -1068.742230     -1068.464078   4.77   5.16
C      -1.705064    -0.047372     2.339196
C      -0.888593     2.204557     2.269306
C      -2.351845     2.201586     2.720409
C      -2.888372     0.897936     2.116335
H      -1.836779    -0.611853     3.274650
H      -0.251488     2.824299     2.909238
H      -0.832397     2.582253     1.244714
H      -2.413533     2.166472     3.813589
H      -2.892339     3.087130     2.378824
H      -3.803710     0.536885     2.587052
H      -3.071875     1.022540     1.046046
N      -0.507947     0.790480     2.376516
C      -1.421324    -1.051119     1.248233
O      -2.169867    -1.835701     0.739028
O      -0.119131    -0.965478     0.916455
C       0.526334     0.166571     1.550530
C       1.635976    -0.396570     2.434062
H       2.325019    -1.008499     1.845372
H       2.189902     0.425838     2.895806
H       1.198451    -1.008309     3.226035
C       1.129047     1.054507     0.444998
H       2.140070     0.692745     0.241997
H       1.243249     2.065443     0.843867
H      -1.437131     1.377282    -1.527511
C       1.382756    -2.124486    -3.532371
C       0.142237    -2.129119    -2.919263
C      -0.187354    -1.087087    -2.063511
C       0.716281    -0.054732    -1.827073
C       1.955924    -0.076678    -2.466821
C       2.303837    -1.111440    -3.320196
H      -0.548073    -2.941956    -3.104267
H      -1.145960    -1.102062    -1.560182
H       2.663184     0.732172    -2.300815
H       3.263422    -1.139596    -3.819880
N       1.738066    -3.233582    -4.442956
O       0.913100    -4.106227    -4.616264
O       2.835001    -3.203284    -4.962422
C       0.394546     1.118396    -0.907214
O      -0.998244     1.270108    -0.678001
H       0.774622     2.017950    -1.413516
40
     -1068.741681     -1068.463514   5.11   5.51
C      -2.248533    -1.307122    -0.351706
C      -0.215809    -1.758861     0.812389
C      -1.096335    -0.867077     1.691325
C      -2.499768    -1.144354     1.146537
H      -3.009297    -1.933914    -0.831889
H      -0.160438    -2.770138     1.232173
H       0.800476    -1.382210     0.733474
H      -0.992103    -1.098304     2.753773
H      -0.837262     0.184808     1.548298
H      -2.895164    -2.080155     1.552489
H      -3.219662    -0.348867     1.346257
N      -0.891961    -1.845520    -0.500410
C      -2.192632     0.023097    -1.100064
O      -2.959607     0.941355    -1.052805
O      -1.082452     0.036002    -1.861167
C      -0.366254    -1.239603    -1.713448
C      -0.773653    -2.097246    -2.912163
H      -1.844581    -2.310402    -2.885106
H      -0.543143    -1.580300    -3.847500
H      -0.234955    -3.047279    -2.877667
C       1.146441    -0.949794    -1.755471
H       1.512456    -1.296060    -2.727300
H       1.674424    -1.553795    -1.015587
H       3.167328     0.326179    -2.791539
C       0.995730     2.329343     2.194566
C       2.020039     1.407388     2.040302
C       2.208647     0.830872     0.794381
C       1.376981     1.158323    -0.277346
C       0.368693     2.100254    -0.093233
C       0.169064     2.693532     1.146465
H       2.653002     1.159362     2.882499
H       3.020865     0.127088     0.646254
H      -0.275130     2.372696    -0.921715
H      -0.617270     3.420088     1.304994
N       0.780031     2.941107     3.523417
O      -0.114102     3.754630     3.629809
O       1.508537     2.590084     4.428624
C       1.599390     0.519567    -1.633346
O       3.004703     0.580840    -1.878264
H       1.063302     1.114394    -2.380302
40
     -1068.739263     -1068.462375   6.63   6.23
C       0.971741     3.060393    -0.203309
C      -1.308490     2.718406    -0.858492
C      -1.193740     4.036144    -0.089547
C       0.058181     3.816559     0.768710
H       1.669464     3.751681    -0.698032
H      -1.887273     2.818078    -1.782269
H      -1.790602     1.971600    -0.221186
H      -1.038427     4.868522    -0.784446
H      -2.085849     4.250039     0.502907
H       0.512213     4.739398     1.131797
H      -0.180335     3.184380     1.628288
N       0.091799     2.395314    -1.161836
C       1.787706     1.938083     0.396708
O       2.512800     1.963162     1.348580
O       1.577402     0.815962    -0.325172
C       0.567931     1.032545    -1.356841
C       1.290098     0.915827    -2.697266
H       0.567822     1.017221    -3.511893
H       2.027207     1.717005    -2.788076
H       1.797269    -0.048968    -2.783267
C      -0.493879    -0.067885    -1.235625
H      -0.083807    -0.964207    -1.707179
H      -1.335450     0.236622    -1.864584
H       0.161645     0.243269     1.573064
C       0.138323    -4.415347     1.342674
C      -1.207846    -4.107072     1.264617
C      -1.570602    -2.823955     0.877046
C      -0.605506    -1.868400     0.572516
C       0.745461    -2.213781     0.658801
C       1.125582    -3.488989     1.045996
H      -1.948385    -4.859042     1.504817
H      -2.623116    -2.564674     0.814876
H       1.509611    -1.481727     0.418495
H       2.167963    -3.771339     1.117874
N       0.537905    -5.778733     1.754580
O      -0.346673    -6.569950     2.007437
O       1.724947    -6.021913     1.814070
C      -1.023188    -0.460411     0.178024
O      -0.704486     0.463591     1.214847
H      -2.115418    -0.447411     0.132294
40
     -1068.739695     -1068.461718   6.36   6.64
C      -3.113313    -1.130943     0.660265
C      -2.153749    -1.819650    -1.417936
C      -2.242100    -3.035275    -0.491034
C      -3.340654    -2.633343     0.496813
H      -4.032054    -0.604177     0.944607
H      -2.870742    -1.912981    -2.241837
H      -1.162138    -1.706112    -1.849166
H      -2.473774    -3.953933    -1.034783
H      -1.291084    -3.179734     0.028648
H      -4.331568    -2.802240     0.064881
H      -3.289604    -3.152882     1.455244
N      -2.546957    -0.649017    -0.600901
C      -2.039044    -0.793983     1.693222
O      -1.924580    -1.195363     2.813940
O      -1.155940     0.062114     1.128401
C      -1.615223     0.398372    -0.234779
C      -2.370359     1.723060    -0.111742
H      -1.733728     2.484977     0.344841
H      -2.679650     2.055625    -1.105522
H      -3.266108     1.600821     0.501214
C      -0.406837     0.584595    -1.162999
H      -0.109352     1.633605    -1.101662
H      -0.785906     0.449205    -2.179554
H       0.478005    -1.255010     0.668700
C       4.146534     1.947750     0.691445
C       2.954815     1.891327     1.396796
C       1.894840     1.180694     0.856743
C       2.023868     0.531416    -0.373080
C       3.235197     0.610353    -1.054461
C       4.308086     1.318314    -0.529598
H       2.868733     2.398093     2.349307
H       0.959624     1.132298     1.403346
H       3.347620     0.108180    -2.010551
H       5.254583     1.385065    -1.050408
N       5.280288     2.705969     1.262242
O       6.311456     2.739582     0.623158
O       5.110637     3.248333     2.334299
C       0.876217    -0.276356    -0.966181
O       0.685421    -1.483186    -0.244466
H       1.198541    -0.605563    -1.957453
40
     -1068.738054     -1068.461362   7.39   6.86
C      -2.384653    -1.144252    -1.687511
C      -0.713372    -2.805219    -1.991880
C      -1.970793    -3.489144    -1.455202
C      -3.060557    -2.506191    -1.893283
H      -2.774198    -0.383414    -2.373838
H      -0.617690    -3.003127    -3.066569
H       0.209435    -3.144455    -1.527678
H      -2.109115    -4.496108    -1.855951
H      -1.936064    -3.559007    -0.362036
H      -3.294125    -2.644844    -2.953163
H      -3.988565    -2.580422    -1.324086
N      -0.937291    -1.356596    -1.822775
C      -2.557912    -0.636129    -0.259107
O      -3.581107    -0.484084     0.344839
O      -1.346274    -0.387232     0.261625
C      -0.317830    -0.558733    -0.762030
C      -0.017484     0.824483    -1.345884
H       0.251166     1.547287    -0.578847
H       0.796152     0.741646    -2.070275
H      -0.901863     1.191208    -1.872933
C       0.898124    -1.220413    -0.107177
H       1.715933    -1.177324    -0.833276
H       0.677118    -2.270756     0.086229
H       0.963188    -1.089148     3.117475
C       1.792017     3.521222     1.716538
C       0.650651     2.898779     2.194365
C       0.528512     1.524413     2.047127
C       1.536679     0.787824     1.428357
C       2.677295     1.442736     0.966994
C       2.813671     2.816110     1.101583
H      -0.125048     3.487415     2.667190
H      -0.365391     1.019485     2.392184
H       3.474519     0.873144     0.496941
H       3.691945     3.338736     0.745377
N       1.926799     4.986169     1.869980
O       1.018673     5.580198     2.412430
O       2.938200     5.503691     1.443133
C       1.414574    -0.716093     1.256091
O       0.593613    -1.302786     2.254859
H       2.431066    -1.129067     1.340182
40
     -1068.737685     -1068.460555   7.62   7.37
C       0.958455     2.378495     1.796527
C      -0.754458     3.409824     0.544225
C      -1.188968     3.442582     2.039142
C      -0.228836     2.483420     2.771196
H       1.717496     3.137097     2.015988
H      -0.474226     4.412256     0.205020
H      -1.552129     3.066567    -0.118294
H      -1.092708     4.458483     2.430366
H      -2.233135     3.147262     2.169894
H       0.081143     2.850627     3.750862
H      -0.681986     1.498855     2.917415
N       0.414689     2.533140     0.452808
C       1.616450     1.022473     1.746547
O       2.356574     0.520601     2.540085
O       1.252333     0.419845     0.596118
C       0.255930     1.179711    -0.109405
C       0.639353     1.166642    -1.581047
H       0.582237     0.155753    -1.990634
H      -0.041939     1.812860    -2.142443
H       1.655331     1.548546    -1.691127
C      -1.145903     0.544643     0.113971
H      -1.730649     0.695147    -0.798954
H      -1.673235     1.066868     0.913831
H      -0.945547    -1.958167     2.139510
C       0.788672    -3.600165    -2.199755
C      -0.442023    -3.072854    -2.556275
C      -1.072896    -2.218168    -1.665776
C      -0.482515    -1.885031    -0.446393
C       0.754872    -2.432728    -0.117627
C       1.397529    -3.296463    -0.994214
H      -0.888396    -3.336635    -3.506262
H      -2.045341    -1.807197    -1.925166
H       1.228485    -2.166191     0.818651
H       2.361313    -3.727549    -0.755141
N       1.471019    -4.518399    -3.136877
O       2.545764    -4.969341    -2.799978
O       0.913107    -4.764557    -4.186428
C      -1.221299    -0.941089     0.491894
O      -0.806834    -1.053099     1.844470
H      -2.287727    -1.204065     0.423271
