40
     -1068.754856     -1068.478030   0.00   0.00
C       1.987120     1.265746     1.555333
C       2.759406     2.257438    -0.422008
C       4.006741     1.845083     0.350891
C       3.470426     1.612173     1.775516
H       1.725053     0.281464     1.955689
H       2.853546     2.147023    -1.504021
H       2.514343     3.306126    -0.199690
H       4.410149     0.916856    -0.064864
H       4.791548     2.602821     0.310016
H       3.998602     0.809695     2.291736
H       3.555520     2.512664     2.388123
N       1.737695     1.332631     0.105277
C       1.004232     2.293906     2.121491
O       0.997289     2.787581     3.209836
O       0.108150     2.601041     1.156712
C       0.338103     1.740122    -0.002328
C       0.013163     2.543965    -1.247587
H       0.248822     1.969814    -2.146186
H      -1.052793     2.779762    -1.256270
H       0.570041     3.480554    -1.270331
C      -0.589703     0.524058     0.159150
H      -1.620249     0.879241     0.073840
H      -0.479730     0.110014     1.166067
H       1.546997    -0.491443    -0.494839
C      -3.467761    -3.494143    -0.448031
C      -2.264265    -3.724576     0.197243
C      -1.242168    -2.797077     0.055991
C      -1.425854    -1.656500    -0.722310
C      -2.647059    -1.457091    -1.365002
C      -3.679428    -2.372052    -1.232798
H      -2.138271    -4.617336     0.796266
H      -0.288723    -2.961290     0.542578
H      -2.792459    -0.575701    -1.983669
H      -4.632894    -2.230305    -1.725021
N      -4.560375    -4.477277    -0.298791
O      -4.350257    -5.452871     0.392101
O      -5.603958    -4.250149    -0.876395
C      -0.335660    -0.612035    -0.847114
O       0.918766    -1.223823    -0.627353
H      -0.384108    -0.206113    -1.869246
40
     -1068.753014     -1068.475901   1.16   1.34
C      -1.743012     0.217297     2.264075
C       0.291074     0.244772     3.514574
C      -0.870659     0.609561     4.441775
C      -2.065309    -0.036296     3.735455
H      -2.233327    -0.494751     1.592207
H       0.671472    -0.752540     3.762622
H       1.128874     0.935210     3.582754
H      -0.719808     0.244772     5.459956
H      -1.001350     1.696049     4.487911
H      -2.092621    -1.113121     3.926930
H      -3.030720     0.390646     4.010674
N      -0.275344     0.189378     2.141804
C      -2.115670     1.639021     1.837850
O      -3.168135     2.190813     1.970175
O      -1.030685     2.222835     1.291643
C       0.037111     1.234135     1.164162
C       1.349470     1.965073     1.381693
H       2.182838     1.262710     1.449348
H       1.529116     2.634825     0.538368
H       1.311804     2.569390     2.289132
C      -0.076181     0.663667    -0.261018
H       0.111725     1.479448    -0.964239
H      -1.102539     0.323223    -0.432919
H       0.260855    -1.320403     1.083084
C       0.689765    -1.395411    -4.732471
C       1.526682    -0.383662    -4.290114
C       1.584154    -0.124545    -2.929975
C       0.816944    -0.859644    -2.027018
C      -0.010973    -1.874045    -2.502382
C      -0.078894    -2.148449    -3.860651
H       2.115755     0.179135    -5.002674
H       2.242119     0.659250    -2.564679
H      -0.594446    -2.456911    -1.800539
H      -0.715163    -2.934267    -4.247167
N       0.619149    -1.681642    -6.180083
O       1.304964    -1.006921    -6.920858
O      -0.119933    -2.573494    -6.542961
C       0.865295    -0.517822    -0.551639
O       0.506463    -1.657287     0.202330
H       1.899139    -0.219999    -0.317139
40
     -1068.753014     -1068.475900   1.16   1.34
C       2.658162    -0.956388     0.479373
C       1.559771    -2.594524     1.825480
C       3.029357    -2.988159     1.658878
C       3.695486    -1.641201     1.367142
H       2.739192     0.135385     0.494716
H       1.372197    -2.267989     2.854574
H       0.869912    -3.408834     1.615117
H       3.428797    -3.486632     2.544598
H       3.153826    -3.663736     0.805808
H       3.828775    -1.067291     2.288982
H       4.660084    -1.720033     0.863768
N       1.337876    -1.430246     0.929085
C       2.742997    -1.440104    -0.969940
O       3.707244    -1.470462    -1.676336
O       1.525773    -1.876416    -1.349940
C       0.555377    -1.575162    -0.300422
C      -0.464383    -2.699410    -0.300323
H       0.029589    -3.671894    -0.282363
H      -1.136166    -2.619168     0.556799
H      -1.060122    -2.641142    -1.213407
C      -0.076410    -0.223097    -0.677359
H      -0.608294    -0.354074    -1.623537
H       0.717834     0.509194    -0.855633
H       0.348063     0.027749     1.691828
C      -3.015603     3.754727    -1.275284
C      -1.899890     3.960296    -0.481000
C      -1.261080     2.859607     0.071460
C      -1.736140     1.572460    -0.169326
C      -2.866480     1.399546    -0.967275
C      -3.515372     2.487598    -1.528968
H      -1.545668     4.967517    -0.302742
H      -0.393401     2.996312     0.704886
H      -3.250230     0.399189    -1.148222
H      -4.393183     2.368638    -2.150889
N      -3.698040     4.923143    -1.868284
O      -4.674645     4.713391    -2.558623
O      -3.242174     6.022704    -1.630667
C      -1.020843     0.358803     0.388618
O      -0.313146     0.730044     1.553445
H      -1.789045    -0.390337     0.635984
40
     -1068.748512     -1068.471812   3.98   3.90
C       1.316639    -2.645555    -0.500930
C      -0.899666    -2.124570     0.201492
C      -0.862504    -3.581112    -0.265917
C       0.614810    -3.936262    -0.074279
H       2.306503    -2.534597    -0.043684
H      -0.989025    -2.088400     1.294173
H      -1.733308    -1.557309    -0.207762
H      -1.539989    -4.222322     0.302377
H      -1.135213    -3.654259    -1.324546
H       0.827587    -4.140737     0.979404
H       0.951292    -4.788250    -0.667003
N       0.406810    -1.540354    -0.172896
C       1.469401    -2.559644    -2.020692
O       1.967035    -3.365434    -2.753221
O       0.919427    -1.408193    -2.443583
C       0.518944    -0.603651    -1.280832
C      -0.762424     0.102698    -1.692389
H      -0.531489     0.828776    -2.473841
H      -1.476486    -0.616022    -2.099034
H      -1.214609     0.632894    -0.854820
C       1.693236     0.364906    -1.029165
H       1.673677     1.161046    -1.778982
H       2.630222    -0.179277    -1.178956
H       3.057469     2.178883     1.224730
C      -1.726943     3.187556     1.466760
C      -1.499961     1.956937     2.058623
C      -0.356832     1.254075     1.702881
C       0.537058     1.770172     0.768452
C       0.283763     3.017625     0.197814
C      -0.851518     3.734927     0.541174
H      -2.205980     1.566899     2.780471
H      -0.157582     0.287095     2.153293
H       0.986387     3.429786    -0.518743
H      -1.064415     4.703478     0.107284
N      -2.941379     3.946178     1.837858
O      -3.114132     5.023659     1.307510
O      -3.690335     3.443519     2.649555
C       1.768403     0.979361     0.369676
O       2.927793     1.809640     0.345281
H       1.897330     0.165844     1.092471
40
     -1068.747475     -1068.471558   4.63   4.06
C       2.572138     0.401279    -0.940355
C       2.736094    -1.968712    -0.976617
C       4.049893    -1.416673    -0.433311
C       4.056995     0.010008    -0.996093
H       2.378139     1.103102    -0.122511
H       2.384169    -2.855506    -0.443034
H       2.868963    -2.235854    -2.034531
H       4.025195    -1.398500     0.661090
H       4.914504    -2.006008    -0.746484
H       4.684481     0.698707    -0.428885
H       4.409882     0.012425    -2.031742
N       1.807225    -0.845146    -0.779639
C       2.025159     1.013948    -2.218554
O       2.469642     1.933131    -2.842363
O       0.931645     0.321921    -2.591231
C       0.622948    -0.720276    -1.621705
C       0.272040    -1.968003    -2.421795
H       1.042153    -2.192114    -3.160329
H       0.145002    -2.826544    -1.757855
H      -0.668710    -1.800381    -2.950837
C      -0.613165    -0.295687    -0.806363
H      -1.000582    -1.200062    -0.325885
H      -1.378780     0.060302    -1.502974
H       0.043983     2.652916     0.345355
C      -3.956445     0.977224     2.668770
C      -3.896472     1.695291     1.485119
C      -2.738516     1.628184     0.725305
C      -1.656680     0.854421     1.145456
C      -1.747342     0.149702     2.343526
C      -2.899535     0.202859     3.115278
H      -4.745289     2.290560     1.173823
H      -2.669907     2.182169    -0.204659
H      -0.905711    -0.447326     2.683126
H      -2.984970    -0.340232     4.047613
N      -5.189320     1.042009     3.482966
O      -5.213747     0.404978     4.515557
O      -6.100515     1.727725     3.068584
C      -0.406227     0.748297     0.287925
O      -0.093167     1.987255    -0.336300
H       0.424825     0.418614     0.924553
40
     -1068.749897     -1068.470588   3.11   4.67
C       1.088800    -0.799469    -0.821226
C       2.846328     0.657335    -1.477113
C       3.473346    -0.691349    -1.124112
C       2.285222    -1.641332    -1.298214
H       0.184509    -1.027264    -1.393014
H       2.768858     0.755979    -2.566177
H       3.404186     1.518856    -1.116802
H       4.322706    -0.941471    -1.763643
H       3.821390    -0.695191    -0.085411
H       2.154626    -1.895061    -2.354037
H       2.367927    -2.571522    -0.733643
N       1.476422     0.619754    -0.924854
C       0.771948    -1.003648     0.647613
O       0.489747    -2.026573     1.196989
O       0.862400     0.177338     1.285609
C       1.189771     1.257909     0.377316
C       2.355985     2.002530     1.017149
H       3.218422     1.347507     1.152044
H       2.643430     2.872471     0.422689
H       2.039858     2.354447     2.001708
C      -0.020710     2.205917     0.296237
H       0.323291     3.128920    -0.182102
H      -0.300356     2.464839     1.321000
H      -0.031322     1.301822    -1.910556
C      -3.346466    -1.673282     1.052992
C      -2.913221    -0.697195     1.935974
C      -2.232777     0.397998     1.431636
C      -1.973812     0.518565     0.065194
C      -2.437921    -0.473292    -0.795647
C      -3.123675    -1.577821    -0.308357
H      -3.105689    -0.804814     2.995410
H      -1.892072     1.159131     2.125081
H      -2.264478    -0.370633    -1.859997
H      -3.482999    -2.355869    -0.969463
N      -4.073024    -2.846202     1.580906
O      -4.261178    -2.899238     2.779028
O      -4.440225    -3.686489     0.785384
C      -1.256921     1.748688    -0.493765
O      -0.953490     1.614214    -1.869063
H      -1.978837     2.573505    -0.422762
40
     -1068.746597     -1068.470543   5.18   4.70
C       2.687159    -0.730109    -0.069141
C       1.990541    -1.456591    -2.214539
C       3.520082    -1.416770    -2.219010
C       3.838702    -1.514383    -0.724189
H       2.406768    -1.169653     0.896308
H       1.646363    -2.490631    -2.093649
H       1.533569    -1.071428    -3.124151
H       3.963090    -2.223934    -2.806838
H       3.880324    -0.466287    -2.628209
H       3.800425    -2.556920    -0.396047
H       4.812017    -1.107367    -0.444822
N       1.575149    -0.694153    -1.024171
C       3.022492     0.726544     0.179557
O       3.926914     1.179578     0.816357
O       2.092754     1.500553    -0.423385
C       1.118109     0.693927    -1.153594
C       1.085976     1.255921    -2.569545
H       0.308868     0.769965    -3.164255
H       0.853070     2.321412    -2.514082
H       2.051442     1.142058    -3.066094
C      -0.257301     0.879503    -0.494907
H      -0.939365     0.206305    -1.021956
H      -0.610662     1.903737    -0.658485
H       1.005337     1.980030     1.344902
C      -4.398627    -0.059134     2.116827
C      -3.838226     1.186930     2.341610
C      -2.510156     1.394636     1.996814
C      -1.756967     0.365956     1.436235
C      -2.348649    -0.879608     1.229071
C      -3.674174    -1.103539     1.565065
H      -4.437714     1.974360     2.780135
H      -2.047529     2.357676     2.173007
H      -1.762743    -1.689021     0.802472
H      -4.146879    -2.064683     1.409377
N      -5.812908    -0.284605     2.479823
O      -6.278002    -1.386751     2.272293
O      -6.425679     0.644830     2.963441
C      -0.318540     0.584811     1.010844
O       0.217427     1.644257     1.785869
H       0.227543    -0.347428     1.211062
40
     -1068.746986     -1068.470500   4.94   4.73
C      -0.325831    -2.037822     1.849999
C      -0.619713    -3.417111    -0.063719
C      -0.396955    -4.326317     1.145506
C      -0.830735    -3.416311     2.297538
H      -0.951657    -1.226738     2.236174
H      -1.682566    -3.412997    -0.334120
H      -0.065069    -3.719344    -0.949792
H      -0.968042    -5.256021     1.087945
H       0.663777    -4.585148     1.242264
H      -1.921921    -3.399931     2.378181
H      -0.419616    -3.694561     3.269388
N      -0.255970    -2.057603     0.380766
C       1.106710    -1.777024     2.292550
O       1.551450    -1.838210     3.402075
O       1.849659    -1.492006     1.210489
C       1.029162    -1.468537     0.009512
C       1.824684    -2.221768    -1.048936
H       2.069719    -3.231013    -0.712282
H       1.274987    -2.270326    -1.991777
H       2.760093    -1.686325    -1.226886
C       0.864579    -0.005120    -0.445742
H       0.526338    -0.031092    -1.486681
H       1.848618     0.474212    -0.430656
H      -0.238521     1.572111     2.152169
C      -0.681740     4.557502    -1.739920
C       0.404965     4.421580    -0.890901
C       0.571329     3.224516    -0.211130
C      -0.337688     2.179846    -0.378401
C      -1.422935     2.351534    -1.234630
C      -1.603568     3.541601    -1.925314
H       1.100961     5.242182    -0.772797
H       1.414819     3.096432     0.458620
H      -2.141292     1.546785    -1.362837
H      -2.441112     3.688973    -2.594868
N      -0.864048     5.830435    -2.470250
O      -1.823594     5.921827    -3.207563
O      -0.043177     6.705153    -2.287818
C      -0.127057     0.854126     0.334399
O       0.386327     1.041588     1.647622
H      -1.085368     0.320925     0.371825
40
     -1068.745505     -1068.470336   5.87   4.83
C       2.678317     1.082985     0.556129
C       3.001791     0.827769    -1.765200
C       4.294979     0.382870    -1.091215
C       4.194496     1.044222     0.293031
H       2.397242     0.437739     1.396670
H       2.720523     0.213296    -2.623285
H       3.106237     1.870637    -2.103461
H       4.305494    -0.707151    -0.995673
H       5.185819     0.687316    -1.644969
H       4.729233     0.492555     1.067366
H       4.597680     2.060229     0.271381
N       2.018072     0.671498    -0.686489
C       2.112955     2.476434     0.821205
O       2.508289     3.301898     1.593247
O       1.055276     2.665147     0.007436
C       0.782741     1.424946    -0.742856
C       0.342820     1.836451    -2.135389
H       0.235644     0.955238    -2.770354
H      -0.618716     2.352600    -2.078204
H       1.065069     2.517775    -2.584480
C      -0.332734     0.704024     0.036494
H      -1.041920     1.461081     0.383694
H       0.101892     0.234732     0.923538
H      -0.705596    -1.935227    -1.805048
C      -3.922826    -2.238503     1.870573
C      -2.608037    -2.676980     1.863535
C      -1.709657    -2.066717     1.002140
C      -2.121676    -1.033673     0.159877
C      -3.451697    -0.621388     0.186924
C      -4.364293    -1.218956     1.045233
H      -2.305418    -3.479719     2.523618
H      -0.675470    -2.393348     0.979010
H      -3.784912     0.174260    -0.473403
H      -5.400642    -0.908580     1.078774
N      -4.886672    -2.882860     2.788741
O      -4.473918    -3.774515     3.500621
O      -6.031195    -2.479687     2.773516
C      -1.118095    -0.347060    -0.752062
O      -0.202678    -1.272374    -1.321172
H      -1.678419     0.161037    -1.549493
40
     -1068.747283     -1068.470330   4.75   4.83
C       0.736714    -1.277886    -1.684133
C       1.503013     0.822869    -0.861615
C       2.210590     0.533537    -2.187071
C       1.233678    -0.434378    -2.861893
H      -0.269341    -1.677855    -1.858533
H       0.741165     1.599565    -1.001056
H       2.173255     1.165726    -0.075396
H       2.398453     1.436640    -2.772313
H       3.172129     0.038554    -2.009307
H       0.394199     0.113326    -3.300725
H       1.682955    -1.056410    -3.637806
N       0.815819    -0.429184    -0.493526
C       1.673130    -2.443864    -1.369198
O       2.064255    -3.293905    -2.117013
O       2.028795    -2.371413    -0.074976
C       1.293305    -1.277650     0.582136
C       2.267515    -0.641289     1.556131
H       2.495920    -1.354487     2.349518
H       3.195969    -0.381895     1.043450
H       1.836916     0.244150     2.022113
C       0.104306    -1.973181     1.269780
H       0.495640    -2.763789     1.916361
H      -0.484433    -2.461287     0.486527
H      -0.811987    -0.375425     3.916519
C      -2.577267     2.153522    -0.059914
C      -3.015262     0.862369    -0.313314
C      -2.452088    -0.178189     0.406456
C      -1.457654     0.059746     1.354844
C      -1.049778     1.368505     1.595251
C      -1.606312     2.425754     0.888414
H      -3.781740     0.689801    -1.058008
H      -2.792524    -1.193901     0.223148
H      -0.281237     1.564414     2.333746
H      -1.294666     3.448207     1.060879
N      -3.166444     3.272451    -0.823344
O      -2.753705     4.390308    -0.591524
O      -4.026461     3.006073    -1.637414
C      -0.850741    -1.115168     2.108390
O      -0.165809    -0.712418     3.288467
H      -1.680275    -1.781946     2.385947
40
     -1068.745870     -1068.470110   5.64   4.97
C       1.257268     1.833677     1.326822
C      -0.318710     3.568986     1.449579
C       1.039843     4.210059     1.702937
C       1.913728     3.003270     2.083485
H       1.939815     1.392047     0.593548
H      -0.999543     4.196320     0.870181
H      -0.796573     3.335505     2.413831
H       1.406385     4.675210     0.783044
H       1.005093     4.973470     2.482911
H       2.958758     3.134083     1.799717
H       1.883362     2.817971     3.160201
N       0.039728     2.358989     0.689096
C       0.734947     0.712815     2.226686
O       1.313809     0.126935     3.094433
O      -0.551431     0.465858     1.896522
C      -0.892284     1.245942     0.696820
C      -2.352590     1.641338     0.811804
H      -2.968780     0.748017     0.938662
H      -2.531599     2.275320     1.679110
H      -2.667919     2.172339    -0.089921
C      -0.613549     0.348413    -0.517572
H       0.453109     0.113595    -0.521871
H      -0.815647     0.918080    -1.428960
H      -3.200447    -0.217968    -0.903931
C       1.013569    -4.058923    -2.222758
C       0.048084    -3.477135    -3.025888
C      -0.755592    -2.479926    -2.489944
C      -0.590902    -2.077868    -1.167463
C       0.388495    -2.686005    -0.381244
C       1.199904    -3.680313    -0.902382
H      -0.066783    -3.804350    -4.051215
H      -1.521631    -2.016081    -3.098757
H       0.517203    -2.378298     0.653097
H       1.964291    -4.161754    -0.306247
N       1.872678    -5.119117    -2.789396
O       1.688782    -5.434504    -3.946991
O       2.711563    -5.611413    -2.062994
C      -1.422943    -0.964929    -0.565025
O      -2.608530    -0.835546    -1.340797
H      -1.674961    -1.264115     0.460870
40
     -1068.745910     -1068.470003   5.61   5.04
C      -1.341316    -0.840195     2.072285
C      -0.491799     0.469746     3.827464
C      -1.132291    -0.750500     4.476693
C      -2.057312    -1.273158     3.365362
H      -1.034225    -1.703885     1.473382
H       0.421124     0.803965     4.324627
H      -1.210913     1.303104     3.827257
H      -0.362076    -1.490124     4.715154
H      -1.668016    -0.504954     5.396021
H      -2.199872    -2.353728     3.408122
H      -3.043928    -0.806219     3.422633
N      -0.190082    -0.015242     2.469070
C      -2.161359     0.092222     1.180053
O      -3.275422    -0.065701     0.771463
O      -1.418945     1.184880     0.907225
C      -0.053184     0.971732     1.412260
C       0.495056     2.311258     1.862935
H       0.601960     2.979889     1.009274
H      -0.162562     2.779142     2.595261
H       1.483328     2.169187     2.308203
C       0.749337     0.355637     0.255468
H       0.316338    -0.619658     0.024752
H       1.767605     0.157122     0.609698
H       2.644456     1.735814    -0.648801
C       0.832910    -1.301381    -4.494516
C      -0.301237    -1.250932    -3.697860
C      -0.290490    -0.425982    -2.586446
C       0.836859     0.335291    -2.267985
C       1.953475     0.271793    -3.094788
C       1.959770    -0.550026    -4.215057
H      -1.167360    -1.846961    -3.954889
H      -1.176712    -0.366113    -1.959933
H       2.823128     0.880977    -2.879273
H       2.821509    -0.609570    -4.867401
N       0.833629    -2.179597    -5.683031
O       1.837508    -2.202730    -6.364719
O      -0.169958    -2.824922    -5.905202
C       0.797957     1.211560    -1.023458
O       1.852028     2.162497    -0.989723
H      -0.118918     1.805762    -1.081580
40
     -1068.747279     -1068.469845   4.75   5.14
C       3.045014     1.179733    -0.038751
C       2.103822     1.335505    -2.182679
C       3.580020     1.677628    -2.340325
C       3.998404     2.026150    -0.902342
H       3.589726     0.451815     0.571262
H       1.692660     0.764995    -3.017866
H       1.523885     2.265408    -2.079165
H       4.127278     0.800419    -2.697846
H       3.748422     2.496501    -3.042741
H       5.044088     1.791900    -0.699033
H       3.850529     3.088897    -0.694466
N       2.098065     0.524418    -0.952548
C       2.143720     1.990522     0.890375
O       2.445692     2.854230     1.658958
O       0.864237     1.579080     0.707690
C       0.856396     0.416654    -0.203145
C      -0.393190     0.513495    -1.057213
H      -1.283006     0.486946    -0.431317
H      -0.408536     1.442044    -1.626846
H      -0.434063    -0.332550    -1.747180
C       0.924560    -0.866791     0.647675
H       1.913349    -0.910779     1.112664
H       0.878873    -1.704547    -0.053260
H       0.142699     0.763402     2.374887
C      -4.136791    -1.743814     0.498718
C      -3.129502    -2.566183     0.017595
C      -1.830914    -2.337033     0.440679
C      -1.533641    -1.296676     1.323315
C      -2.570528    -0.498722     1.798222
C      -3.879303    -0.714963     1.386986
H      -3.370323    -3.367858    -0.668627
H      -1.039608    -2.987134     0.079101
H      -2.351177     0.292322     2.504424
H      -4.693319    -0.099793     1.748654
N      -5.526447    -1.979898     0.055695
O      -5.720754    -2.892589    -0.720734
O      -6.388996    -1.247419     0.494130
C      -0.094790    -1.080352     1.783872
O       0.009376    -0.096653     2.792388
H       0.204069    -2.018309     2.268799
40
     -1068.746484     -1068.469738   5.25   5.20
C       1.422454    -0.705858    -1.550245
C       1.593600     0.967858     0.137283
C       2.814673     1.078865    -0.777882
C       2.299462     0.438099    -2.070676
H       0.613347    -0.953851    -2.248147
H       0.891496     1.785908    -0.065570
H       1.835497     1.006812     1.197839
H       3.152092     2.109293    -0.910959
H       3.651380     0.497570    -0.373706
H       1.681883     1.148030    -2.629004
H       3.084966     0.070452    -2.732972
N       0.935361    -0.298043    -0.231824
C       2.223948    -1.975705    -1.271528
O       2.949497    -2.566057    -2.019069
O       2.002226    -2.353397     0.000573
C       0.993408    -1.474068     0.613364
C       1.450547    -1.247627     2.042710
H       1.429615    -2.199072     2.578711
H       2.477040    -0.875943     2.054272
H       0.792557    -0.552312     2.562416
C      -0.324712    -2.263263     0.504710
H      -0.170575    -3.248934     0.959947
H      -0.512275    -2.443247    -0.559019
H      -1.459895    -2.480405     2.870302
C      -2.444436     2.261579    -0.425976
C      -2.599359     1.155804    -1.248921
C      -2.332849    -0.097595    -0.725194
C      -1.904024    -0.248330     0.593454
C      -1.775624     0.878290     1.399672
C      -2.044392     2.142873     0.893688
H      -2.923999     1.287878    -2.273102
H      -2.458886    -0.972605    -1.357129
H      -1.466427     0.765924     2.431203
H      -1.945926     3.029211     1.507549
N      -2.721109     3.604741    -0.973064
O      -3.081239     3.677799    -2.130285
O      -2.570368     4.556117    -0.233979
C      -1.592164    -1.638019     1.114361
O      -1.538679    -1.582636     2.534492
H      -2.428110    -2.286131     0.811704
40
     -1068.744706     -1068.469094   6.37   5.61
C       0.106338     1.605843     1.961689
C       1.576967     0.253577     3.192790
C       1.469801     1.567858     3.955697
C       0.916832     2.529202     2.890456
H      -0.955321     1.873192     1.953587
H       1.650786    -0.624627     3.837730
H       2.464599     0.281579     2.541861
H       0.759879     1.459593     4.781107
H       2.427107     1.894110     4.367573
H       0.298205     3.319774     3.317174
H       1.725794     3.006636     2.331698
N       0.317435     0.226828     2.429205
C       0.605375     1.572564     0.516223
O       0.817845     2.495554    -0.215662
O       0.800111     0.286497     0.163219
C       0.273225    -0.583771     1.221281
C       1.136296    -1.830806     1.261359
H       2.174777    -1.590876     1.486588
H       0.755176    -2.523112     2.016164
H       1.115269    -2.326386     0.289571
C      -1.198456    -0.903187     0.909815
H      -1.761881     0.034720     0.869524
H      -1.594764    -1.461010     1.762181
H      -3.384196    -1.300061    -0.704083
C      -0.393219     0.032479    -4.096818
C       0.019481    -1.255625    -3.807452
C      -0.333211    -1.803025    -2.581440
C      -1.084676    -1.079491    -1.660439
C      -1.484003     0.216951    -1.987820
C      -1.140286     0.784172    -3.203441
H       0.602452    -1.810736    -4.530987
H      -0.020603    -2.815065    -2.342670
H      -2.052485     0.814726    -1.281371
H      -1.433527     1.793521    -3.460612
N      -0.023644     0.627097    -5.399157
O      -0.398357     1.758626    -5.626672
O       0.631594    -0.053238    -6.161373
C      -1.499830    -1.725053    -0.349522
O      -2.888820    -2.056261    -0.372489
H      -0.998060    -2.692770    -0.274483
40
     -1068.747660     -1068.468927   4.52   5.71
C       1.167932     0.247268    -0.849294
C       2.493042    -1.024698     0.583664
C       2.889414     0.424327     0.844185
C       2.294580     1.173020    -0.364762
H       0.205466     0.761023    -0.909665
H       2.523716    -1.657375     1.473622
H       3.159984    -1.463797    -0.173421
H       2.428020     0.771113     1.773807
H       3.969956     0.550321     0.935241
H       1.908810     2.155989    -0.090219
H       3.030789     1.312883    -1.159346
N       1.110505    -0.889278     0.084278
C       1.419960    -0.435372    -2.196588
O       1.825218     0.049071    -3.211689
O       1.113258    -1.746030    -2.066745
C       0.582385    -1.983049    -0.721004
C       1.039951    -3.367206    -0.295809
H       0.674250    -4.093882    -1.024201
H       2.126793    -3.441009    -0.260486
H       0.620682    -3.617251     0.680279
C      -0.961136    -1.895127    -0.813335
H      -1.331133    -2.888723    -1.078069
H      -1.222766    -1.237577    -1.644823
H      -0.175500    -1.570746     1.640188
C      -2.175291     2.853410     0.471060
C      -2.781485     2.096694    -0.519570
C      -2.622478     0.720701    -0.488649
C      -1.864759     0.101311     0.507679
C      -1.291492     0.891070     1.500638
C      -1.437047     2.271620     1.486407
H      -3.363020     2.584435    -1.291265
H      -3.100341     0.119573    -1.257202
H      -0.721935     0.431163     2.298291
H      -0.988080     2.894516     2.249626
N      -2.328117     4.322843     0.445766
O      -3.015957     4.800821    -0.432382
O      -1.754381     4.961768     1.303348
C      -1.683378    -1.414745     0.471040
O      -1.077855    -1.920542     1.642817
H      -2.688558    -1.848530     0.456589
40
     -1068.744939     -1068.468812   6.22   5.78
C       1.162768     0.058537    -1.311703
C       0.345847     2.166398    -0.704581
C       1.397099     2.444978    -1.808443
C       1.934308     1.052471    -2.218726
H       0.388133    -0.470100    -1.877350
H      -0.664757     2.190294    -1.127718
H       0.368224     2.898049     0.105063
H       0.944418     2.973247    -2.650426
H       2.204630     3.077456    -1.432505
H       1.759715     0.826904    -3.271796
H       3.012221     0.976877    -2.050996
N       0.593256     0.816294    -0.212185
C       2.028865    -0.960498    -0.613532
O       2.565225    -1.923095    -1.077367
O       2.114391    -0.632289     0.695420
C       1.429257     0.609453     0.975932
C       2.508487     1.663359     1.234289
H       3.156201     1.316654     2.042618
H       3.125043     1.821604     0.347038
H       2.067497     2.616730     1.535994
C       0.561563     0.423713     2.222779
H      -0.151960     1.253626     2.260848
H       1.186082     0.497934     3.117982
H      -1.414466    -1.625520     3.675875
C      -2.843077    -1.703590    -0.947568
C      -1.709223    -2.481603    -0.795618
C      -0.863183    -2.216288     0.273737
C      -1.140350    -1.182624     1.162857
C      -2.301987    -0.428806     0.992384
C      -3.159498    -0.680166    -0.065125
H      -1.499248    -3.275534    -1.500803
H       0.029770    -2.819593     0.407118
H      -2.534274     0.362760     1.697208
H      -4.061764    -0.101173    -0.215813
N      -3.749539    -1.974077    -2.083194
O      -4.750311    -1.294017    -2.178673
O      -3.437641    -2.859358    -2.853014
C      -0.203019    -0.898065     2.321609
O      -0.925258    -0.805999     3.550223
H       0.526554    -1.714944     2.378164
40
     -1068.744228     -1068.468748   6.67   5.82
C      -0.397714     0.502236     2.528170
C       0.401056     2.738537     2.715347
C      -0.757464     2.552491     3.697038
C      -0.734960     1.038374     3.922999
H       0.097636    -0.474281     2.568931
H       1.350805     2.770949     3.261704
H       0.336328     3.655473     2.132914
H      -0.627814     3.129524     4.615370
H      -1.705930     2.853787     3.238095
H       0.061503     0.767415     4.622443
H      -1.674720     0.625720     4.293524
N       0.410524     1.531911     1.859876
C      -1.644034     0.378253     1.652377
O      -2.647637    -0.232135     1.882972
O      -1.458492     1.099691     0.531103
C      -0.068214     1.573389     0.487842
C      -0.099959     2.942853    -0.163962
H      -0.757480     3.622959     0.378738
H       0.905634     3.367908    -0.213546
H      -0.501813     2.857410    -1.176164
C       0.720264     0.540340    -0.332157
H       0.694785    -0.400950     0.222235
H       1.768047     0.851484    -0.373225
H       0.862173     1.983422    -2.550398
C       0.425615    -3.855501    -2.701183
C      -0.595933    -3.390658    -1.887324
C      -0.653408    -2.034731    -1.611070
C       0.296613    -1.158098    -2.137554
C       1.310541    -1.653638    -2.951945
C       1.379655    -3.010176    -3.240116
H      -1.324111    -4.084307    -1.487221
H      -1.448586    -1.651234    -0.977053
H       2.043168    -0.973120    -3.367479
H       2.159452    -3.413633    -3.873120
N       0.496159    -5.300081    -3.003357
O       1.399417    -5.682658    -3.718321
O      -0.353739    -6.018453    -2.518186
C       0.212965     0.308870    -1.771910
O       0.965011     1.045146    -2.729658
H      -0.845350     0.595512    -1.826724
40
     -1068.745510     -1068.468593   5.86   5.92
C       1.206317    -2.698864     0.077571
C       0.565523    -2.573208    -2.166658
C       1.269104    -3.917018    -2.014127
C       2.017366    -3.766723    -0.675958
H       0.852721    -3.050794     1.051800
H      -0.271629    -2.593947    -2.867538
H       1.286908    -1.816084    -2.512090
H       0.524717    -4.715958    -1.948393
H       1.934605    -4.138747    -2.851188
H       2.063835    -4.704870    -0.120971
H       3.042586    -3.419486    -0.825268
N       0.087733    -2.310207    -0.798629
C       1.947886    -1.378280     0.298238
O       3.062483    -1.202903     0.696159
O       1.130482    -0.375320    -0.080312
C      -0.176426    -0.925219    -0.438678
C      -0.728862    -0.076977    -1.571542
H      -0.014187     0.004844    -2.390843
H      -1.654663    -0.522315    -1.944480
H      -0.949804     0.927572    -1.208905
C      -1.120135    -0.921034     0.788282
H      -1.071518    -1.897350     1.275319
H      -2.140875    -0.819912     0.407133
H       0.359832     0.312079     3.374006
C      -0.825510     4.179521     0.522457
C       0.377906     3.548173     0.786663
C       0.361035     2.232865     1.230485
C      -0.846940     1.562825     1.407979
C      -2.042185     2.230344     1.140077
C      -2.043955     3.541538     0.690098
H       1.308346     4.081799     0.640513
H       1.292982     1.716451     1.421809
H      -2.990108     1.719744     1.289096
H      -2.964328     4.069386     0.476653
N      -0.811757     5.580561     0.048881
O      -1.882255     6.106824    -0.175588
O       0.267532     6.117929    -0.086241
C      -0.901119     0.120762     1.891007
O       0.255599    -0.268725     2.614068
H      -1.779241     0.040730     2.549111
40
     -1068.745017     -1068.468468   6.17   6.00
C       1.472973    -1.713481     2.050930
C       2.344878    -0.536544     0.170225
C       3.501180    -0.892435     1.107350
C       2.939936    -2.101838     1.860483
H       0.820352    -2.585803     2.170181
H       2.389173    -1.159840    -0.731162
H       2.357315     0.501735    -0.155653
H       4.427054    -1.108124     0.569437
H       3.698747    -0.071170     1.805168
H       3.004817    -3.003252     1.243613
H       3.428039    -2.300217     2.815929
N       1.104557    -0.875540     0.902394
C       1.279306    -0.791576     3.256755
O       1.635983    -0.975236     4.384756
O       0.640681     0.319930     2.849693
C       0.243895     0.164201     1.442931
C       0.390140     1.541061     0.816597
H       1.372912     1.956257     1.047344
H       0.253415     1.505285    -0.263755
H      -0.364796     2.208427     1.236568
C      -1.213919    -0.341252     1.482979
H      -1.865814     0.483884     1.791885
H      -1.291991    -1.105748     2.261293
H      -3.653363    -0.884324     0.573890
C      -1.784777     1.616953    -3.207524
C      -0.950688     0.512840    -3.217632
C      -0.943484    -0.321319    -2.107882
C      -1.752167    -0.058166    -1.005910
C      -2.578665     1.066255    -1.030030
C      -2.602909     1.911630    -2.127762
H      -0.325881     0.317156    -4.079621
H      -0.295934    -1.192265    -2.095951
H      -3.211349     1.303342    -0.178757
H      -3.239076     2.786773    -2.157796
N      -1.803449     2.512490    -4.384062
O      -2.544612     3.472503    -4.346173
O      -1.076360     2.232005    -5.313947
C      -1.728790    -0.989397     0.192408
O      -3.005651    -1.579007     0.417788
H      -1.071677    -1.826191    -0.046977
40
     -1068.744161     -1068.468377   6.71   6.06
C       2.607558     0.707270     1.243273
C       3.082377     1.357538    -0.998630
C       4.181000     1.913070    -0.088730
C       4.111807     0.962294     1.110084
H       2.393084    -0.263293     1.706808
H       3.468513     0.517645    -1.588098
H       2.693316     2.091032    -1.702587
H       5.161081     1.930484    -0.571139
H       3.939754     2.934992     0.225350
H       4.624769     0.022729     0.883635
H       4.531378     1.371221     2.030799
N       2.034470     0.841820    -0.097861
C       1.905145     1.792312     2.056801
O       2.180117     2.182546     3.155480
O       0.891807     2.286937     1.325338
C       0.768543     1.529152     0.067731
C       0.411000     2.542629    -1.003815
H      -0.581657     2.950078    -0.796361
H       1.121157     3.371005    -0.999937
H       0.400512     2.072382    -1.988678
C      -0.367038     0.516498     0.314629
H      -1.147698     1.019347     0.893189
H       0.022685    -0.299081     0.930596
H      -0.423831    -0.987420    -2.554312
C      -3.915104    -2.993598     0.225680
C      -4.345603    -1.715044    -0.083285
C      -3.401271    -0.776490    -0.475701
C      -2.051458    -1.110933    -0.551976
C      -1.650859    -2.409741    -0.237279
C      -2.580539    -3.360741     0.153565
H      -5.397772    -1.469796    -0.017835
H      -3.724633     0.228982    -0.729948
H      -0.600737    -2.674167    -0.301096
H      -2.287204    -4.372777     0.401398
N      -4.912615    -4.001971     0.644431
O      -6.073839    -3.653504     0.697999
O      -4.508752    -5.115160     0.908840
C      -1.017621    -0.067131    -0.941759
O      -0.003301    -0.613148    -1.773549
H      -1.538546     0.742038    -1.473050
40
     -1068.745643     -1068.468062   5.78   6.26
C      -3.138627     0.406381     1.039376
C      -2.470002    -1.862236     1.318417
C      -3.168290    -1.400827     2.598925
C      -4.043442    -0.255468     2.083304
H      -3.713002     0.925707     0.263789
H      -3.128418    -2.535030     0.756772
H      -1.541140    -2.399175     1.497233
H      -3.738826    -2.199379     3.078388
H      -2.437733    -1.024011     3.323661
H      -4.939568    -0.648135     1.593822
H      -4.353410     0.454408     2.851888
N      -2.264784    -0.644745     0.503826
C      -2.175772     1.407387     1.672717
O      -2.432848     2.342379     2.371967
O      -0.913229     1.069294     1.328607
C      -0.949177    -0.037702     0.355047
C       0.223103    -0.940483     0.687046
H       0.234500    -1.807972     0.023245
H       1.158939    -0.400656     0.557346
H       0.169982    -1.271869     1.725189
C      -0.884813     0.575434    -1.059055
H      -1.823033     1.114615    -1.222396
H      -0.889534    -0.264329    -1.759251
H       0.001995     2.487501     0.272181
C       4.159729    -0.200329    -1.677846
C       3.127276    -0.735903    -2.432529
C       1.871264    -0.160409    -2.336825
C       1.639847     0.928169    -1.493395
C       2.701667     1.450021    -0.759904
C       3.968603     0.887655    -0.844982
H       3.316573    -1.581731    -3.080872
H       1.062168    -0.566424    -2.936771
H       2.534634     2.310637    -0.124299
H       4.801183     1.284419    -0.278166
N       5.504462    -0.804893    -1.773402
O       5.640939    -1.756203    -2.515056
O       6.390739    -0.314577    -1.104910
C       0.248986     1.553140    -1.423007
O       0.223658     2.726556    -0.636243
H       0.025400     1.888790    -2.443831
40
     -1068.743453     -1068.466897   7.16   6.99
C       2.564624     1.645686     0.102098
C       1.667472     2.376065    -1.983302
C       1.995875     3.601718    -1.124879
C       3.070333     3.058387    -0.179052
H       3.360584     0.965121     0.423441
H       2.363144     2.310920    -2.827784
H       0.661131     2.406111    -2.397205
H       2.334089     4.451490    -1.722321
H       1.117583     3.919552    -0.552252
H       4.040400     3.009114    -0.682949
H       3.184897     3.633103     0.741438
N       1.883812     1.191596    -1.119946
C       1.458397     1.634404     1.159650
O       1.464278     2.143212     2.243109
O       0.400760     0.974459     0.655822
C       0.759488     0.399952    -0.640085
C      -0.487183     0.447851    -1.507336
H      -0.942728     1.439063    -1.482729
H      -0.234324     0.185939    -2.537856
H      -1.221770    -0.269018    -1.141237
C       1.264595    -1.051128    -0.446610
H       2.347644    -1.026458    -0.306690
H       1.088352    -1.576684    -1.390591
H       1.041226    -1.991440     2.630139
C      -3.562709    -2.167923     0.860291
C      -2.862241    -2.987337    -0.010052
C      -1.479732    -2.887295    -0.037270
C      -0.807803    -1.979001     0.780790
C      -1.541294    -1.171328     1.646809
C      -2.925794    -1.262003     1.691282
H      -3.395371    -3.686233    -0.641428
H      -0.914306    -3.531483    -0.705615
H      -1.026769    -0.455358     2.274787
H      -3.510452    -0.638805     2.355810
N      -5.037735    -2.267600     0.904454
O      -5.627508    -1.540984     1.676485
O      -5.567509    -3.070985     0.164746
C       0.709518    -1.898158     0.705597
O       1.295937    -1.414367     1.903633
H       1.071087    -2.920156     0.516812
40
     -1068.742550     -1068.466712   7.72   7.10
C      -0.303324     0.170921     1.717059
C      -0.835279    -1.943396     0.864356
C      -1.079945    -2.052222     2.390458
C      -0.740915    -0.652238     2.956978
H      -1.083744     0.878988     1.419222
H      -1.783382    -1.784501     0.338400
H      -0.381399    -2.839027     0.436307
H      -2.113371    -2.338405     2.597895
H      -0.441573    -2.817464     2.838087
H      -1.591865    -0.180176     3.450266
H       0.065242    -0.705686     3.693858
N      -0.001856    -0.765995     0.649612
C       0.991511     0.926022     1.887515
O       1.197247     1.916593     2.523805
O       1.954137     0.303860     1.167800
C       1.455090    -0.904832     0.553130
C       2.072806    -2.078905     1.316898
H       3.161001    -1.982835     1.299581
H       1.748541    -2.081773     2.359445
H       1.806812    -3.035170     0.859408
C       1.900298    -0.929605    -0.911515
H       1.297276    -1.679810    -1.433823
H       2.942282    -1.269551    -0.956026
H       3.134693    -0.085064    -3.040081
C      -2.100145     2.107981    -1.782203
C      -1.118407     2.730168    -1.031952
C       0.153802     2.172870    -1.014911
C       0.429895     1.008181    -1.722400
C      -0.576026     0.415510    -2.484792
C      -1.848892     0.958500    -2.518224
H      -1.350453     3.630561    -0.477771
H       0.936415     2.653341    -0.435730
H      -0.356788    -0.475360    -3.063361
H      -2.642872     0.510317    -3.101787
N      -3.457959     2.689603    -1.806252
O      -3.657146     3.682624    -1.136458
O      -4.294500     2.139537    -2.492805
C       1.814446     0.400032    -1.677279
O       2.211036     0.184001    -3.032086
H       2.487315     1.122406    -1.200628
40
     -1068.742959     -1068.466679   7.47   7.12
C      -1.385378    -0.252430     0.822433
C       0.220062    -1.365269     2.162093
C      -1.153923    -1.649035     2.772999
C      -2.082022    -1.399205     1.580059
H      -1.502488    -0.366039    -0.260120
H       0.550237    -2.230177     1.573650
H       0.999157    -1.160352     2.894092
H      -1.237490    -2.659808     3.179328
H      -1.368769    -0.942721     3.582724
H      -2.121343    -2.284799     0.939399
H      -3.105039    -1.136181     1.854738
N       0.019994    -0.236573     1.239396
C      -1.908807     1.118489     1.204527
O      -3.030671     1.525506     1.116050
O      -0.891158     1.863550     1.675565
C       0.363659     1.128610     1.647593
C       0.966000     1.267218     3.041777
H       1.963479     0.822937     3.084615
H       1.057803     2.329566     3.276567
H       0.327763     0.805207     3.797055
C       1.286834     1.824264     0.634155
H       2.230015     1.267976     0.608157
H       1.520651     2.821439     1.018977
H       2.378926     2.499743    -1.772086
C       0.213916    -1.337589    -3.365546
C      -0.685708    -0.286438    -3.419087
C      -0.502275     0.782876    -2.554797
C       0.555134     0.805227    -1.646601
C       1.439505    -0.272057    -1.620533
C       1.276800    -1.350237    -2.477701
H      -1.504339    -0.311646    -4.126726
H      -1.196129     1.617363    -2.585256
H       2.258651    -0.292414    -0.910690
H       1.955286    -2.193511    -2.461817
N       0.033646    -2.483364    -4.283350
O      -0.908059    -2.447310    -5.047578
O       0.838535    -3.388828    -4.215336
C       0.747429     2.040710    -0.781751
O       1.593378     2.967660    -1.469334
H      -0.213260     2.557642    -0.707639
40
     -1068.743366     -1068.465910   7.21   7.61
C      -1.221324    -0.697466     0.151485
C      -0.310764    -2.385794    -1.230035
C      -1.673317    -2.895766    -0.751645
C      -2.375191    -1.595267    -0.345485
H      -1.365477     0.336861    -0.177493
H      -0.399522    -1.989810    -2.248917
H       0.467828    -3.146896    -1.249480
H      -2.211878    -3.449408    -1.524519
H      -1.557788    -3.558031     0.112757
H      -2.843674    -1.129567    -1.216929
H      -3.144622    -1.723847     0.418006
N       0.035737    -1.269864    -0.336912
C      -1.068863    -0.682975     1.657413
O      -1.866794    -0.322202     2.472932
O       0.153976    -1.145571     1.984780
C       0.928714    -1.498045     0.809578
C       1.383576    -2.940464     1.014640
H       0.538813    -3.630854     1.023227
H       2.092462    -3.241393     0.239037
H       1.890041    -3.008024     1.979672
C       2.169863    -0.585722     0.756893
H       2.569793    -0.642371    -0.261388
H       2.938547    -0.991101     1.421667
H       3.516817     1.701592     0.272345
C      -0.829785     3.209482    -1.053510
C      -0.895676     3.210192     0.328451
C       0.019031     2.440456     1.034349
C       0.977783     1.677354     0.373447
C       1.013163     1.699604    -1.021373
C       0.112635     2.464146    -1.745536
H      -1.649380     3.799794     0.833898
H      -0.026301     2.423607     2.118506
H       1.734018     1.093783    -1.561016
H       0.126649     2.484703    -2.827712
N      -1.798652     4.025031    -1.818488
O      -1.717506     4.003236    -3.029018
O      -2.614828     4.664337    -1.188570
C       1.984139     0.875574     1.179056
O       3.252560     1.531005     1.182616
H       1.665197     0.889682     2.223262
