40
     -1068.753536     -1068.475570   0.00   0.00
C       0.860053    -2.952360     0.136853
C       1.854954    -1.214355     1.360953
C       2.988759    -2.154730     0.969734
C       2.246695    -3.447640     0.585266
H       0.640431    -3.217229    -0.902250
H       2.132198    -0.158539     1.350074
H       1.492753    -1.467555     2.367542
H       3.527043    -1.749097     0.107682
H       3.707328    -2.300811     1.778470
H       2.753513    -3.998817    -0.207652
H       2.143779    -4.118452     1.441422
N       0.840689    -1.491800     0.326725
C      -0.300698    -3.431354     1.010801
O      -1.054684    -2.361002     1.340607
O      -0.534203    -4.543900     1.381004
C      -0.553622    -1.177291     0.636878
C      -0.738480     0.006337     1.569171
H      -0.261647     0.898678     1.164156
H      -1.803895     0.210978     1.688276
H      -0.320942    -0.210713     2.552628
C      -1.381365    -1.076035    -0.659811
H      -2.405543    -0.817528    -0.378674
H      -1.427295    -2.069917    -1.114240
H       0.904979    -0.799714    -1.423321
C      -1.052257     4.022447    -0.641139
C       0.177474     3.472298    -0.956722
C       0.236833     2.132451    -1.317139
C      -0.915988     1.353727    -1.355891
C      -2.142462     1.944208    -1.046327
C      -2.221544     3.278357    -0.683060
H       1.067277     4.087943    -0.922196
H       1.187425     1.686963    -1.583450
H      -3.055265     1.357164    -1.094630
H      -3.166595     3.746092    -0.438684
N      -1.124067     5.447172    -0.256179
O      -2.217214     5.902001     0.011564
O      -0.086472     6.076074    -0.230478
C      -0.863240    -0.118795    -1.750881
O       0.410250    -0.512331    -2.214277
H      -1.544960    -0.232926    -2.602811
40
     -1068.750136     -1068.474819   2.13   0.47
C      -2.176177    -0.207711     1.432057
C      -3.329044     1.080827    -0.151612
C      -3.658311     1.688273     1.206553
C      -3.280550     0.559606     2.181471
H      -1.227932    -0.195058     1.980002
H      -3.222296     1.817906    -0.950182
H      -4.121645     0.372766    -0.438437
H      -3.033058     2.569604     1.378494
H      -4.704591     1.989908     1.289279
H      -2.931596     0.936040     3.144045
H      -4.130242    -0.100544     2.372359
N      -2.043945     0.409708     0.105516
C      -2.519779    -1.664287     1.111928
O      -2.272324    -1.880544    -0.195430
O      -2.950795    -2.501051     1.851563
C      -1.656869    -0.677543    -0.777384
C      -2.163602    -0.554196    -2.201579
H      -3.253041    -0.587511    -2.229135
H      -1.807923     0.372797    -2.650585
H      -1.775848    -1.383986    -2.794950
C      -0.137147    -0.901227    -0.690444
H       0.133917    -1.759910    -1.311462
H       0.110053    -1.164610     0.341318
H       1.175952     1.196334    -2.767991
C       4.672045    -0.178582     0.461667
C       4.344747    -0.787144    -0.739637
C       3.064958    -0.615497    -1.244621
C       2.127251     0.155407    -0.557444
C       2.490695     0.758332     0.644657
C       3.766042     0.595071     1.166611
H       5.084670    -1.381803    -1.259886
H       2.788099    -1.081808    -2.183805
H       1.770208     1.369439     1.180956
H       4.062110     1.056735     2.099733
N       6.034290    -0.359571     1.007338
O       6.809410    -1.040580     0.368681
O       6.293539     0.184081     2.060977
C       0.712323     0.306440    -1.088887
O       0.695167     0.403337    -2.510529
H       0.261236     1.200556    -0.641205
40
     -1068.751950     -1068.474103   1.00   0.92
C       0.249087    -0.896288     2.580263
C      -2.045506    -0.380083     2.932384
C      -1.631001    -1.416661     3.975988
C      -0.116918    -1.200004     4.041000
H       1.097509    -0.206580     2.507018
H      -2.087936     0.613391     3.393763
H      -3.017047    -0.565078     2.480107
H      -2.130601    -1.271524     4.936309
H      -1.859399    -2.429323     3.624999
H       0.116234    -0.332198     4.664614
H       0.443989    -2.054979     4.421657
N      -0.962528    -0.368747     1.925221
C       0.591453    -2.148971     1.792588
O      -0.219877    -2.231528     0.723549
O       1.434798    -2.959266     2.042631
C      -1.123172    -1.094409     0.651274
C      -2.508309    -1.666208     0.387412
H      -2.481054    -2.213473    -0.557309
H      -2.808295    -2.360611     1.174528
H      -3.249024    -0.868575     0.296233
C      -0.678553    -0.240952    -0.547291
H      -1.468248     0.484061    -0.773417
H      -0.587858    -0.912269    -1.405893
H      -0.144396     1.272519     1.240068
C       1.924866     2.014132    -4.150601
C       1.245159     2.869730    -3.299958
C       0.837155     2.395564    -2.061319
C       1.109209     1.083002    -1.683757
C       1.801935     0.248047    -2.559839
C       2.214330     0.704750    -3.801422
H       1.044365     3.887378    -3.609499
H       0.313393     3.048835    -1.374505
H       2.027053    -0.773187    -2.264813
H       2.752181     0.068652    -4.492487
N       2.359253     2.513327    -5.471528
O       2.096355     3.664289    -5.753475
O       2.953448     1.741945    -6.196847
C       0.632891     0.534788    -0.354014
O       0.465376     1.603546     0.558067
H       1.409680    -0.157040     0.008301
40
     -1068.750098     -1068.473877   2.16   1.06
C      -2.384963    -0.048749    -1.732169
C      -2.458142    -2.392198    -1.636466
C      -3.068591    -2.003457    -2.977275
C      -3.418793    -0.519982    -2.771678
H      -1.741840     0.744178    -2.127623
H      -1.859251    -3.304373    -1.674941
H      -3.260838    -2.535451    -0.896695
H      -2.322077    -2.115412    -3.769065
H      -3.936501    -2.613455    -3.235946
H      -3.356828     0.058151    -3.694488
H      -4.430446    -0.403410    -2.374910
N      -1.606915    -1.229278    -1.328568
C      -2.989742     0.446900    -0.419556
O      -2.370557    -0.193606     0.602893
O      -3.861448     1.247150    -0.251916
C      -1.254670    -0.990233     0.059355
C      -1.134021    -2.248516     0.898558
H      -0.867309    -1.995901     1.925592
H      -2.072673    -2.801298     0.923872
H      -0.350819    -2.889123     0.486232
C       0.021728    -0.134380     0.114071
H      -0.043559     0.668780    -0.625891
H       0.846478    -0.782767    -0.195623
H      -1.423416     1.250944     1.735853
C       4.369994     1.971245     1.309272
C       4.148543     0.631273     1.583241
C       2.839752     0.180627     1.648660
C       1.770010     1.050675     1.440908
C       2.025208     2.393412     1.172002
C       3.329717     2.861916     1.105040
H       4.988276    -0.032914     1.741728
H       2.648313    -0.865692     1.870539
H       1.196177     3.074594     1.025774
H       3.545930     3.902369     0.899116
N       5.760839     2.464786     1.236699
O       5.928948     3.642658     0.997159
O       6.652548     1.661703     1.420951
C       0.352764     0.512905     1.471347
O      -0.519378     1.583427     1.780138
H       0.307552    -0.247497     2.263810
40
     -1068.751893     -1068.473810   1.03   1.10
C       2.278236     1.945462    -0.838742
C       1.453627     0.066923    -2.061777
C       2.192088     1.000409    -3.022773
C       3.144588     1.742948    -2.081819
H       2.869301     2.065163     0.075331
H       2.043342    -0.841487    -1.893624
H       0.476713    -0.245233    -2.423744
H       2.705267     0.457546    -3.819294
H       1.494631     1.705072    -3.488433
H       4.006607     1.117103    -1.832319
H       3.507894     2.694428    -2.472622
N       1.360173     0.795400    -0.771042
C       1.346499     3.149143    -0.984978
O       0.082140     2.745295    -0.763715
O       1.643649     4.272235    -1.269771
C       0.082043     1.351276    -0.316273
C      -1.161378     0.714721    -0.911273
H      -1.168478    -0.364254    -0.758998
H      -2.044410     1.133514    -0.425512
H      -1.225180     0.936717    -1.978052
C       0.062612     1.419212     1.225150
H      -0.899062     1.841258     1.528730
H       0.829824     2.133915     1.539032
H       1.807529    -0.164507     0.775041
C      -2.690188    -2.875591     1.474147
C      -1.396813    -3.163690     1.075405
C      -0.414892    -2.196319     1.244440
C      -0.723663    -0.957940     1.799332
C      -2.035384    -0.705462     2.204600
C      -3.028704    -1.656937     2.042481
H      -1.169281    -4.130563     0.644853
H       0.606996    -2.406484     0.953716
H      -2.288512     0.247323     2.661129
H      -4.049587    -1.471594     2.350865
N      -3.740851    -3.899155     1.297461
O      -4.864750    -3.618681     1.660524
O      -3.417252    -4.957775     0.799994
C       0.346335     0.112210     1.990058
O       1.645775    -0.365938     1.716926
H       0.332511     0.374338     3.055544
40
     -1068.749966     -1068.473651   2.24   1.20
C      -0.097008    -2.150155     0.255280
C       0.768098    -0.681623     1.883299
C       1.951569    -1.466682     1.329002
C       1.271466    -2.694783     0.701231
H      -0.199395    -2.158260    -0.835786
H       0.997606     0.367524     2.083625
H       0.420313    -1.147405     2.818560
H       2.460057    -0.873514     0.562153
H       2.680283    -1.730362     2.098453
H       1.835757    -3.112050    -0.133752
H       1.136744    -3.488701     1.440622
N      -0.208586    -0.791931     0.793124
C      -1.306930    -2.868983     0.853404
O      -2.134818    -1.939198     1.377441
O      -1.527508    -4.044358     0.891582
C      -1.615696    -0.598698     1.068915
C      -1.915262     0.287620     2.264419
H      -1.559340    -0.170978     3.187095
H      -1.437068     1.262696     2.150123
H      -2.993741     0.436627     2.348936
C      -2.357272    -0.146728    -0.197731
H      -3.432058    -0.191866    -0.002091
H      -2.153794    -0.857565    -1.003760
H      -2.697083     2.315879    -2.211734
C       2.084690     1.732064    -1.787280
C       1.594259     2.441707    -0.704984
C       0.254481     2.294687    -0.371923
C      -0.574761     1.447145    -1.099343
C      -0.055657     0.768272    -2.201878
C       1.278318     0.899830    -2.550193
H       2.253372     3.089794    -0.141586
H      -0.146383     2.845936     0.474013
H      -0.704333     0.128988    -2.791955
H       1.699525     0.372031    -3.396370
N       3.511855     1.869641    -2.144815
O       4.194932     2.601556    -1.458125
O       3.915340     1.241012    -3.101431
C      -2.028485     1.260451    -0.703610
O      -2.893007     1.457670    -1.821672
H      -2.270479     1.992707     0.078743
40
     -1068.748770     -1068.472803   2.99   1.74
C      -1.293545    -0.340601    -2.318547
C      -0.568787    -2.603070    -2.141237
C      -1.494933    -2.478523    -3.352806
C      -1.361014    -0.993542    -3.700822
H      -0.772322     0.623160    -2.338731
H       0.468067    -2.728272    -2.475390
H      -0.804944    -3.449755    -1.499825
H      -1.208724    -3.143150    -4.171146
H      -2.528984    -2.710196    -3.073954
H      -0.427757    -0.808758    -4.241413
H      -2.187888    -0.594895    -4.290686
N      -0.665690    -1.315590    -1.417775
C      -2.686029    -0.128237    -1.722871
O      -2.732064    -0.716803    -0.515883
O      -3.615337     0.441420    -2.219277
C      -1.395684    -1.216136    -0.162386
C      -1.608650    -2.515521     0.591044
H      -2.083192    -2.296910     1.549096
H      -2.264696    -3.179218     0.024591
H      -0.657935    -3.006792     0.795981
C      -0.766247    -0.107542     0.700943
H      -1.372606     0.039307     1.599656
H      -0.808022     0.823413     0.128225
H       1.618001    -1.540816     2.343898
C       2.448737     3.336033     2.371137
C       1.700426     2.603052     3.278501
C       1.144263     1.402313     2.864789
C       1.335632     0.941658     1.562069
C       2.098574     1.699919     0.676761
C       2.660337     2.905491     1.072584
H       1.561807     2.975015     4.285573
H       0.556217     0.812200     3.559208
H       2.262122     1.343552    -0.336208
H       3.254405     3.505566     0.395453
N       3.042613     4.618792     2.804720
O       2.842495     4.972616     3.948083
O       3.693909     5.239526     1.990189
C       0.689228    -0.352287     1.098192
O       0.702468    -1.340393     2.125123
H       1.225748    -0.716025     0.213138
40
     -1068.748465     -1068.472161   3.18   2.14
C       2.614471    -0.908733     1.134335
C       2.274862     0.585504     2.959232
C       3.230440    -0.523263     3.405480
C       3.821725    -0.987390     2.072003
H       2.909030    -0.774445     0.087470
H       2.826010     1.523692     2.827665
H       1.476029     0.779923     3.671789
H       3.983296    -0.168810     4.112984
H       2.678324    -1.342009     3.880506
H       4.594795    -0.292202     1.731464
H       4.246365    -1.992327     2.094936
N       1.756547     0.173115     1.635010
C       1.736584    -2.155008     1.231223
O       0.475205    -1.772132     1.529617
O       2.053649    -3.299356     1.090623
C       0.392621    -0.301841     1.472265
C      -0.582113     0.126187     2.553264
H      -0.305985    -0.299023     3.519231
H      -0.608135     1.215963     2.625856
H      -1.586261    -0.225037     2.312527
C      -0.094077     0.088153     0.064831
H       0.708938    -0.099764    -0.654770
H      -0.257555     1.169886     0.079782
H      -0.733390    -2.406998    -0.018687
C      -2.729092     1.468664    -3.923918
C      -1.973246     0.320850    -4.092804
C      -1.540719    -0.366693    -2.967716
C      -1.863435     0.091621    -1.692442
C      -2.631994     1.247125    -1.556484
C      -3.070361     1.947111    -2.669256
H      -1.733210    -0.022295    -5.090971
H      -0.957128    -1.272374    -3.076622
H      -2.897484     1.604418    -0.565258
H      -3.666894     2.845623    -2.578403
N      -3.190074     2.205585    -5.118757
O      -3.851698     3.207851    -4.940449
O      -2.879935     1.765621    -6.206553
C      -1.358731    -0.621137    -0.452929
O      -1.114450    -1.973338    -0.790922
H      -2.152927    -0.562720     0.304849
40
     -1068.747874     -1068.471950   3.55   2.27
C      -0.547406    -2.008427    -0.590287
C      -2.057042    -0.201340    -0.452687
C      -2.432672    -1.173643     0.659773
C      -1.787436    -2.486397     0.185827
H       0.381202    -2.305773    -0.089764
H      -2.140673     0.847661    -0.159566
H      -2.703150    -0.372536    -1.327788
H      -1.986628    -0.843272     1.603340
H      -3.512434    -1.256468     0.800576
H      -1.521877    -3.151101     1.008817
H      -2.459234    -3.034469    -0.480169
N      -0.653324    -0.551294    -0.702000
C      -0.475197    -2.472087    -2.045229
O      -0.247143    -1.390527    -2.823365
O      -0.603244    -3.579388    -2.479285
C      -0.042789    -0.212546    -1.968102
C      -0.663126     0.975691    -2.680679
H      -0.094109     1.199688    -3.585781
H      -1.692078     0.760616    -2.968744
H      -0.655656     1.857606    -2.037080
C       1.479332    -0.073804    -1.812398
H       1.909225    -0.038466    -2.820505
H       1.872590    -0.975440    -1.333648
H       3.740454     1.107825    -1.875370
C       0.537617     1.148932     3.001870
C       1.472630     0.196496     2.622804
C       1.951368     0.217884     1.323730
C       1.494890     1.169908     0.413352
C       0.579170     2.128376     0.832296
C       0.086495     2.124550     2.130271
H       1.810328    -0.540099     3.340626
H       2.692932    -0.510257     1.013056
H       0.239982     2.891458     0.137768
H      -0.633661     2.858483     2.468721
N       0.011588     1.125604     4.381909
O       0.429033     0.265175     5.129627
O      -0.809492     1.967226     4.685382
C       1.980153     1.144879    -1.020536
O       3.405406     1.122228    -0.973308
H       1.643971     2.067055    -1.513451
40
     -1068.748717     -1068.471914   3.02   2.29
C      -2.669909     0.570270     1.502083
C      -3.276835    -0.955124    -0.169456
C      -4.562721    -0.611174     0.572191
C      -4.044169    -0.005802     1.888289
H      -2.617317     1.651110     1.669000
H      -3.414274    -1.096447    -1.243316
H      -2.847685    -1.878795     0.248760
H      -5.128094     0.133515     0.004197
H      -5.203406    -1.481753     0.727605
H      -4.708273     0.762995     2.285511
H      -3.926202    -0.771698     2.658808
N      -2.436128     0.226310     0.091740
C      -1.486682    -0.075661     2.224794
O      -0.569621    -0.431673     1.300859
O      -1.346104    -0.269724     3.397365
C      -0.994763     0.069579    -0.015912
C      -0.566112    -0.939361    -1.066338
H       0.519316    -0.972988    -1.143226
H      -0.922694    -1.940363    -0.822911
H      -0.970134    -0.640142    -2.036560
C      -0.359628     1.457553    -0.234815
H      -1.009815     2.220333     0.199554
H      -0.330472     1.656498    -1.310359
H       2.172113     3.274707     0.477868
C       4.083962    -0.848562    -1.241459
C       3.612096    -1.096803     0.035738
C       2.625925    -0.266148     0.550741
C       2.118872     0.788679    -0.203100
C       2.619221     1.014961    -1.485874
C       3.604832     0.196958    -2.015715
H       4.013385    -1.923146     0.608065
H       2.238133    -0.447795     1.547496
H       2.234657     1.844272    -2.070088
H       4.004484     0.358527    -3.008578
N       5.137414    -1.725573    -1.798231
O       5.539567    -2.632693    -1.099949
O       5.534381    -1.483904    -2.919143
C       1.032797     1.687059     0.360538
O       1.317390     3.059336     0.090641
H       0.982493     1.522666     1.443190
40
     -1068.746723     -1068.471372   4.27   2.63
C      -0.423590     2.050221    -1.295429
C      -2.528560     1.148315    -1.797779
C      -1.891434     1.501470    -3.136128
C      -0.774897     2.479458    -2.731512
H       0.619682     1.728865    -1.209482
H      -3.126535     0.234557    -1.824871
H      -3.176240     1.975982    -1.469740
H      -1.467562     0.601449    -3.591587
H      -2.604999     1.936472    -3.838881
H       0.089890     2.425382    -3.394158
H      -1.131144     3.512451    -2.736086
N      -1.354941     0.974333    -0.924293
C      -0.678277     3.121541    -0.232748
O      -1.395915     2.564234     0.767518
O      -0.340746     4.268701    -0.241796
C      -1.545316     1.129792     0.509042
C      -2.918450     0.718815     1.010244
H      -3.147380    -0.306366     0.705772
H      -2.945249     0.785382     2.100146
H      -3.694216     1.372368     0.612022
C      -0.405256     0.425786     1.256576
H      -0.452973     0.682514     2.318629
H       0.540581     0.818466     0.876542
H      -2.036152    -1.514090     2.137178
C       3.604408    -2.537049     0.948361
C       2.911960    -2.651531     2.141482
C       1.599280    -2.203323     2.199129
C       0.994311    -1.651671     1.073435
C       1.716612    -1.554713    -0.116204
C       3.027954    -1.994547    -0.189526
H       3.398770    -3.085150     3.005527
H       1.037182    -2.289878     3.120771
H       1.240417    -1.132426    -0.997115
H       3.601912    -1.926335    -1.104603
N       5.002534    -3.010529     0.883408
O       5.484926    -3.482602     1.892158
O       5.585303    -2.898649    -0.175738
C      -0.418340    -1.110251     1.111438
O      -1.104806    -1.744324     2.183956
H      -0.892745    -1.363119     0.154345
40
     -1068.746723     -1068.471371   4.27   2.63
C       1.707673     1.751615     0.277843
C       3.146821     0.369005    -0.952537
C       3.881789     0.696579     0.341417
C       3.122083     1.930274     0.858815
H       0.950412     1.673016     1.064900
H       3.320693    -0.648648    -1.309485
H       3.460876     1.070493    -1.740833
H       3.783237    -0.137460     1.042711
H       4.945413     0.886373     0.183464
H       3.108992     1.987840     1.948030
H       3.565831     2.855760     0.483888
N       1.735632     0.550356    -0.569986
C       1.274135     2.856819    -0.687821
O       0.803371     2.275674    -1.813330
O       1.334566     4.041067    -0.533278
C       0.774486     0.822686    -1.626829
C       1.111399     0.186638    -2.963811
H       2.024724     0.609650    -3.381457
H       1.256154    -0.891479    -2.850565
H       0.298961     0.368693    -3.670800
C      -0.636678     0.468484    -1.139661
H      -1.372928     0.827571    -1.864318
H      -0.817588     1.009038    -0.207832
H      -0.777852    -1.663892    -2.762363
C      -3.436750    -1.581878     2.452868
C      -2.094244    -1.307743     2.662482
C      -1.274398    -1.153668     1.556794
C      -1.786571    -1.267936     0.264125
C      -3.138609    -1.546213     0.085124
C      -3.973230    -1.706350     1.182900
H      -1.712571    -1.222093     3.671659
H      -0.216798    -0.945615     1.695666
H      -3.536473    -1.646380    -0.917142
H      -5.026609    -1.925017     1.063887
N      -4.322075    -1.749047     3.623911
O      -5.493283    -1.989395     3.414990
O      -3.824534    -1.635649     4.725516
C      -0.856726    -1.041015    -0.908078
O      -1.418590    -1.681868    -2.047012
H       0.109258    -1.496288    -0.653854
40
     -1068.748223     -1068.471160   3.33   2.77
C       1.001697     1.969972     0.020898
C      -1.186930     1.434358     0.801010
C      -1.057764     2.957067     0.713403
C       0.058550     3.124870    -0.321881
H       1.588436     1.642157    -0.845067
H      -1.830687     1.059867    -0.004318
H      -1.615409     1.092778     1.741973
H      -1.992337     3.443444     0.424894
H      -0.743706     3.372156     1.677779
H      -0.333408     2.989456    -1.334453
H       0.570735     4.087267    -0.275510
N       0.172359     0.901685     0.583193
C       1.965014     2.321273     1.155836
O       1.852655     1.385623     2.117447
O       2.700360     3.262790     1.232531
C       0.950014     0.320128     1.659052
C       0.166418    -0.133714     2.877959
H      -0.623800    -0.833913     2.599725
H       0.842753    -0.633577     3.574694
H      -0.277470     0.721615     3.389954
C       1.871544    -0.781963     1.113201
H       2.596598    -1.043225     1.888944
H       2.439834    -0.379626     0.269200
H       1.870220    -3.762574    -0.047989
C      -1.556200    -1.529843    -2.582190
C      -0.199440    -1.349827    -2.809467
C       0.679413    -1.535604    -1.755484
C       0.210081    -1.885869    -0.489114
C      -1.154509    -2.080041    -0.300836
C      -2.052345    -1.899464    -1.344403
H       0.147416    -1.070905    -3.796316
H       1.745072    -1.408956    -1.915828
H      -1.527711    -2.374263     0.675880
H      -3.117252    -2.040313    -1.210081
N      -2.502244    -1.326024    -3.699326
O      -3.685036    -1.468658    -3.466182
O      -2.039768    -1.026998    -4.780598
C       1.183011    -2.071499     0.661468
O       2.249138    -2.944831     0.290837
H       0.634698    -2.504815     1.509172
40
     -1068.746902     -1068.470987   4.16   2.88
C       0.957530    -1.676102    -0.921569
C      -1.257434    -1.723248    -0.108046
C      -0.425227    -2.596204     0.824623
C       0.803066    -2.926924    -0.038800
H       1.873923    -1.125017    -0.680106
H      -2.008015    -1.123844     0.412547
H      -1.769095    -2.356570    -0.849190
H      -0.132076    -2.018023     1.706880
H      -0.962017    -3.486065     1.160084
H       1.698969    -3.122827     0.551641
H       0.617195    -3.805671    -0.662114
N      -0.235763    -0.855022    -0.705140
C       0.941909    -1.938527    -2.427217
O       0.039810    -1.107494    -2.992544
O       1.584317    -2.734864    -3.047392
C      -0.493192    -0.197954    -1.968598
C      -1.961983     0.025068    -2.281582
H      -2.446927     0.582169    -1.477273
H      -2.057500     0.596075    -3.207406
H      -2.478910    -0.925944    -2.410746
C       0.330933     1.094326    -2.082858
H       0.241033     1.472403    -3.104753
H       1.387657     0.849156    -1.928484
H       1.534501     3.347155    -1.208490
C       0.440975     1.207196     3.007983
C       1.554716     1.238948     2.182194
C       1.380955     1.577945     0.850619
C       0.115579     1.874270     0.342471
C      -0.976033     1.848712     1.204229
C      -0.826159     1.511941     2.542403
H       2.529891     0.996658     2.584849
H       2.252698     1.589471     0.201440
H      -1.964318     2.091375     0.825245
H      -1.670563     1.481833     3.219118
N       0.613363     0.835829     4.427316
O       1.735820     0.572213     4.806892
O      -0.378289     0.814553     5.126925
C      -0.074306     2.222725    -1.124112
O       0.610891     3.424230    -1.468396
H      -1.127924     2.466053    -1.282645
40
     -1068.745301     -1068.469918   5.17   3.55
C      -1.339668     2.106539    -0.737474
C      -3.126168     0.542500    -0.928702
C      -3.665065     1.940194    -1.238909
C      -2.397697     2.672664    -1.687916
H      -0.331235     2.154187    -1.164732
H      -3.049909    -0.041640    -1.853502
H      -3.751858    -0.023638    -0.241739
H      -4.451302     1.929442    -1.997156
H      -4.072416     2.406651    -0.334873
H      -2.146595     2.406619    -2.719154
H      -2.458133     3.759719    -1.615994
N      -1.758634     0.740155    -0.398344
C      -1.331900     2.838382     0.604599
O      -1.490454     1.935276     1.588549
O      -1.224873     4.015085     0.796674
C      -1.474626     0.582598     1.021150
C      -2.477703    -0.230049     1.817474
H      -3.448592     0.268378     1.830533
H      -2.575146    -1.237817     1.413174
H      -2.128243    -0.311279     2.849090
C      -0.028115     0.083786     1.180249
H       0.254669     0.118498     2.239615
H       0.623433     0.795096     0.666666
H       0.040540    -2.117289     2.395795
C       4.304938    -1.762041    -0.581886
C       3.471953    -0.908612    -1.289880
C       2.153119    -0.792303    -0.886885
C       1.667710    -1.509704     0.208828
C       2.526464    -2.367197     0.888819
C       3.853465    -2.497853     0.498552
H       3.859316    -0.356282    -2.136251
H       1.482916    -0.137901    -1.437798
H       2.159174    -2.957095     1.720117
H       4.532477    -3.161231     1.018770
N       5.715818    -1.894479    -1.000444
O       6.422345    -2.650110    -0.365826
O       6.082472    -1.238789    -1.953821
C       0.212824    -1.324612     0.616739
O      -0.240852    -2.337687     1.502061
H      -0.394450    -1.438160    -0.286168
40
     -1068.745204     -1068.469720   5.23   3.67
C       1.583060    -0.261292    -1.897140
C       1.312831    -2.580538    -1.421777
C       2.287919    -2.426891    -2.591220
C       2.828182    -1.011761    -2.370498
H       1.830199     0.622304    -1.298106
H       1.854416    -2.894399    -0.521709
H       0.536915    -3.321656    -1.605327
H       3.066024    -3.193470    -2.591348
H       1.756598    -2.483764    -3.547760
H       3.583938    -1.007537    -1.579211
H       3.256880    -0.551707    -3.262087
N       0.751257    -1.232229    -1.172032
C       0.703272     0.175493    -3.070527
O      -0.543296    -0.294398    -2.870683
O       1.025004     0.806881    -4.034515
C      -0.619205    -0.911054    -1.544463
C      -1.564922    -2.092450    -1.668616
H      -2.579418    -1.724650    -1.837736
H      -1.290560    -2.721966    -2.516159
H      -1.551635    -2.703878    -0.761998
C      -1.149708     0.176591    -0.598515
H      -2.102736     0.559789    -0.974550
H      -0.438848     1.006339    -0.619817
H      -2.815904    -1.557804     0.607135
C      -0.403570     2.915969     3.511602
C       0.625241     2.193673     2.927002
C       0.295851     1.146389     2.082926
C      -1.037587     0.827408     1.824019
C      -2.048990     1.569255     2.427225
C      -1.735521     2.620582     3.278206
H       1.654424     2.454022     3.137817
H       1.084521     0.561400     1.617131
H      -3.084680     1.317080     2.236024
H      -2.507938     3.207752     3.757993
N      -0.065809     4.035523     4.414611
O       1.110295     4.271716     4.601672
O      -0.983543     4.652250     4.915213
C      -1.339097    -0.296853     0.856677
O      -2.664433    -0.750552     1.104971
H      -0.619428    -1.101573     1.055570
40
     -1068.746181     -1068.469580   4.61   3.76
C      -0.547119    -1.924284    -0.930180
C      -1.896683     0.020679    -0.644067
C      -2.796344    -1.137979    -1.080599
C      -1.984764    -2.358053    -0.634465
H       0.179508    -2.428215    -0.282250
H      -2.058425     0.249876     0.416151
H      -2.073282     0.938332    -1.202902
H      -3.790927    -1.092085    -0.631294
H      -2.916607    -1.141923    -2.169898
H      -2.102918    -2.525097     0.440401
H      -2.240050    -3.281130    -1.157400
N      -0.511865    -0.465857    -0.798879
C      -0.152402    -2.170916    -2.386662
O       0.295831    -1.013439    -2.910875
O      -0.224587    -3.191662    -3.007300
C       0.354276     0.009689    -1.857888
C      -0.045195     1.321140    -2.511024
H       0.723836     1.615641    -3.228851
H      -0.986922     1.209276    -3.050582
H      -0.149330     2.115329    -1.769395
C       1.817158     0.015318    -1.385000
H       2.449644     0.128601    -2.273740
H       2.050193    -0.961961    -0.951191
H       4.095089     1.031982    -0.868755
C       0.039399     0.785204     3.304460
C       0.984295    -0.182525     2.995308
C       1.689880    -0.065212     1.809815
C       1.449788     0.999163     0.941740
C       0.512469     1.964628     1.291328
C      -0.206173     1.865214     2.475013
H       1.154758    -1.004472     3.678805
H       2.443189    -0.803814     1.558227
H       0.337618     2.811213     0.633998
H      -0.943310     2.605802     2.757854
N      -0.724730     0.663159     4.562952
O      -0.474711    -0.280122     5.284580
O      -1.558901     1.513443     4.798906
C       2.204457     1.098602    -0.367139
O       3.589993     0.975449    -0.051506
H       2.013862     2.091004    -0.797699
40
     -1068.745799     -1068.469428   4.85   3.85
C       2.402075    -0.082294    -0.293958
C       2.878770     0.663722     1.880143
C       4.206451     0.213181     1.284215
C       3.760780    -0.680909     0.115457
H       2.424952     0.304443    -1.318105
H       2.960029     1.544205     2.520906
H       2.448921    -0.157671     2.473883
H       4.760205     1.081422     0.914391
H       4.835136    -0.312149     2.006384
H       4.471533    -0.679184    -0.712042
H       3.631791    -1.716967     0.439119
N       2.080772     0.972086     0.680800
C       1.225359    -1.051084    -0.172818
O       0.264972    -0.461860     0.564648
O       1.127606    -2.157413    -0.619228
C       0.628202     0.938839     0.803565
C       0.104336     1.329015     2.171995
H       0.383561     2.362561     2.389884
H      -0.981957     1.266899     2.185230
H       0.503264     0.674513     2.946746
C       0.053394     1.802753    -0.334513
H       0.547574     1.502817    -1.262998
H       0.359690     2.834148    -0.138900
H      -3.011484     2.675497     0.201230
C      -3.071784    -2.067557    -1.437761
C      -3.388993    -1.463535    -0.233916
C      -2.869425    -0.205565     0.038034
C      -2.047889     0.436960    -0.882273
C      -1.754740    -0.195683    -2.089856
C      -2.257093    -1.454058    -2.376085
H      -4.024703    -1.978171     0.475189
H      -3.091351     0.270766     0.985673
H      -1.119542     0.297582    -2.820534
H      -2.026893    -1.960120    -3.304459
N      -3.617557    -3.408844    -1.731547
O      -3.325738    -3.913779    -2.796259
O      -4.325558    -3.925027    -0.891299
C      -1.456989     1.811964    -0.603866
O      -2.106277     2.485637     0.466291
H      -1.581405     2.402853    -1.523370
40
     -1068.746579     -1068.469261   4.37   3.96
C       0.208609    -1.856140     0.677603
C       1.127132     0.141658     1.634150
C       2.257385    -0.809967     1.232818
C       1.572872    -2.181732     1.290454
H       0.220386    -2.035825    -0.403328
H       1.288120     1.164302     1.278092
H       1.042590     0.168099     2.728261
H       2.585233    -0.592866     0.210336
H       3.124201    -0.730481     1.892386
H       2.099886    -2.963997     0.742824
H       1.458740    -2.508607     2.329815
N      -0.045954    -0.451205     0.987228
C      -0.988998    -2.583327     1.238281
O      -1.884024    -1.670099     1.678193
O      -1.185746    -3.761864     1.292699
C      -1.391972    -0.309825     1.515613
C      -1.484964     0.347893     2.888573
H      -2.533707     0.404902     3.190951
H      -0.944691    -0.238685     3.634242
H      -1.078652     1.361906     2.861133
C      -2.335925     0.416219     0.538900
H      -2.242548     1.491360     0.714429
H      -3.363554     0.150143     0.814356
H      -2.997525    -1.611926    -0.824008
C       1.520106     1.692215    -2.570312
C       0.715043     2.518882    -1.801908
C      -0.465775     2.005621    -1.292337
C      -0.836567     0.679680    -1.526088
C      -0.023484    -0.111982    -2.333834
C       1.162923     0.385980    -2.853990
H       1.016514     3.541617    -1.615009
H      -1.100371     2.657299    -0.700529
H      -0.318958    -1.129589    -2.554159
H       1.807086    -0.226290    -3.472258
N       2.787158     2.224220    -3.107396
O       3.471404     1.479678    -3.779319
O       3.071566     3.374653    -2.842407
C      -2.140211     0.141035    -0.956104
O      -2.221427    -1.244525    -1.258580
H      -2.951895     0.671567    -1.479773
40
     -1068.745196     -1068.469234   5.23   3.98
C      -0.070562    -1.411298    -2.394074
C       1.579524    -1.418027    -0.730851
C       2.317559    -1.238948    -2.052673
C       1.273067    -1.686725    -3.091873
H      -0.687837    -0.694497    -2.944198
H       2.014345    -0.851064     0.095475
H       1.571321    -2.484107    -0.454554
H       2.569557    -0.183473    -2.193867
H       3.241552    -1.819142    -2.100191
H       1.360112    -1.140584    -4.032227
H       1.366705    -2.751873    -3.317696
N       0.239145    -0.907899    -1.052920
C      -0.910971    -2.660163    -2.111462
O      -1.297769    -2.624126    -0.817244
O      -1.194630    -3.551284    -2.858654
C      -0.867956    -1.340930    -0.231107
C      -0.508395    -1.618975     1.218856
H       0.204648    -2.440665     1.287188
H      -0.078870    -0.732651     1.685838
H      -1.407173    -1.901529     1.770419
C      -2.082918    -0.395612    -0.377294
H      -2.789072    -0.635964     0.423798
H      -2.597119    -0.635188    -1.313257
H      -2.059090     1.745504    -2.228145
C       0.738498     2.417321     2.777429
C      -0.585295     2.119520     3.057670
C      -1.403763     1.716817     2.013594
C      -0.907680     1.604664     0.715704
C       0.425474     1.918189     0.464713
C       1.257946     2.327655     1.496508
H      -0.955915     2.207444     4.070663
H      -2.446609     1.487260     2.216148
H       0.806737     1.835264    -0.544301
H       2.296839     2.575533     1.319759
N       1.622094     2.850206     3.880614
O       2.775594     3.110531     3.608274
O       1.139695     2.918149     4.992456
C      -1.827590     1.124990    -0.389544
O      -1.317680     1.567914    -1.643716
H      -2.803519     1.597767    -0.215257
40
     -1068.745202     -1068.469015   5.23   4.11
C       2.106051     0.605525     0.031497
C       0.917073    -0.488432    -1.722113
C       2.415719    -0.574061    -2.021343
C       3.030108    -0.421805    -0.626574
H       2.083500     0.500490     1.122811
H       0.534772    -1.466494    -1.404794
H       0.324588    -0.173081    -2.579348
H       2.694307    -1.506515    -2.517458
H       2.726769     0.257409    -2.663922
H       2.975556    -1.367143    -0.078310
H       4.067516    -0.083519    -0.628779
N       0.787930     0.442679    -0.584538
C       2.494382     2.044820    -0.307805
O       1.415971     2.670964    -0.815364
O       3.562612     2.569041    -0.177619
C       0.250475     1.779930    -0.741869
C      -0.560440     2.026007    -2.002146
H      -0.982379     3.032716    -1.967905
H       0.074641     1.953464    -2.886615
H      -1.379886     1.309821    -2.089362
C      -0.507785     2.202142     0.527812
H      -0.717268     3.273626     0.467464
H       0.154430     2.054539     1.388660
H      -2.095780     1.884793     2.679954
C      -1.446541    -2.745320     1.400268
C      -0.832262    -1.877480     2.290813
C      -0.963062    -0.514717     2.082400
C      -1.691564    -0.018615     1.000283
C      -2.303728    -0.919070     0.134648
C      -2.185817    -2.289328     0.323233
H      -0.263509    -2.273851     3.122219
H      -0.469718     0.164705     2.772515
H      -2.884133    -0.546766    -0.704060
H      -2.655276    -2.997969    -0.347086
N      -1.306255    -4.201401     1.608160
O      -1.835039    -4.937232     0.800616
O      -0.669592    -4.572523     2.572408
C      -1.836835     1.477063     0.775689
O      -2.537327     2.097115     1.851337
H      -2.492201     1.628477    -0.085778
40
     -1068.744942     -1068.469008   5.39   4.12
C      -2.508409    -0.061023    -1.499622
C      -2.705134    -2.383716    -1.313237
C      -3.366281    -2.015958    -2.636081
C      -3.601776    -0.501978    -2.489059
H      -1.846566     0.697674    -1.929629
H      -2.169855    -3.335240    -1.339141
H      -3.471128    -2.437866    -0.523688
H      -2.677053    -2.218570    -3.461240
H      -4.287384    -2.574945    -2.814570
H      -3.523576     0.026143    -3.440492
H      -4.589558    -0.289839    -2.072645
N      -1.764645    -1.268262    -1.109074
C      -3.038742     0.466155    -0.163440
O      -2.376980    -0.157979     0.829604
O      -3.905009     1.272309     0.021014
C      -1.324723    -0.998279     0.254451
C      -1.191823    -2.231351     1.127341
H      -0.951309    -1.928785     2.147003
H      -2.122254    -2.797233     1.156267
H      -0.394659    -2.875198     0.745447
C      -0.018281    -0.178926     0.178315
H      -0.253299     0.829087    -0.175139
H       0.607794    -0.650094    -0.584408
H       0.507701     0.567373     3.282299
C       4.271712     2.321029     0.653451
C       4.389858     0.942215     0.627984
C       3.265555     0.177437     0.906026
C       2.045400     0.781965     1.198825
C       1.960836     2.174288     1.219992
C       3.074403     2.953877     0.947627
H       5.344339     0.486974     0.397414
H       3.344494    -0.906037     0.898506
H       1.013304     2.647692     1.453866
H       3.026625     4.035177     0.959781
N       5.463402     3.146075     0.359391
O       5.333081     4.351971     0.390753
O       6.498290     2.565745     0.104604
C       0.808643    -0.063035     1.459951
O      -0.010174     0.497795     2.474087
H       1.143183    -1.066664     1.757467
40
     -1068.744835     -1068.468952   5.46   4.15
C      -2.566416    -1.690500    -0.579028
C      -2.602449    -1.345993     1.738225
C      -3.810594    -2.219898     1.424509
C      -3.988221    -2.021513    -0.090905
H      -2.204537    -2.420899    -1.310152
H      -2.118435    -1.590083     2.685992
H      -2.912269    -0.289979     1.769862
H      -3.578507    -3.264937     1.650008
H      -4.695242    -1.934406     1.997564
H      -4.389830    -2.907332    -0.584728
H      -4.661720    -1.188325    -0.306364
N      -1.701569    -1.636194     0.609107
C      -2.414556    -0.297200    -1.191608
O      -1.358245     0.308505    -0.608814
O      -3.087941     0.223828    -2.032449
C      -0.685113    -0.649882     0.280602
C      -0.161946     0.115155     1.483204
H       0.263941    -0.588847     2.202509
H       0.617552     0.812810     1.181841
H      -0.957540     0.682438     1.966031
C       0.437068    -1.343061    -0.520871
H       0.014795    -2.196970    -1.055337
H       1.155946    -1.754735     0.197355
H       2.707053    -1.687175    -1.814109
C       3.319620     2.857880     0.002376
C       3.770817     1.579438     0.291118
C       3.067043     0.500212    -0.219381
C       1.930762     0.689592    -1.007429
C       1.504853     1.987616    -1.273194
C       2.194271     3.082858    -0.770708
H       4.653445     1.444951     0.902912
H       3.415198    -0.502198     0.015664
H       0.617077     2.144309    -1.876529
H       1.871739     4.096405    -0.971235
N       4.064503     4.016916     0.540130
O       5.045407     3.787831     1.216935
O       3.649084     5.124679     0.271680
C       1.164328    -0.492910    -1.573251
O       2.005264    -1.326542    -2.365194
H       0.425363    -0.105848    -2.276336
40
     -1068.744725     -1068.468628   5.53   4.36
C      -2.218279    -1.401100     0.874070
C      -1.937290    -0.797805     3.155045
C      -3.415198    -1.121031     2.929201
C      -3.346299    -2.032783     1.701049
H      -1.679360    -2.139190     0.272238
H      -1.452740    -1.628576     3.682267
H      -1.768947     0.098120     3.749180
H      -3.883118    -1.594901     3.795401
H      -3.977399    -0.209116     2.696381
H      -3.059275    -3.046572     1.995656
H      -4.275878    -2.091688     1.132093
N      -1.336561    -0.698980     1.811898
C      -2.729042    -0.304624    -0.050551
O      -2.059557     0.833694     0.210876
O      -3.581193    -0.384788    -0.888821
C      -1.024434     0.590180     1.217059
C      -1.065476     1.778558     2.167271
H      -0.848224     2.689497     1.605972
H      -2.052676     1.886983     2.619980
H      -0.311427     1.670807     2.950747
C       0.328138     0.589050     0.478947
H       1.115564     0.397799     1.214375
H       0.478548     1.598775     0.085111
H       0.920172    -2.285804    -0.892284
C       3.722538     0.981287    -3.152301
C       4.017687     0.251152    -2.012021
C       2.970585    -0.201640    -1.223737
C       1.648405     0.071488    -1.573988
C       1.385776     0.803381    -2.729588
C       2.421450     1.267388    -3.528387
H       5.049676     0.048494    -1.755689
H       3.178737    -0.774166    -0.326281
H       0.358091     1.012585    -3.012630
H       2.233376     1.838380    -4.428426
N       4.834451     1.469613    -3.996435
O       5.964880     1.203060    -3.645310
O       4.547640     2.107134    -4.988319
C       0.503944    -0.390556    -0.685655
O       0.750887    -1.687856    -0.156793
H      -0.408172    -0.396253    -1.297598
40
     -1068.745488     -1068.468194   5.05   4.63
C      -0.606563     0.277105    -1.789701
C      -2.623964     1.513886    -1.693109
C      -1.794971     2.087093    -2.844545
C      -0.860180     0.917604    -3.168016
H      -0.524371    -0.812121    -1.875846
H      -3.403898     0.853084    -2.090134
H      -3.122140     2.267806    -1.086203
H      -2.407418     2.395733    -3.694991
H      -1.220593     2.958327    -2.510880
H      -1.366698     0.197173    -3.816611
H       0.073199     1.210201    -3.652031
N      -1.692531     0.696489    -0.897930
C       0.656182     0.787793    -1.120931
O       0.336703     1.313578     0.073410
O       1.773830     0.752716    -1.546089
C      -1.092803     1.241181     0.327172
C      -1.518461     2.656853     0.704548
H      -2.570201     2.687092     0.997913
H      -0.919461     2.981548     1.558163
H      -1.346851     3.355256    -0.116614
C      -1.334395     0.318181     1.528063
H      -2.405688     0.350899     1.748199
H      -0.816305     0.732222     2.398232
H      -1.279133    -2.722700     2.505267
C       3.223436    -2.009588     1.177554
C       2.732599    -1.291100     2.258415
C       1.377776    -1.015941     2.310553
C       0.521164    -1.441518     1.293241
C       1.045272    -2.177794     0.236321
C       2.402872    -2.464094     0.163507
H       3.409394    -0.961104     3.036058
H       0.979453    -0.465906     3.156062
H       0.388123    -2.536469    -0.549750
H       2.821736    -3.024956    -0.661632
N       4.671014    -2.304747     1.113638
O       5.369227    -1.891554     2.016246
O       5.072779    -2.942857     0.162692
C      -0.968926    -1.155493     1.369119
O      -1.530050    -1.793343     2.519775
H      -1.449161    -1.540537     0.460866
40
     -1068.744307     -1068.467405   5.79   5.12
C       1.808802    -1.431727     0.948106
C       2.563536    -2.303569    -1.135101
C       3.714377    -1.532560    -0.485516
C       3.331837    -1.589827     0.995791
H       1.319836    -1.885715     1.817486
H       2.752539    -3.381449    -1.067466
H       2.421727    -2.068710    -2.187862
H       4.690764    -1.974041    -0.698189
H       3.728794    -0.493631    -0.833881
H       3.586647    -2.565854     1.419572
H       3.795194    -0.815408     1.609379
N       1.359990    -2.000998    -0.330177
C       1.396403     0.037527     0.866243
O       0.644755     0.212962    -0.232386
O       1.685906     0.924947     1.616415
C       0.332520    -1.088938    -0.826121
C       0.297794    -0.892599    -2.329126
H       1.226588    -0.439052    -2.679233
H       0.140387    -1.850414    -2.830638
H      -0.530027    -0.237994    -2.594192
C      -1.007474    -1.578875    -0.242588
H      -0.850876    -1.747978     0.827360
H      -1.209246    -2.558660    -0.684699
H      -3.574157    -0.407893    -1.818877
C      -1.919649     3.217183     1.225898
C      -1.972989     3.068650    -0.148802
C      -2.091275     1.790657    -0.677136
C      -2.157505     0.680576     0.158474
C      -2.109773     0.865752     1.539736
C      -1.983843     2.132142     2.085671
H      -1.914403     3.941141    -0.786881
H      -2.112765     1.657042    -1.752256
H      -2.166034     0.007795     2.204104
H      -1.933388     2.287239     3.155428
N      -1.788917     4.574487     1.794799
O      -1.731975     5.506914     1.019466
O      -1.747127     4.675831     3.003839
C      -2.277500    -0.732079    -0.395730
O      -2.679618    -0.757155    -1.759454
H      -3.039854    -1.245716     0.208544
40
     -1068.743057     -1068.467023   6.58   5.36
C      -1.321578    -2.051392     2.056339
C      -2.724625    -2.197417     0.136212
C      -2.318291    -3.611759     0.556689
C      -1.999490    -3.422413     2.041992
H      -1.405172    -1.554700     3.029612
H      -3.780074    -2.024676     0.376302
H      -2.603726    -2.013872    -0.929268
H      -3.105413    -4.346516     0.372825
H      -1.421456    -3.933625     0.015580
H      -2.920580    -3.382487     2.631110
H      -1.352168    -4.193289     2.463122
N      -1.913497    -1.272809     0.960448
C       0.159354    -2.143828     1.686365
O       0.397479    -1.310262     0.656883
O       1.002354    -2.834016     2.182632
C      -0.809891    -0.517526     0.385919
C      -0.884741    -0.314409    -1.116559
H      -1.830746     0.164938    -1.380188
H      -0.071410     0.326575    -1.451514
H      -0.799026    -1.267685    -1.640561
C      -0.679374     0.810607     1.164622
H      -1.039487     0.649139     2.183503
H      -1.362877     1.535748     0.706421
H       0.146286     3.200711     1.868217
C       2.565937     2.559696    -2.398227
C       1.463097     3.271674    -1.952847
C       0.871571     2.893145    -0.758125
C       1.370466     1.821757    -0.015653
C       2.477163     1.127715    -0.495855
C       3.084243     1.489343    -1.690869
H       1.085487     4.100951    -2.536938
H       0.001068     3.445302    -0.413805
H       2.865999     0.287662     0.069825
H       3.945179     0.956439    -2.073408
N       3.206456     2.956733    -3.670764
O       4.170072     2.317408    -4.037576
O       2.728172     3.897763    -4.269477
C       0.727883     1.411682     1.297570
O       0.699343     2.496460     2.221000
H       1.376015     0.671235     1.768446
40
     -1068.745894     -1068.466740   4.79   5.54
C      -0.044196     0.850528    -1.004210
C      -1.135258    -0.772931    -2.332464
C      -1.178253     0.540967    -3.118286
C      -0.043292     1.339883    -2.468408
H       0.979065     0.734803    -0.631777
H      -0.329095    -1.409350    -2.716687
H      -2.054658    -1.353938    -2.386662
H      -1.037650     0.394527    -4.191827
H      -2.138296     1.047694    -2.974889
H       0.913759     1.084575    -2.931396
H      -0.166626     2.422564    -2.533166
N      -0.801640    -0.402121    -0.948638
C      -0.769170     1.773613    -0.051851
O      -1.780463     1.093847     0.539789
O      -0.532660     2.917646     0.198874
C      -1.867929    -0.275967     0.054710
C      -3.290934    -0.449315    -0.470432
H      -3.477708     0.180005    -1.341822
H      -3.486640    -1.493458    -0.726857
H      -3.989399    -0.159373     0.317477
C      -1.652201    -1.237612     1.243481
H      -1.369823    -2.202227     0.812688
H      -2.606838    -1.382740     1.758832
H      -1.520112     0.890155     2.584277
C       3.327171    -0.021677     0.937525
C       2.683300     0.929372     1.707346
C       1.395877     0.664208     2.158347
C       0.759522    -0.529839     1.834751
C       1.442539    -1.473166     1.064223
C       2.726230    -1.228431     0.608346
H       3.182833     1.859183     1.946719
H       0.881879     1.396519     2.767991
H       0.964794    -2.412097     0.804408
H       3.261918    -1.950587     0.005570
N       4.696128     0.252449     0.452415
O       5.199293     1.313915     0.756626
O       5.234279    -0.601342    -0.222246
C      -0.648831    -0.831165     2.336701
O      -1.167707     0.198683     3.157688
H      -0.559205    -1.697796     3.002832
40
     -1068.742507     -1068.465399   6.92   6.38
C      -0.882904     0.040086     1.797188
C       0.723288     1.568395     0.949147
C       0.536303     1.886679     2.435091
C      -0.044700     0.574167     2.973930
H      -0.816614    -1.048785     1.719294
H       1.642919     0.988977     0.794373
H       0.789119     2.451668     0.315581
H       1.466460     2.179385     2.928264
H      -0.182197     2.704328     2.560975
H       0.759879    -0.132925     3.195979
H      -0.647348     0.691245     3.876509
N      -0.414551     0.716845     0.587068
C      -2.354355     0.392901     1.875790
O      -2.701022     1.066321     0.764589
O      -3.123887     0.141074     2.757548
C      -1.569590     1.243542    -0.129205
C      -1.530807     2.734284    -0.452101
H      -1.398180     3.327140     0.455218
H      -0.732797     2.966153    -1.160940
H      -2.482900     3.015660    -0.908822
C      -1.858623     0.459354    -1.426811
H      -1.313906     0.948922    -2.238617
H      -2.925009     0.566243    -1.645840
H      -2.445597    -2.577057    -0.678322
C       2.697887    -1.872949    -1.288712
C       1.851857    -2.525603    -0.409522
C       0.492811    -2.250507    -0.462568
C      -0.017657    -1.327677    -1.371543
C       0.861101    -0.710165    -2.263654
C       2.220971    -0.968578    -2.224734
H       2.257105    -3.232718     0.303195
H      -0.173646    -2.750018     0.229730
H       0.487683    -0.010341    -3.004396
H       2.909382    -0.484638    -2.905682
N       4.146191    -2.150773    -1.232750
O       4.534212    -2.951927    -0.407412
O       4.862510    -1.559514    -2.014675
C      -1.514181    -1.030699    -1.449083
O      -2.253246    -1.672594    -0.418899
H      -1.855968    -1.405900    -2.425185
40
     -1068.744135     -1068.465182   5.90   6.52
C      -1.262238     0.442847    -1.096193
C      -3.378152     0.977162    -0.135598
C      -3.021835     2.038855    -1.180719
C      -2.051897     1.285282    -2.094539
H      -0.803714    -0.440619    -1.555129
H      -4.211214     0.361157    -0.492789
H      -3.680681     1.406370     0.817634
H      -3.901176     2.421315    -1.703653
H      -2.512697     2.888031    -0.711464
H      -2.596120     0.628536    -2.779724
H      -1.396713     1.932785    -2.679456
N      -2.186447     0.105405    -0.005599
C      -0.161534     1.249401    -0.407323
O      -0.289593     1.082504     0.927266
O       0.676919     1.940959    -0.903895
C      -1.374409     0.120969     1.199056
C      -2.078255     0.599090     2.458282
H      -2.994838     0.023553     2.609619
H      -1.429588     0.436092     3.320283
H      -2.319830     1.661714     2.399433
C      -0.750817    -1.282845     1.408933
H      -0.866128    -1.849691     0.484253
H      -1.357896    -1.795907     2.160237
H       0.855087     0.447416     2.636958
C       3.515470    -0.903383    -1.376468
C       2.518571    -1.862630    -1.460306
C       1.628455    -1.983882    -0.406567
C       1.716635    -1.155454     0.715595
C       2.742765    -0.217109     0.772213
C       3.645977    -0.081533    -0.272732
H       2.453466    -2.497900    -2.334271
H       0.859954    -2.749066    -0.461226
H       2.848611     0.418407     1.642390
H       4.439676     0.653308    -0.238811
N       4.469549    -0.763479    -2.495224
O       5.337580     0.078493    -2.393224
O       4.327854    -1.500204    -3.449959
C       0.721666    -1.327579     1.863684
O       0.973381    -0.457259     2.950829
H       0.894157    -2.331111     2.268205
40
     -1068.740251     -1068.463694   8.34   7.45
C      -0.905372    -1.142157    -0.722172
C      -0.416986     0.544974    -2.271307
C      -1.142326    -0.550145    -3.089701
C      -1.522148    -1.638595    -2.057159
H      -1.685315    -0.797461    -0.034544
H      -1.116856     1.346671    -2.008346
H       0.409946     1.009686    -2.811950
H      -2.018920    -0.141660    -3.597552
H      -0.487931    -0.959534    -3.862735
H      -2.601992    -1.759054    -1.956477
H      -1.117556    -2.614976    -2.336993
N       0.034678    -0.079083    -1.033305
C      -0.049999    -2.157949    -0.003655
O       1.241761    -1.778993    -0.091988
O      -0.402361    -3.144098     0.574614
C       1.395674    -0.623154    -0.937184
C       2.017891    -1.119051    -2.246436
H       2.228863    -0.291945    -2.929202
H       2.959382    -1.624568    -2.020446
H       1.359874    -1.833650    -2.745272
C       2.329889     0.398092    -0.278602
H       2.194975     1.331659    -0.835923
H       3.368793     0.085883    -0.419785
H       2.860979    -0.109833     2.860571
C      -1.867203     1.293336     2.517367
C      -1.251709     0.086263     2.797462
C       0.060152    -0.106155     2.383165
C       0.739040     0.893110     1.692385
C       0.095850     2.104971     1.441658
C      -1.211714     2.314724     1.844802
H      -1.795239    -0.687794     3.324082
H       0.550441    -1.052351     2.578576
H       0.621910     2.895790     0.913864
H      -1.725459     3.247109     1.648624
N      -3.264773     1.503095     2.948417
O      -3.776011     2.574883     2.695709
O      -3.818445     0.591427     3.527723
C       2.171072     0.691909     1.220780
O       2.837483    -0.343196     1.927259
H       2.699666     1.641818     1.393674
