44
      -996.232589      -995.903489   0.00   0.00
C      -0.194999    -1.102206    -1.733801 
C      -2.585258    -0.840883    -1.400340 
C      -2.265151    -0.659515    -2.889584 
C      -0.914629    -1.363865    -3.059852 
H       0.525131    -1.869261    -1.449767 
H      -3.228436    -1.708486    -1.236931 
H      -3.076724     0.030422    -0.964087 
H      -3.043283    -1.085571    -3.526513 
H      -2.164523     0.400694    -3.123629 
H      -1.049448    -2.441709    -3.188477 
H      -0.343454    -0.992674    -3.913014 
N      -1.283309    -1.073297    -0.716712 
H      -1.088071    -0.323323    -0.048522 
C       0.502538     0.259270    -1.720228 
O      -0.065989     1.292573    -1.977546 
O       1.778401     0.173283    -1.353244 
H       2.084634     1.071551    -1.055990 
C      -1.114517    -2.471860     0.466556 
O       0.125399    -2.467260     0.797772 
C      -1.538241    -3.685486    -0.351037 
H      -0.845568    -3.846398    -1.178964 
H      -1.460664    -4.551265     0.312738 
H      -2.563711    -3.633589    -0.723391 
C      -2.123365    -2.039515     1.525763 
H      -1.816805    -1.094109     1.978035 
H      -3.141118    -1.951527     1.135526 
H      -2.119229    -2.807952     2.304514 
C       2.069640     1.588451     1.574104 
C       2.763041     3.598393     0.633877 
C       2.493784     3.918795     2.127406 
C       1.884980     2.619362     2.705000 
H       3.046710     1.103215     1.649920 
H       3.829808     3.413539     0.466395 
H       2.459835     4.400608    -0.041572 
H       3.417496     4.201861     2.638188 
H       1.796204     4.753320     2.233680 
H       2.360655     2.291888     3.631801 
H       0.817149     2.747733     2.904124 
N       2.023717     2.366603     0.323688 
H       1.044569     2.590032     0.152435 
C       0.995893     0.509222     1.537509 
O      -0.143727     0.791041     1.174678 
O       1.400466    -0.670767     1.878542 
H       0.750170    -1.441340     1.500943 
44
      -996.227812      -995.903110   3.00   0.24
C       1.015151    -0.696054    -2.637516 
C      -1.216789    -0.588923    -1.738571 
C      -1.285558    -0.604253    -3.264617 
C       0.077575    -0.040331    -3.668747 
H       1.319695    -1.679629    -3.001242 
H      -1.831380    -1.336255    -1.236189 
H      -1.484897     0.391320    -1.336914 
H      -1.401328    -1.626461    -3.639009 
H      -2.120150    -0.011867    -3.643878 
H       0.377213    -0.270350    -4.691954 
H       0.091171     1.047560    -3.540367 
N       0.215104    -0.849411    -1.407082 
H       0.495798    -0.161298    -0.696952 
C       2.266758     0.117756    -2.400608 
O       2.499341     0.778005    -1.427155 
O       3.097878     0.030485    -3.458232 
H       3.864717     0.591596    -3.268951 
C       0.385909    -2.362397    -0.442896 
O      -0.508768    -2.263045     0.474600 
C       1.845579    -2.264902    -0.003715 
H       2.011760    -1.365535     0.592637 
H       2.047860    -3.136217     0.625673 
H       2.549920    -2.279083    -0.840982 
C       0.120880    -3.480045    -1.449099 
H       0.863318    -3.549135    -2.248060 
H       0.149698    -4.414884    -0.883253 
H      -0.880444    -3.386188    -1.873798 
C      -0.127661     1.538765     3.161390 
C      -1.117767     3.673204     2.839225 
C      -1.788000     3.056402     4.062941 
C      -1.511020     1.560981     3.863062 
H       0.642690     1.194985     3.863354 
H      -0.912307     4.741733     2.954190 
H      -1.762346     3.542092     1.954378 
H      -1.298850     3.418912     4.973249 
H      -2.854382     3.285590     4.131630 
H      -1.506653     0.988503     4.792039 
H      -2.273870     1.122573     3.210785 
N       0.135855     2.918138     2.747071 
H       0.514328     2.927423     1.807412 
C      -0.116232     0.552605     2.000279 
O       0.044628     0.920209     0.841052 
O      -0.290548    -0.683147     2.368936 
H      -0.343874    -1.349424     1.535887 
44
      -996.228410      -995.902766   2.62   0.45
C      -1.654357     1.183588     1.653613 
C       0.594104     1.895430     2.166974 
C      -0.395160     2.955646     2.673525 
C      -1.715305     2.188855     2.815301 
H      -2.252342     0.283818     1.801481 
H       1.181058     1.475771     2.986628 
H       1.285673     2.287206     1.419695 
H      -0.067942     3.404089     3.613676 
H      -0.499994     3.751058     1.932992 
H      -1.756382     1.646348     3.762540 
H      -2.597616     2.829732     2.758923 
N      -0.228969     0.811946     1.563072 
H       0.022796     0.661922     0.578461 
C      -2.106117     1.872032     0.376970 
O      -1.414759     2.578851    -0.306787 
O      -3.409454     1.648292     0.131955 
H      -3.638241     2.139098    -0.671889 
C      -0.013467    -0.915435     2.127531 
O      -0.878511    -1.572362     1.442601 
C      -0.304829    -0.855799     3.622916 
H      -1.363730    -0.658804     3.795933 
H      -0.088186    -1.849967     4.024591 
H       0.307882    -0.130682     4.164210 
C       1.461265    -1.136796     1.801207 
H       2.128076    -0.496439     2.384695 
H       1.685988    -2.178648     2.047951 
H       1.649334    -0.988468     0.737073 
C      -0.021472    -1.253992    -3.158449 
C       1.903123    -0.505952    -4.328104 
C       1.757252    -1.993347    -4.633597 
C       0.880515    -2.478239    -3.471665 
H      -1.049872    -1.452320    -3.485115 
H       2.208248     0.083753    -5.197692 
H       2.653358    -0.358223    -3.533770 
H       1.236188    -2.123825    -5.587849 
H       2.714465    -2.517701    -4.690331 
H       0.292993    -3.366679    -3.708656 
H       1.506541    -2.720347    -2.606204 
N       0.548244    -0.134575    -3.909169 
H       0.544055     0.703025    -3.339717 
C      -0.092489    -0.999873    -1.658318 
O       0.358516     0.024223    -1.151729 
O      -0.658747    -1.964812    -0.996092 
H      -0.711733    -1.771397     0.050615 
44
      -996.227981      -995.902579   2.89   0.57
C      -1.175725     0.040143     2.605858 
C       1.016127    -0.535939     1.790510 
C       1.083617    -0.294647     3.297521 
C      -0.107348     0.632879     3.543826 
H      -1.702347    -0.765040     3.122332 
H       1.435463    -1.483165     1.450539 
H       1.507332     0.267023     1.235436 
H       0.956657    -1.232326     3.848093 
H       2.035245     0.145676     3.600582 
H      -0.449984     0.664385     4.578841 
H       0.135172     1.653567     3.228269 
N      -0.437540    -0.510682     1.452910 
H      -0.550721     0.086215     0.624032 
C      -2.200867     1.067239     2.182814 
O      -2.272981     1.580743     1.101727 
O      -3.027198     1.363737     3.205615 
H      -3.640475     2.045152     2.892117 
C      -0.962800    -2.091138     0.757635 
O      -0.066235    -2.371668    -0.119495 
C      -2.353788    -1.731831     0.239798 
H      -2.757857    -2.629093    -0.237616 
H      -3.043814    -1.428068     1.032785 
H      -2.295511    -0.940937    -0.510688 
C      -0.977358    -3.039661     1.953956 
H       0.014844    -3.106072     2.404557 
H      -1.720367    -2.789231     2.715172 
H      -1.223483    -4.028374     1.557966 
C       0.507281     0.856492    -3.447709 
C       1.829232     2.839709    -3.560528 
C       2.780140     1.646332    -3.432587 
C       1.916571     0.508981    -3.983483 
H      -0.260270     0.515603    -4.152768 
H       1.864980     3.238033    -4.583293 
H       2.066533     3.662985    -2.881183 
H       3.717477     1.779223    -3.979830 
H       3.021484     1.464346    -2.379023 
H       1.903916     0.542196    -5.077725 
H       2.241511    -0.488110    -3.680766 
N       0.481978     2.312848    -3.280862 
H       0.224521     2.508409    -2.320435 
C       0.233647     0.128997    -2.132821 
O       0.141340     0.728769    -1.066052 
O       0.113646    -1.158563    -2.268029 
H      -0.002043    -1.655139    -1.327997 
44
      -996.227256      -995.902191   3.35   0.81
C       1.434264    -2.262804    -1.193622 
C       0.303932    -0.348565    -2.135651 
C       1.502014    -0.715397    -3.015504 
C       1.725568    -2.197055    -2.703061 
H       1.138808    -3.262643    -0.875116 
H      -0.651158    -0.478724    -2.645465 
H       0.338537     0.671059    -1.752470 
H       1.306805    -0.530640    -4.073425 
H       2.381215    -0.132083    -2.726517 
H       1.002211    -2.820258    -3.234686 
H       2.726635    -2.559168    -2.941700 
N       0.341631    -1.295092    -0.977951 
H       0.491983    -0.736595    -0.128933 
C       2.669091    -1.875654    -0.398283 
O       2.840925    -0.827423     0.158654 
O       3.581655    -2.866757    -0.418852 
H       4.355494    -2.555534     0.074113 
C      -1.284084    -1.946628    -0.641892 
O      -2.077448    -0.936867    -0.744985 
C      -1.090083    -2.530016     0.758395 
H      -0.356516    -3.340942     0.794096 
H      -0.802682    -1.747413     1.462894 
H      -2.056837    -2.933612     1.072073 
C      -1.499099    -3.011169    -1.716431 
H      -1.496069    -2.559890    -2.710428 
H      -0.783349    -3.836328    -1.678071 
H      -2.497617    -3.422429    -1.547653 
C      -1.106741     2.347428     2.415230 
C       0.502372     4.105369     2.445722 
C      -0.879963     4.747447     2.368122 
C      -1.725839     3.614692     1.777072 
H      -1.745207     2.000981     3.238903 
H       1.173552     4.617134     3.142297 
H       0.973624     4.116925     1.449360 
H      -1.228917     5.000464     3.375168 
H      -0.898678     5.655920     1.760924 
H      -2.792673     3.701398     1.988969 
H      -1.605364     3.588765     0.688161 
N       0.208990     2.747835     2.919923 
H       0.907789     2.079153     2.619333 
C      -1.038505     1.198170     1.419488 
O       0.033344     0.711352     1.069299 
O      -2.202544     0.803145     0.998952 
H      -2.121061     0.022448     0.263543 
44
      -996.227256      -995.902188   3.35   0.82
C       0.159640     1.529506     2.497631 
C       1.679974     0.010259     1.397694 
C       2.481068     1.094656     2.123251 
C       1.519727     1.568275     3.216144 
H      -0.671515     1.429641     3.195928 
H       1.845421    -0.985494     1.810190 
H       1.878342    -0.037606     0.327170 
H       3.421707     0.712089     2.523599 
H       2.713183     1.918559     1.442025 
H       1.503304     0.864204     4.051769 
H       1.744376     2.559979     3.611452 
N       0.239982     0.360456     1.601139 
H      -0.160719     0.563049     0.677154 
C      -0.058436     2.807903     1.706823 
O       0.037173     2.917700     0.516320 
O      -0.351829     3.834654     2.528522 
H      -0.449330     4.625432     1.977283 
C      -0.705109    -1.085765     2.043444 
O      -0.274313    -2.018116     1.265743 
C      -2.133820    -0.595190     1.804912 
H      -2.420399     0.240381     2.450427 
H      -2.272165    -0.312354     0.759805 
H      -2.799491    -1.435129     2.022355 
C      -0.383032    -1.316580     3.518944 
H      -0.937546    -2.209184     3.819662 
H       0.678854    -1.532428     3.651235 
H      -0.682597    -0.495943     4.175809 
C      -1.073709    -1.029685    -3.217404 
C       0.112912     0.304668    -4.796374 
C       0.217105    -1.148811    -5.250001 
C      -0.027156    -1.909910    -3.942748 
H      -2.070348    -1.477830    -3.326996 
H      -0.079076     0.997706    -5.621272 
H       1.052992     0.609590    -4.308330 
H      -0.574039    -1.369265    -5.974871 
H       1.179214    -1.387787    -5.709999 
H      -0.378993    -2.932966    -4.084587 
H       0.899558    -1.955976    -3.359619 
N      -1.025973     0.280574    -3.870991 
H      -0.964182     1.009366    -3.170396 
C      -0.802579    -0.959417    -1.721295 
O      -0.533070     0.101412    -1.164071 
O      -0.888060    -2.108732    -1.121614 
H      -0.647048    -2.035890    -0.075864 
44
      -996.231640      -995.901898   0.60   1.00
C      -1.384322     0.332890     1.459006 
C       0.431150     0.462119     3.024128 
C      -0.840572     0.748793     3.816730 
C      -1.886757     1.050957     2.731220 
H      -2.013091    -0.496289     1.135885 
H       1.148771    -0.166144     3.554072 
H       0.927364     1.393364     2.735211 
H      -1.131234    -0.121559     4.408304 
H      -0.702459     1.584944     4.504728 
H      -2.884925     0.707492     3.007707 
H      -1.940812     2.126072     2.547585 
N      -0.040629    -0.224002     1.798181 
H       0.595801    -0.052586     1.014831 
C      -1.205497     1.313009     0.298415 
O      -0.497923     2.287391     0.383133 
O      -1.876156     0.956442    -0.791421 
H      -1.486768     1.431534    -1.575455 
C      -0.033924    -2.041230     1.715159 
O      -0.708443    -2.326019     0.655160 
C      -0.702680    -2.473680     3.012867 
H      -0.739113    -3.566345     2.997388 
H      -0.156490    -2.161244     3.906181 
H      -1.731861    -2.110617     3.052875 
C       1.466184    -2.318366     1.670899 
H       1.993129    -1.977199     2.566121 
H       1.583245    -3.403818     1.600593 
H       1.913962    -1.868829     0.783002 
C       0.288158     0.124308    -3.054239 
C       0.190158     2.217722    -4.062363 
C       1.388125     1.496507    -4.734046 
C       1.544455     0.175127    -3.945199 
H      -0.543314    -0.346098    -3.586591 
H      -0.708508     2.130292    -4.682808 
H       0.367225     3.281181    -3.890744 
H       1.191917     1.320372    -5.794613 
H       2.299175     2.096558    -4.668669 
H       1.622121    -0.706000    -4.585573 
H       2.434644     0.206867    -3.310333 
N      -0.057388     1.531686    -2.786316 
H       0.600925     1.866216    -2.084273 
C       0.491830    -0.606451    -1.732939 
O       1.164371    -0.084817    -0.845554 
O      -0.109637    -1.745686    -1.642673 
H      -0.260205    -2.044869    -0.605570 
44
      -996.225427      -995.901414   4.50   1.30
C      -1.399042     0.135050     2.570213 
C       0.927503    -0.393401     2.163995 
C       0.860237     0.697425     3.231560 
C      -0.550868     0.525017     3.800070 
H      -2.193749    -0.559410     2.837793 
H       1.209204    -1.356319     2.594406 
H       1.614675    -0.181128     1.345368 
H       1.637114     0.581627     3.990153 
H       0.969596     1.684093     2.775317 
H      -0.575862    -0.299217     4.518806 
H      -0.937808     1.415986     4.300124 
N      -0.453032    -0.496261     1.620811 
H      -0.460278    -0.025655     0.707685 
C      -2.100427     1.337469     1.963150 
O      -3.285305     1.525727     2.019970 
O      -1.238275     2.192132     1.383325 
H      -1.755213     2.903747     0.978730 
C      -0.806148    -2.197151     1.007956 
O       0.219789    -2.479175     0.295325 
C      -2.127224    -1.952930     0.281902 
H      -2.430223    -2.909736    -0.153956 
H      -2.927106    -1.610389     0.943911 
H      -1.995289    -1.236604    -0.530741 
C      -0.953341    -3.015217     2.284873 
H      -0.006429    -3.070109     2.823129 
H      -1.743066    -2.655216     2.948568 
H      -1.211767    -4.031841     1.974539 
C       0.595053     0.443245    -3.336899 
C       1.547990     2.615026    -3.578526 
C       2.393190     1.645235    -4.399542 
C       2.086945     0.303894    -3.725396 
H      -0.025587    -0.104109    -4.058956 
H       1.357884     3.560432    -4.095682 
H       2.060546     2.843388    -2.629962 
H       2.047395     1.639255    -5.438877 
H       3.457660     1.892379    -4.394377 
H       2.265386    -0.563685    -4.362412 
H       2.704246     0.188843    -2.827279 
N       0.294335     1.876219    -3.384071 
H      -0.185173     2.153386    -2.536461 
C       0.310784    -0.180021    -1.978901 
O      -0.099464     0.494326    -1.034887 
O       0.536916    -1.457295    -1.933551 
H       0.364232    -1.879028    -0.961201 
44
      -996.227494      -995.901334   3.20   1.35
C       2.299565    -1.554147    -0.706384 
C       0.874843    -0.022075    -1.911192 
C       2.309360     0.101394    -2.431869 
C       2.928355    -1.253114    -2.078074 
H       2.285370    -2.621689    -0.485887 
H       0.182596    -0.401115    -2.663661 
H       0.467047     0.912738    -1.527156 
H       2.341239     0.314830    -3.501847 
H       2.837383     0.905175    -1.910418 
H       2.617409    -2.021050    -2.790688 
H       4.018480    -1.250080    -2.035588 
N       0.929361    -1.014142    -0.793155 
H       0.660573    -0.522950     0.067855 
C       3.085408    -0.869417     0.398604 
O       2.745978     0.118615     0.987789 
O       4.251244    -1.506678     0.622358 
H       4.721841    -1.012540     1.310157 
C      -0.414477    -2.183910    -0.920301 
O      -1.444315    -1.477157    -1.235009 
C      -0.404424    -2.803242     0.477631 
H       0.523676    -3.333147     0.711743 
H      -0.589781    -2.040208     1.235793 
H      -1.224926    -3.525401     0.512148 
C       0.025871    -3.152796    -2.016071 
H       0.134464    -2.631346    -2.968956 
H       0.941020    -3.703688    -1.784549 
H      -0.784342    -3.877413    -2.130867 
C      -2.491812     1.645145     2.068367 
C      -1.574702     3.773806     2.633060 
C      -2.183102     3.880144     1.231930 
C      -3.214968     2.750074     1.262193 
H      -3.220151     1.053768     2.636371 
H      -2.210292     4.300666     3.357218 
H      -0.571057     4.201170     2.708034 
H      -2.622725     4.859506     1.023949 
H      -1.420650     3.678777     0.470597 
H      -4.107083     3.070336     1.810092 
H      -3.531455     2.404773     0.276367 
N      -1.547168     2.335662     2.951939 
H      -0.624619     1.957120     2.770725 
C      -1.782949     0.665350     1.134755 
O      -0.557845     0.578955     1.096942 
O      -2.593068    -0.045387     0.410647 
H      -2.065172    -0.685316    -0.275590 
44
      -996.226625      -995.901126   3.74   1.48
C      -0.863041    -0.751250     2.649950 
C       1.243766    -1.332239     1.625435 
C       1.293569    -1.704975     3.104271 
C       0.249492    -0.766586     3.715085 
H      -1.597447    -1.530108     2.855046 
H       1.575937    -2.108600     0.934676 
H       1.829801    -0.428285     1.432335 
H       1.005358    -2.750301     3.250446 
H       2.288720    -1.567968     3.531417 
H      -0.129762    -1.092378     4.685284 
H       0.669252     0.237201     3.827867 
N      -0.188815    -1.037640     1.358819 
H      -0.240330    -0.243814     0.708403 
C      -1.637015     0.553719     2.616792 
O      -2.796670     0.663061     2.909843 
O      -0.860345     1.584035     2.240909 
H      -1.419216     2.371707     2.176418 
C      -0.927680    -2.298827     0.235950 
O      -0.123408    -2.323961    -0.761156 
C      -2.309389    -1.689372     0.013485 
H      -2.225874    -0.704788    -0.451093 
H      -2.836338    -2.348305    -0.683035 
H      -2.902782    -1.613432     0.928207 
C      -0.937183    -3.567812     1.078645 
H      -1.505494    -3.478200     2.007293 
H      -1.408154    -4.344027     0.468575 
H       0.082964    -3.891601     1.290150 
C       0.105825     1.808616    -2.935236 
C       1.345040     3.808437    -2.539893 
C       1.854080     3.193862    -3.840967 
C       1.462274     1.722271    -3.674884 
H      -0.712908     1.667839    -3.653606 
H       1.216757     4.893451    -2.601592 
H       2.056578     3.596427    -1.725619 
H       1.326455     3.636409    -4.692862 
H       2.927019     3.336048    -3.991970 
H       1.382525     1.174884    -4.615301 
H       2.202667     1.207574    -3.051880 
N       0.047391     3.148844    -2.346181 
H      -0.204587     3.081697    -1.367960 
C      -0.039689     0.699310    -1.905435 
O      -0.145442     0.944649    -0.704569 
O      -0.043856    -0.492157    -2.420925 
H      -0.110049    -1.263412    -1.681135 
44
      -996.226723      -995.900643   3.68   1.78
C      -0.895609     0.455339     2.706417 
C       1.305644     0.229844     1.736463 
C       1.341328     1.273087     2.857389 
C       0.146036     0.888557     3.734301 
H      -1.626433    -0.249566     3.111025 
H       1.912121    -0.648196     1.963888 
H       1.633794     0.613945     0.770135 
H       2.287997     1.259276     3.400631 
H       1.197287     2.279671     2.454413 
H       0.394694     0.039011     4.376251 
H      -0.219965     1.704325     4.357446 
N      -0.119388    -0.203629     1.627079 
H      -0.458723     0.047247     0.692832 
C      -1.697502     1.631750     2.156782 
O      -1.655061     2.760403     2.562191 
O      -2.489649     1.235527     1.143194 
H      -2.933942     2.018971     0.787849 
C      -0.228955    -2.026964     1.432521 
O       0.676595    -2.296222     0.567214 
C      -1.683407    -2.172307     0.990879 
H      -1.858311    -3.239218     0.823405 
H      -2.400394    -1.820454     1.737257 
H      -1.855581    -1.646469     0.050129 
C       0.043791    -2.549160     2.837805 
H      -0.683845    -2.208977     3.578911 
H      -0.012535    -3.639997     2.783664 
H       1.053559    -2.287686     3.158252 
C      -0.123630    -0.158018    -3.529867 
C       0.258331     2.053481    -4.339694 
C       1.619519     1.422570    -4.034319 
C       1.294707    -0.069158    -4.142114 
H      -0.692938    -0.962767    -4.010356 
H       0.107991     2.110718    -5.425862 
H       0.145207     3.065088    -3.940547 
H       2.408142     1.742007    -4.721003 
H       1.933401     1.671178    -3.013958 
H       1.250917    -0.369475    -5.193894 
H       2.007981    -0.721785    -3.635572 
N      -0.745630     1.151339    -3.748034 
H      -1.042554     1.505963    -2.846603 
C      -0.055089    -0.514137    -2.046680 
O      -0.395098     0.283327    -1.173634 
O       0.383545    -1.714402    -1.819833 
H       0.471660    -1.944032    -0.776345 
44
      -996.230124      -995.900453   1.55   1.90
C       1.902577     0.862339    -0.800310 
C       0.656349     0.714879    -2.845919 
C       1.025815     2.180485    -2.626667 
C       2.230619     2.074101    -1.687418 
H       2.784521     0.232969    -0.649378 
H       1.322153     0.253287    -3.584321 
H      -0.373981     0.557015    -3.169286 
H       1.251006     2.704525    -3.558305 
H       0.202825     2.703114    -2.129295 
H       3.140312     1.871938    -2.260679 
H       2.390254     2.970801    -1.089541 
N       0.869561     0.072957    -1.531626 
H      -0.010479     0.091438    -1.010877 
C       1.394514     1.242187     0.597697 
O       1.133051     2.366667     0.930085 
O       1.276803     0.216758     1.445404 
H       1.399077    -0.645482     0.980847 
C       1.139454    -1.911517    -1.314232 
O       1.085130    -2.035711    -0.054159 
C       2.489271    -2.083779    -1.981973 
H       2.649117    -3.161991    -2.091565 
H       2.531880    -1.634114    -2.975606 
H       3.289774    -1.696463    -1.351769 
C      -0.050966    -2.364227    -2.138045 
H      -0.070782    -3.458275    -2.087463 
H      -0.982237    -1.983018    -1.717170 
H       0.034081    -2.070443    -3.186390 
C      -2.851789    -0.366537     2.057094 
C      -1.530895     0.218206     3.904130 
C      -1.850412     1.531553     3.150148 
C      -2.968983     1.155152     2.154570 
H      -3.785433    -0.839473     1.727121 
H      -1.612143     0.329903     4.989134 
H      -0.508885    -0.110002     3.674600 
H      -2.178958     2.320988     3.829948 
H      -0.965578     1.897650     2.625073 
H      -3.951800     1.398262     2.565879 
H      -2.863786     1.641883     1.185246 
N      -2.544057    -0.742453     3.427827 
H      -2.216248    -1.697443     3.491717 
C      -1.791382    -0.770599     1.027404 
O      -1.593933    -0.151408    -0.005081 
O      -1.132253    -1.866195     1.356064 
H      -0.363164    -2.019925     0.727090 
44
      -996.226862      -995.900079   3.60   2.14
C      -2.494594     1.304204     0.244595 
C      -0.318377     2.252302     0.681047 
C      -1.355337     3.371795     0.681803 
C      -2.474079     2.783965    -0.182250 
H      -3.191946     1.155858     1.069093 
H       0.366587     2.247134     1.530163 
H       0.275775     2.273591    -0.237829 
H      -1.714086     3.567060     1.696871 
H      -0.955675     4.305308     0.281334 
H      -3.446772     3.256678    -0.035060 
H      -2.209141     2.861281    -1.240760 
N      -1.116658     0.998417     0.703735 
H      -0.650500     0.307205     0.103601 
C      -2.953322     0.372777    -0.862078 
O      -3.973686    -0.260389    -0.836758 
O      -2.089972     0.358556    -1.891799 
H      -2.402984    -0.293634    -2.534978 
C      -0.894987     0.098590     2.300532 
O       0.377024     0.004638     2.419572 
C      -1.673228    -1.179703     2.001018 
H      -1.235048    -1.707582     1.151548 
H      -1.578488    -1.820681     2.882615 
H      -2.736497    -1.007066     1.816076 
C      -1.564842     1.010140     3.320459 
H      -1.018658     1.950612     3.406878 
H      -2.620263     1.203384     3.115398 
H      -1.496656     0.500941     4.286175 
C       2.290502    -2.471208    -1.061048 
C       2.917193    -1.969110    -3.306587 
C       3.799402    -1.132097    -2.376496 
C       3.749657    -1.954872    -1.086815 
H       2.249247    -3.459843    -0.588044 
H       3.503708    -2.790151    -3.739656 
H       2.490821    -1.399184    -4.136516 
H       4.814661    -0.988843    -2.756342 
H       3.352206    -0.144271    -2.216032 
H       4.431168    -2.808473    -1.159217 
H       4.008131    -1.394205    -0.186767 
N       1.846504    -2.520193    -2.457701 
H       1.013413    -1.948702    -2.535072 
C       1.401909    -1.561669    -0.216403 
O       0.495283    -0.896776    -0.716941 
O       1.694588    -1.574114     1.047630 
H       1.088022    -0.901673     1.621008 
44
      -996.226862      -995.900076   3.60   2.14
C      -0.744783     1.055150     2.512999 
C       1.488573     0.509180     1.778611 
C       1.574650     1.290711     3.086414 
C       0.258141     2.072064     3.089495 
H      -1.203799     0.477128     3.315058 
H       2.083225    -0.404593     1.738490 
H       1.771920     1.139445     0.929915 
H       1.621424     0.610388     3.942078 
H       2.452648     1.938234     3.123645 
H      -0.050015     2.423248     4.075884 
H       0.334543     2.936455     2.423458 
N       0.051942     0.150253     1.647312 
H      -0.211443     0.226516     0.657335 
C      -1.889982     1.709748     1.762839 
O      -3.036656     1.685661     2.119552 
O      -1.463903     2.345056     0.657966 
H      -2.240215     2.688835     0.193032 
C      -0.194773    -1.672392     1.807845 
O       0.628545    -2.164014     0.958458 
C      -1.683877    -1.772973     1.488713 
H      -1.941683    -2.835865     1.517658 
H      -2.318033    -1.247314     2.207099 
H      -1.887994    -1.403704     0.481621 
C       0.149481    -1.952706     3.264825 
H       1.206687    -1.757377     3.450390 
H      -0.467604    -1.402761     3.979018 
H      -0.020069    -3.021356     3.425391 
C      -0.349850    -0.822738    -3.417580 
C       0.096942     1.143702    -4.690677 
C       1.438736     0.481817    -4.365947 
C       1.014306    -0.970387    -4.134277 
H      -1.010309    -1.654847    -3.690021 
H      -0.151069     0.986877    -5.748767 
H       0.084546     2.221710    -4.508648 
H       2.179302     0.591523    -5.162869 
H       1.859699     0.907140    -3.447566 
H       0.862835    -1.475160    -5.093753 
H       1.727130    -1.558977    -3.554032 
N      -0.900893     0.467730    -3.843285 
H      -1.076997     1.016170    -3.009720 
C      -0.183476    -0.894629    -1.901850 
O      -0.407646     0.076322    -1.179632 
O       0.200020    -2.057932    -1.473780 
H       0.349774    -2.081336    -0.412697 
44
      -996.225140      -995.899838   4.68   2.29
C      -1.342579     2.201828    -1.483710 
C      -2.592072     0.510136    -0.295202 
C      -3.450529     1.769110    -0.450764 
C      -2.834397     2.467198    -1.666717 
H      -0.788196     2.218833    -2.425630 
H      -3.002155    -0.343672    -0.837273 
H      -2.449916     0.203334     0.741436 
H      -4.506988     1.531337    -0.588328 
H      -3.359952     2.410515     0.430450 
H      -3.172981     1.998223    -2.594727 
H      -3.049813     3.534537    -1.714065 
N      -1.263888     0.845442    -0.888631 
H      -0.557217     0.780600    -0.148123 
C      -0.673443     3.230797    -0.577025 
O      -1.189736     4.220680    -0.137044 
O       0.605529     2.888771    -0.333985 
H       0.971978     3.529808     0.292277 
C      -0.641054    -0.557122    -1.924985 
O      -0.877741    -1.590870    -1.209889 
C       0.817211    -0.139844    -2.095912 
H       0.936583     0.813230    -2.617461 
H       1.318174    -0.086042    -1.128045 
H       1.301829    -0.920016    -2.690704 
C      -1.472256    -0.444345    -3.196264 
H      -1.336071     0.502539    -3.724404 
H      -1.144764    -1.251448    -3.857784 
H      -2.529989    -0.604064    -2.981194 
C       1.399623    -1.397046     2.908671 
C       3.034421    -3.068481     2.435587 
C       3.617821    -1.684523     2.085736 
C       2.769942    -0.710072     2.913753 
H       0.758682    -1.029568     3.718115 
H       3.691834    -3.613907     3.121993 
H       2.908330    -3.682437     1.536753 
H       4.684661    -1.609381     2.308366 
H       3.487705    -1.475525     1.018478 
H       3.133198    -0.660269     3.944533 
H       2.735107     0.301149     2.505076 
N       1.743281    -2.797240     3.103959 
H       1.014116    -3.408121     2.761876 
C       0.658086    -1.066420     1.607497 
O       0.321924     0.090104     1.364546 
O       0.438403    -2.082189     0.825149 
H      -0.112696    -1.825572    -0.056384 
44
      -996.225343      -995.899743   4.55   2.35
C      -1.438259     2.401288    -0.409415 
C       0.840759     2.681017     0.332466 
C       0.209325     4.057470     0.143483 
C      -0.905318     3.772022    -0.866474 
H      -2.255955     2.528258     0.300466 
H       1.365817     2.534070     1.277569 
H       1.535546     2.456533    -0.482815 
H      -0.208783     4.424447     1.085761 
H       0.928195     4.796453    -0.215274 
H      -1.695835     4.524471    -0.882597 
H      -0.485818     3.690202    -1.873316 
N      -0.299573     1.730745     0.265178 
H       0.009550     0.887689    -0.234380 
C      -2.001271     1.568682    -1.546743 
O      -3.154814     1.249015    -1.647912 
O      -1.054980     1.246248    -2.444370 
H      -1.456375     0.664939    -3.106062 
C      -0.590333     0.916838     1.917877 
O       0.561455     0.457526     2.229536 
C      -1.674057    -0.084376     1.530537 
H      -1.909369    -0.658125     2.432162 
H      -2.593347     0.387742     1.175381 
H      -1.303679    -0.779334     0.774496 
C      -1.080237     2.064121     2.789993 
H      -0.287263     2.799818     2.931476 
H      -1.984073     2.549130     2.414741 
H      -1.309473     1.635255     3.769977 
C       2.120374    -2.697724    -0.881484 
C       0.986000    -4.557154    -0.082335 
C       0.598184    -4.481010    -1.566766 
C       1.331954    -3.221654    -2.094821 
H       3.100108    -2.299920    -1.174246 
H       1.076752    -5.584043     0.281670 
H       0.230749    -4.044816     0.536621 
H       0.946885    -5.372243    -2.094799 
H      -0.484699    -4.419954    -1.699464 
H       2.023550    -3.487258    -2.897044 
H       0.653100    -2.458072    -2.475482 
N       2.286028    -3.881092    -0.046386 
H       2.551912    -3.625433     0.896962 
C       1.406163    -1.524448    -0.191559 
O       0.815659    -0.663214    -0.838582 
O       1.521880    -1.521337     1.104378 
H       1.073565    -0.662771     1.561594 
44
      -996.224372      -995.899384   5.16   2.57
C       1.008339    -1.304069    -2.456150 
C      -0.964540     0.098451    -2.453448 
C      -0.450655    -0.034174    -3.891806 
C       0.383025    -1.318904    -3.863436 
H       1.247406    -2.308470    -2.108717 
H      -1.964102    -0.317564    -2.319081 
H      -0.988302     1.129953    -2.100494 
H      -1.266758    -0.083266    -4.615184 
H       0.179303     0.820005    -4.150581 
H      -0.258136    -2.199507    -3.954471 
H       1.142548    -1.372521    -4.646103 
N      -0.021272    -0.681994    -1.600307 
H       0.374922    -0.046062    -0.898980 
C       2.330330    -0.554024    -2.472078 
O       3.393330    -1.087951    -2.638435 
O       2.179012     0.775135    -2.332973 
H       3.061528     1.173405    -2.355144 
C      -0.947813    -1.774264    -0.444736 
O      -1.879136    -1.021541     0.011660 
C       0.167533    -2.171797     0.519022 
H      -0.290318    -2.802826     1.286642 
H       0.967700    -2.743886     0.042116 
H       0.588075    -1.291082     1.006629 
C      -1.427066    -2.912300    -1.337353 
H      -1.994079    -3.592974    -0.696188 
H      -2.108340    -2.540157    -2.104493 
H      -0.615052    -3.479195    -1.798945 
C      -0.078546     2.628288     2.358115 
C      -0.779573     1.966603     4.540464 
C       0.651435     1.446929     4.295451 
C       1.185606     2.357482     3.182064 
H       0.031910     3.516742     1.726180 
H      -0.834849     2.556226     5.462534 
H      -1.490280     1.137626     4.631947 
H       1.269128     1.475292     5.196053 
H       0.624620     0.409379     3.945648 
H       1.543826     3.305033     3.595543 
H       1.985287     1.908360     2.590956 
N      -1.090229     2.834176     3.383580 
H      -2.019196     2.655748     3.026991 
C      -0.331593     1.460573     1.396511 
O       0.459785     1.228647     0.484978 
O      -1.407389     0.771508     1.635339 
H      -1.567422    -0.017023     0.920680 
44
      -996.226701      -995.898865   3.70   2.90
C       1.947229     1.075450    -0.870306 
C       0.297050     1.260589    -2.605410 
C       0.669550     2.671813    -2.155317 
C       2.051752     2.457880    -1.532071 
H       2.860136     0.492873    -1.024853 
H       0.793626     1.012228    -3.550763 
H      -0.775176     1.099682    -2.731168 
H       0.673908     3.390889    -2.977703 
H      -0.037384     3.022029    -1.396769 
H       2.818279     2.433178    -2.312683 
H       2.320123     3.224586    -0.806073 
N       0.812517     0.375796    -1.539279 
H       0.065502     0.204060    -0.861942 
C       1.723670     1.134122     0.648220 
O       1.532252     2.154944     1.251957 
O       1.781250    -0.048194     1.265174 
H       1.830376    -0.787274     0.614837 
C       1.206378    -1.573399    -1.834136 
O       1.412053    -1.969217    -0.648533 
C       2.400268    -1.482172    -2.764957 
H       2.569797    -2.490732    -3.157529 
H       2.228554    -0.815618    -3.612200 
H       3.297669    -1.186854    -2.221483 
C      -0.104013    -1.941221    -2.505337 
H      -0.067914    -3.018935    -2.697763 
H      -0.949178    -1.737302    -1.846815 
H      -0.240580    -1.426278    -3.458653 
C      -2.164045    -1.259997     2.412973 
C      -1.691381     0.252362     4.223371 
C      -2.436547     1.011406     3.126955 
C      -3.182184    -0.115364     2.403891 
H      -2.635030    -2.245774     2.493173 
H      -2.367415     0.060741     5.071850 
H      -0.821023     0.797986     4.599717 
H      -3.103478     1.780602     3.524017 
H      -1.723781     1.488964     2.448611 
H      -4.066640    -0.411677     2.978066 
H      -3.496376     0.151381     1.394275 
N      -1.271669    -0.985730     3.553890 
H      -1.174304    -1.775786     4.172889 
C      -1.292451    -1.276015     1.161588 
O      -1.272601    -0.374963     0.339669 
O      -0.549091    -2.361287     1.080537 
H       0.130327    -2.269772     0.346078 
44
      -996.224025      -995.898572   5.38   3.08
C      -2.647154     0.703183    -0.810169 
C      -1.878667     1.785486     1.197210 
C      -3.364759     2.089283     1.046331 
C      -3.610822     1.843903    -0.446682 
H      -3.157399    -0.260599    -0.868917 
H      -1.559158     1.505338     2.202317 
H      -1.271964     2.634612     0.865702 
H      -3.962467     1.410781     1.660585 
H      -3.606490     3.110441     1.346773 
H      -4.645560     1.584511    -0.678848 
H      -3.345714     2.729858    -1.027471 
N      -1.641017     0.637726     0.287390 
H      -0.677856     0.690304    -0.071125 
C      -1.925380     0.930314    -2.136372 
O      -1.784309     1.990759    -2.680627 
O      -1.429939    -0.221004    -2.626079 
H      -0.903665     0.000586    -3.408879 
C      -1.382888    -0.931320     1.263050 
O      -0.433073    -0.612153     2.059615 
C      -1.060260    -1.915378     0.145120 
H      -1.898410    -2.089165    -0.532806 
H      -0.195859    -1.583077    -0.430422 
H      -0.808076    -2.862305     0.632055 
C      -2.735486    -1.161889     1.919062 
H      -2.919904    -0.406072     2.682996 
H      -3.563164    -1.189664     1.205611 
H      -2.685407    -2.134072     2.418786 
C       3.437857     0.566631    -0.355436 
C       4.726680    -1.360268     0.209134 
C       3.995392    -1.620573    -1.123301 
C       3.685801    -0.213818    -1.651768 
H       3.534264     1.647463    -0.508169 
H       5.804793    -1.529089     0.109117 
H       4.357326    -2.024406     0.998552 
H       4.592313    -2.211199    -1.822003 
H       3.061737    -2.164570    -0.944723 
H       4.558938     0.211793    -2.155073 
H       2.835168    -0.176210    -2.334520 
N       4.479990     0.063180     0.525692 
H       4.236445     0.189693     1.498581 
C       1.997026     0.338563     0.115431 
O       1.055931     0.750434    -0.562083 
O       1.876560    -0.308018     1.235603 
H       0.858625    -0.439992     1.550758 
44
      -996.223585      -995.898338   5.65   3.23
C       2.948800     0.325422     0.193046 
C       1.783265    -1.674528     0.880908 
C       3.192449    -2.043568     0.410356 
C       3.976932    -0.743527     0.603307 
H       3.161151     1.294188     0.645522 
H       1.627985    -1.869036     1.942562 
H       0.990253    -2.181588     0.331813 
H       3.609698    -2.877943     0.977125 
H       3.181193    -2.324158    -0.646962 
H       4.241182    -0.601134     1.654154 
H       4.890937    -0.679299     0.011101 
N       1.651012    -0.201266     0.657241 
H       0.911631    -0.064221    -0.043477 
C       2.953701     0.514898    -1.314025 
O       2.123949     0.099766    -2.073618 
O       4.046553     1.199539    -1.705732 
H       4.014334     1.263701    -2.671924 
C       0.900380     0.585496     2.067189 
O      -0.061899    -0.197324     2.415757 
C       0.505782     1.942302     1.481398 
H      -0.199132     1.814216     0.657971 
H       0.002801     2.498471     2.277431 
H       1.360294     2.535247     1.141859 
C       2.023789     0.676716     3.098991 
H       2.874942     1.284822     2.782009 
H       1.589027     1.141882     3.987355 
H       2.363529    -0.320153     3.386271 
C      -3.272788    -0.530559    -0.943041 
C      -5.202225     0.506811    -1.687065 
C      -4.385023     0.260361    -2.963043 
C      -3.131782    -0.507831    -2.471095 
H      -3.718020    -1.488766    -0.618672 
H      -5.893193    -0.337020    -1.512168 
H      -5.792532     1.426191    -1.727296 
H      -4.954954    -0.296353    -3.711041 
H      -4.093702     1.214861    -3.408530 
H      -3.076386    -1.522324    -2.872540 
H      -2.211716     0.004720    -2.753469 
N      -4.166092     0.596309    -0.661384 
H      -4.527159     0.554160     0.283450 
C      -1.971222    -0.382273    -0.166973 
O      -0.875568    -0.343993    -0.712448 
O      -2.159798    -0.314036     1.119792 
H      -1.232371    -0.239181     1.657892 
44
      -996.225814      -995.898037   4.25   3.42
C       2.065178     1.258680     1.241713 
C       1.827312    -1.136881     1.228292 
C       3.150510    -0.804868     1.908097 
C       3.449340     0.607508     1.391838 
H       1.833261     1.926864     2.073122 
H       1.224748    -1.900768     1.722136 
H       1.991016    -1.443633     0.189887 
H       3.038761    -0.811005     2.995571 
H       3.934576    -1.518797     1.649305 
H       4.094687     1.185105     2.056390 
H       3.926992     0.560346     0.410823 
N       1.076037     0.142700     1.239017 
H       0.469051     0.180811     0.409828 
C       1.908717     2.041821    -0.059496 
O       2.527801     1.840439    -1.068175 
O       0.947677     2.977178     0.042059 
H       0.819876     3.357387    -0.840145 
C      -0.313028     0.085649     2.464009 
O      -0.976976    -0.942244     2.082474 
C      -0.954765     1.451700     2.248893 
H      -1.260152     1.583375     1.210424 
H      -1.850826     1.472521     2.876323 
H      -0.310732     2.283217     2.542732 
C       0.399618    -0.053105     3.800900 
H       1.136880     0.734331     3.979082 
H      -0.366017     0.015840     4.579517 
H       0.868006    -1.034399     3.882933 
C      -2.636583    -0.299210    -2.264270 
C      -1.737703    -0.426242    -4.468745 
C      -1.701595    -1.834333    -3.868907 
C      -2.798569    -1.741221    -2.805564 
H      -3.613284     0.104767    -1.971994 
H      -2.539713    -0.357969    -5.215589 
H      -0.806260    -0.135822    -4.962034 
H      -1.882041    -2.622896    -4.604541 
H      -0.729382    -2.021721    -3.398634 
H      -3.783845    -1.840077    -3.272101 
H      -2.723963    -2.492625    -2.017324 
N      -2.028392     0.481985    -3.345758 
H      -1.166729     0.880944    -2.992014 
C      -1.778474    -0.283306    -1.002794 
O      -0.662218     0.238912    -0.988966 
O      -2.338555    -0.853824     0.017615 
H      -1.730246    -0.857134     0.904072 
44
      -996.224227      -995.898028   5.25   3.43
C       0.113404    -0.816792    -2.668797 
C      -2.100464    -0.235300    -1.924811 
C      -2.218456    -0.804342    -3.333978 
C      -0.800832    -0.627870    -3.889660 
H       0.559899    -1.813030    -2.642422 
H      -2.840972    -0.599271    -1.210712 
H      -2.145168     0.858647    -1.941716 
H      -2.500340    -1.860065    -3.302408 
H      -2.967952    -0.277187    -3.927120 
H      -0.556340    -1.332308    -4.687071 
H      -0.667355     0.383686    -4.278929 
N      -0.753289    -0.656420    -1.466923 
H      -0.384515     0.053362    -0.819876 
C       1.246419     0.204812    -2.607289 
O       1.255792     1.269476    -3.161559 
O       2.249319    -0.224096    -1.819232 
H       2.888873     0.500093    -1.745612 
C      -0.886687    -2.009900    -0.190019 
O      -1.663125    -1.491595     0.685840 
C       0.577573    -2.192293     0.190248 
H       0.594955    -2.920617     1.006699 
H       1.191590    -2.576280    -0.626921 
H       1.006280    -1.257922     0.553757 
C      -1.471962    -3.174144    -0.974123 
H      -2.507121    -2.965928    -1.246068 
H      -0.890953    -3.432212    -1.863309 
H      -1.471892    -4.040332    -0.305492 
C       0.161683     2.447784     2.507707 
C       1.428494     1.475333     4.192776 
C       2.427984     2.346113     3.417731 
C       1.593601     2.960471     2.264870 
H      -0.587354     3.216331     2.279146 
H       1.632921     1.446347     5.266380 
H       1.450888     0.439319     3.816306 
H       2.819924     3.135910     4.063791 
H       3.277685     1.762891     3.054656 
H       1.608933     4.051028     2.316915 
H       1.947734     2.668033     1.275858 
N       0.146237     2.135396     3.930987 
H      -0.638913     1.539578     4.164266 
C      -0.191176     1.268840     1.587908 
O       0.153813     1.257730     0.407147 
O      -0.898096     0.339299     2.157834 
H      -1.191041    -0.452576     1.493226 
44
      -996.223248      -995.897826   5.86   3.55
C       1.558267    -1.493660     1.959845 
C       2.573839     0.505780     1.067503 
C       3.470037    -0.055491     2.167563 
C       2.483100    -0.860989     3.016539 
H       1.936203    -2.470820     1.659305 
H       3.079798     0.761629     0.135444 
H       2.034714     1.391028     1.418652 
H       4.239064    -0.709347     1.745400 
H       3.971916     0.731838     2.733055 
H       2.951614    -1.620784     3.644649 
H       1.907157    -0.188873     3.659169 
N       1.589412    -0.574463     0.794563 
H       0.675299    -0.139484     0.614964 
C       0.148102    -1.730944     2.468101 
O      -0.347006    -2.815465     2.614982 
O      -0.477138    -0.577912     2.759193 
H      -1.386478    -0.787373     3.016270 
C       1.837757    -1.288040    -0.884575 
O       1.834197    -0.262656    -1.652992 
C       0.639796    -2.231457    -0.960828 
H       0.663825    -3.025686    -0.210346 
H      -0.295594    -1.674888    -0.874675 
H       0.666638    -2.695434    -1.951338 
C       3.181157    -1.998906    -0.778585 
H       3.213231    -2.774070    -0.009483 
H       3.358025    -2.476772    -1.746475 
H       3.982454    -1.275831    -0.619315 
C      -2.261349     1.986585    -1.508616 
C      -4.322541     1.989846    -2.557136 
C      -4.654108     2.109462    -1.062851 
C      -3.270015     2.182938    -0.368884 
H      -1.898205     2.968160    -1.864300 
H      -4.250456     2.994722    -3.009760 
H      -5.067918     1.418315    -3.116514 
H      -5.277997     2.981568    -0.852546 
H      -5.198418     1.222347    -0.729634 
H      -3.104114     3.135214     0.139871 
H      -3.154239     1.392213     0.373448 
N      -3.037104     1.296012    -2.541371 
H      -2.559249     1.309705    -3.433718 
C      -1.020766     1.182390    -1.148937 
O      -0.779575     0.814052    -0.004136 
O      -0.258616     0.950521    -2.177913 
H       0.625288     0.405021    -1.923582 
44
      -996.223248      -995.897822   5.86   3.56
C       0.419827    -1.796576     2.257787 
C       0.533919    -2.780427     0.056778 
C       0.913541    -3.836366     1.090804 
C       1.399382    -2.985099     2.266784 
H      -0.437384    -2.004966     2.897915 
H      -0.202087    -3.093847    -0.685012 
H       1.420446    -2.417691    -0.472481 
H       0.040034    -4.429141     1.378473 
H       1.677347    -4.522069     0.719372 
H       1.390093    -3.504041     3.226954 
H       2.416102    -2.629547     2.076286 
N      -0.037336    -1.661505     0.851893 
H       0.265058    -0.776126     0.425603 
C       1.034190    -0.514524     2.788909 
O       0.686230     0.038071     3.797104 
O       2.036084    -0.080536     2.005963 
H       2.344742     0.766871     2.357381 
C      -1.839267    -1.469591     0.525608 
O      -1.909804    -1.397319    -0.751775 
C      -2.127599    -0.199006     1.321501 
H      -3.185686     0.034552     1.169817 
H      -1.952136    -0.309378     2.394643 
H      -1.539623     0.637638     0.938799 
C      -2.450108    -2.729556     1.126155 
H      -2.120037    -3.611762     0.575659 
H      -2.251290    -2.853624     2.193162 
H      -3.532455    -2.645319     0.992447 
C       0.375326     2.334239    -2.397022 
C       0.010352     4.563507    -2.891444 
C       1.362981     4.549959    -2.165176 
C       1.640044     3.047881    -1.901012 
H       0.530178     1.964650    -3.427234 
H       0.166720     4.494733    -3.982616 
H      -0.575334     5.464041    -2.688605 
H       2.148222     5.025677    -2.757732 
H       1.284052     5.092642    -1.219905 
H       2.525661     2.684120    -2.426882 
H       1.788108     2.851145    -0.838427 
N      -0.650841     3.378295    -2.350973 
H      -1.478331     3.106322    -2.866835 
C      -0.056162     1.128039    -1.576056 
O       0.616856     0.680147    -0.653640 
O      -1.192938     0.633594    -1.971900 
H      -1.487078    -0.228101    -1.411066 
44
      -996.222375      -995.897747   6.41   3.60
C      -2.146819    -0.038535     2.066196 
C       0.160403    -0.543892     2.599652 
C      -0.526689     0.022956     3.847142 
C      -2.014928    -0.230161     3.588452 
H      -2.987500    -0.598687     1.659020 
H       0.501538    -1.571434     2.732051 
H       1.017375     0.047075     2.275052 
H      -0.175066    -0.457869     4.761953 
H      -0.334410     1.094948     3.933302 
H      -2.282112    -1.260361     3.837907 
H      -2.681397     0.434802     4.141561 
N      -0.868302    -0.534954     1.517463 
H      -0.514117     0.047431     0.749749 
C      -2.429338     1.417984     1.736514 
O      -3.536401     1.868003     1.616669 
O      -1.310459     2.158709     1.644081 
H      -1.576323     3.064936     1.430285 
C      -0.886076    -2.126614     0.633387 
O       0.355311    -2.386329     0.434928 
C      -1.727073    -1.768397    -0.591003 
H      -1.763476    -2.662829    -1.219808 
H      -2.753972    -1.485657    -0.344282 
H      -1.255569    -0.968726    -1.164571 
C      -1.588146    -3.073445     1.600825 
H      -1.012452    -3.181953     2.521717 
H      -2.615412    -2.781749     1.833094 
H      -1.615656    -4.051916     1.113542 
C       2.322461     0.857749    -2.293821 
C       2.785653     1.252448    -4.523695 
C       2.270085     2.599521    -3.995849 
C       2.016631     2.348509    -2.487092 
H       3.362570     0.729678    -1.940995 
H       3.886992     1.214560    -4.449993 
H       2.508810     1.066652    -5.564846 
H       2.984973     3.406421    -4.174617 
H       1.336484     2.865080    -4.497913 
H       2.648845     2.964851    -1.844107 
H       0.979696     2.554628    -2.218964 
N       2.138220     0.293225    -3.632250 
H       2.522377    -0.641235    -3.695628 
C       1.444150     0.135899    -1.282482 
O       0.638844     0.723557    -0.567568 
O       1.659411    -1.146595    -1.257790 
H       1.060871    -1.658289    -0.527271 
44
      -996.223226      -995.897636   5.88   3.67
C       2.719846    -1.095825    -0.648112 
C       0.700601    -2.386134    -0.959005 
C       1.737496    -2.791390    -2.010830 
C       3.068314    -2.398518    -1.362840 
H       3.368889    -0.892141     0.207305 
H       0.465550    -3.198594    -0.269724 
H      -0.239627    -2.033128    -1.383469 
H       1.681433    -3.854104    -2.253829 
H       1.593348    -2.224852    -2.935200 
H       3.374138    -3.144639    -0.624277 
H       3.878982    -2.259486    -2.077901 
N       1.324458    -1.277181    -0.176359 
H       0.753032    -0.435510    -0.308447 
C       2.827867     0.119804    -1.564095 
O       3.259034     0.118642    -2.683981 
O       2.380269     1.225586    -0.940966 
H       2.409412     1.957486    -1.574118 
C       1.012719    -1.495470     1.615432 
O      -0.227868    -1.811029     1.674519 
C       1.407979    -0.116178     2.139441 
H       0.772046     0.658236     1.707107 
H       1.242720    -0.129543     3.220875 
H       2.456228     0.133971     1.956152 
C       1.980606    -2.604142     2.012252 
H       1.737644    -3.533255     1.494128 
H       3.030364    -2.347951     1.848216 
H       1.837440    -2.776928     3.082564 
C      -2.948847     1.598499    -0.033868 
C      -4.101706     3.466816     0.688141 
C      -3.439729     3.909542    -0.625344 
C      -2.713056     2.638901    -1.136101 
H      -3.821768     0.969954    -0.290445 
H      -5.121391     3.091982     0.489400 
H      -4.173867     4.272461     1.423555 
H      -4.172186     4.292107    -1.340330 
H      -2.717878     4.706459    -0.430379 
H      -3.098488     2.287856    -2.095812 
H      -1.643799     2.815773    -1.259581 
N      -3.206047     2.411814     1.155911 
H      -3.593782     1.855699     1.907672 
C      -1.796396     0.636193     0.211539 
O      -0.808072     0.590173    -0.512915 
O      -1.993531    -0.125872     1.248216 
H      -1.202378    -0.826091     1.415511 
44
      -996.222273      -995.897314   6.48   3.87
C      -0.344815     2.046980    -2.233424 
C      -1.962791     0.574025    -1.196990 
C      -2.676982     1.846394    -1.667506 
C      -1.750036     2.404556    -2.751615 
H       0.376531     1.960138    -3.044811 
H      -2.321418    -0.326315    -1.697531 
H      -2.046488     0.408115    -0.122355 
H      -3.679838     1.636824    -2.044372 
H      -2.767625     2.558343    -0.843783 
H      -1.914840     1.893684    -3.703767 
H      -1.860290     3.477623    -2.920764 
N      -0.521731     0.751624    -1.545805 
H       0.024356     0.686369    -0.678764 
C       0.184808     3.150665    -1.332755 
O       0.851559     4.067278    -1.729995 
O      -0.215336     3.020053    -0.055224 
H       0.163247     3.757080     0.445938 
C       0.130306    -0.735392    -2.362985 
O      -0.321489    -1.706423    -1.654456 
C       1.632969    -0.466728    -2.297027 
H       1.940952     0.417105    -2.862291 
H       1.962501    -0.371236    -1.261074 
H       2.128039    -1.338687    -2.734310 
C      -0.442747    -0.659294    -3.774334 
H      -1.532821    -0.710617    -3.751708 
H      -0.120487     0.223163    -4.332665 
H      -0.083206    -1.545596    -4.304163 
C       1.231776    -1.452990     2.748481 
C       1.277973    -0.915351     4.987310 
C       0.595847    -2.294969     4.936991 
C       0.548004    -2.650756     3.428397 
H       2.313998    -1.673899     2.649869 
H       2.363300    -1.037685     5.152300 
H       0.885807    -0.275294     5.781938 
H       1.144319    -3.036111     5.523539 
H      -0.415673    -2.233155     5.345317 
H       1.055629    -3.586096     3.188092 
H      -0.484208    -2.740058     3.082290 
N       0.976136    -0.359976     3.671724 
H       1.504714     0.470511     3.439195 
C       0.763479    -1.134249     1.340041 
O       0.678796     0.025552     0.946970 
O       0.531304    -2.184804     0.612900 
H       0.196478    -1.940398    -0.376826 
44
      -996.225725      -995.897203   4.31   3.94
C      -1.840943     0.726648    -0.360392 
C      -2.433353     0.139841     1.890004 
C      -3.710374     0.654139     1.229159 
C      -3.212945     1.368396    -0.038634 
H      -1.827583     0.153898    -1.286727 
H      -2.589928    -0.736256     2.521054 
H      -1.961776     0.920880     2.493264 
H      -4.370802    -0.175848     0.971886 
H      -4.263498     1.321734     1.892433 
H      -3.900457     1.255179    -0.878028 
H      -3.095141     2.438240     0.148262 
N      -1.539332    -0.201299     0.760979 
H      -0.546447    -0.112045     1.013390 
C      -0.756254     1.783537    -0.494616 
O      -0.166165     2.042522    -1.506031 
O      -0.559559     2.442428     0.667162 
H       0.179833     3.051448     0.529065 
C      -1.459859    -1.916380     0.147892 
O      -0.762814    -1.829119    -0.930681 
C      -2.915818    -2.303337    -0.072048 
H      -3.378348    -1.659178    -0.822878 
H      -2.911012    -3.321733    -0.470095 
H      -3.506673    -2.297780     0.847104 
C      -0.812127    -2.620900     1.336907 
H       0.169015    -2.196136     1.554644 
H      -1.431320    -2.600193     2.237555 
H      -0.673933    -3.665912     1.044035 
C       3.523063    -0.138805    -0.062248 
C       3.781807     0.642514    -2.262734 
C       3.547696     1.883107    -1.367487 
C       3.737752     1.369276     0.074210 
H       3.999843    -0.696337     0.753831 
H       4.579031     0.803783    -2.994356 
H       2.864987     0.394056    -2.813692 
H       4.244575     2.692630    -1.596786 
H       2.534910     2.268284    -1.513281 
H       4.762061     1.543514     0.413842 
H       3.052549     1.821139     0.792398 
N       4.174220    -0.430356    -1.329826 
H       3.903142    -1.340237    -1.680889 
C       2.032902    -0.504351     0.008098 
O       1.303610    -0.015857     0.872600 
O       1.649067    -1.372110    -0.874962 
H       0.586403    -1.583026    -0.843385 
44
      -996.222039      -995.897181   6.62   3.96
C       0.284417     1.040221    -2.599329 
C       2.463084     0.781402    -1.794439 
C       2.360398    -0.232280    -2.938090 
C       1.018122     0.115056    -3.617483 
H       0.314503     2.073730    -2.949732 
H       2.839762     1.740993    -2.160933 
H       3.076348     0.467687    -0.948986 
H       3.211201    -0.172770    -3.619630 
H       2.330299    -1.245882    -2.528652 
H       1.152060     0.645111    -4.561980 
H       0.432241    -0.782683    -3.828226 
N       1.068015     0.964338    -1.350675 
H       0.818829     0.130927    -0.809639 
C      -1.202545     0.695228    -2.516559 
O      -1.993720     1.307696    -3.181873 
O      -1.596571    -0.340982    -1.770708 
H      -0.910454    -0.733567    -1.192418 
C       0.900762     2.185298     0.146608 
O       1.519938     1.545331     1.058186 
C      -0.612384     2.288479     0.233333 
H      -1.067745     1.321366     0.448622 
H      -0.830527     2.955799     1.073712 
H      -1.059042     2.717512    -0.666446 
C       1.586999     3.424794    -0.389118 
H       1.409346     4.226411     0.335099 
H       2.663358     3.266061    -0.453170 
H       1.185266     3.744522    -1.353694 
C      -0.565797    -2.538093     2.042730 
C      -1.835297    -1.909799     3.917096 
C      -2.827974    -2.596291     2.982660 
C      -2.066913    -2.656327     1.644103 
H       0.004519    -3.397461     1.672880 
H      -2.025252    -2.118417     4.973521 
H      -1.861880    -0.817499     3.771468 
H      -3.033339    -3.606779     3.348188 
H      -3.777883    -2.062471     2.901986 
H      -2.260344    -3.580442     1.096795 
H      -2.358378    -1.829057     0.991031 
N      -0.563970    -2.507345     3.500922 
H       0.231970    -1.992007     3.855695 
C       0.056834    -1.323352     1.360671 
O       0.129412    -1.291611     0.121752 
O       0.470774    -0.383463     2.136240 
H       0.921563     0.480618     1.618481 
44
      -996.223297      -995.896999   5.83   4.07
C       2.534667     0.770117     0.723960 
C       1.728323    -1.493594     0.957322 
C       3.223127    -1.518544     0.626145 
C       3.711255    -0.147563     1.100882 
H       2.507986     1.674650     1.331633 
H       1.506429    -1.896216     1.946076 
H       1.112051    -2.029535     0.235751 
H       3.739401    -2.344805     1.118350 
H       3.373636    -1.619623    -0.452574 
H       3.841526    -0.134842     2.185807 
H       4.646298     0.178169     0.642533 
N       1.330326    -0.051843     0.946090 
H       0.638231     0.068680     0.194425 
C       2.645798     1.196341    -0.729570 
O       2.010694     0.745166    -1.641301 
O       3.592867     2.143785    -0.878379 
H       3.645198     2.351715    -1.823210 
C       0.318277     0.334733     2.357933 
O      -0.504569    -0.651525     2.459837 
C      -0.273087     1.684520     1.946807 
H      -0.857208     1.585037     1.030345 
H      -0.947900     1.993167     2.750140 
H       0.479187     2.468344     1.816976 
C       1.304065     0.438479     3.521070 
H       0.709544     0.663130     4.410299 
H       1.798319    -0.519635     3.692693 
H       2.050457     1.228749     3.405686 
C      -3.236844    -0.841601    -1.331336 
C      -3.236209     0.879317    -2.937754 
C      -3.235540    -0.426470    -3.739147 
C      -2.800048    -1.459146    -2.686192 
H      -4.012271    -1.424393    -0.831457 
H      -3.846628     1.671896    -3.377832 
H      -2.213957     1.257959    -2.830274 
H      -4.248826    -0.642094    -4.098758 
H      -2.571241    -0.399274    -4.607212 
H      -3.249686    -2.441681    -2.847609 
H      -1.714610    -1.578673    -2.697450 
N      -3.746394     0.519410    -1.608716 
H      -4.758233     0.488217    -1.631766 
C      -2.074663    -0.688622    -0.351363 
O      -0.962053    -0.336251    -0.732308 
O      -2.393722    -0.921369     0.885489 
H      -1.563973    -0.774279     1.547958 
44
      -996.223856      -995.896996   5.48   4.07
C      -0.248425     1.921341    -1.828220 
C      -1.903085     0.182999    -1.626542 
C      -2.496347     1.359906    -2.398915 
C      -1.656274     2.540917    -1.910302 
H       0.231159     1.986855    -2.807027 
H      -1.993490    -0.788125    -2.113519 
H      -2.339125     0.099393    -0.628122 
H      -2.368593     1.221981    -3.477438 
H      -3.562326     1.485570    -2.200861 
H      -1.677095     3.412990    -2.565113 
H      -1.981829     2.850338    -0.911074 
N      -0.453559     0.504470    -1.471803 
H      -0.207739     0.327953    -0.487886 
C       0.634582     2.637273    -0.831428 
O       0.941789     2.231097     0.253701 
O       1.019496     3.835970    -1.314952 
H       1.552551     4.264882    -0.629003 
C       0.567106    -0.743630    -2.261798 
O       0.083571    -1.863497    -1.854780 
C       1.953734    -0.358453    -1.747793 
H       2.657979    -1.090776    -2.152728 
H       2.273628     0.636318    -2.072965 
H       1.993109    -0.412227    -0.658076 
C       0.378817    -0.494246    -3.757127 
H      -0.671323    -0.601103    -4.035909 
H       0.763386     0.468365    -4.103600 
H       0.935334    -1.281955    -4.271557 
C       0.293439    -2.218797     2.812788 
C       1.310052    -0.453664     3.975911 
C       0.043753    -0.779572     4.776856 
C      -0.762079    -1.659804     3.803002 
H       0.343825    -3.308739     2.810197 
H       2.166809    -0.177160     4.595584 
H       1.119074     0.365961     3.274986 
H       0.310159    -1.345182     5.677627 
H      -0.503323     0.112318     5.094269 
H      -1.296319    -2.463340     4.315650 
H      -1.495885    -1.062754     3.258328 
N       1.607597    -1.668126     3.206258 
H       2.076561    -2.341214     3.800617 
C       0.053822    -1.765862     1.373018 
O      -0.403598    -0.656771     1.117735 
O       0.423154    -2.636982     0.481979 
H       0.285921    -2.274917    -0.509971 
44
      -996.222002      -995.896870   6.65   4.15
C      -1.373328     0.135384     2.326408 
C       0.863060    -0.699040     1.939640 
C       0.791420    -0.033571     3.318778 
C      -0.694122    -0.126327     3.676307 
H      -2.381109    -0.287264     2.296877 
H       1.111361    -1.759532     2.001382 
H       1.589871    -0.234206     1.271385 
H       1.438574    -0.525102     4.047482 
H       1.095533     1.016166     3.255565 
H      -0.944028    -1.134664     4.017281 
H      -1.017309     0.588844     4.430573 
N      -0.506975    -0.569485     1.359049 
H      -0.432647    -0.104366     0.454172 
C      -1.578354     1.651531     2.115433 
O      -2.056852     2.300929     3.004420 
O      -1.259032     2.230460     0.954463 
H      -0.908947     1.648228     0.259229 
C      -1.072908    -2.180011     0.589387 
O      -0.077046    -2.482272    -0.156763 
C      -2.356456    -1.731173    -0.100889 
H      -2.161027    -0.936524    -0.822495 
H      -2.730822    -2.600298    -0.649997 
H      -3.133198    -1.412670     0.598074 
C      -1.305041    -3.080511     1.789819 
H      -0.372393    -3.277083     2.319624 
H      -2.053238    -2.682068     2.479000 
H      -1.673086    -4.035185     1.402128 
C       0.674909     0.810935    -3.416113 
C       1.695915     2.912681    -2.892336 
C       2.735689     1.792295    -2.726389 
C       2.190781     0.678802    -3.626474 
H       0.115425     0.345877    -4.236157 
H       2.029626     3.642471    -3.639610 
H       1.526496     3.454094    -1.955914 
H       3.744075     2.108635    -3.002865 
H       2.767192     1.448708    -1.686385 
H       2.417014     0.886039    -4.676863 
H       2.565699    -0.315844    -3.380579 
N       0.461680     2.249406    -3.369639 
H      -0.330801     2.479776    -2.786479 
C       0.254260     0.077844    -2.141860 
O      -0.172052     0.694796    -1.154459 
O       0.383406    -1.202845    -2.201484 
H       0.138774    -1.743857    -1.282729 
44
      -996.222579      -995.896836   6.28   4.17
C      -1.376100     0.288910     2.406178 
C       0.482383    -1.130304     2.331991 
C       1.008639     0.148658     2.988358 
C      -0.268131     0.970614     3.266108 
H      -2.049485    -0.278078     3.051347 
H       0.122959    -1.833850     3.088458 
H       1.189438    -1.648377     1.683438 
H       1.586903    -0.058933     3.890643 
H       1.660199     0.679428     2.288414 
H      -0.558005     0.948828     4.317950 
H      -0.139388     2.018509     2.985422 
N      -0.671938    -0.672132     1.533696 
H      -0.288808    -0.206952     0.705907 
C      -2.261733     1.334295     1.729700 
O      -3.272312     1.695029     2.270135 
O      -1.858543     1.900504     0.588896 
H      -1.073755     1.495637     0.170315 
C      -1.517576    -2.088290     0.570206 
O      -0.579200    -2.456278    -0.214240 
C      -2.702419    -1.346188    -0.026773 
H      -3.257396    -2.076830    -0.623932 
H      -3.378083    -0.944219     0.732032 
H      -2.377418    -0.547910    -0.695418 
C      -1.882486    -3.057950     1.677014 
H      -2.505185    -3.836964     1.225921 
H      -0.987676    -3.536765     2.074483 
H      -2.457294    -2.587698     2.478789 
C       0.892956     0.892214    -3.132367 
C       2.571959     2.581317    -2.949657 
C       3.257042     1.216814    -2.839776 
C       2.259326     0.313548    -3.567984 
H       0.148706     0.743119    -3.924434 
H       2.805042     3.040587    -3.919051 
H       2.876244     3.287160    -2.172141 
H       4.255977     1.199009    -3.283380 
H       3.345532     0.917243    -1.788939 
H       2.365731     0.430728    -4.651011 
H       2.357230    -0.747342    -3.332291 
N       1.123600     2.313560    -2.866298 
H       0.782392     2.525466    -1.937393 
C       0.352228     0.147790    -1.915140 
O       0.206948     0.716800    -0.820487 
O       0.067398    -1.086673    -2.136676 
H      -0.255900    -1.664031    -1.258009 
44
      -996.227027      -995.896833   3.49   4.18
C      -1.536689     1.428551    -0.579269 
C       0.235214     2.734856     0.378721 
C      -0.766281     3.704128    -0.235086 
C      -1.510237     2.814063    -1.240347 
H      -2.511059     1.196089    -0.147741 
H       0.649215     3.033055     1.341289 
H       1.070147     2.555345    -0.306677 
H      -1.445585     4.090657     0.530483 
H      -0.276165     4.556708    -0.709117 
H      -2.516287     3.170108    -1.470104 
H      -0.953538     2.746959    -2.177460 
N      -0.527974     1.468476     0.528183 
H       0.157792     0.716313     0.406631 
C      -1.138210     0.273627    -1.509560 
O      -0.622022     0.411463    -2.587976 
O      -1.379744    -0.898047    -0.924679 
H      -0.774181    -1.617600    -1.287012 
C      -0.931568     1.031892     2.274671 
O       0.214133     0.637096     2.715399 
C      -2.014515    -0.030827     2.126041 
H      -2.960497     0.373883     1.757598 
H      -1.693344    -0.852658     1.489440 
H      -2.186864    -0.422565     3.132867 
C      -1.465013     2.324546     2.872681 
H      -1.811476     2.083423     3.882179 
H      -0.680899     3.075770     2.964870 
H      -2.312169     2.726904     2.311002 
C       1.397881    -2.813125    -0.185522 
C       1.404546    -2.531906    -2.541118 
C       2.699636    -3.271689    -2.208403 
C       2.849975    -3.029105    -0.697404 
H       1.072373    -3.602908     0.491670 
H       0.922570    -2.856911    -3.465529 
H       1.569798    -1.453391    -2.604466 
H       2.582636    -4.341528    -2.418516 
H       3.556967    -2.910752    -2.781365 
H       3.337666    -3.859290    -0.182217 
H       3.441937    -2.128979    -0.515829 
N       0.517262    -2.794778    -1.388413 
H       0.113098    -3.719504    -1.492093 
C       1.258368    -1.472548     0.539361 
O       1.502438    -0.430065    -0.060307 
O       0.848354    -1.551552     1.764693 
H       0.612314    -0.564180     2.208428 
44
      -996.224762      -995.896493   4.91   4.39
C       1.901688     1.188340     0.544246 
C       2.309696    -0.974681     1.499308 
C       3.145868    -0.882160     0.226643 
C       3.247120     0.633837     0.013961 
H       2.043495     2.044807     1.202109 
H       2.912811    -0.720828     2.374263 
H       1.818764    -1.933493     1.667915 
H       4.120549    -1.363865     0.329655 
H       2.610579    -1.350480    -0.603141 
H       4.066089     1.050785     0.606802 
H       3.415753     0.908040    -1.028715 
N       1.269899     0.065118     1.303399 
H       0.573803    -0.391542     0.702480 
C       0.935925     1.607473    -0.562962 
O       0.364787     2.668653    -0.589932 
O       0.782923     0.628075    -1.445421 
H      -0.145962     0.642296    -1.852384 
C       0.186601     0.356595     2.755398 
O      -0.586714    -0.675429     2.750000 
C      -0.459527     1.698038     2.432218 
H       0.251504     2.525455     2.393800 
H      -1.026401     1.662066     1.502592 
H      -1.166109     1.892578     3.244549 
C       1.164902     0.429804     3.916757 
H       0.600776     0.773368     4.788762 
H       1.559523    -0.560450     4.145620 
H       1.980505     1.137518     3.740353 
C      -2.488122    -0.660760    -1.459183 
C      -1.833269    -0.001377    -3.693253 
C      -2.840280    -1.149746    -3.774445 
C      -2.649352    -1.839105    -2.421652 
H      -3.464340    -0.288678    -1.135939 
H      -2.096376     0.857698    -4.315196 
H      -0.839416    -0.343729    -4.004809 
H      -3.860221    -0.757901    -3.862776 
H      -2.656886    -1.809969    -4.625250 
H      -3.480781    -2.487413    -2.136844 
H      -1.732548    -2.435728    -2.416243 
N      -1.781153     0.385027    -2.259112 
H      -2.215127     1.286472    -2.105204 
C      -1.670826    -1.002737    -0.206701 
O      -0.607019    -1.601133    -0.295367 
O      -2.184566    -0.551822     0.895249 
H      -1.478574    -0.659022     1.758452 
44
      -996.222185      -995.895486   6.53   5.02
C       0.140534     2.010770    -1.991486 
C      -1.886973     2.087098    -0.693951 
C      -1.950983     3.205831    -1.727157 
C      -0.475822     3.415645    -2.086322 
H       0.251206     1.545855    -2.972780 
H      -2.800446     1.501604    -0.578973 
H      -1.602593     2.480743     0.287342 
H      -2.528243     2.893098    -2.601349 
H      -2.415799     4.108172    -1.325691 
H      -0.326605     3.853572    -3.075154 
H       0.005403     4.064067    -1.350838 
N      -0.808207     1.192438    -1.183331 
H      -0.341694     0.760930    -0.373695 
C       1.502926     2.002999    -1.303096 
O       1.871752     2.804915    -0.489873 
O       2.248551     0.953947    -1.695634 
H       3.054805     0.955757    -1.157957 
C      -1.509594    -0.380897    -1.848778 
O      -2.201730    -0.820152    -0.863125 
C      -0.239464    -1.146125    -2.205768 
H       0.331618    -0.684929    -3.014264 
H       0.404430    -1.266391    -1.333808 
H      -0.561110    -2.138889    -2.534405 
C      -2.312626     0.071009    -3.060190 
H      -3.187283     0.641067    -2.745357 
H      -1.723957     0.647457    -3.778862 
H      -2.669073    -0.833721    -3.561655 
C       0.561991    -1.676628     2.827528 
C       1.782082    -3.416960     3.739559 
C       2.717211    -2.203487     3.836226 
C       1.867834    -1.023029     3.300282 
H      -0.210697    -1.587929     3.613002 
H       1.202623    -3.522942     4.673805 
H       2.314859    -4.354957     3.562315 
H       3.068949    -2.040208     4.857803 
H       3.594072    -2.357773     3.202512 
H       1.670976    -0.266120     4.062810 
H       2.361028    -0.523267     2.465653 
N       0.936142    -3.074112     2.598829 
H       0.119347    -3.665459     2.509536 
C      -0.046094    -1.077583     1.568307 
O       0.406429    -0.069760     1.031922 
O      -1.084374    -1.738600     1.149263 
H      -1.531397    -1.327059     0.266801 
44
      -996.222185      -995.895478   6.53   5.03
C       2.423559     0.998925    -1.075860 
C       2.732435    -0.878231     0.401008 
C       4.106886    -0.438363    -0.089478 
C       3.774869     0.329701    -1.373591 
H       2.538997     2.049372    -0.802791 
H       2.661444    -1.092329     1.468517 
H       2.385999    -1.757446    -0.151917 
H       4.590070     0.212161     0.644414 
H       4.768672    -1.287498    -0.269638 
H       4.534058     1.063764    -1.650393 
H       3.650768    -0.363018    -2.208879 
N       1.842877     0.267845     0.086573 
H       0.901118    -0.090460    -0.123339 
C       1.446154     0.914206    -2.245288 
O       1.444946     0.056926    -3.085229 
O       0.545692     1.913427    -2.209640 
H      -0.095045     1.749794    -2.918035 
C       1.357103     1.165170     1.625646 
O       0.844862     0.235347     2.344382 
C       0.407042     2.220248     1.068477 
H       0.899127     2.946464     0.418122 
H      -0.420625     1.757707     0.529592 
H      -0.001089     2.753053     1.932531 
C       2.672759     1.735050     2.136423 
H       3.194664     2.348279     1.396911 
H       2.433168     2.369435     2.995031 
H       3.322982     0.933605     2.488572 
C      -2.928320    -1.578703     0.231419 
C      -5.217690    -1.260200     0.151836 
C      -4.808024    -1.453888    -1.314829 
C      -3.287477    -1.747321    -1.251268 
H      -2.916870    -2.564318     0.731739 
H      -5.511837    -2.228968     0.593172 
H      -6.051444    -0.563942     0.275053 
H      -5.372930    -2.257739    -1.793059 
H      -4.993552    -0.535702    -1.877669 
H      -3.037728    -2.751500    -1.601063 
H      -2.719207    -1.040970    -1.857694 
N      -3.998274    -0.725126     0.752809 
H      -4.012411    -0.727116     1.765044 
C      -1.569375    -0.951603     0.503904 
O      -0.765276    -0.704366    -0.390802 
O      -1.364411    -0.728376     1.768309 
H      -0.408665    -0.293292     1.980977 
