27
      -594.703824      -594.513431   0.00   0.00
C      -0.785957     0.341263    -0.726430 
C      -0.231645    -1.648445     0.491687 
C      -1.656106    -1.801875    -0.025686 
C      -1.663594    -0.839218    -1.216494 
H      -0.139819     0.704237    -1.526069 
H       0.471461    -2.182027    -0.156479 
H      -0.080401    -1.974584     1.521380 
H      -1.888107    -2.830694    -0.307543 
H      -2.373334    -1.481073     0.735705 
H      -1.188470    -1.304758    -2.084291 
H      -2.662133    -0.514109    -1.515183 
N      -0.003024    -0.188320     0.404058 
H      -0.083055     0.271449     1.506562 
C      -1.676050     1.485440    -0.272486 
O      -2.073657     1.669085     0.844144 
O      -2.027923     2.261351    -1.318145 
H      -2.632360     2.938772    -0.979734 
C       1.441714     0.347012     0.801912 
O       1.142011     0.522219     2.109766 
C       1.708886     1.658424     0.060302 
H       2.596936     2.097642     0.520956 
H       1.903502     1.531624    -1.010858 
H       0.887021     2.362473     0.214228 
C       2.535131    -0.677562     0.520187 
H       3.482302    -0.236247     0.841598 
H       2.377533    -1.581868     1.110039 
H       2.619139    -0.930213    -0.543128 
27
      -594.703648      -594.513126   0.11   0.19
C      -1.158523     0.106904    -0.281378 
C       0.265936    -1.313674     1.023511 
C      -1.149337    -1.472646     1.563898 
C      -2.001554    -1.018082     0.374395 
H      -1.140511     0.004981    -1.365718 
H       0.511217    -2.128973     0.334619 
H       1.041040    -1.252003     1.788479 
H      -1.363364    -2.497650     1.872598 
H      -1.301940    -0.813903     2.423248 
H      -2.124085    -1.835691    -0.340885 
H      -2.997828    -0.672807     0.658623 
N       0.199104    -0.030198     0.291106 
H       0.688781     0.822164     0.960180 
C      -1.771115     1.466016     0.008027 
O      -2.412291     2.100765    -0.784372 
O      -1.568988     1.859048     1.280249 
H      -1.986057     2.727242     1.384774 
C       1.522098     0.465976    -0.455808 
O       1.967588     1.206460     0.587035 
C       1.134474     1.299149    -1.677508 
H       0.440310     2.096816    -1.403823 
H       2.052778     1.777533    -2.026790 
H       0.720351     0.707135    -2.501487 
C       2.421805    -0.699715    -0.851591 
H       1.950152    -1.375772    -1.573830 
H       3.314180    -0.272356    -1.316477 
H       2.745787    -1.256718     0.028933 
27
      -594.701535      -594.510531   1.44   1.82
C      -1.220797     0.091766     0.058486 
C       0.507118    -1.189363     1.148623 
C      -0.853872    -1.864604     1.361957 
C      -1.848769    -0.714984     1.199066 
H      -1.440774    -0.379365    -0.901246 
H       1.211501    -1.837968     0.628813 
H       0.960921    -0.889326     2.097246 
H      -1.025755    -2.621436     0.590371 
H      -0.919123    -2.356192     2.334507 
H      -2.860482    -1.039884     0.950375 
H      -1.892682    -0.106126     2.106505 
N       0.233593     0.032996     0.344565 
H       0.608877     1.121238     0.664518 
C      -1.740235     1.519132    -0.027370 
O      -2.334602     1.961414    -0.971980 
O      -1.518110     2.208585     1.104346 
H      -1.787475     3.124000     0.940699 
C       1.209766     0.568804    -0.801104 
O       1.229050     1.844603    -0.339189 
C       0.633574     0.391003    -2.200817 
H      -0.283924     0.966986    -2.327283 
H       1.371650     0.790088    -2.901679 
H       0.460262    -0.661446    -2.454064 
C       2.561134    -0.134380    -0.667506 
H       3.262945     0.437958    -1.278607 
H       2.918986    -0.092920     0.364510 
H       2.557219    -1.170581    -1.023744 
27
      -594.700570      -594.509348   2.04   2.56
C      -1.137863     0.405978     0.008219 
C       0.140236    -1.155547     1.339861 
C      -1.339463    -1.548042     1.360043 
C      -2.048303    -0.227775     1.064372 
H      -1.350209    -0.011259    -0.977571 
H       0.778258    -1.960346     0.978257 
H       0.489569    -0.866406     2.335380 
H      -1.549517    -2.276817     0.570475 
H      -1.632446    -1.991407     2.313747 
H      -3.068788    -0.347027     0.696053 
H      -2.071029     0.411357     1.951701 
N       0.232845     0.029628     0.442937 
H       0.827943     1.028903     0.731866 
C      -1.308080     1.921326    -0.030966 
O      -1.224821     2.634512     0.929839 
O      -1.635495     2.362686    -1.258696 
H      -1.720650     3.326594    -1.200974 
C       1.402092     0.227552    -0.624796 
O       1.678751     1.501558    -0.251025 
C       0.931416     0.060878    -2.065588 
H       0.521952    -0.936593    -2.263843 
H       0.204737     0.829063    -2.331876 
H       1.806283     0.200442    -2.706067 
C       2.537906    -0.745290    -0.303676 
H       3.403587    -0.398105    -0.872557 
H       2.802971    -0.693958     0.755470 
H       2.328113    -1.781906    -0.590583 
