27
      -594.739281      -594.549270   0.00   0.00
C      -1.327203     0.388283    -0.246105 
C       0.026484    -1.625824    -0.456388 
C      -1.455718    -1.996278    -0.334649 
C      -2.180869    -0.741591    -0.828722 
H      -1.429570     1.305978    -0.828461 
H       0.446374    -1.948482    -1.415164 
H       0.629619    -2.046069     0.352420 
H      -1.699445    -2.891256    -0.910618 
H      -1.709807    -2.185987     0.711984 
H      -2.168220    -0.695167    -1.922981 
H      -3.211057    -0.666236    -0.483767 
N       0.039591    -0.150499    -0.383689 
H       1.867041     0.999889     2.189837 
C      -1.771049     0.712635     1.211945 
O      -2.918834     1.112856     1.320759 
O      -0.933733     0.527066     2.163685 
H       0.318444     0.350461     1.980635 
C       1.143078     0.547178    -0.179046 
O       1.427485     0.263611     1.751239 
C       1.042311     2.050629    -0.191313 
H       0.242436     2.410123     0.455755 
H       1.986909     2.494769     0.124262 
H       0.838958     2.380988    -1.215930 
C       2.453064    -0.045930    -0.622854 
H       2.503349     0.008722    -1.716407 
H       3.283743     0.525184    -0.209464 
H       2.556620    -1.085053    -0.316963 
27
      -594.737242      -594.547385   1.28   1.18
C      -0.474626     0.293176     1.285892 
C      -0.359632     1.474395    -0.847062 
C      -0.896829     2.430310     0.213362 
C      -1.455717     1.480822     1.272798 
H       0.290122     0.436683     2.052889 
H       0.428743     1.919084    -1.456177 
H      -1.156907     1.115924    -1.509929 
H      -0.076742     3.029436     0.623270 
H      -1.647570     3.112663    -0.190083 
H      -1.547803     1.924656     2.263877 
H      -2.447939     1.127567     0.973633 
N       0.164973     0.352621    -0.051447 
H      -0.100161    -2.709977    -1.445199 
C      -1.264346    -0.991958     1.646362 
O      -1.488256    -1.137744     2.837559 
O      -1.674493    -1.740664     0.690808 
H      -1.066281    -1.767333    -0.435825 
C       0.933089    -0.598221    -0.556367 
O      -0.405986    -1.800695    -1.356181 
C       1.605579    -1.553967     0.396140 
H       0.922944    -1.962141     1.139024 
H       2.066081    -2.374953    -0.154495 
H       2.400897    -1.009886     0.918123 
C       1.665951    -0.314941    -1.841976 
H       2.443430     0.432908    -1.649186 
H       2.145997    -1.223523    -2.204549 
H       0.995483     0.055757    -2.615255 
27
      -594.703824      -594.513432  22.25  22.49
C      -0.785957     0.341262    -0.726430 
C      -0.231644    -1.648445     0.491689 
C      -1.656106    -1.801876    -0.025683 
C      -1.663594    -0.839219    -1.216492 
H      -0.139819     0.704234    -1.526070 
H       0.471461    -2.182027    -0.156477 
H      -0.080400    -1.974583     1.521382 
H      -1.888107    -2.830695    -0.307539 
H      -2.373334    -1.481072     0.735708 
H      -1.188471    -1.304760    -2.084289 
H      -2.662133    -0.514111    -1.515181 
N      -0.003024    -0.188320     0.404058 
H      -0.083054     0.271450     1.506562 
C      -1.676049     1.485440    -0.272488 
O      -2.073653     1.669090     0.844142 
O      -2.027926     2.261346    -1.318150 
H      -2.632362     2.938768    -0.979740 
C       1.441714     0.347012     0.801912 
O       1.142013     0.522216     2.109767 
C       1.708884     1.658426     0.060305 
H       2.596934     2.097644     0.520958 
H       1.903499     1.531628    -1.010856 
H       0.887019     2.362474     0.214232 
C       2.535132    -0.677560     0.520184 
H       3.482303    -0.236245     0.841593 
H       2.377535    -1.581867     1.110035 
H       2.619138    -0.930210    -0.543132 
27
      -594.703648      -594.513125  22.36  22.68
C      -1.158523     0.106905    -0.281378 
C       0.265936    -1.313674     1.023511 
C      -1.149336    -1.472646     1.563898 
C      -2.001554    -1.018082     0.374395 
H      -1.140511     0.004982    -1.365717 
H       0.511217    -2.128973     0.334619 
H       1.041040    -1.252004     1.788478 
H      -1.363364    -2.497650     1.872598 
H      -1.301940    -0.813904     2.423248 
H      -2.124085    -1.835690    -0.340885 
H      -2.997828    -0.672807     0.658624 
N       0.199104    -0.030198     0.291106 
H       0.688781     0.822164     0.960179 
C      -1.771115     1.466016     0.008029 
O      -2.412291     2.100766    -0.784371 
O      -1.568988     1.859048     1.280250 
H      -1.986057     2.727242     1.384775 
C       1.522098     0.465976    -0.455809 
O       1.967587     1.206462     0.587033 
C       1.134474     1.299148    -1.677510 
H       0.440309     2.096814    -1.403825 
H       2.052777     1.777532    -2.026792 
H       0.720350     0.707133    -2.501488 
C       2.421805    -0.699715    -0.851590 
H       1.950154    -1.375772    -1.573829 
H       3.314180    -0.272355    -1.316476 
H       2.745787    -1.256717     0.028934 
27
      -594.701535      -594.510531  23.69  24.31
C      -1.220797     0.091766     0.058486 
C       0.507118    -1.189362     1.148624 
C      -0.853871    -1.864604     1.361957 
C      -1.848769    -0.714985     1.199066 
H      -1.440774    -0.379364    -0.901246 
H       1.211502    -1.837967     0.628815 
H       0.960919    -0.889324     2.097247 
H      -1.025753    -2.621436     0.590370 
H      -0.919123    -2.356193     2.334506 
H      -2.860482    -1.039885     0.950374 
H      -1.892683    -0.106127     2.106505 
N       0.233593     0.032997     0.344565 
H       0.608877     1.121239     0.664518 
C      -1.740235     1.519132    -0.027369 
O      -2.334603     1.961413    -0.971980 
O      -1.518110     2.208584     1.104347 
H      -1.787475     3.124000     0.940699 
C       1.209766     0.568804    -0.801104 
O       1.229051     1.844603    -0.339189 
C       0.633574     0.391004    -2.200818 
H      -0.283925     0.966986    -2.327282 
H       1.371650     0.790089    -2.901679 
H       0.460262    -0.661445    -2.454065 
C       2.561134    -0.134380    -0.667506 
H       3.262945     0.437957    -1.278608 
H       2.918986    -0.092920     0.364510 
H       2.557218    -1.170582    -1.023745 
27
      -594.700570      -594.509347  24.29  25.05
C      -1.137864     0.405978     0.008220 
C       0.140236    -1.155551     1.339859 
C      -1.339464    -1.548043     1.360043 
C      -2.048303    -0.227775     1.064373 
H      -1.350211    -0.011260    -0.977570 
H       0.778255    -1.960349     0.978251 
H       0.489572    -0.866412     2.335377 
H      -1.549520    -2.276818     0.570475 
H      -1.632446    -1.991408     2.313747 
H      -3.068788    -0.347027     0.696056 
H      -2.071027     0.411356     1.951703 
N       0.232844     0.029627     0.442936 
H       0.827940     1.028902     0.731866 
C      -1.308079     1.921326    -0.030965 
O      -1.224822     2.634510     0.929840 
O      -1.635488     2.362686    -1.258697 
H      -1.720640     3.326595    -1.200975 
C       1.402089     0.227554    -0.624796 
O       1.678744     1.501562    -0.251027 
C       0.931415     0.060875    -2.065588 
H       0.521953    -0.936597    -2.263841 
H       0.204734     0.829058    -2.331878 
H       1.806281     0.200440    -2.706068 
C       2.537907    -0.745284    -0.303674 
H       3.403587    -0.398096    -0.872555 
H       2.802971    -0.693951     0.755471 
H       2.328119    -1.781901    -0.590582 
