24
      -518.240702      -518.075792   0.00   0.00
C       0.618109     0.091241     1.113947 
C       0.092485    -1.412932    -0.734686 
C       1.397562    -1.839475    -0.058626 
C       1.268647    -1.265359     1.355030 
H       0.021695     0.426436     1.965828 
H      -0.698439    -2.156164    -0.584800 
H       0.205551    -1.234840    -1.805677 
H       1.524564    -2.923457    -0.076148 
H       2.252694    -1.382127    -0.562602 
H       0.617321    -1.895334     1.970616 
H       2.229331    -1.143347     1.850714 
N      -0.278669    -0.166598    -0.035471 
C       1.651799     1.224023     0.754761 
O       1.136327     2.309140     0.309506 
O       2.836290     0.985808     0.923754 
C      -1.218852     0.664207    -0.419116 
C      -1.436359     1.875990     0.306767 
H      -1.520592     1.760788     1.387610 
H      -0.201804     2.284120     0.259428 
H      -2.205250     2.519942    -0.108296 
C      -1.936995     0.377900    -1.707261 
H      -2.395107    -0.615326    -1.676307 
H      -2.717597     1.117762    -1.876108 
H      -1.242713     0.397594    -2.552866 
24
      -518.238489      -518.073440   1.39   1.48
C       0.841462     0.560129     0.750364 
C       0.245019    -1.576685    -0.251458 
C       1.113152    -1.847588     0.972960 
C       1.852925    -0.520439     1.162416 
H       0.329156     0.967102     1.629260 
H      -0.629651    -2.224397    -0.315323 
H       0.822789    -1.666951    -1.178530 
H       0.473739    -2.069222     1.834205 
H       1.784438    -2.694970     0.820571 
H       2.207771    -0.362449     2.180677 
H       2.724096    -0.464190     0.507358 
N      -0.161573    -0.175624    -0.057451 
C       1.524569     1.765414     0.003893 
O       0.816179     2.398569    -0.852480 
O       2.676058     1.998508     0.333350 
C      -1.276754     0.352734    -0.500894 
C      -1.597681     1.710670    -0.195401 
H      -1.475813     1.991063     0.851412 
H      -0.501382     2.202645    -0.654062 
H      -2.529129     2.065684    -0.625069 
C      -2.135969    -0.450159    -1.434850 
H      -2.805555     0.213778    -1.980872 
H      -1.543593    -1.029618    -2.145907 
H      -2.754253    -1.144002    -0.854166 
