40
     -1068.699823     -1068.429883   0.00   0.00
C      -1.804992     1.748824    -1.901214 
C      -0.820717    -0.201576    -2.983724 
C      -2.095496     0.220563    -3.715928 
C      -2.207693     1.710483    -3.382814 
H      -1.400190     2.722535    -1.622007 
H       0.060121    -0.086371    -3.622583 
H      -0.857292    -1.226754    -2.610740 
H      -2.033702     0.021282    -4.787137 
H      -2.958838    -0.321532    -3.319428 
H      -1.489243     2.289649    -3.972142 
H      -3.202205     2.126415    -3.534050 
N      -0.732476     0.740378    -1.847281 
C      -3.064358     1.528565    -1.024154 
O      -3.909916     2.391503    -1.106248 
O      -3.199264     0.454843    -0.302019 
C       0.259377     0.746442    -0.983684 
C       1.398047    -0.197402    -1.214188 
H       1.860517    -0.028117    -2.190191 
H       2.150426    -0.083196    -0.435135 
H       1.026122    -1.224943    -1.181080 
C       0.172585     1.425561     0.248085 
H       1.115428     1.626114     0.742295 
H      -0.559849     2.219550     0.346209 
H      -2.350882    -0.148660    -0.079126 
C       2.623240    -1.626162     3.468211 
C       2.039818    -2.412004     2.489218 
C       0.969470    -1.894337     1.773379 
C       0.503311    -0.607944     2.029388 
C       1.100627     0.151870     3.035707 
C       2.168518    -0.349072     3.761619 
H       2.419064    -3.408599     2.301867 
H       0.473530    -2.487016     1.013705 
H       0.724405     1.148429     3.252150 
H       2.647340     0.227725     4.542494 
N       3.766664    -2.169602     4.234484 
O       4.144861    -3.289531     3.960918 
O       4.256512    -1.460972     5.089334 
C      -0.653888    -0.052908     1.239783 
O      -1.269806    -0.857351     0.443079 
H      -1.269176     0.633318     1.842944 
40
     -1068.699823     -1068.429858  -0.00   0.02
C       0.507330     2.273011     2.122965 
C       2.542372     1.221073     1.288328 
C       2.847006     2.632811     1.791925 
C       1.735846     2.881730     2.815045 
H      -0.244528     1.957718     2.847697 
H       3.055031     0.465674     1.891512 
H       2.801287     1.072792     0.238362 
H       3.849430     2.704942     2.217323 
H       2.774050     3.352959     0.971860 
H       1.940438     2.336967     3.742560 
H       1.577002     3.932123     3.052461 
N       1.080663     1.085577     1.466113 
C      -0.164161     3.351218     1.233942 
O      -0.620167     4.302295     1.828824 
O      -0.173902     3.240786    -0.062309 
C       0.414107    -0.014411     1.191604 
C       1.191144    -1.216504     0.753705 
H       0.521678    -2.055079     0.567587 
H       1.716274    -0.986251    -0.177140 
H       1.930346    -1.504846     1.505754 
C      -0.989794    -0.025878     1.069634 
H      -1.460678    -0.998546     1.144487 
H      -1.552037     0.778279     1.531923 
H       0.022069     2.299365    -0.519268 
C      -1.830915    -3.291916    -2.713774 
C      -2.809099    -2.728173    -1.908067 
C      -2.543180    -1.509882    -1.305288 
C      -1.318090    -0.870764    -1.498835 
C      -0.365145    -1.452425    -2.330231 
C      -0.613266    -2.673747    -2.940844 
H      -3.751787    -3.240765    -1.765513 
H      -3.297266    -1.047143    -0.673822 
H       0.567884    -0.928189    -2.500416 
H       0.116875    -3.143776    -3.587448 
N      -2.102595    -4.595648    -3.359056 
O      -1.232475    -5.067344    -4.060845 
O      -3.179297    -5.113470    -3.145867 
C      -1.034170     0.451349    -0.833932 
O       0.040859     1.072033    -1.180680 
H      -1.949138     1.052056    -0.710280 
40
     -1068.697625     -1068.426884   1.38   1.88
C       3.028103     0.825009    -0.268437 
C       2.140223    -0.379921    -2.191928 
C       3.614887    -0.082171    -2.437370 
C       3.871439     1.115734    -1.524779 
H       3.614138     0.275616     0.471307 
H       1.872684    -1.413768    -2.404392 
H       1.488838     0.279702    -2.775372 
H       4.224607    -0.938585    -2.131198 
H       3.823610     0.127079    -3.487920 
H       4.919096     1.262948    -1.263454 
H       3.511689     2.034372    -1.999881 
N       1.958395    -0.072970    -0.760251 
C       2.683108     2.179238     0.384883 
O       3.509425     2.618488     1.153169 
O       1.628471     2.838941    -0.002280 
C       1.057506    -0.650333     0.004941 
C       0.183760    -1.711606    -0.593966 
H      -0.568499    -2.028117     0.126310 
H      -0.328929    -1.321515    -1.476865 
H       0.776306    -2.582401    -0.890573 
C       0.737507    -0.158445     1.285701 
H       0.217054    -0.851589     1.935656 
H       1.465384     0.463111     1.797150 
H       0.799062     2.271623    -0.363106 
C      -4.286666    -0.970923     1.294198 
C      -3.519693    -0.635112     2.399825 
C      -2.332552     0.048436     2.193975 
C      -1.916061     0.382126     0.904883 
C      -2.718500     0.048510    -0.182740 
C      -3.910391    -0.637201     0.004229 
H      -3.856286    -0.906280     3.392253 
H      -1.719308     0.328173     3.046616 
H      -2.399061     0.344304    -1.175238 
H      -4.546091    -0.908458    -0.829138 
N      -5.555432    -1.703767     1.502376 
O      -6.210022    -1.984141     0.520018 
O      -5.862895    -1.980025     2.643437 
C      -0.623207     1.124232     0.687452 
O      -0.370800     1.538234    -0.508082 
H      -0.400894     1.811453     1.518584 
40
     -1068.697461     -1068.425292   1.48   2.88
C      -0.471474    -2.639907     0.242755 
C       1.797222    -1.989129     0.182219 
C       1.773037    -3.535848     0.125613 
C       0.292727    -3.913212    -0.110532 
H      -1.452455    -2.541395    -0.217464 
H       2.542854    -1.559066    -0.482483 
H       1.986314    -1.629625     1.197907 
H       2.406933    -3.907104    -0.682366 
H       2.137467    -3.950612     1.064222 
H       0.115043    -4.157446    -1.161898 
H      -0.028332    -4.752572     0.504384 
N       0.440786    -1.587052    -0.237229 
C      -0.604072    -2.487132     1.784122 
O      -0.012930    -3.229468     2.531488 
O      -1.345184    -1.491692     2.209004 
C       0.174935    -0.632125    -1.118713 
C       1.269384     0.358542    -1.408805 
H       0.849992     1.237827    -1.894964 
H       1.783392     0.675204    -0.498731 
H       2.004677    -0.088190    -2.087137 
C      -1.068600    -0.451599    -1.748853 
H      -1.039029     0.212393    -2.606900 
H      -1.719290    -1.309557    -1.872120 
H      -1.851812    -1.007372     1.452784 
C       0.192777     3.829566     0.618056 
C      -0.518981     3.863758    -0.570414 
C      -1.313356     2.773014    -0.890353 
C      -1.392460     1.670264    -0.041818 
C      -0.681242     1.674691     1.156175 
C       0.122870     2.755344     1.490239 
H      -0.444861     4.725970    -1.220683 
H      -1.883021     2.777864    -1.816420 
H      -0.751280     0.831409     1.832837 
H       0.687673     2.774082     2.413562 
N       1.052360     4.981726     0.969537 
O       1.678681     4.919182     2.006658 
O       1.079430     5.917060     0.196887 
C      -2.235377     0.487185    -0.454302 
O      -2.629948    -0.365704     0.397485 
H      -2.944854     0.760729    -1.253744 
40
     -1068.692319     -1068.420152   4.71   6.11
C      -2.655535    -0.304364     0.084417 
C      -3.168879     1.920203     0.912540 
C      -4.337576     0.974780     1.179375 
C      -4.166153    -0.089442     0.098935 
H      -2.348346    -0.917181     0.933091 
H      -2.807658     2.406093     1.819949 
H      -3.448154     2.694619     0.190433 
H      -4.242803     0.527073     2.173875 
H      -5.296876     1.492983     1.130757 
H      -4.693376    -1.020319     0.313439 
H      -4.492306     0.276670    -0.878080 
N      -2.116756     1.061297     0.320067 
C      -2.182947    -0.979072    -1.215748 
O      -2.630035    -0.664409    -2.288737 
O      -1.302961    -1.951795    -1.047873 
C      -0.887600     1.504403     0.101233 
C      -0.561872     2.879341     0.625461 
H       0.463609     3.141681     0.370646 
H      -1.228342     3.630577     0.191945 
H      -0.671423     2.924194     1.713502 
C       0.162550     0.771945    -0.487604 
H       1.018643     1.380000    -0.757649 
H      -0.058760     0.008941    -1.219389 
H      -0.853104    -1.846870    -0.136345 
C       4.456090    -1.575307    -0.878319 
C       3.362716    -2.416830    -1.006133 
C       2.166921    -2.050894    -0.407202 
C       2.069705    -0.854548     0.299569 
C       3.190499    -0.034487     0.419097 
C       4.394621    -0.385700    -0.169507 
H       3.457280    -3.340396    -1.562935 
H       1.303137    -2.700139    -0.485485 
H       3.119510     0.891997     0.983693 
H       5.274054     0.240266    -0.088046 
N       5.733301    -1.961042    -1.515573 
O       6.675604    -1.206727    -1.385716 
O       5.762545    -3.007224    -2.129827 
C       0.761950    -0.435408     0.934791 
O      -0.149590    -1.304271     1.139417 
H       0.928318     0.319357     1.723934 
40
     -1068.692319     -1068.420151   4.71   6.11
C      -2.620353     0.503646     0.178113 
C      -2.546905     1.625631     2.330731 
C      -3.963470     1.137273     2.037939 
C      -3.993448     1.078735     0.513151 
H      -2.602102    -0.572182     0.358164 
H      -2.161610     1.248707     3.279118 
H      -2.505236     2.719758     2.348130 
H      -4.114620     0.138875     2.460797 
H      -4.717102     1.802955     2.462277 
H      -4.790807     0.449577     0.114546 
H      -4.087882     2.076471     0.076601 
N      -1.734231     1.127262     1.196316 
C      -2.225832     0.771801    -1.285255 
O      -2.439597     1.833314    -1.812226 
O      -1.693989    -0.262338    -1.914895 
C      -0.412869     1.221468     1.182737 
C       0.241778     1.720505     2.445181 
H       0.030719     1.056736     3.289403 
H       1.320684     1.773683     2.309180 
H      -0.122920     2.718194     2.706118 
C       0.434612     0.807992     0.135430 
H       1.455735     1.157546     0.238730 
H       0.081512     0.837075    -0.884932 
H      -1.336706    -0.929027    -1.227772 
C       3.866643    -1.784519    -2.230323 
C       2.595668    -1.959975    -2.753584 
C       1.501272    -1.762520    -1.925416 
C       1.681742    -1.385404    -0.596719 
C       2.973376    -1.227079    -0.097140 
C       4.078857    -1.423739    -0.908899 
H       2.476114    -2.249289    -3.789900 
H       0.499241    -1.905597    -2.311722 
H       3.115312    -0.947791     0.944029 
H       5.088570    -1.303284    -0.537631 
N       5.036779    -1.993548    -3.109663 
O       6.138492    -1.835551    -2.624838 
O       4.825582    -2.309717    -4.262092 
C       0.492621    -1.143258     0.307032 
O      -0.650418    -1.612016    -0.011447 
H       0.784794    -1.200373     1.370736 
40
     -1068.691187     -1068.419343   5.42   6.61
C      -2.638024     0.318511    -0.040762 
C      -3.153852    -0.660682     2.125395 
C      -4.318526     0.224179     1.702022 
C      -4.158311     0.278123     0.182518 
H      -2.330088    -0.313187    -0.871945 
H      -3.388841    -1.722706     1.982451 
H      -2.851295    -0.504506     3.160958 
H      -5.280899    -0.182590     2.017807 
H      -4.198809     1.224174     2.125997 
H      -4.567808    -0.625916    -0.278088 
H      -4.648406     1.142477    -0.265652 
N      -2.074434    -0.258213     1.203870 
C      -2.143952     1.754206    -0.289503 
O      -2.497402     2.671485     0.408172 
O      -1.347614     1.897716    -1.335327 
C      -0.790085    -0.444061     1.461896 
C      -0.455383    -1.317489     2.642475 
H       0.579770    -1.650442     2.570579 
H      -0.556196    -0.742241     3.569284 
H      -1.107306    -2.191170     2.711420 
C       0.283739     0.085667     0.708042 
H       1.239422    -0.017515     1.211795 
H       0.151746     1.066074     0.269259 
H      -1.008633     0.989746    -1.644811 
C       4.492130     0.348057    -1.796765 
C       3.453628     1.045087    -2.393559 
C       2.150823     0.644406    -2.138960 
C       1.896840    -0.432078    -1.292476 
C       2.962891    -1.119625    -0.715698 
C       4.271627    -0.735657    -0.961027 
H       3.672609     1.880703    -3.046181 
H       1.320634     1.163792    -2.603515 
H       2.765483    -1.969862    -0.067292 
H       5.111852    -1.257027    -0.520452 
N       5.883349     0.771277    -2.064212 
O       6.051110     1.721886    -2.799722 
O       6.773998     0.141861    -1.530951 
C       0.473877    -0.853111    -0.996425 
O      -0.455707    -0.483270    -1.788507 
H       0.436041    -1.888081    -0.612110 
40
     -1068.687553     -1068.418409   7.70   7.20
C      -0.818028    -2.251533     1.712213 
C       0.796623    -0.576816     2.416238 
C       0.402285    -1.425559     3.620692 
C      -0.968806    -1.966523     3.214303 
H      -0.487411    -3.277697     1.531068 
H       1.874605    -0.450590     2.318314 
H       0.327043     0.412620     2.459920 
H       1.116662    -2.245100     3.751269 
H       0.378571    -0.843559     4.543531 
H      -1.270704    -2.862644     3.757061 
H      -1.736626    -1.201546     3.367283 
N       0.239854    -1.319247     1.273024 
C      -2.140531    -2.040904     0.971569 
O      -2.826575    -2.990439     0.680630 
O      -2.389433    -0.776499     0.724464 
C       0.637487    -1.167622     0.023237 
C       1.826106    -0.276120    -0.212503 
H       1.651152     0.735497     0.163319 
H       2.704544    -0.685812     0.296771 
H       2.043447    -0.210476    -1.275690 
C       0.030849    -1.782028    -1.105061 
H       0.746161    -1.965373    -1.901852 
H      -0.646871    -2.613188    -0.939318 
H      -2.551646    -0.675988    -0.361119 
C       0.722184     3.225266    -1.820760 
C       1.067645     2.371082    -2.855159 
C       0.425045     1.143442    -2.935429 
C      -0.537870     0.778153    -1.997552 
C      -0.881296     1.669650    -0.982715 
C      -0.246659     2.898793    -0.883878 
H       1.820559     2.668703    -3.573828 
H       0.674389     0.461007    -3.744240 
H      -1.641452     1.394810    -0.261052 
H      -0.494148     3.601800    -0.098642 
N       1.406524     4.532940    -1.714973 
O       2.246097     4.795489    -2.550880 
O       1.088606     5.260733    -0.797729 
C      -1.203790    -0.571196    -2.095860 
O      -2.400417    -0.706824    -1.664049 
H      -0.984170    -1.066702    -3.052613 
40
     -1068.661437     -1068.392930  24.09  23.19
C      -2.831192    -0.615039     1.164441 
C      -3.546065    -0.027329    -0.952091 
C      -4.297881    -1.338495    -0.575387 
C      -3.608761    -1.845738     0.718535 
H      -3.543835     0.147848     1.496243 
H      -4.128244     0.858687    -0.679525 
H      -3.307605     0.029581    -2.011242 
H      -5.357925    -1.130963    -0.412998 
H      -4.225953    -2.074662    -1.378652 
H      -4.316743    -2.175294     1.480960 
H      -2.920113    -2.669351     0.516696 
N      -2.327912    -0.082062    -0.127297 
C      -1.794267    -0.660096     2.297172 
O      -1.649956     0.371761     2.933448 
O      -1.125468    -1.751948     2.440748 
C      -1.105508    -0.163786    -0.672140 
C      -0.899921     0.612616    -1.949509 
H       0.156571     0.867063    -2.048589 
H      -1.169888    -0.005223    -2.812976 
H      -1.492963     1.528932    -1.976993 
C      -0.025402    -0.901997    -0.168834 
H       0.794451    -1.016639    -0.870159 
H      -0.266335    -1.791001     0.396514 
H       0.053277    -1.429865     2.522538 
C       4.381189     1.417158    -0.665668 
C       4.465313     0.176717    -0.052567 
C       3.361482    -0.298564     0.638681 
C       2.195579     0.461561     0.704981 
C       2.143233     1.711111     0.088599 
C       3.238571     2.199608    -0.606181 
H       5.381349    -0.395664    -0.121501 
H       3.393793    -1.262473     1.133483 
H       1.238020     2.308636     0.157925 
H       3.219690     3.165447    -1.094349 
N       5.555171     1.927672    -1.408192 
O       6.544520     1.226602    -1.445872 
O       5.455104     3.016635    -1.934377 
C       0.989788    -0.057475     1.406738 
O       1.143309    -1.029400     2.236501 
H       0.231525     0.695432     1.630897 
