40
     -1068.705046     -1068.433153   0.00   0.00
C       2.649255     1.166867     0.076071 
C       2.919516    -1.232339     0.422246 
C       4.289307    -0.605075     0.177793 
C       3.949423     0.675582    -0.585022 
H       2.862611     1.863778     0.888982 
H       2.895196    -1.854280     1.319005 
H       2.563297    -1.809371    -0.434822 
H       4.773933    -0.368243     1.130539 
H       4.947604    -1.271020    -0.381964 
H       4.725568     1.439867    -0.541757 
H       3.760036     0.446073    -1.638735 
N       2.038195    -0.064042     0.608736 
C       1.808954     1.926559    -0.961840 
O       1.959565     3.121214    -1.054278 
O       1.021734     1.235056    -1.750403 
C       0.842481    -0.129108     1.156896 
C       0.097271     1.140511     1.444957 
H      -0.207224     1.632545     0.518318 
H      -0.805850     0.918531     2.013183 
H       0.717025     1.840667     2.011562 
C       0.193605    -1.375429     1.290155 
H      -0.670591    -1.386960     1.944214 
H       0.811921    -2.262657     1.358292 
H       0.851518     0.221639    -1.539683 
C      -4.287058     0.279123    -0.360355 
C      -4.066677    -0.897398     0.340370 
C      -2.813080    -1.479699     0.265445 
C      -1.791091    -0.897671    -0.487031 
C      -2.052227     0.270530    -1.198462 
C      -3.302949     0.870689    -1.132442 
H      -4.865350    -1.336598     0.924315 
H      -2.623314    -2.407089     0.800031 
H      -1.277380     0.715073    -1.810306 
H      -3.519075     1.782826    -1.674111 
N      -5.619708     0.915951    -0.285882 
O      -5.788161     1.943382    -0.909051 
O      -6.464210     0.371689     0.395521 
C      -0.433223    -1.569648    -0.532616 
O       0.459094    -1.169241    -1.366922 
H      -0.549942    -2.662282    -0.440945 
