40
     -1068.698388     -1068.427977   0.00   0.00
C       2.360788    -0.169294    -0.736325 
C       3.063939    -0.997085     1.441422 
C       3.921365    -1.619304     0.336660 
C       3.838477    -0.584294    -0.788641 
H       2.203730     0.824585    -1.157934 
H       3.673124    -0.382060     2.109887 
H       2.521472    -1.735093     2.035844 
H       4.941665    -1.810019     0.673544 
H       3.490016    -2.569193     0.008038 
H       4.469043     0.281614    -0.562036 
H       4.108082    -0.971575    -1.769474 
N       2.106265    -0.136981     0.713208 
C       1.533425    -1.160204    -1.592018 
O       1.809077    -1.201965    -2.768750 
O       0.644526    -1.936086    -1.034380 
C       1.258179     0.676291     1.310560 
C       1.310867     0.774877     2.805457 
H       1.036700    -0.194332     3.235165 
H       2.309982     1.038949     3.158967 
H       0.601328     1.522789     3.159252 
C       0.168518     1.251285     0.635017 
H      -0.273395     2.129041     1.092393 
H       0.162118     1.257897    -0.449194 
H       0.234388    -1.659337    -0.103746 
C      -4.188268     0.823976    -1.632042 
C      -3.364098    -0.248131    -1.931087 
C      -2.357635    -0.588489    -1.039049 
C      -2.178375     0.146614     0.130826 
C      -3.032353     1.214968     0.409568 
C      -4.043650     1.564909    -0.468883 
H      -3.516342    -0.803847    -2.847566 
H      -1.706807    -1.427200    -1.253211 
H      -2.906079     1.778109     1.330826 
H      -4.712928     2.391648    -0.268146 
N      -5.261295     1.188731    -2.581455 
O      -5.369026     0.525516    -3.591913 
O      -5.970009     2.131154    -2.292124 
C      -1.077731    -0.190879     1.106850 
O      -0.492196    -1.331320     1.062068 
H      -1.316888     0.193736     2.112426 
40
     -1068.698388     -1068.427974   0.00   0.00
C       1.255342    -1.987624     0.784961 
C      -0.244770    -3.499151    -0.392823 
C       1.173651    -4.073875    -0.368320 
C       1.787200    -3.425492     0.875695 
H       1.232996    -1.501349     1.761303 
H      -0.938297    -4.145520     0.152553 
H      -0.629612    -3.339046    -1.402043 
H       1.169123    -5.164434    -0.329082 
H       1.724374    -3.769382    -1.262929 
H       1.404182    -3.899663     1.785210 
H       2.875242    -3.446232     0.896925 
N      -0.120762    -2.203075     0.308633 
C       2.207773    -1.158972    -0.112179 
O       3.345911    -1.050592     0.281908 
O       1.792709    -0.675854    -1.251241 
C      -1.150159    -1.436795     0.609679 
C      -2.522757    -1.937035     0.273614 
H      -2.613370    -2.021649    -0.814419 
H      -2.715174    -2.918143     0.713320 
H      -3.277329    -1.235709     0.629634 
C      -0.997823    -0.094777     0.997115 
H      -1.833814     0.353348     1.521743 
H      -0.024054     0.254911     1.321287 
H       0.759319    -0.531683    -1.400323 
C       0.229058     4.563713    -0.050983 
C      -1.061348     4.217801     0.320549 
C      -1.497691     2.931333     0.053233 
C      -0.660182     2.005367    -0.570882 
C       0.626384     2.386663    -0.945690 
C       1.079600     3.670945    -0.681569 
H      -1.697843     4.946888     0.805349 
H      -2.508341     2.641540     0.329629 
H       1.275277     1.676374    -1.442995 
H       2.077379     3.984830    -0.960584 
N       0.710087     5.932819     0.231826 
O      -0.057896     6.694651     0.783155 
O       1.842317     6.212665    -0.103177 
C      -1.169115     0.608054    -0.828609 
O      -0.575934    -0.158325    -1.669005 
H      -2.271649     0.592482    -0.850466 
40
     -1068.698388     -1068.427972   0.00   0.00
C       2.045516    -1.174385     0.761246 
C       3.475123     0.307284    -0.536096 
C       4.187486    -0.125116     0.747804 
C       3.520125    -1.462807     1.078908 
H       1.493145    -2.087902     0.536345 
H       4.008670    -0.053455    -1.420066 
H       3.347009     1.388634    -0.616921 
H       5.266640    -0.204344     0.606283 
H       4.002939     0.596897     1.548414 
H       3.889040    -2.251477     0.415086 
H       3.649438    -1.780360     2.111938 
N       2.152901    -0.350106    -0.453661 
C       1.381596    -0.538805     2.007801 
O       1.362143    -1.223372     3.004496 
O       0.938691     0.688204     1.970110 
C       1.267345    -0.329173    -1.429790 
C       1.648034     0.348144    -2.711791 
H       0.850965     0.238851    -3.447130 
H       1.798060     1.415542    -2.518561 
H       2.571848    -0.060631    -3.127011 
C      -0.075899    -0.690584    -1.231289 
H      -0.641560    -0.949743    -2.118869 
H      -0.346742    -1.253746    -0.345238 
H       0.701313     1.118622     1.037751 
C      -4.502590     0.165382     0.762897 
C      -3.486861     0.505026     1.640981 
C      -2.239897     0.832080     1.128475 
C      -2.017638     0.807186    -0.246698 
C      -3.064549     0.471516    -1.106731 
C      -4.315612     0.146072    -0.610968 
H      -3.678074     0.513830     2.706484 
H      -1.434899     1.105651     1.799311 
H      -2.898368     0.469678    -2.181054 
H      -5.137149    -0.118115    -1.264426 
N      -5.832215    -0.183890     1.306891 
O      -5.972165    -0.159206     2.512001 
O      -6.704159    -0.474949     0.513703 
C      -0.664578     1.138835    -0.827349 
O       0.214161     1.755234    -0.124969 
H      -0.759239     1.459495    -1.878310 
40
     -1068.695422     -1068.424905   1.86   1.93
C      -1.603507    -2.055715    -0.915051 
C      -1.378454    -1.377104    -3.167928 
C      -2.738858    -2.105287    -3.052224 
C      -2.976650    -2.292317    -1.536314 
H      -1.609361    -1.738916     0.125803 
H      -1.432016    -0.491256    -3.797121 
H      -0.603204    -2.040755    -3.561664 
H      -3.537608    -1.514099    -3.505093 
H      -2.692569    -3.066226    -3.562181 
H      -3.676047    -1.542276    -1.155846 
H      -3.355866    -3.283368    -1.292175 
N      -1.047149    -1.001263    -1.780385 
C      -0.697159    -3.310777    -1.076924 
O      -1.049152    -4.231178    -1.777656 
O       0.459667    -3.274970    -0.469192 
C      -0.555201     0.170960    -1.409167 
C       0.067270     1.024588    -2.482217 
H      -0.711899     1.541173    -3.053031 
H       0.701046     1.784398    -2.024444 
H       0.665137     0.432090    -3.178846 
C      -0.498558     0.639597    -0.083719 
H      -0.304828     1.702849     0.001392 
H      -1.214236     0.259844     0.636053 
H       0.564615    -2.470223     0.180643 
C       2.126234     2.759275     3.511008 
C       1.372753     1.676403     3.935918 
C       1.043891     0.693354     3.015057 
C       1.461003     0.803177     1.691001 
C       2.226810     1.897543     1.295089 
C       2.565639     2.888662     2.202780 
H       1.058288     1.613249     4.969859 
H       0.467445    -0.174445     3.313785 
H       2.564815     1.973930     0.264514 
H       3.158145     3.747818     1.915450 
N       2.478690     3.812223     4.488184 
O       3.140850     4.748373     4.089795 
O       2.084479     3.676815     5.627784 
C       1.075381    -0.255768     0.689941 
O       0.674076    -1.382258     1.128700 
H       1.726085    -0.238123    -0.201577 
40
     -1068.695422     -1068.424903   1.86   1.93
C       1.162940    -2.210088     1.182223 
C      -0.827814    -3.475530     1.033322 
C      -0.033884    -4.028194     2.241038 
C       1.112880    -3.018416     2.475114 
H       1.594569    -1.215138     1.269077 
H      -1.894991    -3.405820     1.232704 
H      -0.676941    -4.090921     0.141691 
H      -0.672142    -4.109168     3.123458 
H       0.357541    -5.017503     2.009398 
H       0.878773    -2.348573     3.307569 
H       2.065574    -3.506939     2.673379 
N      -0.259624    -2.133009     0.807286 
C       1.893237    -3.003191     0.059501 
O       2.180919    -4.166266     0.222471 
O       2.113159    -2.360725    -1.057520 
C      -0.967009    -1.044546     0.545034 
C      -2.379925    -1.244018     0.063924 
H      -2.455644    -2.070034    -0.647240 
H      -3.040228    -1.459575     0.910876 
H      -2.737914    -0.330190    -0.410736 
C      -0.474597     0.272131     0.604465 
H      -1.246703     1.033124     0.609125 
H       0.364750     0.487471     1.255315 
H       1.910839    -1.342563    -0.999794 
C      -0.088098     4.709046    -1.509600 
C      -1.082798     3.848826    -1.947633 
C      -0.876613     2.484659    -1.815122 
C       0.300011     1.995308    -1.252151 
C       1.287350     2.882948    -0.832123 
C       1.096978     4.250769    -0.956003 
H      -1.990325     4.249801    -2.380515 
H      -1.639904     1.789826    -2.156825 
H       2.206737     2.487399    -0.416343 
H       1.849511     4.959669    -0.634963 
N      -0.297930     6.167144    -1.642703 
O      -1.343768     6.541020    -2.132586 
O       0.587118     6.900646    -1.254001 
C       0.503133     0.510717    -1.088075 
O       1.686129     0.082755    -0.888313 
H      -0.165289    -0.072853    -1.744726 
40
     -1068.696585     -1068.424402   1.13   2.24
C       2.515894    -0.785142     0.223571 
C       1.913851     0.464167    -1.772857 
C       2.803057    -0.720494    -2.141548 
C       3.582500    -0.971380    -0.853244 
H       1.883052    -1.670952     0.292799 
H       0.972766     0.472167    -2.324141 
H       2.430615     1.413036    -1.952344 
H       2.188882    -1.591402    -2.392685 
H       3.441005    -0.497398    -2.998508 
H       4.027623    -1.966067    -0.797198 
H       4.373587    -0.229566    -0.716085 
N       1.671560     0.311569    -0.319891 
C       3.137381    -0.504765     1.604121 
O       4.068292     0.247818     1.734380 
O       2.608965    -1.187196     2.607085 
C       0.781966     1.048840     0.328001 
C      -0.078634     1.961511    -0.505335 
H       0.539163     2.650169    -1.089115 
H      -0.702426     1.389041    -1.198056 
H      -0.735524     2.543726     0.138214 
C       0.519083     0.982176     1.710300 
H      -0.107606     1.790078     2.073435 
H       1.314027     0.725025     2.394665 
H       1.686943    -1.526874     2.346461 
C      -3.845518    -0.024903    -0.626684 
C      -3.775477     0.697788     0.554276 
C      -2.701578     0.471145     1.401906 
C      -1.716405    -0.455841     1.069702 
C      -1.824731    -1.180751    -0.114014 
C      -2.890636    -0.966545    -0.975980 
H      -4.548174     1.417379     0.792948 
H      -2.626584     1.024708     2.334386 
H      -1.064187    -1.917741    -0.344820 
H      -2.991316    -1.516929    -1.902937 
N      -4.982252     0.214065    -1.543373 
O      -5.012754    -0.420571    -2.577053 
O      -5.812674     1.031935    -1.205859 
C      -0.523609    -0.665780     1.973138 
O       0.222670    -1.674873     1.754293 
H      -0.742803    -0.381171     3.018048 
40
     -1068.696585     -1068.424401   1.13   2.24
C       2.459456    -0.930564    -0.288535 
C       1.987521     1.269062    -1.209298 
C       2.817480     0.452348    -2.196301 
C       3.544076    -0.536922    -1.288776 
H       1.775122    -1.655414    -0.731504 
H       1.064627     1.649598    -1.648707 
H       2.562819     2.115869    -0.819986 
H       2.161791    -0.079018    -2.893787 
H       3.491410     1.083108    -2.778614 
H       3.929718    -1.411908    -1.814474 
H       4.372089    -0.057563    -0.760071 
N       1.695377     0.331218    -0.101047 
C       3.056082    -1.527509     0.999282 
O       4.024657    -1.044624     1.527134 
O       2.460581    -2.624588     1.438235 
C       0.831585     0.622510     0.860067 
C       0.049057     1.899815     0.704556 
H      -0.591267     2.051802     1.571459 
H       0.721842     2.757449     0.612127 
H      -0.586709     1.865183    -0.184997 
C       0.525951    -0.203177     1.959648 
H      -0.063279     0.291541     2.724741 
H       1.284833    -0.854533     2.367377 
H       1.528478    -2.695531     1.038758 
C      -3.821780     0.581268    -0.491556 
C      -2.913376    -0.051547    -1.325126 
C      -1.886353    -0.786095    -0.750072 
C      -1.769802    -0.874028     0.634519 
C      -2.708793    -0.241541     1.445989 
C      -3.743473     0.495537     0.889883 
H      -3.019462     0.032479    -2.399367 
H      -1.163390    -1.306466    -1.367641 
H      -2.628302    -0.324469     2.526830 
H      -4.479759     0.997975     1.504110 
N      -4.916519     1.371786    -1.096718 
O      -4.954414     1.443207    -2.307359 
O      -5.707560     1.901998    -0.344682 
C      -0.617093    -1.636813     1.244805 
O       0.075712    -2.385787     0.481824 
H      -0.848940    -1.985654     2.267271 
40
     -1068.694830     -1068.424134   2.23   2.41
C       1.914250    -1.234523    -1.124833 
C       3.580471     0.278149    -0.205247 
C       4.304390    -0.807234    -0.993212 
C       3.282275    -1.943306    -1.011979 
H       1.591712    -1.172320    -2.166096 
H       3.956256     1.278524    -0.410460 
H       3.631597     0.098766     0.874234 
H       4.510893    -0.453366    -2.008630 
H       5.251075    -1.092404    -0.531114 
H       3.420262    -2.655060    -1.825536 
H       3.325881    -2.500020    -0.070378 
N       2.179599     0.135956    -0.640496 
C       0.886785    -2.120330    -0.396834 
O       0.435233    -3.045951    -1.030865 
O       0.671332    -1.936470     0.878594 
C       1.330174     1.137864    -0.755468 
C       1.814679     2.527714    -0.459102 
H       2.627096     2.820636    -1.129282 
H       0.997741     3.239501    -0.575303 
H       2.176949     2.578282     0.572540 
C      -0.050841     0.936471    -0.917641 
H      -0.613116     1.773045    -1.316143 
H      -0.414789    -0.035215    -1.234249 
H       0.668989    -0.934076     1.231131 
C      -4.525269    -0.202883     0.852504 
C      -3.578783    -1.113416     1.291414 
C      -2.249213    -0.722083     1.352973 
C      -1.877579     0.564009     0.967941 
C      -2.857297     1.462908     0.541076 
C      -4.188474     1.088831     0.477015 
H      -3.885419    -2.110615     1.580248 
H      -1.496659    -1.420859     1.694492 
H      -2.573242     2.473752     0.259265 
H      -4.958431     1.773994     0.146244 
N      -5.942490    -0.618669     0.785923 
O      -6.750229     0.201472     0.399495 
O      -6.213468    -1.753173     1.120577 
C      -0.438759     1.019484     1.011249 
O       0.441385     0.364973     1.678350 
H      -0.384968     2.117648     1.087612 
40
     -1068.694830     -1068.424132   2.23   2.41
C       1.617803    -1.726005     0.925692 
C      -0.112436    -3.425693     1.091490 
C       1.212249    -4.050400     1.513344 
C       2.239251    -3.137972     0.843663 
H       1.983816    -1.188921     1.803022 
H      -0.933958    -3.671654     1.761330 
H      -0.391770    -3.715367     0.072604 
H       1.310267    -4.011861     2.603227 
H       1.297353    -5.091974     1.198778 
H       3.224563    -3.157285     1.308742 
H       2.360420    -3.420560    -0.207007 
N       0.173753    -1.980039     1.108429 
C       2.109775    -0.945234    -0.306653 
O       3.206728    -0.443688    -0.218274 
O       1.414829    -0.988241    -1.412163 
C      -0.705805    -1.050466     1.425962 
C      -2.086799    -1.477279     1.832103 
H      -2.700879    -0.601559     2.040799 
H      -2.551000    -2.042465     1.017755 
H      -2.065545    -2.106252     2.725919 
C      -0.477553     0.314082     1.181074 
H      -1.085377     1.010328     1.747292 
H       0.532496     0.659972     0.988630 
H       0.356176    -0.982135    -1.320779 
C      -0.236968     4.216979    -1.845589 
C      -1.254918     4.067209    -0.915913 
C      -1.601177     2.785131    -0.525469 
C      -0.941590     1.671220    -1.049141 
C       0.066754     1.853387    -1.992776 
C       0.427746     3.132041    -2.392045 
H      -1.755815     4.939997    -0.517121 
H      -2.402394     2.645428     0.195951 
H       0.575379     0.994267    -2.410476 
H       1.213295     3.293333    -3.119200 
N       0.146993     5.580230    -2.269783 
O      -0.454693     6.511940    -1.775524 
O       1.039456     5.686554    -3.085091 
C      -1.351788     0.294875    -0.583376 
O      -1.015277    -0.753377    -1.243678 
H      -2.383364     0.311450    -0.195742 
40
     -1068.695117     -1068.423295   2.05   2.94
C       2.000226    -0.224864     1.430715 
C       2.552807     0.062085    -0.919142 
C       3.828886    -0.279924    -0.161811 
C       3.295550    -0.980719     1.088246 
H       1.197790    -0.903795     1.713972 
H       2.170649    -0.807309    -1.468486 
H       2.676771     0.889944    -1.617303 
H       4.502595    -0.906086    -0.749552 
H       4.352187     0.637774     0.117961 
H       3.057487    -2.025833     0.868503 
H       3.999803    -0.958676     1.919862 
N       1.614115     0.429592     0.156958 
C       2.220137     0.783774     2.570277 
O       3.164944     1.531293     2.579321 
O       1.325391     0.732413     3.545566 
C       0.549392     1.192419    -0.036986 
C       0.165600     1.473063    -1.465173 
H       0.223655     0.575352    -2.085231 
H      -0.853072     1.856198    -1.501577 
H       0.830934     2.232177    -1.890350 
C      -0.270029     1.716513     0.986117 
H      -0.967035     2.468034     0.627203 
H       0.196687     1.990245     1.922947 
H       0.514761     0.201970     3.256349 
C      -3.184234    -1.174268    -1.860547 
C      -3.669606     0.002566    -1.312543 
C      -3.100936     0.463557    -0.134356 
C      -2.067937    -0.239748     0.480800 
C      -1.616543    -1.429924    -0.082818 
C      -2.167878    -1.903781    -1.264153 
H      -4.470811     0.537501    -1.806275 
H      -3.464981     1.384728     0.313720 
H      -0.833236    -1.985733     0.419803 
H      -1.826687    -2.824248    -1.720719 
N      -3.775157    -1.671524    -3.122614 
O      -4.676250    -1.023933    -3.613714 
O      -3.320997    -2.694958    -3.590140 
C      -1.411025     0.304429     1.727958 
O      -0.717480    -0.485947     2.445933 
H      -2.046468     1.055648     2.231281 
40
     -1068.688226     -1068.421057   6.38   4.34
C       2.608745     0.344792    -1.692580 
C       3.532885     0.430606     0.558902 
C       4.537542    -0.227084    -0.387330 
C       4.141768     0.337740    -1.754155 
H       2.178835     1.143808    -2.300384 
H       3.888243     1.412219     0.894248 
H       3.318103    -0.181823     1.436336 
H       5.568563    -0.000805    -0.109954 
H       4.402945    -1.311715    -0.375101 
H       4.512751     1.361521    -1.869244 
H       4.504060    -0.254506    -2.595049 
N       2.325939     0.588400    -0.270624 
C       2.015689    -0.988111    -2.194994 
O       1.859761    -1.130008    -3.386805 
O       1.739050    -1.846098    -1.250789 
C       1.120564     0.846573     0.205294 
C       1.013574     1.173225     1.669762 
H       1.182719     0.275908     2.275925 
H       1.755452     1.917693     1.969054 
H       0.018474     1.554827     1.897474 
C      -0.069325     0.745139    -0.541125 
H      -0.876814     1.379946    -0.196920 
H      -0.014719     0.628675    -1.617600 
H       0.603943    -2.018763    -1.217078 
C      -4.754178     0.023045     1.003987 
C      -4.492100    -0.384599    -0.295079 
C      -3.200226    -0.762790    -0.624948 
C      -2.190230    -0.724478     0.334687 
C      -2.485692    -0.323127     1.635905 
C      -3.773843     0.057548     1.981985 
H      -5.292002    -0.402818    -1.024127 
H      -2.961671    -1.094710    -1.628828 
H      -1.704017    -0.316503     2.390710 
H      -4.024461     0.373888     2.986332 
N      -6.131174     0.430906     1.361299 
O      -6.332706     0.780453     2.505908 
O      -6.973153     0.391467     0.488804 
C      -0.791680    -1.103057    -0.037683 
O      -0.632379    -1.869364    -1.050318 
H      -0.129227    -1.258020     0.824098 
40
     -1068.688433     -1068.420038   6.25   4.98
C      -0.576026    -2.993753     0.615607 
C      -0.120871    -2.883157    -1.782052 
C       0.454335    -4.181305    -1.215773 
C      -0.360587    -4.404269     0.061245 
H      -1.526420    -2.888646     1.140463 
H      -0.972782    -3.078182    -2.444591 
H       0.623136    -2.306420    -2.333374 
H       0.364501    -5.006158    -1.925180 
H       1.506072    -4.040682    -0.963032 
H      -1.329852    -4.857263    -0.171254 
H       0.149188    -5.042301     0.784527 
N      -0.576911    -2.142514    -0.594077 
C       0.575136    -2.513712     1.527694 
O       1.715783    -2.537305     1.096497 
O       0.178772    -2.039887     2.664484 
C      -0.904952    -0.856166    -0.590562 
C      -0.854934    -0.130938    -1.905935 
H      -1.503944    -0.616291    -2.641107 
H      -1.175695     0.902118    -1.777472 
H       0.159826    -0.126888    -2.314865 
C      -1.215717    -0.140241     0.577101 
H      -1.748334     0.791102     0.425632 
H      -1.500403    -0.687377     1.466205 
H       0.469526    -0.891796     2.756083 
C       0.417768     4.580423     0.026559 
C      -0.124723     4.255317     1.260658 
C      -0.057232     2.939309     1.689414 
C       0.537709     1.967965     0.885583 
C       1.089318     2.327269    -0.342283 
C       1.031061     3.640621    -0.785079 
H      -0.586055     5.025955     1.864658 
H      -0.465141     2.652407     2.651949 
H       1.579847     1.575655    -0.954161 
H       1.451005     3.940482    -1.736557 
N       0.344983     5.984001    -0.438473 
O      -0.194925     6.789645     0.290154 
O       0.829631     6.241180    -1.520841 
C       0.580231     0.545789     1.334096 
O       0.528901     0.315089     2.596140 
H       1.208780    -0.109076     0.721914 
40
     -1068.687853     -1068.418796   6.61   5.76
C       2.632720     0.002409     1.634730 
C       3.322816     0.525533    -0.633203 
C       4.574763     0.363672     0.222212 
C       4.046637     0.603542     1.639622 
H       2.606648    -1.000842     2.065199 
H       3.396204     0.025009    -1.598480 
H       3.090971     1.584795    -0.795310 
H       4.964039    -0.654785     0.118657 
H       5.363183     1.062429    -0.063197 
H       4.666742     0.150428     2.414243 
H       3.975703     1.675416     1.839127 
N       2.276072    -0.080697     0.199096 
C       1.597930     0.911318     2.335663 
O       1.491188     2.062889     1.947048 
O       0.874361     0.314867     3.224121 
C       1.145045    -0.603926    -0.259565 
C       0.917828    -0.564359    -1.745957 
H       1.072996     0.440213    -2.149861 
H       1.611792    -1.240825    -2.255657 
H      -0.098764    -0.881753    -1.974667 
C       0.140889    -1.132460     0.567718 
H      -0.563252    -1.793287     0.075857 
H       0.396151    -1.414808     1.580791 
H      -0.275567     0.401656     2.923931 
C      -4.331926    -0.321476    -1.590366 
C      -4.355584    -0.920618    -0.340029 
C      -3.314640    -0.664696     0.538324 
C      -2.265926     0.172155     0.159891 
C      -2.277360     0.773438    -1.097102 
C      -3.312745     0.528316    -1.987138 
H      -5.178244    -1.570544    -0.071073 
H      -3.305741    -1.111216     1.526137 
H      -1.473668     1.447798    -1.379545 
H      -3.339774     0.982674    -2.969163 
N      -5.439465    -0.594347    -2.534189 
O      -5.395400    -0.054879    -3.620242 
O      -6.321480    -1.340383    -2.164187 
C      -1.128548     0.423288     1.090825 
O      -1.339560     0.274968     2.348447 
H      -0.447030     1.219094     0.777289 
