40
     -1068.706739     -1068.436087   0.00   0.00
C      -3.181721     1.033641     0.716355 
C      -1.772679    -0.869585     1.301442 
C      -2.473988    -0.339955     2.550967 
C      -3.712180     0.365815     1.991444 
H      -3.967438     1.139944    -0.032629 
H      -2.147031    -1.856651     1.007261 
H      -0.690618    -0.897764     1.411822 
H      -2.716412    -1.140818     3.251447 
H      -1.824134     0.375047     3.063817 
H      -4.480641    -0.366650     1.724306 
H      -4.153102     1.095619     2.670250 
N      -2.143748     0.103218     0.252829 
C      -2.682092     2.468630     1.008029 
O      -3.528443     3.310888     1.194798 
O      -1.398555     2.721357     1.043384 
C      -1.583537     0.158928    -0.937459 
C      -2.091186     1.162532    -1.932456 
H      -1.492882     1.118803    -2.842556 
H      -3.133560     0.956447    -2.192965 
H      -2.038791     2.178600    -1.530785 
C      -0.393552    -0.547096    -1.208396 
H      -0.114111    -0.618171    -2.253848 
H      -0.179084    -1.440475    -0.633039 
H      -0.703272     1.949976     0.927980 
C       4.416868    -1.510511    -0.813956 
C       3.904334    -0.857634    -1.924536 
C       2.737125    -0.126194    -1.777404 
C       2.094181    -0.052335    -0.542466 
C       2.641361    -0.706299     0.558508 
C       3.807464    -1.445416     0.428487 
H       4.416709    -0.928453    -2.875505 
H       2.321208     0.398200    -2.633913 
H       2.147569    -0.617699     1.519021 
H       4.248276    -1.962874     1.271100 
N       5.659962    -2.297896    -0.960186 
O       6.089765    -2.859164     0.026184 
O       6.174783    -2.335299    -2.058873 
C       0.807525     0.723386    -0.395533 
O       0.413632     1.006938     0.794600 
H       0.722003     1.508968    -1.167519 
40
     -1068.706560     -1068.435007   0.11   0.68
C      -3.315743    -0.518682     0.326920 
C      -1.415621    -0.534773     1.858178 
C      -2.701410    -0.313365     2.650053 
C      -3.648654     0.273117     1.602017 
H      -3.937752    -1.413150     0.254835 
H      -0.804333    -1.348765     2.253818 
H      -0.814749     0.374811     1.783336 
H      -3.087410    -1.266392     3.026333 
H      -2.545435     0.350364     3.501816 
H      -4.705132     0.184261     1.856023 
H      -3.425047     1.333283     1.444538 
N      -1.901742    -0.894452     0.512638 
C      -3.614578     0.333482    -0.918890 
O      -4.696014     0.210638    -1.443485 
O      -2.709512     1.190254    -1.323515 
C      -1.137566    -1.416858    -0.424853 
C      -1.756874    -1.888871    -1.708181 
H      -2.732073    -2.352528    -1.548704 
H      -1.895623    -1.043717    -2.390411 
H      -1.094901    -2.608108    -2.192109 
C       0.266371    -1.325661    -0.326542 
H       0.833228    -1.955124    -1.004371 
H       0.711357    -1.216832     0.655258 
H      -1.774682     1.200986    -0.846471 
C       4.580113     1.044547    -0.211296 
C       3.659433     1.621404     0.648224 
C       2.308393     1.447287     0.388443 
C       1.891674     0.700154    -0.710392 
C       2.842015     0.141549    -1.564165 
C       4.195594     0.307875    -1.321202 
H       4.004245     2.196870     1.497932 
H       1.559839     1.898242     1.029153 
H       2.518729    -0.427884    -2.431703 
H       4.948134    -0.119745    -1.971358 
N       6.022483     1.224976     0.060130 
O       6.807334     0.711741    -0.710693 
O       6.334296     1.874363     1.036730 
C       0.419323     0.491576    -0.965310 
O      -0.409150     1.253405    -0.342160 
H       0.221441     0.279721    -2.030569 
40
     -1068.706560     -1068.435005   0.11   0.68
C      -2.570651    -2.158273     0.321976 
C      -2.202398    -0.101686    -0.939098 
C      -3.328588    -0.899589    -1.590549 
C      -3.040352    -2.330010    -1.131824 
H      -3.417671    -2.206514     1.009286 
H      -2.474880     0.936513    -0.737397 
H      -1.280764    -0.133805    -1.525231 
H      -4.301050    -0.564387    -1.215318 
H      -3.327789    -0.792401    -2.676308 
H      -3.898865    -2.999286    -1.191706 
H      -2.231190    -2.760911    -1.730434 
N      -1.978322    -0.807709     0.336629 
C      -1.616966    -3.302022     0.709085 
O      -2.087289    -4.271861     1.254984 
O      -0.351802    -3.199812     0.383763 
C      -1.269885    -0.312699     1.331037 
C      -1.225899    -1.039771     2.643554 
H      -0.936659    -0.348590     3.436212 
H      -2.186965    -1.491087     2.896712 
H      -0.480216    -1.840602     2.603530 
C      -0.380389     0.757687     1.102804 
H       0.002873     1.255410     1.987330 
H      -0.570729     1.420846     0.267472 
H      -0.010388    -2.303572    -0.042598 
C       3.600387     2.905630    -0.841243 
C       2.864613     2.232528    -1.802888 
C       2.050941     1.183270    -1.402752 
C       1.972715     0.823490    -0.059719 
C       2.734242     1.512263     0.883564 
C       3.554386     2.561005     0.500974 
H       2.938209     2.529256    -2.841443 
H       1.474374     0.622944    -2.129256 
H       2.687324     1.222154     1.930000 
H       4.151415     3.108833     1.218831 
N       4.469281     4.026340    -1.260399 
O       5.105414     4.596505    -0.397951 
O       4.493543     4.308573    -2.440413 
C       1.060353    -0.299533     0.367740 
O       0.612995    -1.087081    -0.545884 
H       1.396646    -0.752041     1.316929 
40
     -1068.693346     -1068.421929   8.40   8.88
C      -2.476172     0.452104    -0.708543 
C      -0.982870     0.528920     1.222777 
C      -1.828717     1.798817     1.181353 
C      -2.200335     1.908079    -0.296664 
H      -3.520950     0.200882    -0.509801 
H      -1.031520     0.014266     2.184712 
H       0.061250     0.734050     0.980820 
H      -2.726927     1.678185     1.795387 
H      -1.278782     2.666477     1.548780 
H      -3.062258     2.542540    -0.499183 
H      -1.352910     2.296606    -0.872062 
N      -1.593681    -0.324805     0.180508 
C      -2.276714     0.326345    -2.231110 
O      -3.162233     0.782094    -2.915705 
O      -1.165493    -0.148371    -2.736575 
C      -1.404634    -1.627099     0.111135 
C      -2.239436    -2.461387    -0.808557 
H      -2.588907    -3.341737    -0.263453 
H      -3.101842    -1.936601    -1.217098 
H      -1.592762    -2.797142    -1.625288 
C      -0.301609    -2.247147     0.739684 
H      -0.376006    -3.327668     0.815308 
H       0.136246    -1.772861     1.609210 
H      -0.524247    -0.775888    -2.214444 
C       3.203054     1.377684     0.808578 
C       2.494022     1.519508    -0.372248 
C       1.794652     0.425749    -0.864039 
C       1.794125    -0.784400    -0.172866 
C       2.546058    -0.902782     0.996256 
C       3.251133     0.177138     1.501988 
H       2.496211     2.469835    -0.891052 
H       1.243754     0.509175    -1.792867 
H       2.576483    -1.853567     1.522112 
H       3.831384     0.102846     2.412896 
N       3.943963     2.541257     1.343253 
O       3.880513     3.581241     0.721458 
O       4.567666     2.384213     2.372327 
C       1.002836    -1.963121    -0.702372 
O       0.440056    -1.839500    -1.847054 
H       1.525595    -2.913941    -0.507558 
