43
     -1145.170681     -1144.872931   0.00   0.00
C      -1.619422     2.863709    -1.708775 
C      -1.384283     2.278671     0.512006 
C      -0.426747     3.465916     0.325508 
C      -0.599219     3.872765    -1.155739 
H      -2.628146     3.239986    -1.489488 
H      -2.387044     2.619391     0.789623 
H      -1.059065     1.563816     1.262749 
H      -0.668107     4.274613     1.018221 
H       0.603101     3.160309     0.529551 
H      -0.976482     4.885959    -1.286607 
H       0.341163     3.809556    -1.705226 
N      -1.492920     1.660012    -0.828351 
C      -1.625089     2.771079    -3.245954 
O      -1.437145     3.790572    -3.859255 
O      -1.929252     1.629507    -3.834787 
C      -0.558638     0.508197    -1.259114 
C       0.666962     0.913998    -2.061333 
H       1.162019     0.006232    -2.411152 
H       0.427893     1.506146    -2.943204 
H       1.374595     1.468463    -1.438936 
C      -0.175974    -0.328905    -0.032116 
H      -1.051445    -0.451824     0.613847 
H       0.609403     0.175276     0.540236 
H      -1.273791    -1.932399    -1.501683 
C       1.850825    -3.577954     3.141037 
C       2.662987    -2.731103     2.404153 
C       2.146092    -2.163440     1.250445 
C       0.840519    -2.432859     0.841160 
C       0.050545    -3.292702     1.600755 
C       0.553022    -3.871567     2.757458 
H       3.674022    -2.530649     2.734486 
H       2.771244    -1.503418     0.654910 
H      -0.957613    -3.514635     1.273244 
H      -0.045745    -4.543420     3.359010 
N       2.389606    -4.189827     4.373620 
O       3.530483    -3.915211     4.685063 
O       1.660100    -4.929594     5.000865 
C       0.291044    -1.755147    -0.398354 
O      -0.768457    -2.523351    -0.916602 
H       1.112044    -1.694820    -1.128359 
O      -1.572674    -0.145678    -1.990676 
H      -2.217363     0.719300    -1.264676 
H      -1.863048     0.845025    -3.207555 
43
     -1145.169280     -1144.872200   0.88   0.46
C       1.151501    -3.203418    -1.447702 
C      -0.447945    -1.527714    -2.080362 
C       0.073077    -2.265327    -3.321911 
C       1.441553    -2.779816    -2.879460 
H       0.497008    -4.087327    -1.485721 
H      -1.527008    -1.626344    -1.942714 
H      -0.212055    -0.465443    -2.150711 
H      -0.579911    -3.108000    -3.569370 
H       0.111963    -1.607992    -4.192815 
H       1.820052    -3.612926    -3.468999 
H       2.195737    -1.986651    -2.892889 
N       0.270263    -2.106171    -0.904889 
C       2.381982    -3.730747    -0.685084 
O       2.314264    -3.837477     0.631060 
O       3.316633    -4.142597    -1.322288 
C       0.801037    -1.165090     0.189746 
C       2.247481    -0.723842     0.036953 
H       2.376835    -0.169874    -0.897842 
H       2.496515    -0.051480     0.860977 
H       2.959943    -1.545378     0.065125 
C      -0.131608     0.052174     0.305020 
H      -1.166140    -0.249019     0.109443 
H       0.146627     0.813303    -0.429968 
H      -0.381516    -1.042308     2.494830 
C      -2.158432     4.436149     1.508301 
C      -0.830678     4.368820     1.118112 
C      -0.179871     3.148711     1.208208 
C      -0.842820     2.014429     1.675837 
C      -2.176390     2.115777     2.065665 
C      -2.842693     3.330237     1.983974 
H      -0.328870     5.257034     0.756522 
H       0.864249     3.079358     0.914870 
H      -2.686479     1.238627     2.444291 
H      -3.878186     3.427609     2.284051 
N      -2.864407     5.731141     1.416993 
O      -2.239370     6.683643     0.997331 
O      -4.026153     5.765496     1.766366 
C      -0.115907     0.685222     1.714923 
O      -0.735546    -0.151694     2.661898 
H       0.925363     0.886731     2.009030 
O       0.523222    -2.079973     1.228843 
H      -0.157692    -2.521704     0.213618 
H       1.594375    -3.246150     1.010744 
43
     -1145.165657     -1144.868400   3.15   2.84
C       1.684664     2.514802     1.996027 
C       1.404650     2.034086    -0.241721 
C       0.762674     3.417750    -0.066228 
C       0.971907     3.753991     1.427764 
H       2.762816     2.632640     1.820632 
H       2.471465     2.115966    -0.473470 
H       0.960312     1.420083    -1.016949 
H       1.220736     4.150413    -0.734198 
H      -0.302577     3.377473    -0.311535 
H       1.585203     4.638917     1.592979 
H       0.024332     3.923712     1.941468 
N       1.300961     1.390324     1.085289 
C       1.608091     2.411449     3.532308 
O       1.566748     1.229520     4.109594 
O       1.677468     3.443786     4.152789 
C       0.100186     0.504634     1.477966 
C      -1.025403     1.213580     2.220747 
H      -0.687283     1.805262     3.069885 
H      -1.595718     1.856928     1.543795 
H      -1.698227     0.443502     2.606411 
C      -0.494871    -0.241215     0.267062 
H      -0.781660     0.444487    -0.536273 
H      -1.426948    -0.686965     0.627595 
H       2.150262    -1.610661    -1.003299 
C      -1.930308    -3.562596    -3.174102 
C      -1.923429    -4.002622    -1.861701 
C      -1.165842    -3.301874    -0.933934 
C      -0.433068    -2.178672    -1.311675 
C      -0.457653    -1.765046    -2.643342 
C      -1.206902    -2.454569    -3.584615 
H      -2.499016    -4.875700    -1.582561 
H      -1.142418    -3.637911     0.098854 
H       0.118919    -0.897389    -2.945495 
H      -1.236826    -2.146662    -4.621950 
N      -2.734194    -4.301451    -4.171980 
O      -3.357266    -5.268189    -3.785314 
O      -2.721083    -3.895174    -5.315152 
C       0.350131    -1.397988    -0.269883 
O       1.562040    -0.874537    -0.808576 
H       0.575869    -2.052235     0.577940 
O       0.881204    -0.363845     2.250590 
H       1.754872     0.302187     1.542652 
H       1.325182     0.489810     3.451603 
43
     -1145.164340     -1144.867299   3.98   3.53
C      -0.917050     3.189770    -0.351018 
C       0.713751     3.043677     1.280546 
C       1.451647     3.582515     0.045093 
C       0.359251     3.698603    -1.040720 
H      -1.372279     4.031491     0.188909 
H       0.309786     3.859913     1.888543 
H       1.337767     2.429199     1.922918 
H       1.933812     4.537294     0.264792 
H       2.235741     2.885374    -0.261898 
H       0.203929     4.717288    -1.393156 
H       0.592313     3.090755    -1.915992 
N      -0.439249     2.285447     0.744480 
C      -2.028612     2.788720    -1.342519 
O      -2.856752     1.811939    -1.041643 
O      -2.141193     3.466218    -2.333973 
C      -0.360484     0.758881     0.474845 
C       0.038116     0.393596    -0.946570 
H       0.010950    -0.689461    -1.054444 
H      -0.631765     0.812472    -1.696145 
H       1.059039     0.725655    -1.153469 
C       0.553118     0.110494     1.526567 
H       0.494002     0.680112     2.457584 
H       1.599428     0.102876     1.202117 
H       0.778645    -2.513952     3.335920 
C       0.195237    -4.193751    -1.220055 
C      -1.024203    -3.701196    -0.787526 
C      -1.034010    -2.770981     0.242779 
C       0.156602    -2.339000     0.822029 
C       1.368665    -2.857827     0.366471 
C       1.397018    -3.789218    -0.660092 
H      -1.939850    -4.042816    -1.252727 
H      -1.975828    -2.357788     0.588996 
H       2.295817    -2.530864     0.825580 
H       2.327608    -4.203167    -1.026658 
N       0.216937    -5.187532    -2.315894 
O       1.298525    -5.606202    -2.672697 
O      -0.848097    -5.522646    -2.790809 
C       0.131808    -1.309046     1.934598 
O       1.043009    -1.661106     2.975718 
H      -0.889885    -1.249198     2.322111 
O      -1.700158     0.544602     0.829940 
H      -1.433123     1.742462     1.292546 
H      -2.509980     1.236395    -0.275076 
43
     -1145.164299     -1144.866988   4.00   3.73
C       2.419358     0.906397     2.281471 
C       2.618120     0.999039    -0.018221 
C       3.011198     2.405770     0.460214 
C       2.897331     2.340282     2.001384 
H       3.301569     0.252385     2.315595 
H       3.488646     0.334884    -0.041405 
H       2.157025     0.970741    -1.001890 
H       4.015524     2.667532     0.120741 
H       2.325240     3.151536     0.049250 
H       3.840497     2.521619     2.515136 
H       2.180073     3.067302     2.385294 
N       1.712055     0.484799     1.034018 
C       1.804250     0.710220     3.679746 
O       0.836973    -0.168878     3.851516 
O       2.306622     1.318407     4.591175 
C       0.178665     0.673509     0.945986 
C      -0.392231     1.859959     1.710226 
H      -0.126842     2.803552     1.225214 
H      -1.480573     1.762288     1.691635 
H      -0.088162     1.898707     2.754919 
C      -0.292450     0.749915    -0.511978 
H       0.094103     1.648304    -1.001778 
H      -1.376920     0.871596    -0.451951 
H       0.959172    -0.738163    -3.099160 
C      -3.541543    -2.641120    -2.312642 
C      -2.896707    -2.877450    -1.108892 
C      -1.733720    -2.177013    -0.830524 
C      -1.226695    -1.253837    -1.744763 
C      -1.901859    -1.029754    -2.942646 
C      -3.066340    -1.726413    -3.236199 
H      -3.306006    -3.594858    -0.409554 
H      -1.220994    -2.324426     0.113935 
H      -1.519293    -0.300448    -3.647827 
H      -3.603838    -1.566972    -4.162080 
N      -4.781952    -3.385910    -2.618121 
O      -5.327608    -3.158341    -3.678108 
O      -5.179036    -4.179536    -1.790608 
C       0.029966    -0.473975    -1.395524 
O       0.699999     0.014724    -2.557227 
H       0.695406    -1.152457    -0.850008 
O      -0.091515    -0.587087     1.499356 
H       1.184050    -0.635938     1.206433 
H       0.398441    -0.440888     2.977866 
43
     -1145.162131     -1144.865579   5.37   4.61
C       3.155040    -0.832363    -0.588060 
C       3.072177     1.263824     0.382448 
C       3.494541     0.326700     1.524614 
C       3.568632    -1.071658     0.873125 
H       4.048542    -0.529041    -1.151010 
H       3.943562     1.650900    -0.155890 
H       2.484780     2.114168     0.717312 
H       4.445830     0.643730     1.956865 
H       2.750937     0.346173     2.325679 
H       4.563785    -1.512869     0.904393 
H       2.891409    -1.778697     1.354011 
N       2.317207     0.410312    -0.562556 
C       2.721968    -2.120387    -1.318137 
O       1.800417    -2.067074    -2.255784 
O       3.328088    -3.127079    -1.047238 
C       0.772110     0.270639    -0.486622 
C       0.293455    -0.904662     0.351146 
H      -0.793369    -0.949647     0.311631 
H       0.673405    -1.861132    -0.004915 
H       0.585278    -0.770471     1.396249 
C       0.166889     1.606340    -0.026490 
H       0.814832     2.417303    -0.376279 
H       0.106544     1.671817     1.065393 
H      -1.079275     3.875724    -0.611933 
C      -4.281734    -0.844537     0.448338 
C      -3.730050    -0.918242    -0.819030 
C      -2.742614    -0.005659    -1.164186 
C      -2.313452     0.954938    -0.252749 
C      -2.892787     1.007579     1.014513 
C      -3.882128     0.106292     1.374711 
H      -4.071168    -1.675801    -1.512709 
H      -2.284674    -0.051083    -2.146860 
H      -2.574170     1.768620     1.718438 
H      -4.345508     0.132468     2.352534 
N      -5.335929    -1.810468     0.826032 
O      -5.807773    -1.720377     1.940561 
O      -5.665080    -2.635217    -0.001179 
C      -1.216159     1.921846    -0.634130 
O      -1.628548     3.212372    -0.183467 
H      -1.112224     1.907608    -1.722931 
O       0.633007     0.160322    -1.877418 
H       1.852696     0.614865    -1.713055 
H       1.271509    -1.198071    -2.225367 
43
     -1145.161752     -1144.865124   5.60   4.90
C       3.016437    -1.249738    -0.073464 
C       2.695284     0.418651    -1.769155 
C       4.136690     0.464033    -1.243222 
C       4.020831    -0.131049     0.158573 
H       3.510619    -2.020689    -0.683719 
H       2.636842     0.205308    -2.839082 
H       2.199017     1.373190    -1.586244 
H       4.789254    -0.160924    -1.860824 
H       4.538159     1.479340    -1.257575 
H       4.955498    -0.517900     0.560426 
H       3.620612     0.593926     0.874021 
N       1.986726    -0.644770    -0.995993 
C       2.636263    -2.027972     1.203447 
O       3.416092    -2.019540     2.122158 
O       1.547706    -2.771588     1.193311 
C       0.559302    -0.370287    -0.468610 
C       0.514097     0.217954     0.933710 
H      -0.518770     0.446650     1.193941 
H       0.904887    -0.453446     1.695596 
H       1.079100     1.154997     0.960080 
C      -0.178997     0.524058    -1.483863 
H       0.265756     0.378070    -2.474728 
H      -0.085054     1.585796    -1.232632 
H      -1.904665     0.772376    -3.502606 
C      -3.937117     0.702130     1.937004 
C      -3.646189     1.815583     1.164567 
C      -2.920844     1.640659    -0.003864 
C      -2.494231     0.370443    -0.389890 
C      -2.809039    -0.729836     0.403237 
C      -3.531506    -0.571875     1.577583 
H      -3.988252     2.793099     1.479170 
H      -2.693353     2.495746    -0.630672 
H      -2.465437    -1.715174     0.107127 
H      -3.779335    -1.415245     2.209062 
N      -4.709779     0.880902     3.185016 
O      -5.057231     2.007158     3.474858 
O      -4.949656    -0.109148     3.844677 
C      -1.675574     0.185862    -1.648056 
O      -2.233788     1.045816    -2.641266 
H      -1.753863    -0.860980    -1.954832 
O       0.147066    -1.700310    -0.642133 
H       1.245403    -1.598351    -1.351196 
H       0.911040    -2.482928     0.456068 
43
     -1145.161802     -1144.863440   5.57   5.96
C       3.184997     0.408480     1.202021 
C       2.284961    -1.522950     0.307608 
C       3.608506    -1.327058    -0.448560 
C       4.221236    -0.044869     0.161196 
H       3.379638    -0.133812     2.137502 
H       2.437129    -2.105439     1.222288 
H       1.507360    -2.017563    -0.268337 
H       4.255073    -2.199822    -0.336358 
H       3.419573    -1.198956    -1.518001 
H       5.182311    -0.210356     0.646183 
H       4.373700     0.729009    -0.592658 
N       1.885426    -0.159725     0.727427 
C       3.332777     1.880095     1.632111 
O       2.263893     2.574304     1.969901 
O       4.452984     2.314297     1.728036 
C       0.963608     0.719815    -0.147379 
C       1.662227     1.720905    -1.057043 
H       2.366056     2.367596    -0.535860 
H       2.180973     1.214869    -1.876037 
H       0.889729     2.362356    -1.488478 
C       0.010023    -0.137240    -0.992608 
H       0.581672    -0.682335    -1.750623 
H      -0.613888     0.578340    -1.534514 
H      -0.981716    -2.458650    -1.683431 
C      -5.005747     0.062432    -0.091380 
C      -4.019221     0.979027     0.236937 
C      -2.694004     0.580074     0.183802 
C      -2.357594    -0.721493    -0.197821 
C      -3.372975    -1.624378    -0.505673 
C      -4.705882    -1.236770    -0.457340 
H      -4.292988     1.984030     0.530752 
H      -1.907592     1.274730     0.458911 
H      -3.129283    -2.646876    -0.767738 
H      -5.503974    -1.928125    -0.695362 
N      -6.421732     0.483409    -0.039408 
O      -7.264362    -0.341144    -0.328390 
O      -6.656297     1.627876     0.288578 
C      -0.891708    -1.144639    -0.234303 
O      -0.726255    -2.461396    -0.754233 
H      -0.558464    -1.226002     0.804124 
O       0.301077     1.272093     0.958231 
H       0.954067     0.252353     1.457248 
H       1.404685     2.143505     1.648678 
43
     -1145.161802     -1144.863440   5.57   5.96
C       3.245611    -0.864205     0.689224 
C       1.871955     0.476878     1.975703 
C       2.429377    -0.562979     2.960544 
C       3.363162    -1.450516     2.105224 
H       3.955072    -0.029609     0.604340 
H       2.533085     1.347066     1.906642 
H       0.878095     0.841209     2.221716 
H       2.949128    -0.076913     3.788767 
H       1.615522    -1.153436     3.390440 
H       4.402850    -1.426132     2.428826 
H       3.050319    -2.495712     2.116344 
N       1.907834    -0.196168     0.656620 
C       3.717519    -1.818255    -0.424131 
O       3.144907    -1.773944    -1.611015 
O       4.669668    -2.516377    -0.181989 
C       0.694130    -0.986350     0.117028 
C       0.718507    -2.490379     0.351634 
H       1.629634    -2.972401     0.001320 
H       0.572917    -2.727240     1.409282 
H      -0.113723    -2.920701    -0.211006 
C      -0.627035    -0.421097     0.658590 
H      -0.695521    -0.615674     1.733740 
H      -1.409779    -1.021489     0.187610 
H      -1.965887     1.359455     2.032224 
C      -3.924641     1.765552    -2.559241 
C      -3.999831     2.455058    -1.363122 
C      -3.022381     2.230402    -0.402216 
C      -1.990079     1.324325    -0.635346 
C      -1.933118     0.654843    -1.860676 
C      -2.900926     0.870490    -2.827646 
H      -4.807658     3.155309    -1.193883 
H      -3.059222     2.783852     0.528322 
H      -1.110709    -0.024071    -2.059158 
H      -2.868315     0.358310    -3.780491 
N      -4.962080     1.997497    -3.586304 
O      -4.869428     1.382060    -4.627963 
O      -5.844310     2.789362    -3.325451 
C      -0.904401     1.083638     0.409919 
O      -1.181793     1.755505     1.635970 
H       0.004199     1.568376     0.041845 
O       0.912238    -0.580566    -1.207397 
H       1.672596     0.219053    -0.501884 
H       2.252514    -1.294028    -1.592954 
43
     -1145.161802     -1144.863438   5.57   5.96
C       1.098600     3.175858    -0.680399 
C       1.425652     1.992616     1.277517 
C       2.826427     2.491069     0.888532 
C       2.607074     3.298535    -0.411904 
H       0.583746     3.956918    -0.104237 
H       0.903935     2.729671     1.896911 
H       1.418172     1.049384     1.817215 
H       3.264127     3.089972     1.689837 
H       3.495978     1.644287     0.713972 
H       2.881140     4.348892    -0.323016 
H       3.180901     2.888765    -1.244514 
N       0.686780     1.907309    -0.003518 
C       0.692004     3.506475    -2.128792 
O       1.289967     4.397728    -2.677155 
O      -0.336137     2.889748    -2.677531 
C       0.646064     0.601903    -0.829885 
C       1.662401     0.493691    -1.958197 
H       2.676001     0.372245    -1.566042 
H       1.412200    -0.399181    -2.536581 
H       1.645273     1.338971    -2.644072 
C       0.771922    -0.634991     0.071522 
H       1.778355    -0.674957     0.500467 
H       0.691996    -1.490813    -0.603876 
H       0.933236    -1.738125     2.439387 
C      -3.167976    -3.846793     0.485687 
C      -2.889771    -2.925137    -0.511470 
C      -1.946634    -1.941125    -0.265704 
C      -1.284731    -1.881195     0.963595 
C      -1.598645    -2.811876     1.951655 
C      -2.541753    -3.804360     1.717683 
H      -3.409251    -2.982562    -1.459178 
H      -1.730622    -1.196161    -1.024020 
H      -1.120414    -2.755714     2.922071 
H      -2.793679    -4.534070     2.476390 
N      -4.171448    -4.901115     0.228039 
O      -4.708234    -4.912463    -0.860139 
O      -4.397601    -5.692167     1.120517 
C      -0.260491    -0.778936     1.218866 
O       0.397294    -0.937942     2.473293 
H      -0.819182     0.154718     1.329129 
O      -0.682123     0.799902    -1.233676 
H      -0.514405     1.662518    -0.262569 
H      -0.596145     2.048510    -2.175809 
43
     -1145.159923     -1144.863163   6.75   6.13
C      -2.425815     2.007165    -0.342381 
C      -2.867471     0.031625    -1.447022 
C      -4.050062     0.200556    -0.480976 
C      -3.768584     1.538518     0.241808 
H      -2.629904     2.555001    -1.272818 
H      -3.065379     0.526478    -2.403676 
H      -2.613793    -1.003153    -1.659026 
H      -4.999501     0.200588    -1.020291 
H      -4.079440    -0.628553     0.231182 
H      -4.531386     2.295749     0.065809 
H      -3.692804     1.405368     1.321799 
N      -1.748949     0.755892    -0.806181 
C      -1.706715     3.067083     0.516156 
O      -2.402169     3.889475     1.059792 
O      -0.392573     3.100179     0.547592 
C      -0.736513     0.052235     0.151709 
C      -1.066498     0.158500     1.630980 
H      -1.234677     1.183263     1.957485 
H      -1.939513    -0.450501     1.880753 
H      -0.223202    -0.238932     2.193470 
C      -0.583640    -1.402136    -0.315310 
H      -0.445172    -1.384664    -1.401207 
H      -1.488099    -1.977968    -0.091083 
H       0.947493    -3.138562     1.946135 
C       4.442967    -0.432973    -0.301776 
C       3.862430    -0.366798     0.953176 
C       2.613342    -0.940554     1.140242 
C       1.955781    -1.568221     0.086960 
C       2.572008    -1.626416    -1.161647 
C       3.816648    -1.055460    -1.369919 
H       4.382268     0.131408     1.761433 
H       2.140962    -0.882751     2.113681 
H       2.072679    -2.123698    -1.988973 
H       4.303284    -1.088467    -2.336199 
N       5.772549     0.177337    -0.508778 
O       6.299730     0.714651     0.443455 
O       6.257981     0.104205    -1.619121 
C       0.589179    -2.209990     0.266544 
O       0.292278    -2.511879     1.623024 
H       0.599540    -3.145612    -0.311796 
O       0.339283     0.823041    -0.298737 
H      -0.596511     1.026214    -1.201927 
H       0.027973     2.232755     0.205664 
43
     -1145.154337     -1144.856153  10.26  10.53
C       1.336155     0.345783     2.507913 
C      -0.305738    -0.927844     1.504115 
C       1.008789    -1.416992     0.872291 
C       2.100409    -0.520410     1.499652 
H       1.193727    -0.244203     3.424509 
H      -0.550882    -1.506176     2.401427 
H      -1.157266    -0.978571     0.835617 
H       1.163446    -2.477173     1.082948 
H       0.981372    -1.301267    -0.211777 
H       2.886098    -1.076672     2.008408 
H       2.586002     0.107288     0.750361 
N      -0.046982     0.458204     1.945633 
C       2.125122     1.567139     3.018312 
O       1.476483     2.654602     3.376745 
O       3.315418     1.432591     3.157359 
C      -0.423149     1.716486     1.107136 
C       0.709767     2.328136     0.299480 
H       1.053088     1.652865    -0.486751 
H       0.327945     3.241042    -0.165491 
H       1.560045     2.614477     0.914657 
C      -1.697112     1.504220     0.258198 
H      -2.232453     2.446478     0.399365 
H      -2.332003     0.738361     0.718942 
H      -3.555556     1.004346    -1.466304 
C      -0.174515    -2.442310    -2.744499 
C       0.543541    -1.291432    -3.014270 
C       0.065732    -0.083129    -2.523450 
C      -1.106809    -0.021122    -1.774273 
C      -1.820095    -1.200802    -1.550824 
C      -1.358323    -2.418660    -2.023452 
H       1.456457    -1.348227    -3.593099 
H       0.613792     0.828592    -2.739619 
H      -2.752706    -1.181434    -0.992747 
H      -1.897715    -3.339533    -1.842861 
N       0.335944    -3.739557    -3.239982 
O      -0.301775    -4.733566    -2.963546 
O       1.361322    -3.726715    -3.887361 
C      -1.622048     1.316883    -1.269548 
O      -2.898768     1.602152    -1.838166 
H      -0.976750     2.094197    -1.681842 
O      -0.795002     2.445415     2.246552 
H      -0.720282     1.200866     2.675195 
H       0.525272     2.675671     3.005052 
43
     -1145.137965     -1144.841108  20.53  19.97
C       2.508739     0.898171     0.986091 
C       2.890125    -0.708422    -0.800104 
C       3.981605     0.373871    -0.818658 
C       3.985830     0.946998     0.601569 
H       2.372031     0.928657     2.068328 
H       3.310390    -1.717531    -0.736395 
H       2.240744    -0.646426    -1.671244 
H       4.948788    -0.035782    -1.117150 
H       3.708562     1.156513    -1.530190 
H       4.578700     0.318127     1.277375 
H       4.361696     1.968172     0.652582 
N       2.114932    -0.441494     0.456659 
C       1.723567     2.087276     0.354379 
O       1.996517     3.180910     0.842568 
O       0.911306     1.801996    -0.573033 
C       0.789427    -0.953941     0.633067 
C      -0.122111    -0.184077     1.545552 
H       0.373423     0.095787     2.477762 
H      -0.431325     0.730221     1.040612 
H      -1.009034    -0.780733     1.765520 
C       0.142648    -1.739592    -0.485470 
H      -0.531908    -2.450796    -0.002264 
H       0.906139    -2.326333    -0.998921 
H       0.464607     0.667928    -1.648097 
C      -4.346147     0.638256    -0.061240 
C      -4.154632    -0.734500    -0.084842 
C      -2.955168    -1.221784    -0.577364 
C      -1.955913    -0.358294    -1.031826 
C      -2.185328     1.014904    -1.006376 
C      -3.382798     1.520396    -0.516669 
H      -4.934985    -1.395197     0.270432 
H      -2.804271    -2.297709    -0.621355 
H      -1.421766     1.699563    -1.351756 
H      -3.570097     2.586029    -0.484561 
N      -5.621360     1.173887     0.461425 
O      -6.447716     0.374491     0.851434 
O      -5.764567     2.378678     0.469437 
C      -0.652126    -0.949548    -1.563837 
O       0.149034    -0.048485    -2.260752 
H      -0.943823    -1.718719    -2.289823 
O       1.410510    -2.213816     1.609343 
H       2.271549    -1.457840     1.345492 
H       1.094214    -2.159818     2.522295 
43
     -1145.136809     -1144.839942  21.25  20.70
C       0.695021    -0.127696    -2.757495 
C       2.512761    -1.024489    -1.415734 
C       2.418833    -1.780057    -2.751942 
C       1.686490    -0.817365    -3.691840 
H       0.342768     0.821184    -3.162916 
H       3.516497    -0.616876    -1.248865 
H       2.239887    -1.656086    -0.572132 
H       3.404822    -2.070737    -3.120546 
H       1.824441    -2.686433    -2.617196 
H       2.379748    -0.084721    -4.123204 
H       1.162367    -1.323429    -4.501701 
N       1.551495     0.117579    -1.558377 
C      -0.536118    -1.041429    -2.478561 
O      -0.624942    -1.535667    -1.316256 
O      -1.283737    -1.181621    -3.442558 
C       1.048158     0.811826    -0.410133 
C      -0.293188     1.466415    -0.552485 
H      -0.342601     2.065940    -1.461621 
H      -1.059139     0.693444    -0.592529 
H      -0.476186     2.109339     0.308707 
C       1.454258     0.355459     0.975172 
H       1.431353     1.247962     1.607924 
H       2.484614    -0.010253     0.956664 
H       0.142994    -1.817286     0.073728 
C      -3.262055     0.687728     2.874404 
C      -3.197594    -0.301474     1.909423 
C      -1.953474    -0.774002     1.511995 
C      -0.789731    -0.254573     2.072710 
C      -0.890412     0.733636     3.054163 
C      -2.123160     1.217090     3.460978 
H      -4.109879    -0.691117     1.476284 
H      -1.894891    -1.536131     0.745770 
H       0.008316     1.125418     3.524911 
H      -2.212490     1.983353     4.220256 
N      -4.585594     1.193107     3.297804 
O      -5.566696     0.712185     2.770366 
O      -4.609385     2.059623     4.147863 
C       0.596030    -0.747949     1.662723 
O       0.603144    -1.941087     0.948188 
H       1.133292    -0.950733     2.597639 
O       2.101881     2.121729    -0.732335 
H       2.220405     1.299304    -1.568080 
H       2.851699     2.148888    -0.121167 
43
     -1145.135311     -1144.839756  22.20  20.82
C       3.423136    -0.495178     0.121018 
C       1.962131     1.180029     1.050865 
C       3.192976     1.016660     1.963954 
C       4.255653     0.344073     1.085198 
H       3.978806    -0.753588    -0.781178 
H       1.755115     2.225224     0.802607 
H       1.080211     0.736576     1.508282 
H       3.525378     1.974770     2.368712 
H       2.938116     0.364587     2.801778 
H       4.840987     1.090438     0.534694 
H       4.938847    -0.287913     1.651520 
N       2.315126     0.448756    -0.203217 
C       2.906258    -1.805238     0.797166 
O       1.661225    -1.843121     1.016595 
O       3.780540    -2.631599     1.043396 
C       1.283137     0.072436    -1.120649 
C       1.578735    -1.105428    -2.011598 
H       2.560467    -1.017483    -2.483581 
H       1.567887    -2.019499    -1.423135 
H       0.806620    -1.183707    -2.778591 
C      -0.168087     0.346214    -0.792881 
H      -0.702580     0.322517    -1.746594 
H      -0.263878     1.359947    -0.397537 
H       0.150387    -2.249896     0.217332 
C      -5.018710     0.402168     0.136942 
C      -4.146370     1.137472     0.922795 
C      -2.809086     0.772987     0.939654 
C      -2.351166    -0.304886     0.182876 
C      -3.254568    -1.028970    -0.591064 
C      -4.597081    -0.678583    -0.618745 
H      -4.516873     1.971924     1.504166 
H      -2.113730     1.333588     1.558739 
H      -2.902004    -1.877953    -1.164441 
H      -5.313680    -1.230322    -1.213662 
N      -6.447535     0.782179     0.109008 
O      -7.191882     0.121743    -0.585309 
O      -6.788974     1.732536     0.782424 
C      -0.873662    -0.648069     0.170578 
O      -0.687824    -1.981298    -0.219219 
H      -0.476778    -0.504160     1.180329 
O       1.671915     1.424727    -2.092621 
H       2.476983     1.318270    -1.251620 
H       1.973826     1.167071    -2.974985 
43
     -1145.135311     -1144.839754  22.20  20.82
C       3.221337     0.117758    -1.259620 
C       2.314355    -0.398221     0.912140 
C       3.633435    -1.170955     0.716345 
C       4.364410    -0.433506    -0.413131 
H       3.541659     0.949977    -1.887561 
H       2.276667     0.140452     1.863626 
H       1.460124    -1.068440     0.843146 
H       4.216744    -1.214034     1.638403 
H       3.411022    -2.194332     0.407588 
H       4.976059     0.385970    -0.016806 
H       5.000192    -1.088494    -1.007816 
N       2.282030     0.594394    -0.203997 
C       2.586758    -0.989368    -2.160829 
O       1.419758    -1.348785    -1.831236 
O       3.309937    -1.382130    -3.072212 
C       1.046945     1.224358    -0.558947 
C       0.936824     1.728015    -1.974124 
H       1.814313     2.311450    -2.263791 
H       0.852031     0.885142    -2.655527 
H       0.038466     2.339298    -2.073405 
C      -0.237277     0.837062     0.140480 
H      -0.929941     1.668224    -0.018255 
H      -0.057125     0.771623     1.215836 
H      -0.260937    -0.893971    -2.065126 
C      -4.729889    -0.570710     1.633999 
C      -4.674773    -0.149636     0.316228 
C      -3.445896    -0.133816    -0.328354 
C      -2.291929    -0.534131     0.340617 
C      -2.382373    -0.961243     1.664855 
C      -3.601460    -0.982248     2.324287 
H      -5.582205     0.157092    -0.188095 
H      -3.378358     0.180280    -1.363062 
H      -1.489266    -1.290382     2.189342 
H      -3.687705    -1.310465     3.352106 
N      -6.036090    -0.586757     2.327044 
O      -7.009817    -0.223662     1.700687 
O      -6.054680    -0.961995     3.481210 
C      -0.938846    -0.463075    -0.341338 
O      -1.094455    -0.493007    -1.733768 
H      -0.344788    -1.324911    -0.021710 
O       1.512667     2.609076     0.330028 
H       2.419745     1.873930     0.270518 
H       1.592330     3.394175    -0.229772 
43
     -1145.134526     -1144.839525  22.69  20.96
C       1.930438     2.680326    -0.970680 
C       1.681373     0.430368    -1.753042 
C       2.605890     1.117330    -2.750197 
C       2.422372     2.611334    -2.437479 
H       2.623854     3.238542    -0.341821 
H       1.942953    -0.613102    -1.566373 
H       0.637526     0.512885    -2.062140 
H       3.641273     0.804242    -2.573286 
H       2.350583     0.864050    -3.780850 
H       3.342147     3.181404    -2.579010 
H       1.663919     3.051149    -3.088530 
N       1.900019     1.247217    -0.534985 
C       0.525537     3.347852    -0.906661 
O      -0.444458     2.535341    -0.917242 
O       0.532516     4.575714    -0.890474 
C       1.297447     0.877060     0.713096 
C       1.080563     1.978496     1.716208 
H       0.971637     1.538492     2.710304 
H       1.902601     2.697497     1.718153 
H       0.161661     2.510393     1.483854 
C       0.356044    -0.304866     0.782937 
H       0.273656    -0.569274     1.840947 
H       0.808612    -1.158753     0.275171 
H      -1.465857     1.770904     0.261230 
C      -3.203883    -3.716710     1.052555 
C      -2.374879    -3.660709    -0.055939 
C      -1.709022    -2.473989    -0.320221 
C      -1.865916    -1.364396     0.509448 
C      -2.713136    -1.450060     1.611543 
C      -3.388427    -2.629898     1.890296 
H      -2.262647    -4.530555    -0.690253 
H      -1.063269    -2.410157    -1.192003 
H      -2.850573    -0.581928     2.245014 
H      -4.051481    -2.714680     2.741795 
N      -3.918431    -4.977469     1.346492 
O      -3.738954    -5.913028     0.594293 
O      -4.640307    -5.000972     2.321512 
C      -1.081466    -0.095030     0.233972 
O      -1.717369     1.004167     0.824753 
H      -1.025934     0.047902    -0.849549 
O       2.774337     0.177119     1.203827 
H       2.945925     0.748133     0.200831 
H       3.143124     0.617661     1.982501 
43
     -1145.134526     -1144.839523  22.69  20.96
C       3.385608     0.281906    -0.557797 
C       2.050688    -0.379055     1.317718 
C       3.496074    -0.635645     1.725132 
C       4.259769    -0.573307     0.392315 
H       3.913259     1.175299    -0.891460 
H       1.425583    -0.020999     2.138169 
H       1.607584    -1.265006     0.858680 
H       3.834795     0.151896     2.408058 
H       3.609394    -1.593728     2.235832 
H       5.259649    -0.150990     0.505830 
H       4.375293    -1.572505    -0.032905 
N       2.215584     0.677313     0.290291 
C       2.960373    -0.558215    -1.797477 
O       1.831374    -1.119635    -1.690952 
O       3.785692    -0.600867    -2.705763 
C       1.071494     1.313455    -0.296394 
C       1.256761     1.920069    -1.661725 
H       2.237054     2.388820    -1.771318 
H       1.159488     1.149237    -2.421751 
H       0.471588     2.660475    -1.832016 
C      -0.323551     0.851022     0.061474 
H      -1.001471     1.649604    -0.252815 
H      -0.410231     0.767778     1.146520 
H       0.198156    -0.775185    -2.170923 
C      -4.888082    -0.944756     0.633050 
C      -3.878494    -1.316992     1.505583 
C      -2.563885    -1.176772     1.088857 
C      -2.263153    -0.670960    -0.175214 
C      -3.301021    -0.313466    -1.032397 
C      -4.622835    -0.448349    -0.631961 
H      -4.127586    -1.707374     2.483917 
H      -1.760300    -1.474283     1.757298 
H      -3.067941     0.060935    -2.022006 
H      -5.442369    -0.176416    -1.284876 
N      -6.294620    -1.087686     1.066303 
O      -7.160865    -0.757058     0.283597 
O      -6.497304    -1.526948     2.179521 
C      -0.816459    -0.471156    -0.587152 
O      -0.710340    -0.446241    -1.983486 
H      -0.225820    -1.300395    -0.185855 
O       1.282443     2.637508     0.759222 
H       2.197576     1.921980     0.869005 
H       1.471053     3.456693     0.279873 
43
     -1145.134526     -1144.839521  22.69  20.97
C       3.110619     0.538989     1.373498 
C       2.039395     1.222741    -0.656624 
C       3.375509     1.954013    -0.624856 
C       3.834326     1.797373     0.834072 
H       3.819764    -0.226798     1.687472 
H       1.741424     0.906604    -1.658307 
H       1.251620     1.821350    -0.195058 
H       4.079964     1.470353    -1.311264 
H       3.273970     2.997431    -0.929068 
H       4.918221     1.704548     0.920973 
H       3.533583     2.663131     1.427849 
N       2.326185     0.044520     0.196756 
C       2.197336     0.919064     2.575534 
O       0.993346     1.157089     2.267430 
O       2.764571     0.975634     3.663192 
C       1.355159    -0.999561     0.354297 
C       1.447885    -1.830699     1.606114 
H       0.956672    -1.314065     2.426530 
H       0.926126    -2.776978     1.444805 
H       2.483818    -2.023872     1.892886 
C      -0.012519    -0.868893    -0.278512 
H      -0.445228    -1.873293    -0.283888 
H       0.098417    -0.563901    -1.320836 
H      -0.502757     0.275374     2.241537 
C      -4.699070    -0.316269    -1.733606 
C      -3.709943     0.510722    -2.240415 
C      -2.532397     0.644984    -1.521476 
C      -2.345026    -0.036896    -0.319771 
C      -3.361981    -0.854355     0.167357 
C      -4.547746    -0.999350    -0.538814 
H      -3.869722     1.032952    -3.174936 
H      -1.750728     1.298347    -1.899877 
H      -3.224433    -1.368686     1.110952 
H      -5.349297    -1.629637    -0.175308 
N      -5.959209    -0.469460    -2.491940 
O      -6.064725     0.142366    -3.534927 
O      -6.811113    -1.197407    -2.026457 
C      -1.025121     0.079202     0.419762 
O      -1.199412    -0.238066     1.772757 
H      -0.665558     1.108345     0.324311 
O       2.189299    -1.932750    -0.805578 
H       2.827137    -0.987945    -0.556563 
H       2.531637    -2.756255    -0.430002 
43
     -1145.136221     -1144.838958  21.62  21.32
C       2.530433    -0.617198     1.166083 
C       2.898283     1.032176    -0.599359 
C       4.183917     0.910516     0.207183 
C       3.701392     0.318243     1.533338 
H       2.839963    -1.663862     1.180911 
H       3.075470     1.072396    -1.677304 
H       2.296414     1.890851    -0.296785 
H       4.881480     0.230555    -0.296576 
H       4.681179     1.874962     0.327781 
H       4.478886    -0.220040     2.076724 
H       3.329212     1.115655     2.182261 
N       2.198124    -0.235610    -0.250177 
C       1.371563    -0.425096     2.180329 
O       0.633219     0.582513     1.977250 
O       1.324541    -1.255866     3.084563 
C       0.942806    -0.577078    -0.858919 
C       0.080224    -1.573935    -0.137926 
H      -0.474356    -1.069985     0.651174 
H      -0.638971    -2.001030    -0.840948 
H       0.669527    -2.368195     0.326235 
C       0.230893     0.454646    -1.703392 
H      -0.353379    -0.101580    -2.440384 
H       0.966767     1.038461    -2.257026 
H       0.262811     1.582031     0.762833 
C      -4.398548    -0.314515     0.298090 
C      -4.071274    -0.304816    -1.048979 
C      -2.871644     0.273434    -1.429134 
C      -2.003841     0.827013    -0.484701 
C      -2.368791     0.812780     0.858979 
C      -3.568786     0.237639     1.257256 
H      -4.749614    -0.737525    -1.773091 
H      -2.617949     0.306094    -2.485784 
H      -1.707327     1.232347     1.605322 
H      -3.859583     0.212791     2.299637 
N      -5.675147    -0.929312     0.719796 
O      -6.382422    -1.403481    -0.145719 
O      -5.938721    -0.923464     1.904159 
C      -0.695579     1.457619    -0.959529 
O      -0.010425     2.180512     0.012659 
H      -0.977022     2.182131    -1.734260 
O       1.755422    -1.504363    -2.023244 
H       2.519030    -1.159129    -1.205361 
H       1.511829    -2.439288    -1.963966 
43
     -1145.136221     -1144.838957  21.62  21.32
C       2.592827     1.188286     0.094845 
C       2.880964    -1.231685    -0.087502 
C       4.235796    -0.576977    -0.319780 
C       3.861519     0.852878    -0.716939 
H       2.825924     1.828946     0.947343 
H       2.940277    -2.113807     0.555399 
H       2.379648    -1.494071    -1.020752 
H       4.822586    -0.587025     0.606660 
H       4.811486    -1.095408    -1.089051 
H       4.653554     1.577881    -0.525715 
H       3.621785     0.891161    -1.783029 
N       2.134265    -0.147947     0.610629 
C       1.570100     1.920176    -0.814519 
O       1.563684     3.144918    -0.714532 
O       0.888298     1.173686    -1.575812 
C       0.798016    -0.363796     1.091084 
C      -0.049057     0.853803     1.330917 
H       0.529239     1.681625     1.747880 
H      -0.475227     1.190607     0.387972 
H      -0.870466     0.592934     2.002575 
C       0.073219    -1.631848     0.702335 
H      -0.627501    -1.846093     1.512897 
H       0.783461    -2.458515     0.670148 
H       0.458785    -0.381038    -1.672763 
C      -4.349756     0.618797    -0.481374 
C      -4.173627    -0.463249     0.367126 
C      -2.984899    -1.169863     0.292115 
C      -1.980377    -0.802765    -0.606584 
C      -2.194553     0.281027    -1.454163 
C      -3.381416     1.000034    -1.392611 
H      -4.957274    -0.739070     1.061058 
H      -2.847934    -2.033872     0.937611 
H      -1.426123     0.583170    -2.153321 
H      -3.556174     1.849609    -2.040237 
N      -5.612815     1.383935    -0.412372 
O      -6.443768     1.023346     0.396135 
O      -5.742676     2.325415    -1.166674 
C      -0.690668    -1.620854    -0.651915 
O       0.148062    -1.327873    -1.723294 
H      -1.003168    -2.664044    -0.787691 
O       1.407990    -0.747758     2.626128 
H       2.280232    -0.348028     1.954841 
H       1.105769    -0.116648     3.294933 
43
     -1145.134163     -1144.838628  22.92  21.53
C       3.455337     0.401358    -0.182338 
C       1.954195    -0.321519     1.552605 
C       3.327206    -0.992073     1.760705 
C       4.315079    -0.135775     0.957028 
H       3.885377     1.290816    -0.642706 
H       1.568709     0.133053     2.471313 
H       1.229687    -1.039470     1.173393 
H       3.589510    -1.057594     2.818728 
H       3.299089    -2.005394     1.355420 
H       4.704962     0.690132     1.563878 
H       5.154608    -0.709565     0.566137 
N       2.199023     0.750200     0.542166 
C       3.215036    -0.684860    -1.279651 
O       4.212757    -0.987682    -1.927453 
O       2.030674    -1.125249    -1.350993 
C       1.094483     1.330764    -0.161787 
C       1.400885     1.927734    -1.507047 
H       1.643308     1.136884    -2.212425 
H       0.524996     2.465692    -1.869782 
H       2.242635     2.618031    -1.438880 
C      -0.312477     0.822104     0.071832 
H      -0.982291     1.621204    -0.259894 
H      -0.485233     0.668733     1.141985 
H       0.492853    -0.736768    -2.107035 
C      -4.929811    -0.922685    -0.015166 
C      -4.494836    -0.391602    -1.217622 
C      -3.130327    -0.266558    -1.437074 
C      -2.218942    -0.668502    -0.463777 
C      -2.688681    -1.208194     0.732825 
C      -4.048452    -1.339018     0.969088 
H      -5.218225    -0.085687    -1.962584 
H      -2.764447     0.134738    -2.374693 
H      -1.983512    -1.540900     1.490111 
H      -4.428992    -1.755633     1.892771 
N      -6.383053    -1.055172     0.225614 
O      -7.134516    -0.685541    -0.652311 
O      -6.735262    -1.525431     1.287629 
C      -0.729068    -0.478655    -0.675365 
O      -0.434523    -0.417172    -2.041492 
H      -0.203108    -1.325507    -0.223758 
O       1.197706     2.725663     0.828123 
H       2.068584     1.991193     1.105308 
H       0.499055     2.753905     1.497175 
43
     -1145.134163     -1144.838628  22.92  21.53
C       3.314758     0.398876    -0.993498 
C       2.224737    -0.982649     0.646455 
C       3.501264    -1.694199     0.154293 
C       4.356828    -0.587249    -0.476319 
H       3.728735     1.394583    -1.152232 
H       2.153037    -0.963532     1.739049 
H       1.336868    -1.458270     0.234583 
H       4.014478    -2.212776     0.966817 
H       3.233224    -2.433235    -0.603237 
H       4.997090    -0.108341     0.274090 
H       4.982684    -0.946716    -1.292364 
N       2.345048     0.416754     0.139764 
C       2.656780    -0.105515    -2.318019 
O       3.404767    -0.111595    -3.291299 
O       1.445433    -0.457957    -2.217161 
C       1.186008     1.257309     0.087861 
C       1.215333     2.371815    -0.920600 
H       1.159624     1.959126    -1.924769 
H       0.356852     3.024210    -0.760761 
H       2.131825     2.955066    -0.822821 
C      -0.169545     0.714755     0.489047 
H      -0.787626     1.586876     0.722785 
H      -0.081490     0.117490     1.402346 
H      -0.167607     0.236870    -2.267353 
C      -4.847018    -0.766350     1.036046 
C      -4.666993     0.225561     0.086911 
C      -3.400300     0.416411    -0.446706 
C      -2.332938    -0.376553    -0.032662 
C      -2.548900    -1.373290     0.917945 
C      -3.807530    -1.576656     1.462373 
H      -5.508895     0.831244    -0.223238 
H      -3.236095     1.177967    -1.199770 
H      -1.724900    -2.008238     1.233073 
H      -3.991406    -2.345855     2.201353 
N      -6.194181    -0.972032     1.610752 
O      -6.322750    -1.849571     2.439283 
O      -7.088408    -0.251235     1.219744 
C      -0.935483    -0.132125    -0.569238 
O      -0.995248     0.508269    -1.811477 
H      -0.430807    -1.097211    -0.677192 
O       1.726990     2.088328     1.485402 
H       2.532239     1.295560     1.172636 
H       1.233512     1.834087     2.278108 
43
     -1145.134163     -1144.838627  22.92  21.53
C       3.311477    -0.273184    -1.045695 
C       2.194836     1.071118     0.607285 
C       3.654278     0.837897     1.047404 
C       4.395345     0.425576    -0.231577 
H       3.554480    -0.318605    -2.107247 
H       1.904188     2.125156     0.668916 
H       1.512387     0.472676     1.207527 
H       4.082891     1.726582     1.515414 
H       3.686403     0.023644     1.773923 
H       4.771227     1.303927    -0.769737 
H       5.227771    -0.250902    -0.041086 
N       2.149145     0.633931    -0.819719 
C       3.038016    -1.717189    -0.514877 
O       3.952905    -2.513650    -0.703099 
O       1.919155    -1.878716     0.054160 
C       0.887106     0.362349    -1.441114 
C       0.907608    -0.591196    -2.603143 
H       1.659961    -0.291234    -3.333682 
H       1.132146    -1.594550    -2.250109 
H      -0.072383    -0.597782    -3.080360 
C      -0.394848     0.460089    -0.641184 
H      -1.199630     0.581024    -1.372590 
H      -0.380504     1.357258    -0.013906 
H       0.247465    -2.246290    -0.342841 
C      -4.724647    -0.012378     1.682912 
C      -4.547927    -0.879642     0.618123 
C      -3.258917    -1.133648     0.171337 
C      -2.166420    -0.525649     0.784748 
C      -2.377090     0.335473     1.860790 
C      -3.658158     0.601428     2.319094 
H      -5.409229    -1.343605     0.154722 
H      -3.093376    -1.817910    -0.652323 
H      -1.528509     0.799893     2.356436 
H      -3.838365     1.267651     3.152905 
N      -6.096473     0.264728     2.161185 
O      -6.221058     1.027402     3.097068 
O      -7.013537    -0.286408     1.589066 
C      -0.761115    -0.754114     0.261810 
O      -0.690502    -1.966058    -0.433197 
H      -0.073151    -0.777758     1.112627 
O       0.972204     1.861158    -2.267343 
H       1.957875     1.703771    -1.652206 
H       0.386968     2.527738    -1.880415 
43
     -1145.134163     -1144.838623  22.92  21.53
C      -0.348255     2.533948    -2.364702 
C      -0.422992     2.480518     0.039052 
C       0.065212     3.869145    -0.420754 
C      -0.376043     3.981731    -1.886207 
H      -0.957308     2.379646    -3.255350 
H      -1.224633     2.545510     0.782305 
H       0.401493     1.899259     0.447120 
H      -0.339481     4.667942     0.204267 
H       1.154385     3.908098    -0.357036 
H      -1.390934     4.389990    -1.961899 
H       0.294213     4.596607    -2.485812 
N      -0.953237     1.830968    -1.196470 
C       1.111271     2.051639    -2.645516 
O       1.561546     1.195148    -1.829779 
O       1.646321     2.577639    -3.617031 
C      -1.148839     0.412023    -1.227028 
C      -1.107370    -0.237660    -2.582082 
H      -1.417407    -1.278730    -2.491473 
H      -1.774529     0.275911    -3.275510 
H      -0.093290    -0.206799    -2.972544 
C      -0.765547    -0.437692    -0.033751 
H      -1.327981    -1.370954    -0.133468 
H      -1.089420     0.046145     0.893397 
H       1.569854    -0.542648    -1.570311 
C       0.931497    -3.666723     3.292659 
C       0.967796    -4.118775     1.984421 
C       0.924528    -3.188517     0.955622 
C       0.845841    -1.827003     1.237721 
C       0.820502    -1.403332     2.565740 
C       0.861576    -2.319135     3.605707 
H       1.030078    -5.180897     1.784764 
H       0.963863    -3.516235    -0.076409 
H       0.777330    -0.341574     2.794318 
H       0.842372    -2.006334     4.641736 
N       0.973891    -4.653852     4.393213 
O       1.037148    -5.827838     4.093494 
O       0.942306    -4.228879     5.529642 
C       0.738407    -0.810948     0.116727 
O       1.271349    -1.332502    -1.066821 
H       1.294476     0.086137     0.406161 
O      -2.837081     0.641526    -1.043863 
H      -2.312880     1.686995    -1.127242 
H      -3.140032     0.440501    -0.147007 
43
     -1145.134448     -1144.838242  22.74  21.77
C       1.801438     1.608386     1.509664 
C       3.057558    -0.203396     0.477028 
C       4.065561     0.760566     1.088115 
C       3.257738     2.052576     1.242318 
H       1.519293     1.766194     2.551024 
H       3.328350    -1.251154     0.636167 
H       2.907066    -0.028909    -0.589742 
H       4.399044     0.386476     2.063640 
H       4.946740     0.883550     0.455496 
H       3.626820     2.697891     2.040284 
H       3.290420     2.623672     0.310748 
N       1.822804     0.129901     1.237461 
C       0.845650     2.424538     0.598680 
O       0.397937     3.450361     1.103833 
O       0.678908     1.967987    -0.570842 
C       0.615612    -0.630592     1.070012 
C      -0.667716     0.040715     1.456838 
H      -1.439506    -0.718264     1.591745 
H      -0.555027     0.609992     2.379976 
H      -0.972762     0.719189     0.662615 
C       0.540940    -1.674214    -0.023341 
H      -0.171488    -2.430007     0.320059 
H       1.510929    -2.163403    -0.139183 
H       0.889870     0.621522    -1.411672 
C      -4.075099    -0.302708    -1.704161 
C      -3.166232     0.707532    -1.962827 
C      -1.808006     0.428893    -1.880143 
C      -1.369270    -0.846766    -1.535797 
C      -2.313148    -1.847736    -1.295093 
C      -3.671059    -1.586389    -1.371736 
H      -3.520619     1.697195    -2.221099 
H      -1.091384     1.218524    -2.063690 
H      -1.987212    -2.857799    -1.058525 
H      -4.410499    -2.354636    -1.185489 
N      -5.521224    -0.007443    -1.789012 
O      -6.293616    -0.915405    -1.558314 
O      -5.848682     1.123200    -2.083264 
C       0.115814    -1.192796    -1.442006 
O       0.977894    -0.222755    -1.939153 
H       0.256977    -2.079493    -2.073224 
O       0.962245    -1.514619     2.483397 
H       1.781023    -0.684245     2.328884 
H       1.285918    -2.406135     2.290335 
43
     -1145.134448     -1144.838238  22.74  21.77
C       1.104929     2.172297     1.473431 
C       2.872548     1.160391     0.139894 
C       3.430890     2.443931     0.739464 
C       2.169119     3.231247     1.105095 
H       0.927319     2.140162     2.548775 
H       3.592796     0.337510     0.163615 
H       2.517055     1.297767    -0.882767 
H       4.023694     2.214016     1.633068 
H       4.074486     2.975750     0.036072 
H       2.324025     3.936610     1.922327 
H       1.821603     3.798384     0.237551 
N       1.732759     0.872740     1.052105 
C      -0.225820     2.516593     0.752244 
O      -0.334008     2.087654    -0.434487 
O      -1.003418     3.210215     1.401992 
C       0.968771    -0.337933     0.932375 
C      -0.412815    -0.328097     1.514047 
H      -0.749015    -1.356957     1.649411 
H      -0.435487     0.189020     2.473751 
H      -1.088767     0.178326     0.827907 
C       1.209238    -1.254167    -0.247814 
H       0.952755    -2.263207     0.087984 
H       2.269616    -1.253379    -0.510885 
H       0.327382     1.016822    -1.424595 
C      -3.723457    -2.010460    -1.301987 
C      -2.758248    -2.992835    -1.144174 
C      -1.426195    -2.624282    -1.233097 
C      -1.056858    -1.297596    -1.466070 
C      -2.051038    -0.337323    -1.632952 
C      -3.391744    -0.690281    -1.548217 
H      -3.054862    -4.017835    -0.962357 
H      -0.663000    -3.392548    -1.134477 
H      -1.783688     0.696489    -1.807621 
H      -4.174285     0.048050    -1.667478 
N      -5.149879    -2.387668    -1.208769 
O      -5.408718    -3.554265    -0.993692 
O      -5.974952    -1.509683    -1.352170 
C       0.427581    -0.948760    -1.559626 
O       0.702665     0.325540    -2.041095 
H       0.854364    -1.649524    -2.288585 
O       1.855836    -1.037861     2.206131 
H       2.200047     0.076638     2.053960 
H       2.506774    -1.681493     1.891714 
43
     -1145.131692     -1144.837125  24.47  22.47
C       3.469230    -0.537345    -0.810489 
C       2.502099     0.443812     1.088829 
C       4.011530     0.454166     1.361555 
C       4.648469    -0.185623     0.105850 
H       3.724008    -0.394690    -1.860690 
H       1.990042     1.318326     1.502580 
H       2.039734    -0.471509     1.467077 
H       4.371579     1.478293     1.501878 
H       4.236229    -0.103014     2.272766 
H       5.325997     0.520994    -0.383146 
H       5.209262    -1.092567     0.329337 
N       2.432498     0.445128    -0.392333 
C       2.976217    -2.012887    -0.608185 
O       3.824325    -2.867045    -0.877697 
O       1.788183    -2.134804    -0.210539 
C       1.137983     0.431735    -1.040116 
C       1.101129    -0.187562    -2.416096 
H       1.171965    -1.269177    -2.309114 
H       0.159886     0.065876    -2.907755 
H       1.917929     0.180565    -3.038334 
C      -0.100561     0.137917    -0.201525 
H       0.084610     0.311750     0.858245 
H      -0.282645    -0.931941    -0.314341 
H      -1.863217     2.843345    -0.406735 
C      -4.796001    -0.786169     1.244951 
C      -4.541536    -1.054971    -0.087805 
C      -3.426469    -0.474368    -0.676837 
C      -2.583103     0.354097     0.058830 
C      -2.868588     0.606752     1.400466 
C      -3.980652     0.037480     2.002911 
H      -5.205852    -1.703410    -0.644070 
H      -3.215285    -0.671349    -1.723923 
H      -2.217875     1.253237     1.979606 
H      -4.218852     0.221057     3.042662 
N      -5.983380    -1.401068     1.884268 
O      -6.678388    -2.118488     1.196769 
O      -6.182821    -1.147331     3.052985 
C      -1.344393     0.937179    -0.590793 
O      -1.113144     2.292656    -0.156891 
H      -1.476523     0.925326    -1.679037 
O       1.204790     2.005138    -1.345096 
H       2.200584     1.800244    -0.886916 
H       0.551012     2.480244    -0.783107 
43
     -1145.131692     -1144.837125  24.47  22.47
C       3.103261    -0.781910    -1.655168 
C       2.611232     0.902725    -0.097819 
C       4.111333     1.050485    -0.381950 
C       4.432916    -0.055293    -1.414256 
H       3.004131    -1.098082    -2.693625 
H       2.116575     1.862665     0.081059 
H       2.434411     0.230265     0.745506 
H       4.330972     2.041437    -0.791750 
H       4.684811     0.939494     0.540032 
H       4.811611     0.384282    -2.342067 
H       5.170422    -0.771513    -1.053567 
N       2.099487     0.269912    -1.337316 
C       2.932822    -2.036426    -0.728695 
O       3.783759    -2.911462    -0.906811 
O       1.954448    -1.993886     0.062120 
C       0.689033    -0.037768    -1.444663 
C       0.337471    -1.186165    -2.358882 
H       0.860303    -1.107490    -3.312987 
H       0.606599    -2.117162    -1.861721 
H      -0.735726    -1.180804    -2.559173 
C      -0.176983     0.037088    -0.192477 
H       0.288972     0.649806     0.578938 
H      -0.213775    -0.980876     0.198515 
H      -2.322464     2.369504    -0.844517 
C      -4.011850    -0.248027     3.002188 
C      -4.131602    -1.056896     1.886556 
C      -3.351705    -0.767645     0.775012 
C      -2.467397     0.307852     0.786411 
C      -2.371603     1.105472     1.926565 
C      -3.146419     0.832239     3.044018 
H      -4.821827    -1.890397     1.895722 
H      -3.437432    -1.390133    -0.110962 
H      -1.686975     1.946786     1.942294 
H      -3.086200     1.439085     3.938240 
N      -4.839212    -0.547836     4.194783 
O      -4.714743     0.178107     5.157889 
O      -5.586967    -1.500222     4.129926 
C      -1.589854     0.575240    -0.419748 
O      -1.455089     1.989324    -0.667278 
H      -2.040002     0.097545    -1.297841 
O       0.412298     1.255163    -2.352860 
H       1.519075     1.280165    -2.218930 
H      -0.108114     1.915355    -1.840704 
43
     -1145.129145     -1144.834736  26.06  23.97
C       3.561243    -0.744020    -0.434331 
C       1.973041    -1.716203     0.989270 
C       3.276756    -2.468858     1.281309 
C       4.321993    -1.832694     0.335396 
H       4.187860     0.129798    -0.612799 
H       1.345280    -1.595186     1.878233 
H       1.404889    -2.208536     0.195677 
H       3.569772    -2.340059     2.328203 
H       3.147311    -3.537769     1.102586 
H       5.147731    -1.401798     0.909585 
H       4.740216    -2.545136    -0.374912 
N       2.453740    -0.402571     0.499663 
C       3.014447    -1.260953    -1.810540 
O       1.761282    -1.245315    -1.934819 
O       3.893925    -1.610865    -2.601322 
C       1.487905     0.611860     0.117632 
C       1.969301     1.610815    -0.907374 
H       2.952557     2.003565    -0.644958 
H       2.009961     1.119730    -1.878684 
H       1.269904     2.448053    -0.956811 
C       0.030307     0.203423    -0.072394 
H      -0.169149    -0.756507     0.405055 
H      -0.082043     0.044525    -1.145766 
H      -1.477703     0.635643     2.271283 
C      -5.063937     0.597470    -0.649642 
C      -4.146552    -0.379181    -0.983740 
C      -2.812471    -0.187278    -0.641450 
C      -2.410209     0.969742     0.020913 
C      -3.366830     1.936668     0.342692 
C      -4.699517     1.759574     0.011467 
H      -4.474133    -1.271840    -1.500872 
H      -2.094105    -0.954099    -0.905391 
H      -3.059220     2.839457     0.861791 
H      -5.450225     2.500137     0.254839 
N      -6.487518     0.395761    -1.011235 
O      -7.270006     1.269618    -0.704918 
O      -6.776423    -0.629812    -1.589580 
C      -0.974996     1.227549     0.443718 
O      -0.906376     1.312402     1.891086 
H      -0.691701     2.229431     0.107585 
O       1.651182     1.381834     1.496796 
H       2.416771     0.573052     1.583436 
H       0.825745     1.288572     2.033323 
43
     -1145.129145     -1144.834702  26.06  23.99
C       2.868750    -0.874759     2.104700 
C       1.763298     1.173152     1.824997 
C       2.876810     1.461964     2.838960 
C       3.600076     0.108250     3.029522 
H       3.559383    -1.588182     1.655130 
H       1.562598     2.021715     1.162685 
H       0.842755     0.867787     2.329313 
H       3.564817     2.219600     2.450283 
H       2.454133     1.844515     3.769694 
H       4.655341     0.194331     2.753453 
H       3.547872    -0.259894     4.053616 
N       2.303380     0.023621     1.061266 
C       1.741503    -1.668288     2.852876 
O       0.572232    -1.479937     2.424570 
O       2.154260    -2.386277     3.766866 
C       1.517809    -0.545990    -0.018676 
C       1.785816    -2.002017    -0.316070 
H       1.345350    -2.605287     0.476595 
H       1.325767    -2.269894    -1.269576 
H       2.856124    -2.200394    -0.386753 
C       0.045206    -0.164818    -0.135739 
H      -0.168011     0.739920     0.434513 
H      -0.497161    -0.974548     0.354328 
H      -0.326152     1.984817    -1.922459 
C      -4.661420     0.384748    -2.132077 
C      -4.181940     0.339503    -0.837815 
C      -2.811132     0.219121    -0.637421 
C      -1.940658     0.140971    -1.721579 
C      -2.462215     0.189772    -3.017421 
C      -3.824274     0.312249    -3.234024 
H      -4.871316     0.398752    -0.005454 
H      -2.437006     0.182681     0.378665 
H      -1.787766     0.132259    -3.866495 
H      -4.241102     0.351353    -4.231998 
N      -6.122120     0.514868    -2.349883 
O      -6.829615     0.575276    -1.367258 
O      -6.513899     0.552438    -3.496550 
C      -0.433825     0.033630    -1.569955 
O       0.194139     1.206270    -2.150787 
H      -0.082494    -0.791006    -2.197296 
O       2.358060     0.223245    -1.124964 
H       2.898017     0.493311    -0.185124 
H       1.798609     0.921177    -1.546661 
43
     -1145.130910     -1144.834278  24.96  24.26
C       3.050489    -0.928992     0.255342 
C       2.903754     1.148557    -0.854571 
C       4.297493     0.626339    -1.188594 
C       4.469180    -0.590760    -0.255686 
H       2.826189    -1.988767     0.135818 
H       2.439879     1.725518    -1.658771 
H       2.918933     1.737185     0.066262 
H       4.341351     0.321344    -2.239950 
H       5.058483     1.393034    -1.031961 
H       4.917586    -1.436695    -0.781531 
H       5.107858    -0.362893     0.598561 
N       2.157767    -0.111646    -0.618170 
C       2.867527    -0.551717     1.762023 
O       2.053160     0.393883     1.983530 
O       3.544102    -1.210654     2.545222 
C       0.744598    -0.059549    -0.336153 
C       0.193204    -1.323943     0.272684 
H       0.396669    -1.339027     1.340637 
H      -0.886952    -1.366365     0.136529 
H       0.651180    -2.203811    -0.185843 
C       0.126954     1.288082     0.012176 
H      -0.215023     1.758446    -0.911648 
H       0.922594     1.908758     0.418265 
H       0.371942     0.712183     2.333002 
C      -4.712946    -0.421427    -0.213182 
C      -4.102264     0.524840    -1.020456 
C      -2.901206     1.075609    -0.602349 
C      -2.310091     0.683140     0.599966 
C      -2.955654    -0.263934     1.392489 
C      -4.160936    -0.823332     0.990243 
H      -4.568682     0.821114    -1.951167 
H      -2.431145     1.831456    -1.224247 
H      -2.502662    -0.558760     2.330772 
H      -4.670728    -1.560789     1.596945 
N      -5.995625    -1.013331    -0.649371 
O      -6.455240    -0.638516    -1.708350 
O      -6.509852    -1.837518     0.077450 
C      -1.002707     1.318754     1.059587 
O      -0.608801     0.777377     2.291638 
H      -1.219497     2.393036     1.184122 
O       0.430632    -0.280756    -1.980617 
H       1.540014    -0.507272    -1.823995 
H      -0.121530    -1.058204    -2.146650 
43
     -1145.127860     -1144.833552  26.87  24.71
C       2.576454     2.453479     0.115739 
C       1.944421     0.975441    -1.607364 
C       3.017999     1.881984    -2.224486 
C       3.468767     2.814999    -1.077359 
H       3.123306     2.543008     1.054985 
H       1.994186    -0.054044    -1.970844 
H       0.942748     1.377604    -1.776720 
H       3.857990     1.288383    -2.597584 
H       2.604307     2.434852    -3.069678 
H       4.522924     2.643839    -0.837414 
H       3.341155     3.871200    -1.311288 
N       2.245306     1.025714    -0.155065 
C       1.291115     3.348607     0.209068 
O       0.195856     2.729552     0.173443 
O       1.529207     4.552818     0.323211 
C       1.390622     0.293762     0.744181 
C       1.376787     0.802751     2.164209 
H       1.028996     0.021102     2.840965 
H       2.369845     1.129095     2.479016 
H       0.698344     1.655941     2.206877 
C       0.083260    -0.248398     0.209457 
H       0.274165    -0.904478    -0.642159 
H      -0.467500     0.630868    -0.134178 
H      -0.520098    -2.526108     2.424151 
C      -4.295742    -2.444509    -0.686989 
C      -4.345022    -1.227759    -0.029132 
C      -3.198132    -0.774031     0.606510 
C      -2.024862    -1.524362     0.578718 
C      -2.007363    -2.745664    -0.093194 
C      -3.146442    -3.215471    -0.730918 
H      -5.264420    -0.656784    -0.019538 
H      -3.217422     0.178572     1.128092 
H      -1.095112    -3.331937    -0.119955 
H      -3.152473    -4.161103    -1.257505 
N      -5.514392    -2.938566    -1.368334 
O      -5.443700    -4.007631    -1.936760 
O      -6.506075    -2.242218    -1.314657 
C      -0.768458    -0.986710     1.239672 
O       0.028266    -2.023119     1.813325 
H      -1.072011    -0.275144     2.018635 
O       2.435010    -0.967234     0.735655 
H       3.019992    -0.134958     0.270763 
H       2.678192    -1.263342     1.624452 
43
     -1145.128126     -1144.832403  26.70  25.43
C       2.545223    -1.722768    -0.607238 
C       0.800325    -0.529921    -1.742684 
C       2.142733    -0.239353    -2.443183 
C       3.083347    -1.364768    -1.988735 
H       2.861402    -2.713967    -0.282709 
H       0.008001    -0.788470    -2.453438 
H       0.486846     0.321839    -1.140100 
H       2.033436    -0.196113    -3.529127 
H       2.524023     0.724795    -2.101799 
H       3.018228    -2.228184    -2.662073 
H       4.123767    -1.048079    -1.924684 
N       1.074884    -1.703823    -0.862794 
C       2.973542    -0.656149     0.454142 
O       4.166987    -0.695844     0.754601 
O       2.055095     0.112842     0.847981 
C       0.147295    -2.052867     0.171842 
C       0.708956    -2.706442     1.401379 
H       1.296146    -1.967672     1.947491 
H      -0.111754    -3.049723     2.032367 
H       1.350666    -3.549598     1.146388 
C      -1.074347    -1.188419     0.395610 
H      -1.891719    -1.846414     0.706456 
H      -1.374657    -0.697008    -0.530149 
H      -1.353356    -0.179727     3.434963 
C      -2.370936     3.651054     0.283495 
C      -3.281781     2.699809     0.716711 
C      -2.802598     1.469567     1.140225 
C      -1.434016     1.203628     1.128863 
C      -0.539761     2.183350     0.699459 
C      -1.006816     3.417851     0.268162 
H      -4.339688     2.929147     0.716577 
H      -3.493894     0.709080     1.488510 
H       0.525072     1.969041     0.708959 
H      -0.330869     4.191385    -0.072726 
N      -2.875621     4.964545    -0.175576 
O      -2.059158     5.779702    -0.550786 
O      -4.075268     5.145738    -0.149150 
C      -0.894285    -0.153695     1.534982 
O      -1.578444    -0.703618     2.659425 
H       0.172060    -0.032100     1.739616 
O      -0.394106    -3.373042    -0.727009 
H       0.454620    -2.866813    -1.323381 
H      -1.269576    -3.218787    -1.110862 
43
     -1145.128007     -1144.832110  26.78  25.62
C       2.280037    -0.378605    -2.223829 
C       3.104665     0.783118    -0.353403 
C       4.129980     1.047984    -1.454417 
C       3.681352     0.133292    -2.615886 
H       1.582154    -0.317980    -3.057954 
H       2.980083     1.620158     0.340335 
H       3.356703    -0.122884     0.203321 
H       4.098362     2.100962    -1.754334 
H       5.142489     0.831089    -1.109535 
H       3.653535     0.683299    -3.559727 
H       4.345388    -0.720570    -2.752246 
N       1.864998     0.551750    -1.134237 
C       2.310687    -1.857243    -1.711493 
O       2.652064    -2.688750    -2.545626 
O       1.987503    -2.009653    -0.494417 
C       0.614110     0.323577    -0.449674 
C      -0.447883    -0.314504    -1.302635 
H      -1.424812    -0.148150    -0.854802 
H      -0.442945     0.125971    -2.300602 
H      -0.270405    -1.384844    -1.374093 
C       0.655530     0.050550     1.049742 
H       0.536498     0.987489     1.602329 
H       1.649632    -0.325227     1.281115 
H       0.623338    -2.301990     0.524292 
C      -4.423057     0.295787     1.746756 
C      -4.112095    -0.899474     1.122865 
C      -2.785611    -1.306712     1.081129 
C      -1.783814    -0.525784     1.652830 
C      -2.134170     0.666838     2.287601 
C      -3.452772     1.090149     2.336322 
H      -4.899273    -1.496173     0.680029 
H      -2.514367    -2.238980     0.601961 
H      -1.373889     1.274356     2.771253 
H      -3.735430     2.013553     2.825092 
N      -5.833556     0.736649     1.793662 
O      -6.663358     0.021431     1.272368 
O      -6.074449     1.787770     2.350751 
C      -0.330588    -0.984503     1.633832 
O      -0.223903    -2.238259     1.022371 
H      -0.028243    -1.063916     2.691985 
O       0.197007     1.949074    -0.676964 
H       1.167129     1.763637    -1.261182 
H       0.341377     2.485719     0.115114 
43
     -1145.125111     -1144.830884  28.60  26.38
C       3.217005    -1.102511     0.912839 
C       2.217189     1.021468     1.134540 
C       3.550878     1.118827     1.887196 
C       4.227337    -0.257876     1.696657 
H       3.721265    -1.782077     0.225413 
H       1.951815     1.945930     0.615930 
H       1.405671     0.725564     1.802843 
H       4.171183     1.919083     1.472825 
H       3.373141     1.350887     2.938604 
H       5.160490    -0.151203     1.134752 
H       4.453589    -0.756065     2.638549 
N       2.452643    -0.069973     0.154594 
C       2.275437    -1.947963     1.843131 
O       2.874220    -2.746431     2.565239 
O       1.043779    -1.714808     1.723082 
C       1.376850    -0.464144    -0.707013 
C       1.451072    -1.863386    -1.256884 
H       2.480527    -2.158616    -1.466594 
H       1.042547    -2.538280    -0.503158 
H       0.863815    -1.937682    -2.173753 
C      -0.000506     0.077294    -0.415852 
H       0.019961     1.170531    -0.372486 
H      -0.218163    -0.298274     0.586720 
H      -0.531250     0.929065    -2.736417 
C      -4.896938     1.001716     0.028351 
C      -4.461689     1.432412    -1.210543 
C      -3.230394     0.986882    -1.677094 
C      -2.450890     0.128454    -0.909772 
C      -2.925335    -0.298563     0.333183 
C      -4.149422     0.136129     0.812137 
H      -5.079497     2.101137    -1.795990 
H      -2.889937     1.300291    -2.656857 
H      -2.333216    -0.982598     0.934726 
H      -4.529106    -0.183645     1.773907 
N      -6.205452     1.473726     0.532764 
O      -6.840386     2.228251    -0.173885 
O      -6.561834     1.076759     1.622464 
C      -1.093773    -0.370920    -1.388609 
O      -0.791240     0.001479    -2.726398 
H      -1.142166    -1.463719    -1.403278 
O       2.006463     0.509689    -1.933029 
H       2.801575     0.454338    -1.128776 
H       2.192746    -0.001181    -2.734059 
43
     -1145.124831     -1144.830032  28.77  26.92
C       2.650238     0.448567     1.318553 
C       2.746544     1.476088    -0.801742 
C       4.055718     1.861479    -0.097693 
C       4.023127     1.124198     1.260406 
H       2.696182    -0.499066     1.855970 
H       2.871311     1.304963    -1.873056 
H       1.971331     2.226072    -0.634879 
H       4.921142     1.551210    -0.690326 
H       4.111248     2.944677     0.022258 
H       4.822386     0.378040     1.310408 
H       4.128713     1.794005     2.112815 
N       2.345003     0.215376    -0.122330 
C       1.553667     1.347767     1.993738 
O       0.546029     1.598717     1.278920 
O       1.815991     1.678668     3.150219 
C       1.113453    -0.416624    -0.496616 
C       0.499086    -1.314536     0.542835 
H      -0.239095    -1.976706     0.088937 
H       1.259506    -1.915439     1.046968 
H      -0.001673    -0.692530     1.283726 
C       0.215774     0.333986    -1.445721 
H       0.776535     0.581914    -2.348151 
H      -0.026009     1.271025    -0.943254 
H      -2.417525     0.179162    -3.210933 
C      -4.304319    -0.779612     0.856168 
C      -4.168526    -1.686341    -0.180362 
C      -3.090858    -1.537981    -1.041355 
C      -2.169054    -0.503420    -0.875775 
C      -2.334673     0.392089     0.181162 
C      -3.403987     0.252573     1.055000 
H      -4.889040    -2.484861    -0.300557 
H      -2.964141    -2.247743    -1.855273 
H      -1.617509     1.184084     0.365150 
H      -3.539747     0.933122     1.885422 
N      -5.445445    -0.925583     1.788841 
O      -6.216398    -1.841188     1.590008 
O      -5.537730    -0.121906     2.692029 
C      -1.057360    -0.367565    -1.906780 
O      -1.508849     0.423517    -3.006906 
H      -0.801422    -1.374308    -2.273320 
O       1.983107    -1.492640    -1.492697 
H       2.743612    -0.908463    -0.864958 
H       1.883649    -2.414785    -1.216846 
43
     -1145.124631     -1144.829961  28.90  26.96
C       2.733008     0.382634    -1.737960 
C       2.257769     1.641787     0.190201 
C       3.192844     2.522671    -0.652420 
C       3.439507     1.724413    -1.952437 
H       2.332825    -0.009660    -2.672390 
H       1.501923     2.226137     0.723166 
H       2.824791     1.035687     0.900596 
H       2.727215     3.488834    -0.868877 
H       4.117053     2.718064    -0.105875 
H       3.013060     2.251235    -2.811991 
H       4.495873     1.547823    -2.150359 
N       1.621968     0.752394    -0.814524 
C       3.680034    -0.701800    -1.110186 
O       3.316709    -1.173475     0.000257 
O       4.665356    -0.961423    -1.803429 
C       0.694826    -0.266123    -0.378293 
C       0.583700    -1.464207    -1.283818 
H       0.540563    -1.149308    -2.327104 
H       1.458472    -2.094952    -1.129144 
H      -0.315011    -2.027229    -1.047304 
C       0.623222    -0.495824     1.117529 
H       0.530296     0.463020     1.634688 
H       1.617187    -0.889552     1.360619 
H       0.655695    -3.013007     1.354392 
C      -4.403238    -0.080950     0.781297 
C      -3.601560     0.670308     1.626819 
C      -2.330613     0.198600     1.920593 
C      -1.860269    -0.996911     1.367894 
C      -2.695653    -1.731524     0.531697 
C      -3.974916    -1.277058     0.234808 
H      -3.976382     1.594546     2.047370 
H      -1.705474     0.760874     2.610067 
H      -2.346235    -2.668840     0.118435 
H      -4.635884    -1.838860    -0.412578 
N      -5.763361     0.410023     0.465015 
O      -6.093030     1.478378     0.935499 
O      -6.458053    -0.285296    -0.244465 
C      -0.445483    -1.443973     1.685930 
O      -0.276675    -2.784088     1.269713 
H      -0.325077    -1.382376     2.777810 
O      -0.590890     0.636836    -0.856710 
H       0.295639     1.242680    -1.170770 
H      -1.121728     0.989503    -0.123765 
43
     -1145.124128     -1144.829722  29.21  27.11
C       2.194936    -0.136253     2.061723 
C       3.007376     1.046422     0.180871 
C       4.014119     1.289677     1.322173 
C       3.595171     0.327628     2.453020 
H       1.966429    -1.120276     2.470662 
H       3.493024     0.911868    -0.790130 
H       2.287951     1.863995     0.120627 
H       5.040580     1.101276     0.997248 
H       3.957791     2.331228     1.643437 
H       4.278583    -0.526855     2.504395 
H       3.565464     0.806579     3.430767 
N       2.297368    -0.200866     0.576058 
C       1.074808     0.868905     2.506437 
O       0.375135     1.344937     1.570129 
O       1.014769     1.055282     3.721263 
C       1.159845    -0.625232    -0.189972 
C       0.188556    -1.514120     0.535333 
H      -0.393996    -0.905977     1.225427 
H      -0.484552    -1.996426    -0.172149 
H       0.719734    -2.287893     1.090973 
C       0.643386     0.316037    -1.251769 
H       1.452996     0.582943    -1.937036 
H       0.368999     1.231395    -0.723726 
H      -1.045505     1.345707    -3.202464 
C      -4.476542    -0.114966    -0.494218 
C      -4.211868    -0.851304    -1.638669 
C      -2.914608    -0.865863    -2.121466 
C      -1.895496    -0.161424    -1.475688 
C      -2.194240     0.572578    -0.329017 
C      -3.493150     0.594070     0.168111 
H      -5.009596    -1.392690    -2.130391 
H      -2.685086    -1.427656    -3.022209 
H      -1.427990     1.111210     0.219689 
H      -3.738835     1.151728     1.062412 
N      -5.858534    -0.091426     0.037693 
O      -6.062380     0.557678     1.041540 
O      -6.700815    -0.723832    -0.564636 
C      -0.513638    -0.194095    -2.116045 
O      -0.530683     0.542877    -3.338441 
H      -0.298683    -1.224860    -2.424126 
O       2.109055    -1.787602    -0.981601 
H       2.758109    -1.305922    -0.168552 
H       2.372008    -1.498486    -1.867679 
43
     -1145.124954     -1144.829700  28.69  27.13
C      -2.300952    -1.766665     0.758309 
C      -1.279535    -1.039404     2.755198 
C      -2.542841    -1.795293     3.191558 
C      -3.171784    -2.330498     1.884911 
H      -2.233458    -2.462638    -0.078410 
H      -0.437085    -1.187260     3.434258 
H      -1.477616     0.027567     2.637353 
H      -2.288914    -2.616575     3.867925 
H      -3.214707    -1.123543     3.728332 
H      -3.156649    -3.424811     1.872784 
H      -4.200468    -2.002799     1.740477 
N      -0.973157    -1.618903     1.420375 
C      -2.820085    -0.388113     0.214785 
O      -1.998129     0.565797     0.289741 
O      -3.965634    -0.420878    -0.233817 
C       0.139056    -1.105027     0.675192 
C       0.076573    -1.318029    -0.813672 
H       1.058399    -1.167814    -1.264311 
H      -0.280158    -2.322333    -1.054331 
H      -0.614581    -0.592749    -1.240299 
C       0.834978     0.117686     1.219020 
H       1.156114    -0.086541     2.241319 
H       0.071316     0.896624     1.262830 
H       2.459588     2.324979     1.304105 
C       1.556859     2.699333    -3.233500 
C       2.790326     2.150076    -2.919066 
C       2.914669     1.461672    -1.724333 
C       1.829510     1.318319    -0.856594 
C       0.603393     1.886022    -1.199643 
C       0.463376     2.578782    -2.397465 
H       3.624057     2.267777    -3.599083 
H       3.874636     1.033117    -1.451455 
H      -0.271868     1.772534    -0.567873 
H      -0.484694     3.016401    -2.681722 
N       1.405798     3.435900    -4.509163 
O       0.315735     3.903803    -4.761360 
O       2.382792     3.525110    -5.223175 
C       2.075892     0.599720     0.463771 
O       2.840161     1.440139     1.327204 
H       2.731308    -0.259765     0.279352 
O       1.091437    -2.406763     1.222526 
H       0.006606    -2.622488     1.520855 
H       1.409737    -2.962464     0.497095 
43
     -1145.124954     -1144.829699  28.69  27.13
C       2.589894     0.033085    -1.510602 
C       2.513682    -1.977687    -0.281382 
C       3.766809    -2.082112    -1.162550 
C       3.852170    -0.734367    -1.914620 
H       2.776512     1.106162    -1.458521 
H       2.645588    -2.428925     0.704363 
H       1.644520    -2.415325    -0.775933 
H       4.658547    -2.245102    -0.550424 
H       3.676398    -2.930001    -1.843499 
H       4.749882    -0.184676    -1.614876 
H       3.869681    -0.849921    -2.997572 
N       2.302318    -0.511341    -0.152616 
C       1.385121    -0.212979    -2.486965 
O       1.608401     0.104145    -3.654946 
O       0.344232    -0.683692    -1.952031 
C       1.166144    -0.031733     0.579147 
C       0.709677     1.359604     0.230131 
H       1.559817     2.034498     0.105306 
H       0.157582     1.319797    -0.707599 
H       0.049639     1.752444     1.004502 
C       0.151560    -1.050798     1.034347 
H       0.660254    -1.812371     1.626943 
H      -0.213250    -1.530645     0.124125 
H      -2.200804    -2.084261     1.991995 
C      -4.196670     1.597997    -0.008602 
C      -4.026306     1.690449     1.364140 
C      -2.972392     1.002127     1.940531 
C      -2.099106     0.236165     1.164794 
C      -2.299886     0.160033    -0.212603 
C      -3.353389     0.847684    -0.805533 
H      -4.709392     2.286784     1.955040 
H      -2.826518     1.050182     3.015738 
H      -1.627246    -0.399728    -0.854723 
H      -3.515875     0.805961    -1.874648 
N      -5.316961     2.330782    -0.641565 
O      -6.040563     2.981667     0.083030 
O      -5.441706     2.235404    -1.844110 
C      -1.006814    -0.536870     1.892643 
O      -1.587090    -1.639960     2.587194 
H      -0.599801     0.096184     2.690063 
O       2.159901     0.206931     1.941714 
H       2.842754    -0.029503     1.052774 
H       2.192688     1.133910     2.217399 
43
     -1145.125354     -1144.829347  28.44  27.35
C       1.771597    -0.267336    -2.961300 
C       0.331939    -1.786858    -1.794330 
C       0.713619    -2.477497    -3.097108 
C       1.248411    -1.325907    -3.960354 
H       2.847175    -0.122940    -3.067818 
H       0.272044    -2.471328    -0.945067 
H      -0.607274    -1.241966    -1.892029 
H       1.494177    -3.224663    -2.910870 
H      -0.139313    -2.988185    -3.548608 
H       2.029363    -1.648026    -4.651112 
H       0.447151    -0.886826    -4.558595 
N       1.474552    -0.850250    -1.616623 
C       1.064068     1.104102    -3.175234 
O       1.384895     1.693452    -4.202582 
O       0.249589     1.447988    -2.266585 
C       1.620887    -0.025934    -0.445069 
C       2.741897     0.985114    -0.554423 
H       3.015112     1.332580     0.445927 
H       3.623640     0.574516    -1.051789 
H       2.381715     1.842206    -1.122899 
C       0.523549     0.470239     0.485263 
H       0.446376     1.545297     0.304004 
H       0.924887     0.346783     1.495645 
H      -0.991019     0.793912    -1.324057 
C      -2.839058     1.108057     4.064686 
C      -3.072851     1.839564     2.912738 
C      -2.459458     1.441397     1.733233 
C      -1.625251     0.327178     1.713435 
C      -1.417194    -0.393987     2.887961 
C      -2.020393    -0.009466     4.075293 
H      -3.725376     2.702598     2.947791 
H      -2.634179     1.987558     0.814552 
H      -0.778866    -1.273607     2.876004 
H      -1.868148    -0.558096     4.995787 
N      -3.487742     1.529477     5.325042 
O      -4.201588     2.509924     5.289693 
O      -3.266137     0.868728     6.318782 
C      -0.908383    -0.090239     0.435982 
O      -1.613082     0.364273    -0.686207 
H      -0.874214    -1.188967     0.443429 
O       2.351437    -1.321091     0.342808 
H       2.349029    -1.568235    -0.773567 
H       3.222413    -1.093543     0.698169 
43
     -1145.122746     -1144.827997  30.08  28.20
C       3.171486    -0.429061    -0.754190 
C       2.301752     1.436930     0.429294 
C       3.688509     1.836490    -0.117997 
C       4.044590     0.755191    -1.153310 
H       3.010166    -1.110950    -1.588259 
H       1.560567     2.234661     0.312898 
H       2.378646     1.150857     1.478440 
H       3.680349     2.837446    -0.556853 
H       4.411966     1.838408     0.699430 
H       3.792566     1.089498    -2.166583 
H       5.096890     0.474606    -1.129082 
N       1.901166     0.253542    -0.382404 
C       3.774885    -1.223185     0.455947 
O       3.109879    -1.172235     1.521338 
O       4.837184    -1.794554     0.194590 
C       0.764487    -0.535935     0.024894 
C       0.799041    -1.988340    -0.362743 
H       1.146954    -2.109872    -1.388536 
H       1.476670    -2.500881     0.319859 
H      -0.193086    -2.422182    -0.268946 
C       0.171158    -0.201773     1.377926 
H       0.128302     0.883508     1.499217 
H       0.915159    -0.578983     2.086967 
H      -1.804284    -2.462578     2.510740 
C      -4.307307     0.632563    -0.855834 
C      -3.694491     1.529258     0.005316 
C      -2.704351     1.055769     0.854638 
C      -2.323470    -0.289166     0.838140 
C      -2.963205    -1.162503    -0.037322 
C      -3.961416    -0.706746    -0.889684 
H      -3.997614     2.568409     0.009682 
H      -2.233842     1.744350     1.552171 
H      -2.676775    -2.206882    -0.054822 
H      -4.466683    -1.375337    -1.574909 
N      -5.368875     1.125355    -1.762904 
O      -5.624214     2.310393    -1.727720 
O      -5.910552     0.313229    -2.481414 
C      -1.207449    -0.757202     1.766832 
O      -1.141668    -2.167122     1.879961 
H      -1.405040    -0.321091     2.755217 
O      -0.171839     0.129820    -1.167890 
H       0.844869     0.577954    -1.318540 
H      -0.851083     0.738342    -0.833552 
43
     -1145.122418     -1144.827482  30.29  28.52
C       1.379084     0.861234    -2.539939 
C       2.458882    -1.099384    -1.719725 
C       2.818890    -0.944131    -3.211717 
C       2.433179     0.498531    -3.577807 
H       1.283684     1.940710    -2.419228 
H       3.319491    -1.361350    -1.098175 
H       1.673430    -1.843247    -1.591914 
H       3.875981    -1.147889    -3.396839 
H       2.235014    -1.654461    -3.800207 
H       3.297740     1.167110    -3.493005 
H       2.019070     0.586024    -4.581427 
N       1.944417     0.241342    -1.308061 
C      -0.028386     0.253183    -2.872585 
O      -0.478146    -0.553605    -2.014006 
O      -0.515967     0.652468    -3.929862 
C       1.228822     0.361275    -0.074504 
C       0.288537     1.531726     0.028552 
H       0.003962     1.705587     1.066783 
H       0.739851     2.439892    -0.377349 
H      -0.610784     1.307442    -0.542986 
C       0.913550    -0.908585     0.674695 
H       1.846999    -1.459348     0.814336 
H       0.283833    -1.506562     0.015046 
H       1.313526    -2.077654     3.035047 
C      -3.928762     0.124137     2.212676 
C      -3.398174    -0.272615     1.000097 
C      -2.039279    -0.555261     0.918340 
C      -1.229519    -0.430701     2.044689 
C      -1.798215    -0.029308     3.254628 
C      -3.150027     0.251589     3.352400 
H      -4.039144    -0.357058     0.132278 
H      -1.635468    -0.847425    -0.045302 
H      -1.170572     0.052654     4.137095 
H      -3.602519     0.561676     4.285286 
N      -5.375282     0.425813     2.297338 
O      -5.813751     0.771401     3.374993 
O      -6.033992     0.309936     1.285356 
C       0.258780    -0.747485     2.048764 
O       0.392049    -1.966405     2.778999 
H       0.775711     0.054580     2.598122 
O       2.659898     0.936885     0.682374 
H       2.841797     0.885912    -0.454895 
H       2.561812     1.841366     1.011640 
43
     -1145.120357     -1144.826388  31.58  29.21
C       3.106868    -0.817010     0.000436 
C       2.734744     1.381594     0.749376 
C       4.181036     1.377577     0.256873 
C       4.464355    -0.099321    -0.099627 
H       2.952785    -1.503422    -0.832127 
H       2.215547     2.328100     0.578231 
H       2.674748     1.103805     1.804535 
H       4.281241     2.017051    -0.626473 
H       4.854242     1.764754     1.023687 
H       4.886730    -0.183273    -1.104452 
H       5.160246    -0.571288     0.593906 
N       2.120065     0.299836    -0.059358 
C       2.936443    -1.607680     1.345049 
O       3.761732    -2.505509     1.516231 
O       1.975690    -1.222996     2.061525 
C       0.725643     0.008589     0.095263 
C       0.283961    -1.351911    -0.372286 
H       0.800647    -1.660573    -1.283542 
H       0.511965    -2.062469     0.422508 
H      -0.792220    -1.355883    -0.543937 
C      -0.072241     0.604776     1.235716 
H       0.567940     1.259074     1.826960 
H      -0.327294    -0.228965     1.892223 
H      -1.348232     2.377292     2.582117 
C      -4.282342    -0.891278    -1.219708 
C      -3.676132     0.169218    -1.867304 
C      -2.727590     0.911030    -1.172843 
C      -2.393467     0.593429     0.140039 
C      -3.035755    -0.474151     0.768592 
C      -3.982340    -1.226101     0.092255 
H      -3.947715     0.405374    -2.888070 
H      -2.255976     1.761571    -1.656804 
H      -2.796390    -0.711683     1.799367 
H      -4.488544    -2.058448     0.563650 
N      -5.292389    -1.691168    -1.949630 
O      -5.542455    -1.368826    -3.091963 
O      -5.804686    -2.618474    -1.359424 
C      -1.351155     1.395237     0.888453 
O      -1.962794     1.809783     2.105987 
H      -1.082214     2.268720     0.283921 
O       0.423271     1.017723    -1.290144 
H       1.554297     0.830407    -1.209162 
H      -0.012267     0.525490    -2.000047 
43
     -1145.120295     -1144.826046  31.62  29.42
C       2.710787    -1.228901     0.299378 
C       2.985016     1.056623    -0.219893 
C       4.386824     0.533713     0.138106 
C       4.220086    -0.989757     0.332311 
H       2.466836    -2.214562    -0.096172 
H       3.001725     1.787137    -1.033606 
H       2.493192     1.488717     0.653209 
H       5.104001     0.753115    -0.657544 
H       4.743605     1.023691     1.045516 
H       4.712214    -1.535960    -0.478911 
H       4.622955    -1.345511     1.279609 
N       2.243473    -0.163974    -0.634615 
C       2.036698    -1.071734     1.708053 
O       2.469362    -1.840954     2.565356 
O       1.134996    -0.192215     1.777058 
C       0.848348    -0.061920    -0.948087 
C       0.064142    -1.337002    -0.827377 
H       0.613968    -2.167458    -1.271604 
H      -0.110626    -1.539080     0.228275 
H      -0.894132    -1.243220    -1.336098 
C       0.163460     1.257480    -0.683555 
H       0.715509     2.061043    -1.181322 
H       0.269641     1.437847     0.387327 
H      -1.355130     3.170501    -1.918452 
C      -4.279672    -0.500314     1.336513 
C      -3.017300    -0.328696     1.871988 
C      -2.030369     0.268782     1.096493 
C      -2.315606     0.679008    -0.203482 
C      -3.600991     0.491282    -0.713645 
C      -4.595104    -0.098529     0.048111 
H      -2.809413    -0.661011     2.880654 
H      -1.038773     0.373636     1.523649 
H      -3.829286     0.822715    -1.722476 
H      -5.595790    -0.247712    -0.335933 
N      -5.328429    -1.137820     2.163808 
O      -5.025995    -1.484054     3.286293 
O      -6.427379    -1.275410     1.667401 
C      -1.305896     1.374107    -1.105428 
O      -1.677393     2.753270    -1.113423 
H      -1.422750     0.962003    -2.119571 
O       1.228624    -0.109188    -2.625484 
H       2.197554    -0.284680    -2.022282 
H       1.227020     0.764993    -3.040145 
43
     -1145.120926     -1144.825816  31.22  29.57
C       3.153754    -0.861970    -0.051301 
C       1.863867     1.122590    -0.326879 
C       3.252298     1.353049    -0.959316 
C       3.844548    -0.051786    -1.141587 
H       3.186443    -1.931095    -0.258975 
H       1.055092     1.472841    -0.976949 
H       1.805756     1.615218     0.643914 
H       3.185163     1.903562    -1.900805 
H       3.868913     1.934373    -0.271403 
H       3.599333    -0.455540    -2.131375 
H       4.925709    -0.076435    -1.009465 
N       1.755696    -0.351144    -0.153006 
C       3.781950    -0.579904     1.356285 
O       4.919992    -1.038514     1.492340 
O       3.059848     0.076342     2.148057 
C       0.740015    -0.884147     0.725397 
C       1.088798    -2.186288     1.408728 
H       1.758514    -1.964756     2.240048 
H       0.173130    -2.645643     1.784452 
H       1.573977    -2.885555     0.728002 
C      -0.038283     0.026715     1.663148 
H       0.737070     0.440597     2.315494 
H      -0.657234    -0.619337     2.290053 
H      -2.026522     2.453685     2.223256 
C      -4.102261     0.019014    -1.460813 
C      -3.162516     0.930633    -1.905126 
C      -2.142420     1.302917    -1.036048 
C      -2.062165     0.767607     0.249671 
C      -3.039998    -0.140897     0.668203 
C      -4.063157    -0.523188    -0.184746 
H      -3.232554     1.338048    -2.905393 
H      -1.405312     2.029137    -1.365791 
H      -3.001089    -0.542917     1.674808 
H      -4.825390    -1.226650     0.124717 
N      -5.194431    -0.385521    -2.377487 
O      -6.008423    -1.178799    -1.957223 
O      -5.198141     0.103498    -3.486610 
C      -0.944593     1.179413     1.196337 
O      -1.492943     1.675297     2.415432 
H      -0.358869     1.964848     0.712177 
O      -0.172096    -1.385876    -0.524506 
H       0.748728    -0.976864    -1.007925 
H      -0.950191    -0.816556    -0.667785 
43
     -1145.115723     -1144.821973  34.49  31.98
C       3.420006     0.116084     1.100642 
C       2.352233    -0.474129    -0.974922 
C       3.880007    -0.494114    -1.156905 
C       4.444061    -0.633950     0.260081 
H       3.479151    -0.157911     2.154361 
H       1.884643    -1.398639    -1.324902 
H       1.900999     0.367499    -1.492267 
H       4.195246    -1.301756    -1.821298 
H       4.205643     0.453182    -1.591269 
H       4.494940    -1.687171     0.563066 
H       5.431308    -0.186941     0.373412 
N       2.133155    -0.352019     0.502824 
C       3.565545     1.669473     0.942121 
O       2.635785     2.226656     0.303862 
O       4.580579     2.133817     1.464428 
C       0.915171     0.195062     0.996293 
C       0.947536     0.870226     2.342358 
H       1.245530     1.907556     2.181675 
H      -0.052978     0.851224     2.780698 
H       1.657933     0.412171     3.031296 
C      -0.114648     0.792762     0.066082 
H       0.420125     1.649666    -0.360450 
H      -0.906449     1.202557     0.694792 
H      -0.498806     1.346780    -2.397488 
C      -4.992691    -0.372702    -0.617224 
C      -4.170703    -0.763608     0.427859 
C      -2.799899    -0.656787     0.263869 
C      -2.253304    -0.163073    -0.922688 
C      -3.106832     0.207354    -1.957363 
C      -4.485016     0.106671    -1.809828 
H      -4.605615    -1.143242     1.343349 
H      -2.144084    -0.972995     1.068458 
H      -2.698003     0.561679    -2.895494 
H      -5.160212     0.392322    -2.606156 
N      -6.459303    -0.479728    -0.452042 
O      -7.155154    -0.133740    -1.383183 
O      -6.873688    -0.906657     0.605144 
C      -0.736161    -0.065051    -1.067487 
O      -0.351260     0.396017    -2.350285 
H      -0.348308    -1.085016    -1.007255 
O       0.368623    -1.426272     1.368322 
H       1.479818    -1.446843     1.031356 
H       0.275085    -1.556410     2.322154 
