43
     -1145.198481     -1144.904983   0.00   0.00
C       0.025000    -1.937894    -1.416612 
C      -1.577365    -1.251043    -3.119933 
C      -1.139229    -2.698496    -3.363703 
C      -0.686961    -3.170569    -1.979931 
H      -0.000883    -1.935380    -0.327525 
H      -2.648626    -1.184497    -2.901350 
H      -1.347505    -0.596912    -3.964506 
H      -1.945626    -3.302079    -3.785241 
H      -0.297025    -2.723552    -4.061352 
H      -1.552588    -3.414648    -1.355014 
H      -0.016900    -4.028705    -2.005245 
N      -0.805295    -0.832103    -1.932373 
C       1.514403    -1.913566    -1.851094 
O       2.186159    -2.854190    -1.462064 
O       1.936001    -0.940379    -2.578562 
C      -0.694615     0.430727    -1.571120 
C      -1.786947     1.383488    -1.971495 
H      -2.697096     1.123758    -1.419571 
H      -1.504943     2.407454    -1.724168 
H      -1.995239     1.331022    -3.037791 
C       0.065632     0.773010    -0.308474 
H       0.460639     1.785226    -0.410565 
H       0.915481     0.104079    -0.173508 
H      -1.969964    -0.548067     1.833987 
C       1.611296     1.605900     4.365567 
C       1.651563     0.335987     3.811340 
C       0.852369     0.067263     2.711421 
C       0.024888     1.055917     2.176887 
C       0.003893     2.319799     2.760148 
C       0.800437     2.606994     3.860925 
H       2.299948    -0.417567     4.239579 
H       0.872531    -0.919591     2.260753 
H      -0.644556     3.092427     2.356534 
H       0.797516     3.584361     4.325928 
N       2.464462     1.900497     5.538443 
O       3.164626     1.004625     5.961022 
O       2.409973     3.019783     6.003329 
C      -0.817777     0.760540     0.949257 
O      -1.448639    -0.510474     1.026039 
H      -1.577488     1.548920     0.852957 
O       0.639366     1.057710    -2.901251 
H       1.278005     0.074833    -2.781703 
H       1.181079     1.805397    -2.629967 
43
     -1145.198566     -1144.903924  -0.06   0.66
C      -0.453230    -0.927504     1.114565 
C      -1.100592     1.267837     1.940836 
C      -0.471655     0.445911     3.070457 
C       0.400962    -0.572169     2.333096 
H       0.170221    -1.286856     0.298509 
H      -0.525776     2.175574     1.729312 
H      -2.134286     1.548712     2.156219 
H       0.089183     1.073467     3.766019 
H      -1.251398    -0.072308     3.636148 
H       1.340161    -0.114741     2.005393 
H       0.625799    -1.461718     2.919204 
N      -1.055491     0.375215     0.762893 
C      -1.449444    -2.074115     1.447482 
O      -0.930875    -3.113156     1.821184 
O      -2.708530    -1.866630     1.311957 
C      -1.724016     0.645881    -0.346086 
C      -2.095589     2.079537    -0.613636 
H      -2.719125     2.143319    -1.503652 
H      -2.631725     2.510430     0.229226 
H      -1.187812     2.658435    -0.802392 
C      -1.561369    -0.272066    -1.541184 
H      -2.449917    -0.162873    -2.165911 
H      -1.515967    -1.310774    -1.210239 
H       0.127681     1.468423    -3.678688 
C       3.418508    -0.438122    -0.505189 
C       2.803470     0.802950    -0.484535 
C       1.586038     0.952141    -1.132679 
C       0.996114    -0.123049    -1.795084 
C       1.651680    -1.353278    -1.813707 
C       2.865384    -1.524196    -1.162705 
H       3.272566     1.627755     0.036765 
H       1.089686     1.915769    -1.121315 
H       1.206072    -2.196574    -2.334413 
H       3.378521    -2.477166    -1.158208 
N       4.709473    -0.608506     0.198143 
O       5.224156    -1.706459     0.165457 
O       5.170395     0.360002     0.765327 
C      -0.359162     0.017117    -2.463925 
O      -0.555028     1.311228    -3.018778 
H      -0.418860    -0.738268    -3.259556 
O      -3.545526     0.081965     0.184929 
H      -3.169475    -0.856309     0.757542 
H      -4.111227    -0.204829    -0.538776 
43
     -1145.198566     -1144.903924  -0.06   0.66
C      -0.319602     1.266140    -0.776321 
C      -1.534503     1.587970     1.307370 
C      -2.405723     2.011712     0.120532 
C      -1.823462     1.222719    -1.054250 
H       0.183995     0.425312    -1.248730 
H      -1.983661     0.760893     1.867142 
H      -1.339376     2.413396     1.996138 
H      -3.463112     1.805804     0.298582 
H      -2.296219     3.084879    -0.060790 
H      -2.172640     0.185167    -1.037386 
H      -2.048609     1.656449    -2.027163 
N      -0.268323     1.132554     0.694392 
C       0.319765     2.553772    -1.368949 
O       0.186900     2.685594    -2.574413 
O       0.927230     3.367542    -0.584424 
C       0.819099     0.913875     1.415302 
C       0.646059     0.615709     2.880284 
H       0.153263    -0.353133     2.995635 
H       1.618546     0.551519     3.365199 
H       0.053021     1.384812     3.370501 
C       2.054664     0.366907     0.728609 
H       2.919931     0.644410     1.333613 
H       2.173765     0.832267    -0.251061 
H       2.304780    -2.671154     1.805059 
C      -1.001415    -2.754438    -1.882447 
C      -1.217309    -2.643511    -0.518614 
C      -0.197406    -2.142274     0.277030 
C       1.021052    -1.762630    -0.283374 
C       1.212438    -1.906290    -1.656805 
C       0.200423    -2.396613    -2.470134 
H      -2.170136    -2.939634    -0.098449 
H      -0.352644    -2.044614     1.345411 
H       2.161163    -1.622148    -2.104054 
H       0.331130    -2.500915    -3.539489 
N      -2.090978    -3.273015    -2.739319 
O      -1.874922    -3.357239    -3.929989 
O      -3.132543    -3.578755    -2.197270 
C       2.124480    -1.166322     0.571396 
O       2.153977    -1.723481     1.878932 
H       3.080556    -1.360518     0.066018 
O       1.453967     2.769710     1.681172 
H       1.188881     3.095426     0.597984 
H       2.403496     2.862143     1.807135 
43
     -1145.197459     -1144.903599   0.64   0.87
C       0.151943     2.580059     0.885705 
C      -1.717710     2.199384    -0.621667 
C      -1.331761     3.683248    -0.623818 
C       0.133461     3.676940    -0.180654 
H       1.154353     2.172062     1.018058 
H      -1.618574     1.751849    -1.615699 
H      -2.736212     2.034172    -0.261828 
H      -1.484676     4.141299    -1.602991 
H      -1.937898     4.230678     0.103365 
H       0.787803     3.400197    -1.014511 
H       0.469347     4.625344     0.234829 
N      -0.748952     1.565514     0.298921 
C      -0.283858     3.148591     2.268663 
O       0.399084     4.072177     2.680914 
O      -1.295810     2.629522     2.857804 
C      -0.888243     0.323556     0.726495 
C      -1.713124    -0.620269    -0.106666 
H      -1.204954    -0.797127    -1.058813 
H      -1.822411    -1.575737     0.405096 
H      -2.703134    -0.212875    -0.301840 
C       0.210749    -0.260430     1.586501 
H      -0.154319    -1.181995     2.043422 
H       0.461440     0.429936     2.393491 
H       3.262489    -1.216950     1.439368 
C       1.092699    -3.640684    -2.128632 
C       1.371785    -2.349626    -2.539875 
C       1.511658    -1.365182    -1.570105 
C       1.367722    -1.666695    -0.218413 
C       1.099018    -2.982039     0.162098 
C       0.956663    -3.978378    -0.790974 
H       1.477219    -2.128992    -3.594230 
H       1.736181    -0.346982    -1.874637 
H       1.009956    -3.229985     1.214909 
H       0.746261    -5.003296    -0.513926 
N       0.939963    -4.699496    -3.152343 
O       0.700074    -5.823032    -2.763969 
O       1.063912    -4.375165    -4.314565 
C       1.513778    -0.580910     0.831838 
O       2.428542    -0.966418     1.850910 
H       1.873417     0.326215     0.329736 
O      -2.259488     0.541646     2.146139 
H      -1.840781     1.546529     2.492505 
H      -2.177611    -0.076657     2.879395 
43
     -1145.197560     -1144.903300   0.58   1.06
C      -0.596216    -0.804566    -2.098098 
C      -2.577748     0.534680    -2.583833 
C      -2.743236    -0.849582    -3.204169 
C      -1.298795    -1.323303    -3.363547 
H      -0.659471    -1.538505    -1.294312 
H      -3.448556     0.844628    -2.003229 
H      -2.375402     1.296330    -3.347199 
H      -3.288725    -1.504379    -2.516631 
H      -3.291970    -0.815092    -4.147482 
H      -1.193791    -2.404469    -3.455292 
H      -0.847004    -0.864399    -4.249590 
N      -1.400109     0.379354    -1.715284 
C       0.898668    -0.572035    -2.404188 
O       1.633589    -1.532432    -2.238090 
O       1.252546     0.577710    -2.865346 
C      -1.007454     1.313591    -0.865723 
C      -2.015813     2.340845    -0.426818 
H      -2.783720     1.846705     0.178353 
H      -1.531705     3.105588     0.181627 
H      -2.488181     2.825167    -1.279449 
C       0.080559     0.983976     0.135249 
H       0.545256     1.916730     0.460793 
H       0.861957     0.380233    -0.319405 
H      -1.488470    -1.333995     1.759775 
C       2.885029    -1.155901     3.675990 
C       2.619353    -1.729733     2.441636 
C       1.536836    -1.266014     1.712283 
C       0.734195    -0.238168     2.214743 
C       1.026055     0.315642     3.457214 
C       2.108216    -0.139108     4.200909 
H       3.255019    -2.521405     2.066807 
H       1.325244    -1.700116     0.740008 
H       0.402194     1.110580     3.855990 
H       2.350376     0.280290     5.168915 
N       4.041000    -1.647978     4.458537 
O       4.706495    -2.539629     3.975623 
O       4.250887    -1.128354     5.534840 
C      -0.437839     0.270563     1.395520 
O      -1.291297    -0.793081     0.989085 
H      -1.006553     0.987657     2.004365 
O       0.008933     2.473751    -2.068911 
H       0.612547     1.563121    -2.534040 
H       0.637103     3.055099    -1.627630 
43
     -1145.198864     -1144.902938  -0.24   1.28
C       0.179185    -0.002469    -1.476740 
C       2.109079    -1.259310    -0.674171 
C       2.585246    -0.011097    -1.408659 
C       1.414362     0.288701    -2.342115 
H      -0.084370     0.890750    -0.913160 
H       2.577936    -1.385267     0.303566 
H       2.288394    -2.163722    -1.268362 
H       2.730990     0.810827    -0.699576 
H       3.526943    -0.178228    -1.935082 
H       1.392786     1.312477    -2.716009 
H       1.431533    -0.387939    -3.203371 
N       0.656452    -1.044591    -0.529179 
C      -1.021614    -0.333703    -2.390749 
O      -1.685395     0.623888    -2.754957 
O      -1.195070    -1.554710    -2.754921 
C      -0.107388    -1.892466     0.149562 
C       0.576622    -2.820473     1.120250 
H       1.365899    -3.386938     0.628995 
H       0.994446    -2.238093     1.945089 
H      -0.148450    -3.514016     1.544118 
C      -1.543881    -1.517447     0.467279 
H      -2.077024    -2.437890     0.715081 
H      -2.034040    -1.080005    -0.401168 
H      -1.473795    -0.677485     3.591181 
C      -0.087488     3.304008     0.881898 
C       0.662057     2.397847     1.613828 
C       0.115812     1.151745     1.887098 
C      -1.159999     0.821606     1.434566 
C      -1.894673     1.761953     0.713711 
C      -1.362585     3.009851     0.426205 
H       1.653906     2.668970     1.953005 
H       0.692580     0.425201     2.448789 
H      -2.882573     1.509998     0.339699 
H      -1.913708     3.741855    -0.149715 
N       0.496431     4.627949     0.572892 
O       1.628690     4.844138     0.953523 
O      -0.190662     5.414375    -0.044327 
C      -1.743073    -0.561242     1.660965 
O      -1.220287    -1.195116     2.820515 
H      -2.831557    -0.451860     1.759900 
O      -0.447624    -3.240869    -1.219649 
H      -0.775266    -2.460366    -2.025587 
H      -1.198830    -3.810833    -1.024225 
43
     -1145.195704     -1144.902910   1.74   1.30
C      -0.187561    -1.382937    -1.950473 
C       1.661841    -0.465719    -3.250500 
C       0.896044    -1.502623    -4.079633 
C      -0.495982    -1.516884    -3.443697 
H      -1.027661    -0.951594    -1.407557 
H       1.631562     0.527073    -3.712007 
H       2.705195    -0.748071    -3.091967 
H       0.884767    -1.245773    -5.140733 
H       1.363664    -2.485338    -3.973622 
H      -1.085318    -0.657817    -3.784031 
H      -1.058692    -2.427820    -3.641798 
N       0.948785    -0.430527    -1.953115 
C       0.100809    -2.775833    -1.324630 
O      -0.840954    -3.551251    -1.353942 
O       1.267964    -3.014401    -0.852199 
C       1.475732     0.125108    -0.875994 
C       2.474997     1.234550    -1.066618 
H       3.272937     0.945226    -1.746943 
H       1.965351     2.112896    -1.480001 
H       2.918622     1.509447    -0.109470 
C       0.665284     0.156906     0.397725 
H       1.354546     0.254317     1.239000 
H       0.110768    -0.772648     0.529563 
H      -0.817192     1.513114    -1.423466 
C      -2.353757     1.130473     4.207108 
C      -1.215610     1.912190     4.111404 
C      -0.573967     1.995102     2.883650 
C      -1.062285     1.305716     1.776914 
C      -2.213078     0.528658     1.904081 
C      -2.867635     0.437604     3.122573 
H      -0.849545     2.440508     4.982151 
H       0.315462     2.611928     2.789294 
H      -2.601844    -0.002844     1.043273 
H      -3.762941    -0.158905     3.241001 
N      -3.045888     1.033513     5.510583 
O      -2.574422     1.650347     6.443358 
O      -4.042002     0.343172     5.567524 
C      -0.312327     1.355483     0.463362 
O      -1.263919     1.341186    -0.588424 
H       0.267828     2.288120     0.433064 
O       2.825841    -1.247666    -0.361517 
H       2.120760    -2.112928    -0.612383 
H       3.023816    -1.301060     0.579097 
43
     -1145.198864     -1144.902899  -0.24   1.31
C       0.966456     0.279475     1.096058 
C       2.155912     1.011543    -0.903350 
C       2.932032    -0.117945    -0.235408 
C       2.467512    -0.023399     1.216304 
H       0.415581    -0.655951     1.015701 
H       2.007677     0.854236    -1.973369 
H       2.653614     1.977924    -0.756462 
H       2.643204    -1.081419    -0.668865 
H       4.011031    -0.000836    -0.353293 
H       2.634339    -0.930147     1.797983 
H       2.973299     0.804811     1.724387 
N       0.861694     1.010729    -0.194660 
C       0.480310     0.983924     2.382331 
O       0.109708     0.243616     3.279460 
O       0.563127     2.265518     2.447012 
C      -0.131843     1.812017    -0.560431 
C      -0.079828     2.394716    -1.949333 
H      -0.903339     3.093706    -2.089460 
H       0.861290     2.914737    -2.119764 
H      -0.200897     1.593955    -2.682972 
C      -1.511649     1.617966     0.042516 
H      -2.072980     2.541251    -0.116582 
H      -1.448307     1.455524     1.117420 
H      -3.200574     0.149108    -2.293993 
C      -0.631255    -3.355762     0.201698 
C      -1.435241    -2.771072     1.166995 
C      -2.010881    -1.540346     0.889494 
C      -1.777415    -0.901277    -0.327356 
C      -0.971939    -1.520198    -1.281092 
C      -0.392313    -2.754401    -1.023023 
H      -1.591560    -3.268910     2.115139 
H      -2.621875    -1.059875     1.647884 
H      -0.786647    -1.028936    -2.229961 
H       0.240613    -3.246881    -1.750471 
N      -0.002156    -4.663790     0.489060 
O      -0.251032    -5.184123     1.556219 
O       0.727031    -5.133956    -0.359975 
C      -2.358731     0.480602    -0.563912 
O      -2.551933     0.767010    -1.942430 
H      -3.321992     0.531390    -0.038466 
O       0.371606     3.452192     0.370008 
H       0.528202     2.919662     1.398532 
H      -0.349851     4.083605     0.460428 
43
     -1145.196130     -1144.902786   1.47   1.38
C      -0.635342    -2.442393    -0.796246 
C       0.284372    -2.327517    -3.047189 
C      -0.046541    -3.779117    -2.685542 
C      -1.125988    -3.642764    -1.609619 
H      -1.461951    -1.951438    -0.279002 
H      -0.305666    -1.979760    -3.901388 
H       1.344982    -2.183391    -3.266176 
H      -0.373940    -4.350182    -3.556525 
H       0.835397    -4.274219    -2.268895 
H      -2.095578    -3.413755    -2.064441 
H      -1.230438    -4.522824    -0.977254 
N      -0.091080    -1.555273    -1.843232 
C       0.374986    -2.894462     0.298365 
O      -0.052808    -3.714450     1.092228 
O       1.557106    -2.388970     0.301642 
C       0.275814    -0.298186    -1.655159 
C       0.555463     0.540773    -2.868831 
H       1.131301    -0.010793    -3.608233 
H      -0.402883     0.844248    -3.302392 
H       1.097890     1.444493    -2.603477 
C      -0.236163     0.367644    -0.393151 
H       0.056391    -0.237599     0.465266 
H      -1.331579     0.360094    -0.441874 
H      -0.325520     3.554240    -0.887311 
C      -0.518994     2.781333     3.956749 
C       0.753703     2.396933     3.571075 
C       0.977100     2.103690     2.233297 
C      -0.054699     2.190550     1.301260 
C      -1.325578     2.581303     1.722179 
C      -1.565883     2.880923     3.054926 
H       1.544556     2.332858     4.307160 
H       1.972325     1.804299     1.916690 
H      -2.132260     2.650893     1.000353 
H      -2.545532     3.186002     3.399841 
N      -0.769147     3.096936     5.380757 
O      -1.892759     3.431986     5.691748 
O       0.165754     3.000474     6.147953 
C       0.192824     1.815812    -0.150362 
O      -0.553376     2.632002    -1.044846 
H       1.267840     1.921942    -0.352705 
O       2.172081    -0.577070    -1.151848 
H       1.905261    -1.479639    -0.452829 
H       2.608561     0.104373    -0.632964 
43
     -1145.201281     -1144.902760  -1.76   1.39
C      -0.226241    -0.748538    -1.859481 
C      -2.218763     0.102811    -2.955879 
C      -1.394693    -0.732031    -3.944679 
C      -0.572446    -1.657187    -3.043487 
H      -0.002430    -1.332531    -0.965146 
H      -3.223108    -0.310057    -2.815664 
H      -2.309878     1.144357    -3.276080 
H      -2.030841    -1.273035    -4.647914 
H      -0.729138    -0.081212    -4.516942 
H      -1.177755    -2.502694    -2.699651 
H       0.328237    -2.042727    -3.520743 
N      -1.470134     0.020394    -1.683990 
C       1.024650     0.114108    -2.189057 
O       2.094218    -0.484845    -2.146594 
O       0.837072     1.345646    -2.472572 
C      -1.707960     0.846139    -0.663649 
C      -3.117061     1.363593    -0.517153 
H      -3.747987     0.542831    -0.157670 
H      -3.143994     2.169330     0.215843 
H      -3.519177     1.733889    -1.458082 
C      -0.993845     0.550563     0.655680 
H      -1.018995    -0.534235     0.782960 
H      -1.586015     0.977432     1.468390 
H       1.234829     2.754078     1.413697 
C       2.478566    -1.432051     3.671763 
C       2.760200    -1.575687     2.324332 
C       2.106878    -0.751711     1.417146 
C       1.183974     0.192472     1.865582 
C       0.923794     0.318133     3.229911 
C       1.572712    -0.495752     4.145691 
H       3.479410    -2.316336     1.999467 
H       2.323208    -0.838401     0.355127 
H       0.212172     1.059997     3.577990 
H       1.387412    -0.416192     5.209203 
N       3.172517    -2.307465     4.643585 
O       2.909745    -2.159298     5.818921 
O       3.960397    -3.118715     4.204881 
C       0.450341     1.043767     0.851400 
O       0.345388     2.413159     1.266681 
H       1.009532     0.996573    -0.081954 
O      -0.936515     2.478897    -1.223158 
H      -0.145414     2.044994    -1.826672 
H      -0.522863     2.897537    -0.452036 
43
     -1145.201281     -1144.902752  -1.76   1.40
C       0.502380     0.628171     1.849650 
C      -1.425298     1.385439     3.117533 
C      -0.182724     1.366735     4.017221 
C       0.982878     1.477628     3.030704 
H       1.005274     0.916236     0.924933 
H      -1.856194     2.389205     3.042589 
H      -2.198142     0.698213     3.472605 
H      -0.201093     2.174303     4.751663 
H      -0.126817     0.417095     4.554882 
H       1.122914     2.515562     2.710408 
H       1.926472     1.103307     3.427128 
N      -0.931154     0.961007     1.790647 
C       0.805899    -0.874854     2.107164 
O       1.980730    -1.198556     1.967510 
O      -0.171348    -1.628547     2.437605 
C      -1.754759     0.575446     0.814671 
C      -3.126366     1.202260     0.790253 
H      -3.022589     2.241235     0.457530 
H      -3.765444     0.673324     0.083835 
H      -3.602014     1.189280     1.768903 
C      -1.138808     0.328581    -0.562869 
H      -0.404117     1.122143    -0.718167 
H      -1.917772     0.467932    -1.315974 
H      -1.164552    -2.778137    -1.425591 
C       2.490688    -0.598387    -3.887575 
C       2.889937    -0.739298    -2.569903 
C       1.915256    -0.896983    -1.593232 
C       0.565719    -0.905282    -1.943961 
C       0.193047    -0.766107    -3.280607 
C       1.156886    -0.612209    -4.265228 
H       3.943223    -0.728560    -2.321237 
H       2.207320    -1.022966    -0.553506 
H      -0.857425    -0.782296    -3.552953 
H       0.891703    -0.502925    -5.308999 
N       3.525512    -0.430474    -4.933183 
O       4.685375    -0.421770    -4.578241 
O       3.149066    -0.311604    -6.080605 
C      -0.477140    -1.029651    -0.853798 
O      -1.543896    -1.915872    -1.221744 
H       0.020397    -1.420166     0.032771 
O      -2.314792    -1.146290     1.358754 
H      -1.405602    -1.413772     1.888147 
H      -2.372630    -1.708397     0.570266 
43
     -1145.201365     -1144.902464  -1.81   1.58
C       2.268432    -1.110320     0.048583 
C       2.150341    -2.607771    -1.876440 
C       3.390021    -2.940381    -1.051441 
C       3.666509    -1.628962    -0.316476 
H       1.962299    -1.503929     1.021104 
H       1.551287    -3.488534    -2.117680 
H       2.419613    -2.100304    -2.811335 
H       3.163554    -3.740206    -0.338325 
H       4.223591    -3.268881    -1.675322 
H       4.289566    -1.742773     0.571181 
H       4.155579    -0.914142    -0.985856 
N       1.397394    -1.687062    -1.007869 
C       2.273627     0.434885     0.151201 
O       2.327979     0.908518     1.279853 
O       2.258231     1.089238    -0.949893 
C       0.227066    -1.161065    -1.381483 
C      -0.613594    -1.944410    -2.359776 
H      -0.055565    -2.208247    -3.256290 
H      -0.962290    -2.858487    -1.867222 
H      -1.483297    -1.351469    -2.644740 
C      -0.567910    -0.436434    -0.290006 
H      -0.043933    -0.531736     0.660423 
H      -1.511027    -0.983444    -0.185785 
H      -1.978412     2.089534    -1.740179 
C      -2.915962     2.364607     3.060999 
C      -1.532921     2.425316     3.003185 
C      -0.897457     2.011561     1.842267 
C      -1.644265     1.540228     0.762017 
C      -3.033650     1.484193     0.850174 
C      -3.681755     1.900894     2.004861 
H      -0.972829     2.790150     3.854308 
H       0.187433     2.038253     1.778572 
H      -3.614683     1.106958     0.015171 
H      -4.759928     1.867167     2.094717 
N      -3.599913     2.807368     4.296839 
O      -4.811592     2.743512     4.321209 
O      -2.907476     3.206739     5.209274 
C      -0.910478     1.047549    -0.468761 
O      -1.688161     1.173879    -1.664078 
H       0.015375     1.621501    -0.563232 
O       0.758155     0.165620    -2.605936 
H       1.498433     0.632713    -1.939907 
H       0.002613     0.758176    -2.727912 
43
     -1145.196234     -1144.902307   1.41   1.68
C       0.946940     0.225258     1.139846 
C       2.347179     0.597524    -0.815249 
C       3.116384    -0.208587     0.236030 
C       2.011692    -0.870514     1.062346 
H      -0.037535    -0.206083     1.305845 
H       2.224342     0.037819    -1.748203 
H       2.825911     1.553974    -1.038013 
H       3.801755    -0.924166    -0.222533 
H       3.703335     0.463633     0.868666 
H       1.605093    -1.742992     0.540674 
H       2.330439    -1.170383     2.059267 
N       1.018799     0.829330    -0.206846 
C       1.216691     1.182314     2.333991 
O       1.238688     0.646801     3.429148 
O       1.390637     2.434716     2.106725 
C       0.155770     1.690010    -0.716225 
C       0.293252     2.048816    -2.170669 
H       1.312323     2.344395    -2.409857 
H       0.007180     1.189179    -2.782287 
H      -0.372720     2.875367    -2.416204 
C      -1.218520     1.814482    -0.090825 
H      -1.592700     2.815452    -0.322481 
H      -1.146198     1.745553     0.996257 
H      -2.950901     1.770874    -2.167962 
C      -1.278693    -3.230431     0.347177 
C      -0.921481    -2.728991    -0.893784 
C      -1.265688    -1.422417    -1.208245 
C      -1.961580    -0.633588    -0.295039 
C      -2.326932    -1.175488     0.936089 
C      -1.981793    -2.476735     1.272073 
H      -0.380753    -3.355308    -1.591902 
H      -0.998885    -1.016941    -2.176866 
H      -2.878720    -0.571756     1.651522 
H      -2.245100    -2.905265     2.230345 
N      -0.898900    -4.617130     0.695159 
O      -0.283601    -5.255123    -0.133646 
O      -1.223710    -5.029694     1.789007 
C      -2.288335     0.812321    -0.597077 
O      -2.508444     0.934496    -1.995538 
H      -3.208565     1.063736    -0.053376 
O       0.925937     3.397519    -0.042038 
H       1.188500     2.943166     1.009493 
H       0.308907     4.124855     0.085206 
43
     -1145.196418     -1144.901578   1.29   2.14
C      -0.793961     1.682157     2.228827 
C       0.416251     3.245976     0.800553 
C      -0.754812     3.955196     1.485915 
C      -0.995647     3.111612     2.739095 
H      -0.482759     1.018972     3.038487 
H       1.379000     3.662693     1.116326 
H       0.350397     3.290281    -0.289116 
H      -0.525810     5.000062     1.704669 
H      -1.638619     3.929014     0.841765 
H      -0.249020     3.343869     3.506074 
H      -1.989382     3.232949     3.167322 
N       0.310381     1.844451     1.258251 
C      -2.123325     1.097341     1.661251 
O      -3.037664     1.032191     2.467793 
O      -2.164157     0.723142     0.435620 
C       0.915191     0.842139     0.633724 
C       2.204019     1.133528    -0.085324 
H       2.168111     2.084336    -0.611641 
H       3.012102     1.167714     0.654254 
H       2.427174     0.352333    -0.809750 
C       0.753706    -0.520477     1.277866 
H      -0.300544    -0.713327     1.471594 
H       1.244975    -0.445039     2.255568 
H       1.547622    -3.605959     1.201453 
C      -0.697840    -2.916996    -2.973700 
C       0.652200    -2.626176    -3.048032 
C       1.311990    -2.253860    -1.881599 
C       0.631934    -2.174824    -0.669023 
C      -0.729473    -2.490244    -0.627457 
C      -1.404028    -2.856222    -1.780525 
H       1.167633    -2.689477    -3.997849 
H       2.372306    -2.020526    -1.923226 
H      -1.272135    -2.431613     0.309440 
H      -2.461208    -3.087836    -1.767821 
N      -1.414476    -3.304536    -4.210461 
O      -2.598034    -3.550540    -4.116946 
O      -0.771049    -3.348500    -5.237867 
C       1.356465    -1.751330     0.595718 
O       1.270318    -2.769690     1.590296 
H       2.410760    -1.566804     0.351995 
O      -0.198337     0.731640    -0.962358 
H      -1.149731     0.745685    -0.361348 
H      -0.150523    -0.103303    -1.439814 
43
     -1145.196749     -1144.901480   1.08   2.20
C      -1.317958     0.634492     0.098109 
C      -0.109517     2.140899    -1.390475 
C      -0.559514     2.902709    -0.149096 
C      -1.762961     2.087559     0.318603 
H      -0.770066     0.290164     0.972780 
H       0.947233     2.286365    -1.621865 
H      -0.704250     2.423102    -2.267694 
H       0.230993     2.888609     0.608914 
H      -0.800860     3.943891    -0.371312 
H      -2.037517     2.254159     1.360355 
H      -2.637272     2.307335    -0.303731 
N      -0.376402     0.729609    -1.049298 
C      -2.562340    -0.268568    -0.044090 
O      -3.008816    -0.720410     0.997621 
O      -3.077502    -0.424460    -1.213313 
C      -0.033108    -0.258810    -1.863969 
C       0.994662     0.042595    -2.923869 
H       1.097933    -0.810572    -3.594542 
H       0.706613     0.911677    -3.512474 
H       1.963281     0.216756    -2.448828 
C      -0.106468    -1.695766    -1.380721 
H      -0.119464    -2.335610    -2.267767 
H      -1.034145    -1.884120    -0.841356 
H       2.434206    -2.687562    -1.802683 
C       1.060834    -0.164697     3.277446 
C       1.970002     0.244877     2.316135 
C       1.995585    -0.419595     1.097962 
C       1.121567    -1.475421     0.850588 
C       0.231164    -1.876621     1.845718 
C       0.189344    -1.221238     3.066468 
H       2.639410     1.069764     2.524944 
H       2.703240    -0.116616     0.335243 
H      -0.464990    -2.688907     1.659911 
H      -0.511476    -1.507524     3.839745 
N       1.017810     0.551772     4.570402 
O       1.769979     1.493579     4.716241 
O       0.231107     0.157392     5.405871 
C       1.076270    -2.166132    -0.495119 
O       2.330617    -1.997142    -1.141793 
H       0.896094    -3.232890    -0.309705 
O      -1.575311    -0.265071    -3.076083 
H      -2.361683    -0.290795    -2.196582 
H      -1.676324    -1.068781    -3.596701 
43
     -1145.196324     -1144.901392   1.35   2.25
C      -1.882975     1.878212     0.358083 
C       0.352604     2.796849     0.700277 
C      -0.621065     3.438453     1.684153 
C      -1.966081     3.279893     0.976857 
H      -2.209219     1.136090     1.089240 
H       1.253288     2.409378     1.181342 
H       0.648819     3.505966    -0.081902 
H      -0.618707     2.889510     2.631879 
H      -0.364067     4.478097     1.895752 
H      -2.827636     3.366163     1.639805 
H      -2.071526     4.024270     0.181337 
N      -0.429154     1.700435     0.095259 
C      -2.824039     1.760602    -0.861383 
O      -3.872969     1.157907    -0.686023 
O      -2.447893     2.337216    -1.946750 
C       0.082983     0.922661    -0.857982 
C       1.583427     0.788137    -0.907923 
H       2.073421     1.759560    -0.944121 
H       1.920454     0.245960    -0.019403 
H       1.878233     0.212373    -1.785063 
C      -0.720746    -0.280843    -1.313417 
H      -0.158446    -0.802407    -2.091109 
H      -1.657272     0.038375    -1.766575 
H      -2.897677    -1.621965    -0.751213 
C       2.321471    -3.654862     0.887725 
C       1.881443    -2.683332     1.768861 
C       0.770138    -1.928733     1.416390 
C       0.119088    -2.138798     0.204128 
C       0.582454    -3.133585    -0.656998 
C       1.687502    -3.898697    -0.321309 
H       2.399664    -2.530075     2.706659 
H       0.403754    -1.168626     2.100509 
H       0.061430    -3.319194    -1.590108 
H       2.059990    -4.675696    -0.976294 
N       3.504239    -4.465532     1.251226 
O       3.867768    -5.313117     0.462987 
O       4.038504    -4.232105     2.315536 
C      -1.066741    -1.287392    -0.189519 
O      -2.097809    -2.151126    -0.639526 
H      -1.399570    -0.741822     0.698925 
O      -0.102045     2.053640    -2.406801 
H      -1.216779     2.284979    -2.219426 
H      -0.038259     1.563183    -3.234082 
43
     -1145.195837     -1144.901343   1.66   2.28
C       1.217410    -0.508470     2.225793 
C      -0.268576    -2.227728     1.333213 
C      -0.566278    -2.031560     2.815160 
C       0.744160    -1.453157     3.344400 
H       0.816563     0.491787     2.399265 
H      -1.166488    -2.224201     0.713192 
H       0.278440    -3.161293     1.154542 
H      -1.384894    -1.314864     2.942725 
H      -0.854283    -2.964132     3.304017 
H       0.648968    -0.920422     4.290405 
H       1.480650    -2.251788     3.482056 
N       0.597561    -1.080429     1.000780 
C       2.760269    -0.399977     2.286990 
O       3.186673     0.427482     3.075899 
O       3.455840    -1.218917     1.586184 
C       0.969808    -0.818944    -0.244252 
C       0.150905    -1.422046    -1.357454 
H       0.604982    -1.192121    -2.320760 
H       0.083451    -2.503726    -1.252364 
H      -0.855123    -0.993636    -1.343997 
C       1.683533     0.486519    -0.537522 
H       1.977726     0.488278    -1.589439 
H       2.593953     0.573694     0.054376 
H       1.256589     3.655245    -0.516690 
C      -2.948337     1.642818    -2.248408 
C      -2.898333     1.436027    -0.880757 
C      -1.662511     1.491650    -0.250350 
C      -0.500686     1.743374    -0.975970 
C      -0.587245     1.957083    -2.351631 
C      -1.812658     1.906751    -2.998410 
H      -3.809268     1.238130    -0.330702 
H      -1.604914     1.332936     0.822547 
H       0.313796     2.168689    -2.917799 
H      -1.898624     2.068558    -4.065248 
N      -4.259522     1.582692    -2.932213 
O      -5.234147     1.340237    -2.251785 
O      -4.276697     1.778097    -4.128995 
C       0.848612     1.756296    -0.282653 
O       1.671019     2.817895    -0.749326 
H       0.682710     1.859918     0.795149 
O       2.494865    -2.043270    -0.459491 
H       2.975009    -1.726227     0.527698 
H       3.095088    -1.787252    -1.168170 
43
     -1145.194100     -1144.901202   2.75   2.37
C      -1.865873    -0.430972    -1.584761 
C      -3.637263    -0.563277     0.091158 
C      -3.955024    -1.543978    -1.031562 
C      -3.165924    -0.973198    -2.209237 
H      -1.070920    -1.175204    -1.637650 
H      -3.765496    -0.994647     1.085160 
H      -4.248833     0.344181     0.019861 
H      -3.594020    -2.544361    -0.768532 
H      -5.026990    -1.612389    -1.226163 
H      -2.949047    -1.699060    -2.992559 
H      -3.721839    -0.148121    -2.666307 
N      -2.224109    -0.219080    -0.153238 
C      -1.402994     0.797506    -2.406405 
O      -0.808921     0.527128    -3.437848 
O      -1.733156     1.967773    -2.000478 
C      -1.494927     0.460157     0.717424 
C      -1.933065     0.467537     2.159128 
H      -1.288731     1.127794     2.740427 
H      -2.960348     0.812476     2.259388 
H      -1.855941    -0.543931     2.574360 
C      -0.010719     0.601006     0.471842 
H       0.345804     1.483769     1.006639 
H       0.210443     0.740473    -0.585544 
H      -0.461151    -2.064448     0.578518 
C       4.929375     0.191840     0.315935 
C       4.375310     0.515587     1.542363 
C       3.034977     0.227253     1.756721 
C       2.266481    -0.369978     0.760883 
C       2.853726    -0.687002    -0.463315 
C       4.192118    -0.408210    -0.692423 
H       4.987073     0.980142     2.304796 
H       2.586799     0.466326     2.717196 
H       2.261272    -1.158375    -1.238469 
H       4.666469    -0.647877    -1.635299 
N       6.356684     0.494765     0.075009 
O       6.978522     1.020417     0.975047 
O       6.818789     0.199804    -1.007396 
C       0.791364    -0.617161     0.992545 
O       0.436375    -1.820416     0.331987 
H       0.627577    -0.717857     2.074529 
O      -2.090934     2.318741     0.349364 
H      -1.981310     2.189240    -0.781028 
H      -1.471626     3.005626     0.617929 
43
     -1145.195962     -1144.899235   1.58   3.61
C      -0.165376    -2.575428     0.497457 
C       0.045633    -3.294990    -1.815853 
C      -0.463483    -4.448275    -0.954945 
C       0.062903    -4.088513     0.433579 
H      -1.196331    -2.369121     0.778055 
H      -0.580074    -3.109728    -2.692099 
H       1.072784    -3.484195    -2.149392 
H      -1.558283    -4.468421    -0.953418 
H      -0.108747    -5.415178    -1.317244 
H      -0.456885    -4.598340     1.246103 
H       1.131283    -4.311043     0.514590 
N       0.034659    -2.129566    -0.906296 
C       0.746715    -1.892341     1.529979 
O       0.215572    -1.389487     2.513829 
O       2.012269    -1.900957     1.288004 
C       0.593707    -0.973725    -1.277610 
C       0.618404    -0.692097    -2.760873 
H       1.039941    -1.519472    -3.327951 
H      -0.407442    -0.516278    -3.102294 
H       1.204760     0.203581    -2.965961 
C       0.482829     0.272799    -0.407831 
H       1.036534     1.062852    -0.922014 
H       0.976050     0.136177     0.552271 
H      -1.256633    -0.286563     1.458938 
C      -0.612878     4.706733     1.576588 
C      -1.070274     4.587403     0.276550 
C      -1.182814     3.315210    -0.269248 
C      -0.843875     2.187111     0.470535 
C      -0.384709     2.341906     1.780583 
C      -0.267829     3.603084     2.342103 
H      -1.331429     5.473817    -0.287160 
H      -1.549236     3.203268    -1.285630 
H      -0.110618     1.474390     2.374121 
H       0.085434     3.741790     3.355824 
N      -0.487622     6.055396     2.169932 
O      -0.795852     7.003927     1.478346 
O      -0.084148     6.131734     3.311717 
C      -0.946019     0.800101    -0.148406 
O      -1.727089    -0.071028     0.637353 
H      -1.481838     0.890339    -1.098926 
O       2.430285    -1.367732    -1.021868 
H       2.299735    -1.712924     0.117695 
H       2.979980    -0.576221    -1.039137 
43
     -1145.193374     -1144.899126   3.20   3.68
C      -0.927617     2.487086     0.050134 
C       0.735827     3.424300     1.566020 
C       0.057268     4.543306     0.770755 
C      -1.292276     3.936618     0.382037 
H      -1.786195     1.826586     0.192851 
H       0.538316     3.514447     2.639431 
H       1.815700     3.392985     1.405157 
H      -0.033491     5.460592     1.355617 
H       0.637361     4.772179    -0.128249 
H      -1.982314     3.961089     1.232059 
H      -1.764851     4.422037    -0.470146 
N       0.113942     2.184551     1.053346 
C      -0.509528     2.341500    -1.443856 
O      -1.337127     2.721522    -2.252684 
O       0.632103     1.818565    -1.730743 
C       0.631210     0.985691     1.272535 
C       1.468133     0.792820     2.504922 
H       2.184860     1.601085     2.629935 
H       0.798221     0.770732     3.371684 
H       2.000697    -0.154489     2.475334 
C      -0.146675    -0.192081     0.724669 
H      -0.407870     0.017586    -0.309250 
H      -1.094665    -0.236672     1.279790 
H      -0.502333    -2.121747     2.389569 
C      -0.858693    -4.219931    -2.246136 
C      -0.911169    -4.641337    -0.930469 
C      -0.465746    -3.779637     0.064112 
C       0.019128    -2.514784    -0.255143 
C       0.072012    -2.124964    -1.597122 
C      -0.369446    -2.972229    -2.599695 
H      -1.290976    -5.627317    -0.695336 
H      -0.480113    -4.108763     1.096212 
H       0.458916    -1.148295    -1.874723 
H      -0.338019    -2.680268    -3.641353 
N      -1.333145    -5.130388    -3.310763 
O      -1.273016    -4.733343    -4.455644 
O      -1.753311    -6.217613    -2.973675 
C       0.530821    -1.566465     0.825602 
O       0.426472    -2.104557     2.134040 
H       1.608032    -1.455702     0.667692 
O       2.127062     1.056838    -0.013894 
H       1.431282     1.451380    -0.874432 
H       2.571211     0.247095    -0.280192 
43
     -1145.193779     -1144.899000   2.95   3.75
C       1.035649     2.526307    -0.926988 
C       0.844038     2.862403     1.482007 
C       2.072177     3.600025     0.942450 
C       1.726606     3.833696    -0.529165 
H       0.344412     2.689032    -1.756672 
H       0.103263     3.559069     1.889640 
H       1.102101     2.129014     2.249501 
H       2.267151     4.522272     1.493309 
H       2.957693     2.962732     1.022382 
H       1.028683     4.671860    -0.629742 
H       2.593574     4.020338    -1.160932 
N       0.281345     2.179800     0.297589 
C       2.073345     1.468709    -1.414551 
O       2.718031     1.804937    -2.395953 
O       2.165609     0.355882    -0.787138 
C      -0.564968     1.163060     0.396963 
C      -1.476093     1.115750     1.593094 
H      -1.873819     0.112714     1.735657 
H      -0.961874     1.410233     2.504677 
H      -2.311271     1.804212     1.419818 
C      -1.091795     0.621450    -0.918658 
H      -0.259718     0.401148    -1.586375 
H      -1.639427     1.461488    -1.368257 
H      -3.087543    -0.008209    -2.472512 
C      -0.098299    -4.229975     0.178378 
C      -1.166496    -3.792686     0.940081 
C      -1.800218    -2.611229     0.570677 
C      -1.369800    -1.886361    -0.536144 
C      -0.297474    -2.364535    -1.293712 
C       0.348853    -3.536458    -0.937477 
H      -1.488072    -4.366403     1.799796 
H      -2.643737    -2.256011     1.155563 
H       0.044618    -1.812796    -2.161937 
H       1.189872    -3.913543    -1.504738 
N       0.592382    -5.480296     0.567907 
O       0.180522    -6.064294     1.548346 
O       1.527154    -5.839676    -0.115899 
C      -2.044808    -0.585322    -0.915557 
O      -2.548113    -0.769736    -2.235659 
H      -2.878196    -0.408286    -0.223925 
O       0.656231    -0.228955     1.005261 
H       1.404590     0.008652     0.211047 
H       0.343819    -1.130010     0.867846 
43
     -1145.196742     -1144.898647   1.09   3.98
C       1.754306    -0.596168    -2.605318 
C       2.363770    -2.107574    -0.788985 
C       2.796203    -2.703080    -2.129677 
C       2.934844    -1.476338    -3.029712 
H       1.998809     0.456535    -2.767372 
H       3.226537    -1.858826    -0.160793 
H       1.705442    -2.779047    -0.234063 
H       3.717823    -3.281543    -2.040826 
H       2.015396    -3.366154    -2.514831 
H       3.877725    -0.958634    -2.824257 
H       2.885860    -1.700267    -4.094354 
N       1.640201    -0.869799    -1.153761 
C       0.484297    -0.879058    -3.464121 
O       0.617803    -0.688430    -4.661070 
O      -0.596128    -1.242101    -2.866752 
C       0.717814    -0.340844    -0.341783 
C       0.951263    -0.477989     1.141356 
H       0.059973    -0.207715     1.701929 
H       1.239853    -1.490059     1.414541 
H       1.757554     0.207920     1.422252 
C       0.105396     0.976436    -0.810421 
H       0.207836     1.065041    -1.889433 
H       0.752354     1.750362    -0.379636 
H      -1.963498     0.202219    -1.964195 
C      -2.216733     1.798248     3.673295 
C      -2.922012     0.855492     2.948559 
C      -2.649465     0.713369     1.593286 
C      -1.680947     1.501878     0.977537 
C      -0.999582     2.456649     1.735627 
C      -1.256779     2.609461     3.087555 
H      -3.671972     0.248531     3.439178 
H      -3.208136    -0.006914     1.008714 
H      -0.258278     3.096809     1.265307 
H      -0.732947     3.342980     3.686701 
N      -2.501239     1.953986     5.116542 
O      -3.348975     1.234700     5.601667 
O      -1.867885     2.791490     5.724520 
C      -1.357382     1.361565    -0.497826 
O      -2.294426     0.486062    -1.096757 
H      -1.470191     2.362432    -0.940757 
O      -0.663124    -1.631408    -0.475333 
H      -0.638511    -1.575737    -1.567805 
H      -1.512851    -1.234483    -0.238724 
43
     -1145.196319     -1144.898412   1.35   4.12
C      -0.758115     0.330857    -2.376530 
C       0.811769     2.017699    -3.182067 
C      -0.309703     1.841007    -4.201363 
C      -0.811452     0.427783    -3.907724 
H      -1.698864     0.682339    -1.945378 
H       0.993134     3.064385    -2.928675 
H       1.749361     1.575807    -3.541664 
H      -1.101892     2.575233    -4.020353 
H       0.042987     1.969167    -5.226552 
H      -1.816408     0.227827    -4.280344 
H      -0.133999    -0.314009    -4.342948 
N       0.329712     1.271851    -2.006026 
C      -0.569124    -1.142453    -1.940816 
O      -1.588078    -1.747848    -1.630629 
O       0.618357    -1.619154    -1.979434 
C       1.041611     1.191063    -0.879852 
C       2.006538     2.314965    -0.588910 
H       2.611802     2.067740     0.283135 
H       2.673813     2.503847    -1.427403 
H       1.434425     3.222474    -0.368065 
C       0.319127     0.615343     0.342151 
H      -0.708836     0.375141     0.073338 
H       0.257644     1.434769     1.070558 
H       2.258241     0.376318     2.101052 
C      -1.841312    -1.824955     4.094104 
C      -0.678022    -1.187563     4.485707 
C       0.229609    -0.803920     3.506686 
C      -0.026807    -1.054550     2.161964 
C      -1.205261    -1.712203     1.798690 
C      -2.120747    -2.098020     2.764150 
H      -0.492458    -1.000508     5.535595 
H       1.150137    -0.321355     3.817350 
H      -1.409627    -1.925175     0.752016 
H      -3.039437    -2.605033     2.499106 
N      -2.815429    -2.233555     5.129711 
O      -2.542499    -1.985272     6.286074 
O      -3.827341    -2.791213     4.760113 
C       0.915563    -0.612520     1.055906 
O       2.249141    -0.372284     1.495707 
H       0.991176    -1.434412     0.343029 
O       2.366961    -0.077843    -1.344128 
H       1.644673    -0.833541    -1.700762 
H       2.799627    -0.388229    -0.536518 
43
     -1145.192213     -1144.898399   3.93   4.13
C      -1.964704     0.385712    -1.934819 
C      -2.433080     1.367752     0.249966 
C      -3.669931     0.613261    -0.223371 
C      -3.480662     0.578819    -1.738409 
H      -1.734737    -0.676629    -2.034801 
H      -2.169978     1.146469     1.285050 
H      -2.556109     2.452249     0.141979 
H      -3.669943    -0.400465     0.191415 
H      -4.594988     1.105395     0.082773 
H      -4.042119    -0.207521    -2.242040 
H      -3.785104     1.535119    -2.176320 
N      -1.378995     0.896080    -0.665937 
C      -1.557046     1.069004    -3.264362 
O      -1.849600     0.439245    -4.267832 
O      -1.031922     2.237716    -3.224399 
C      -0.093950     1.127981    -0.454322 
C       0.328586     1.539789     0.932033 
H       1.390226     1.784515     0.942126 
H      -0.232890     2.409922     1.267923 
H       0.165048     0.710802     1.626254 
C       0.915556     0.387276    -1.306856 
H       1.896336     0.846405    -1.160261 
H       0.669364     0.476943    -2.364200 
H       2.722143    -1.680081    -1.757537 
C       2.409351    -2.014318     2.959650 
C       1.143881    -2.431454     2.586663 
C       0.700303    -2.132201     1.305564 
C       1.503328    -1.426564     0.413398 
C       2.774841    -1.022648     0.824760 
C       3.237978    -1.312488     2.099111 
H       0.527575    -2.978932     3.288098 
H      -0.288449    -2.456063     0.995718 
H       3.421917    -0.464368     0.152782 
H       4.220814    -1.003439     2.430631 
N       2.894711    -2.327095     4.322585 
O       4.008012    -1.948756     4.620064 
O       2.147865    -2.941155     5.054692 
C       1.003362    -1.122635    -0.987073 
O       1.789499    -1.775823    -1.975023 
H       0.007573    -1.558438    -1.090220 
O       0.111477     2.939208    -1.230777 
H      -0.465438     2.665772    -2.181398 
H       1.009900     3.165635    -1.493281 
43
     -1145.192024     -1144.896991   4.05   5.01
C      -0.216493    -2.629005     0.153749 
C      -0.039407    -3.152749    -2.224226 
C      -0.414028    -4.419735    -1.462857 
C       0.085913    -4.124569    -0.050334 
H      -1.206008    -2.504200     0.601426 
H      -0.668609    -2.984027    -3.099341 
H       1.010035    -3.167296    -2.542155 
H      -1.501121    -4.551910    -1.468010 
H       0.038292    -5.311423    -1.900811 
H      -0.384376    -4.727046     0.726402 
H       1.166949    -4.290385     0.008314 
N      -0.240452    -2.084936    -1.228456 
C       0.807357    -2.053634     1.164235 
O       0.572031    -2.301874     2.333477 
O       1.837702    -1.416714     0.724730 
C      -0.186939    -0.797803    -1.543084 
C      -0.378349    -0.413709    -2.984494 
H      -0.192773     0.648058    -3.129971 
H       0.280968    -0.984522    -3.634960 
H      -1.420439    -0.608471    -3.261739 
C      -0.656593     0.179343    -0.485254 
H      -0.277494    -0.116414     0.486921 
H      -1.748235     0.059053    -0.429805 
H      -2.186891     2.114247    -1.239999 
C       0.169489     3.776656     2.963964 
C      -0.728408     4.273910     2.037355 
C      -0.900741     3.587417     0.842105 
C      -0.187509     2.420623     0.583737 
C       0.724937     1.952113     1.534335 
C       0.904467     2.624852     2.731630 
H      -1.276587     5.182325     2.251834 
H      -1.584639     3.979639     0.098874 
H       1.304253     1.051098     1.351229 
H       1.601156     2.267273     3.478508 
N       0.356133     4.499727     4.240732 
O      -0.297642     5.506998     4.416368 
O       1.151201     4.041340     5.034132 
C      -0.352494     1.666637    -0.732483 
O      -1.305491     2.259377    -1.600948 
H       0.592999     1.762304    -1.273766 
O       1.760843    -0.550084    -1.508269 
H       1.862649    -1.002349    -0.432476 
H       2.124346     0.339863    -1.530622 
43
     -1145.191804     -1144.896317   4.19   5.44
C      -2.600388    -0.513859     0.380286 
C      -2.413505    -2.271844     2.063003 
C      -3.785526    -1.602987     2.158569 
C      -3.993586    -1.030631     0.757048 
H      -2.474669    -0.545921    -0.703595 
H      -2.493100    -3.317616     1.745523 
H      -1.867315    -2.227213     3.006726 
H      -4.563309    -2.308050     2.458609 
H      -3.755696    -0.793836     2.894219 
H      -4.297923    -1.822154     0.063808 
H      -4.728373    -0.227893     0.711552 
N      -1.698737    -1.491873     1.028936 
C      -2.414882     0.973553     0.803866 
O      -3.131643     1.761286     0.205455 
O      -1.557745     1.260393     1.711284 
C      -0.370745    -1.440273     1.000287 
C       0.395549    -2.651912     1.466162 
H       0.038705    -3.025706     2.422588 
H       0.281481    -3.437974     0.711144 
H       1.452743    -2.404949     1.557104 
C       0.276498    -0.666623    -0.148388 
H      -0.500070    -0.237319    -0.778981 
H       0.798475    -1.424201    -0.745685 
H       3.006322    -0.347985     0.560775 
C       3.039294     2.460883    -3.153928 
C       2.170803     1.418704    -3.414575 
C       1.581536     0.756009    -2.343514 
C       1.857008     1.135355    -1.032155 
C       2.739542     2.197312    -0.807939 
C       3.337560     2.865977    -1.861831 
H       1.963238     1.133112    -4.437892 
H       0.902437    -0.061047    -2.555816 
H       2.954997     2.500480     0.211663 
H       4.021949     3.688398    -1.698435 
N       3.670813     3.168429    -4.290970 
O       3.390175     2.792745    -5.409663 
O       4.428917     4.078990    -4.031705 
C       1.251134     0.464869     0.192007 
O       2.289585     0.032208     1.078767 
H       0.695317     1.227960     0.742770 
O      -0.037095    -0.391180     2.597588 
H      -0.734572     0.403657     2.269366 
H       0.874800    -0.077272     2.615966 
43
     -1145.187449     -1144.888950   6.92  10.06
C       0.976628     0.114884     2.120340 
C      -1.067277    -0.819836     3.020140 
C       0.137959    -1.349360     3.808400 
C       1.219625    -0.292247     3.574411 
H       1.387574     1.090932     1.887475 
H      -1.776719    -0.298286     3.669898 
H      -1.594365    -1.621533     2.495749 
H      -0.101699    -1.495678     4.863582 
H       0.459860    -2.309079     3.396699 
H       1.071427     0.570629     4.232544 
H       2.233077    -0.668869     3.710022 
N      -0.496044     0.140016     2.046481 
C       1.624233    -0.922764     1.165354 
O       2.847647    -0.928362     1.129236 
O       0.841961    -1.704068     0.516153 
C      -1.224670     0.643183     1.058128 
C      -2.719428     0.688028     1.294806 
H      -3.100793    -0.245988     1.699284 
H      -2.933362     1.496767     2.003258 
H      -3.242133     0.894541     0.362292 
C      -0.764160     1.848354     0.226949 
H      -0.640559     2.654702     0.961237 
H      -1.638503     2.124409    -0.366533 
H       2.370666     2.214491    -0.607300 
C       0.516631    -0.884394    -3.932395 
C       1.518122    -0.932174    -2.980281 
C       1.504809    -0.010256    -1.939937 
C       0.493786     0.943346    -1.859548 
C      -0.493247     0.979563    -2.850263 
C      -0.497738     0.061514    -3.888416 
H       2.288043    -1.690295    -3.043145 
H       2.270946    -0.072668    -1.176705 
H      -1.270647     1.738864    -2.813140 
H      -1.260874     0.073227    -4.655948 
N       0.524480    -1.869897    -5.036650 
O      -0.382512    -1.814116    -5.841590 
O       1.433880    -2.671388    -5.067802 
C       0.437578     1.972493    -0.740349 
O       1.634774     2.074827    -0.003280 
H       0.244855     2.939687    -1.230494 
O      -1.298476    -0.825505    -0.200114 
H      -0.331520    -1.281858     0.112748 
H      -1.203838    -0.555832    -1.121295 
