40
     -1068.721401     -1068.446277   0.00   0.00
C       3.573004     0.141024     0.522497 
C       1.796410     1.772820     0.396958 
C       2.653204     2.029631     1.641320 
C       3.996199     1.382265     1.295081 
H       4.349040    -0.230299    -0.147567 
H       1.884925     2.588332    -0.327842 
H       0.743284     1.638350     0.641496 
H       2.728260     3.095244     1.865752 
H       2.212852     1.528504     2.508415 
H       4.597332     2.042598     0.661349 
H       4.580659     1.103529     2.171191 
N       2.367674     0.548597    -0.208484 
C       3.099259    -1.040920     1.468800 
O       3.845947    -1.367720     2.375121 
O       1.960739    -1.516573     1.147995 
C       1.651871    -0.438044    -0.709455 
C       2.303354    -1.550595    -1.474756 
H       3.314989    -1.776839    -1.149989 
H       1.689463    -2.447518    -1.397664 
H       2.329450    -1.234934    -2.526379 
C       0.175767    -0.267485    -0.952317 
H      -0.099786    -0.838986    -1.841687 
H      -0.055369     0.782543    -1.145105 
H       0.334276    -2.286966     0.834442 
C      -4.772405     0.102193    -0.716103 
C      -4.294120    -1.172922    -0.966798 
C      -2.976792    -1.467430    -0.645056 
C      -2.153397    -0.496074    -0.080363 
C      -2.668163     0.775492     0.167792 
C      -3.981149     1.087629    -0.148984 
H      -4.948389    -1.915616    -1.405083 
H      -2.583997    -2.461275    -0.821607 
H      -2.038228     1.534759     0.623479 
H      -4.394099     2.070607     0.037378 
N      -6.174336     0.422443    -1.059924 
O      -6.566271     1.547563    -0.828038 
O      -6.847933    -0.457975    -1.553193 
C      -0.698867    -0.791767     0.220339 
O      -0.525276    -2.175152     0.391490 
H      -0.409380    -0.259030     1.135501 
40
     -1068.720141     -1068.445690   0.79   0.37
C       3.564418    -0.283794     0.250939 
C       1.840891    -1.545609    -0.855788 
C       3.181666    -2.074801    -1.354161 
C       4.162003    -0.947119    -1.002459 
H       4.160927    -0.475430     1.143408 
H       1.119145    -2.337178    -0.650060 
H       1.406879    -0.832420    -1.566853 
H       3.435308    -2.993057    -0.814929 
H       3.157459    -2.304040    -2.420949 
H       5.174277    -1.310379    -0.822816 
H       4.217489    -0.212610    -1.809205 
N       2.214554    -0.850676     0.386369 
C       3.370693     1.276087     0.078407 
O       4.370212     1.929453    -0.169100 
O       2.164137     1.658490     0.214041 
C       1.377483    -0.182000     1.147526 
C       1.796595     0.325116     2.492659 
H       2.856133     0.555992     2.564647 
H       1.211333     1.208299     2.746751 
H       1.557185    -0.470202     3.211731 
C      -0.102976    -0.258925     0.904426 
H      -0.618891    -0.238456     1.867639 
H      -0.361465    -1.190560     0.398543 
H       0.524115     2.366919     0.610652 
C      -4.806891     0.290898    -0.584620 
C      -3.890624    -0.350867    -1.401850 
C      -2.541480    -0.113319    -1.190230 
C      -2.114952     0.746376    -0.178953 
C      -3.061035     1.382293     0.621317 
C      -4.415895     1.157361     0.422219 
H      -4.236621    -1.016118    -2.182397 
H      -1.809563    -0.600410    -1.828964 
H      -2.731714     2.064554     1.395426 
H      -5.165235     1.643528     1.033669 
N      -6.249062     0.045231    -0.798811 
O      -6.562459    -0.717797    -1.689229 
O      -7.032001     0.620381    -0.071866 
C      -0.633510     0.939568     0.066160 
O      -0.418174     2.155488     0.734793 
H      -0.110350     0.939737    -0.898077 
40
     -1068.721986     -1068.444991  -0.37   0.81
C       2.701071     1.099651     0.860271 
C       3.119059    -1.076038    -0.087638 
C       4.175197    -0.079531    -0.587260 
C       4.165300     1.039646     0.456838 
H       2.547033     1.548787     1.842037 
H       3.566786    -1.888393     0.492020 
H       2.550206    -1.500043    -0.915303 
H       5.152189    -0.552529    -0.702231 
H       3.879675     0.320283    -1.561450 
H       4.784099     0.777763     1.321009 
H       4.495912     2.000791     0.063840 
N       2.237287    -0.289148     0.813169 
C       1.798236     1.849837    -0.194229 
O       2.138602     2.948488    -0.586556 
O       0.755266     1.172335    -0.528340 
C       0.913627    -0.407365     0.820402 
C       0.098521     0.315433     1.854562 
H       0.110780    -0.302761     2.761173 
H       0.475183     1.304253     2.100610 
H      -0.930614     0.405310     1.509123 
C       0.268564    -1.659349     0.274705 
H      -0.383606    -2.048854     1.061826 
H       1.026583    -2.416930     0.078643 
H       0.509474    -0.070515    -1.772704 
C      -4.309366     0.467688    -0.262192 
C      -4.073495    -0.789822     0.270294 
C      -2.858250    -1.398276     0.002284 
C      -1.886782    -0.764905    -0.776010 
C      -2.160511     0.493771    -1.302557 
C      -3.373969     1.118198    -1.047179 
H      -4.831734    -1.272541     0.873193 
H      -2.668734    -2.392133     0.400001 
H      -1.423168     1.002406    -1.908127 
H      -3.595602     2.099223    -1.447430 
N      -5.602190     1.130081     0.012792 
O      -6.402451     0.533489     0.703609 
O      -5.784978     2.228985    -0.467814 
C      -0.565923    -1.488080    -1.024308 
O       0.207022    -0.953499    -2.063240 
H      -0.824302    -2.505710    -1.337837 
40
     -1068.716439     -1068.440375   3.11   3.70
C       2.511612    -1.305367    -0.202726 
C       1.394411     0.380890     1.128043 
C       1.385600    -0.957080     1.870917 
C       2.572237    -1.710479     1.264536 
H       3.480312    -1.364935    -0.699958 
H       2.043549     1.109198     1.625378 
H       0.399100     0.806318     1.022194 
H       1.465422    -0.817815     2.950694 
H       0.453536    -1.490830     1.663326 
H       3.513742    -1.381237     1.716988 
H       2.493523    -2.792851     1.359405 
N       1.986847     0.065162    -0.191857 
C       1.452783    -2.150739    -1.034510 
O       1.540211    -3.367463    -0.951513 
O       0.634720    -1.441449    -1.697158 
C       1.563451     0.525652    -1.344369 
C       2.356224     0.317986    -2.601083 
H       2.959336    -0.584984    -2.600232 
H       1.681162     0.290928    -3.456337 
H       3.016538     1.189552    -2.704161 
C       0.558075     1.643668    -1.425166 
H       0.860010     2.302298    -2.242408 
H       0.551459     2.238531    -0.509959 
H      -2.392356     2.080550    -2.607716 
C      -3.021833     0.036126     1.765089 
C      -2.810292     1.382717     1.512733 
C      -2.126468     1.737014     0.359890 
C      -1.657996     0.760260    -0.521645 
C      -1.899349    -0.583464    -0.247215 
C      -2.580728    -0.954122     0.904842 
H      -3.178289     2.126185     2.207991 
H      -1.953952     2.784991     0.136348 
H      -1.522197    -1.340884    -0.923520 
H      -2.765553    -1.994727     1.139096 
N      -3.745249    -0.354769     2.996116 
O      -3.895603    -1.540096     3.206061 
O      -4.141662     0.534378     3.720270 
C      -0.878509     1.180714    -1.756489 
O      -1.483053     2.307445    -2.385808 
H      -0.820775     0.332727    -2.446085 
40
     -1068.716439     -1068.440372   3.11   3.71
C       2.537930     0.287824    -1.236653 
C       1.567392    -0.118769     0.944010 
C       2.038391    -1.439389     0.330638 
C       3.111090    -1.005577    -0.671629 
H       3.306195     0.963176    -1.614590 
H       2.182851     0.163445     1.804660 
H       0.523652    -0.148407     1.248255 
H       2.409027    -2.127104     1.093109 
H       1.207708    -1.923471    -0.191238 
H       4.063103    -0.816341    -0.164277 
H       3.273913    -1.726129    -1.472265 
N       1.787251     0.882508    -0.124593 
C       1.462059     0.039767    -2.380597 
O       1.802458    -0.690494    -3.300270 
O       0.362978     0.646721    -2.193392 
C       0.958455     1.847253    -0.443904 
C       1.363692     2.935054    -1.394385 
H       1.782552     3.746330    -0.783933 
H       2.101243     2.628480    -2.130000 
H       0.482228     3.310996    -1.913605 
C      -0.220326     2.194047     0.426425 
H      -0.309009     3.282442     0.445779 
H      -0.067253     1.859185     1.454016 
H      -3.415621     2.272496     0.146657 
C      -2.303829    -2.350656     1.189569 
C      -2.440371    -1.314948     2.100835 
C      -2.213923    -0.018979     1.663368 
C      -1.851816     0.234897     0.338587 
C      -1.737088    -0.825994    -0.556123 
C      -1.958344    -2.129929    -0.132214 
H      -2.719407    -1.530123     3.124255 
H      -2.320932     0.809863     2.355869 
H      -1.441140    -0.629578    -1.579428 
H      -1.861054    -2.966787    -0.811991 
N      -2.536879    -3.739344     1.646505 
O      -2.861789    -3.902076     2.804123 
O      -2.386873    -4.629332     0.835886 
C      -1.573182     1.663261    -0.098860 
O      -2.542956     2.561423     0.433946 
H      -1.562376     1.704261    -1.192550 
40
     -1068.714427     -1068.438865   4.38   4.65
C       2.053638    -0.636924     1.685530 
C       0.467532     1.136990     1.260937 
C       0.600247     0.978739     2.771915 
C       1.164494    -0.439782     2.923460 
H       3.115038    -0.581264     1.931534 
H       0.467126     2.177620     0.933525 
H      -0.433014     0.640247     0.889508 
H       1.303233     1.721816     3.162926 
H      -0.356617     1.115338     3.279019 
H       1.723831    -0.580588     3.848594 
H       0.360005    -1.179646     2.912381 
N       1.670027     0.441561     0.764661 
C       1.761046    -1.996207     0.928408 
O       1.885705    -3.016177     1.591958 
O       1.422193    -1.852486    -0.285203 
C       2.008523     0.293714    -0.490442 
C       3.370765    -0.196223    -0.877132 
H       3.845350    -0.818216    -0.123379 
H       3.309086    -0.753403    -1.811735 
H       3.986688     0.698536    -1.041789 
C       1.249099     0.987007    -1.586943 
H       1.968088     1.321083    -2.338390 
H       0.726520     1.867257    -1.209109 
H      -0.564932     0.170292    -4.102872 
C      -3.465353    -0.126565    -0.199646 
C      -2.648196    -1.243348    -0.215739 
C      -1.454449    -1.186520    -0.923355 
C      -1.086507    -0.022279    -1.592071 
C      -1.939724     1.082866    -1.569982 
C      -3.135617     1.041118    -0.870624 
H      -2.941498    -2.135576     0.322351 
H      -0.783771    -2.036810    -0.925104 
H      -1.662490     1.983411    -2.108634 
H      -3.807810     1.888948    -0.839923 
N      -4.736395    -0.179738     0.557299 
O      -5.001449    -1.211546     1.137346 
O      -5.434198     0.812920     0.552271 
C       0.240786     0.076455    -2.323311 
O       0.079538     0.682190    -3.602721 
H       0.673460    -0.924805    -2.415512 
40
     -1068.714427     -1068.438862   4.38   4.65
C       2.382034    -0.323429     1.298239 
C       1.216322     1.269857    -0.096515 
C       1.958822     2.048351     0.984389 
C       2.196063     0.991842     2.071149 
H       3.425790    -0.640032     1.275337 
H       1.307154     1.713916    -1.088821 
H       0.157953     1.157526     0.154349 
H       2.909505     2.420016     0.587769 
H       1.379713     2.903452     1.337717 
H       3.056644     1.214029     2.702489 
H       1.324460     0.906771     2.725210 
N       1.887760    -0.042955    -0.056500 
C       1.488716    -1.501288     1.864916 
O       1.658062    -1.782399     3.043252 
O       0.694062    -2.005888     1.015073 
C       1.598329    -1.076615    -0.804497 
C       2.503159    -2.269275    -0.868624 
H       1.913843    -3.168134    -1.048894 
H       3.168603    -2.107558    -1.727750 
H       3.106269    -2.412875     0.023503 
C       0.613192    -0.966549    -1.934579 
H       0.984400    -1.567757    -2.767633 
H       0.522951     0.064552    -2.280083 
H      -2.252636    -2.178143    -2.713489 
C      -3.130578     1.443456     0.424817 
C      -2.874588     1.595982    -0.929297 
C      -2.131640     0.618691    -1.572673 
C      -1.648488    -0.488128    -0.871725 
C      -1.937929    -0.621768     0.483407 
C      -2.678791     0.350258     1.143159 
H      -3.254551     2.462031    -1.455783 
H      -1.923553     0.712251    -2.633774 
H      -1.547139    -1.470616     1.030715 
H      -2.899225     0.269156     2.199790 
N      -3.916217     2.485168     1.124068 
O      -4.125169     2.329892     2.308789 
O      -4.301452     3.431279     0.469246 
C      -0.792363    -1.512223    -1.595913 
O      -1.357142    -1.854637    -2.858285 
H      -0.682346    -2.398211    -0.962548 
40
     -1068.710992     -1068.438180   6.53   5.08
C       3.683475    -0.623363     0.159868 
C       1.974191    -0.407669    -1.542562 
C       3.162132    -1.135681    -2.162551 
C       4.321993    -0.761204    -1.230994 
H       3.906566    -1.479296     0.797122 
H       1.006773    -0.849094    -1.782125 
H       1.978420     0.655736    -1.805994 
H       2.981040    -2.215862    -2.147077 
H       3.327209    -0.834016    -3.198840 
H       5.126457    -1.497045    -1.232592 
H       4.757904     0.197481    -1.524195 
N       2.239942    -0.540334    -0.099556 
C       4.112848     0.723042     0.901763 
O       5.318761     0.788287     1.133407 
O       3.171603     1.516709     1.133979 
C       1.427230    -0.200877     0.842975 
C       1.690903    -0.517453     2.278908 
H       1.064942    -1.379760     2.545428 
H       2.727426    -0.769579     2.479388 
H       1.407577     0.331746     2.900633 
C       0.078796     0.376851     0.524303 
H       0.042731     0.758887    -0.495463 
H      -0.062621     1.227853     1.197025 
H      -1.431254    -2.424896     0.043170 
C      -4.771490     1.226578    -0.319384 
C      -3.986426     0.685439    -1.324197 
C      -2.792553     0.072355    -0.974914 
C      -2.394404     0.002511     0.359680 
C      -3.210287     0.550451     1.346311 
C      -4.407095     1.170472     1.014349 
H      -4.311388     0.749357    -2.354690 
H      -2.163185    -0.357491    -1.746748 
H      -2.913120     0.491524     2.389571 
H      -5.051745     1.603316     1.768326 
N      -6.045876     1.886496    -0.685209 
O      -6.341055     1.920363    -1.860916 
O      -6.713080     2.351431     0.214553 
C      -1.065219    -0.625598     0.733445 
O      -0.748365    -1.756134    -0.069042 
H      -1.099756    -0.911529     1.792843 
40
     -1068.710991     -1068.438180   6.53   5.08
C       3.703908    -0.485718     0.165132 
C       2.009578    -0.185975    -1.539522 
C       3.234956    -0.806140    -2.202422 
C       4.365822    -0.470999    -1.221538 
H       3.954218    -1.386148     0.726428 
H       1.064694    -0.642657    -1.834102 
H       1.972786     0.896224    -1.706067 
H       3.099009    -1.889718    -2.287284 
H       3.400853    -0.405374    -3.204426 
H       5.200306    -1.170513    -1.275809 
H       4.765070     0.527161    -1.419881 
N       2.261693    -0.437997    -0.110043 
C       4.066835     0.804180     1.032324 
O       5.265822     0.896896     1.289185 
O       3.090262     1.534807     1.319137 
C       1.423201    -0.218515     0.845392 
C       1.681025    -0.652980     2.251242 
H       2.724465    -0.880095     2.445643 
H       1.354310     0.124226     2.942011 
H       1.088224    -1.560505     2.428496 
C       0.056081     0.330672     0.557345 
H       0.017447     0.801768    -0.424364 
H      -0.129614     1.110792     1.301447 
H      -1.329025    -2.474757    -0.199340 
C      -4.814015     1.056373    -0.288019 
C      -3.993893     0.640723    -1.324088 
C      -2.780108     0.047328    -1.011338 
C      -2.396927    -0.126988     0.318071 
C      -3.247885     0.295830     1.336127 
C      -4.465119     0.894437     1.041200 
H      -4.307698     0.784549    -2.349975 
H      -2.123242    -0.284989    -1.808014 
H      -2.962224     0.154687     2.374707 
H      -5.137143     1.230739     1.820106 
N      -6.109978     1.694609    -0.614383 
O      -6.807788     2.048722     0.312205 
O      -6.390869     1.822896    -1.787076 
C      -1.047652    -0.732075     0.656126 
O      -0.673292    -1.771492    -0.239395 
H      -1.084093    -1.113987     1.684761 
40
     -1068.713623     -1068.438005   4.88   5.19
C       2.297146    -1.391205    -0.820016 
C       1.132539    -0.710854     1.192668 
C       0.824729    -2.177986     0.885915 
C       2.015860    -2.622097     0.032932 
H       3.335270    -1.332223    -1.148488 
H       1.755896    -0.613854     2.087848 
H       0.234455    -0.110408     1.317655 
H       0.703098    -2.762271     1.799925 
H      -0.101297    -2.250181     0.308539 
H       2.878748    -2.858947     0.664494 
H       1.798351    -3.478629    -0.604063 
N       1.928685    -0.253603     0.030846 
C       1.348947    -1.287128    -2.093592 
O       1.297669    -2.275039    -2.812228 
O       0.759049    -0.169475    -2.208210 
C       1.805134     0.901930    -0.572975 
C       2.806797     1.352685    -1.595590 
H       3.564791     1.938813    -1.058215 
H       3.297697     0.539639    -2.121494 
H       2.319187     1.998786    -2.325529 
C       0.964381     2.009428     0.004596 
H       1.500829     2.946057    -0.169543 
H       0.849331     1.900681     1.084817 
H      -0.472553     4.068423    -1.099212 
C      -3.260455    -0.457377     1.200668 
C      -2.769503    -0.785705    -0.050624 
C      -1.869042     0.077028    -0.662115 
C      -1.463907     1.242802    -0.018928 
C      -1.988248     1.555577     1.236613 
C      -2.889670     0.705740     1.858019 
H      -3.086055    -1.702633    -0.531186 
H      -1.453461    -0.168372    -1.631781 
H      -1.694335     2.478172     1.725625 
H      -3.306071     0.931295     2.831236 
N      -4.215840    -1.376115     1.858237 
O      -4.652893    -1.050644     2.942489 
O      -4.502653    -2.400530     1.274440 
C      -0.439081     2.163115    -0.648635 
O      -0.896388     3.497886    -0.451593 
H      -0.357138     1.927222    -1.713541 
40
     -1068.710462     -1068.437594   6.86   5.45
C       3.716305    -0.067536     0.319244 
C       1.940866    -1.699486     0.513473 
C       3.293553    -2.410767     0.387952 
C       4.312081    -1.363723     0.844507 
H       4.043382     0.807203     0.880847 
H       1.455513    -1.879676     1.476629 
H       1.262590    -1.989630    -0.287485 
H       3.319372    -3.329747     0.977103 
H       3.476444    -2.670508    -0.658434 
H       4.390130    -1.343125     1.937106 
H       5.303313    -1.516788     0.419568 
N       2.268429    -0.258831     0.425714 
C       3.994162     0.183428    -1.243252 
O       5.171623     0.069091    -1.571840 
O       2.968332     0.472997    -1.907737 
C       1.488447     0.661832    -0.046659 
C       1.857037     2.111953     0.001370 
H       1.371929     2.640388    -0.819863 
H       1.483023     2.511743     0.953379 
H       2.924898     2.289316    -0.058043 
C       0.064356     0.377732    -0.428312 
H      -0.152521    -0.687080    -0.461946 
H      -0.069732     0.774839    -1.439158 
H      -1.164071     1.027787     2.470259 
C      -4.910532    -0.049553    -0.590399 
C      -4.169970    -0.920132     0.192405 
C      -2.886013    -0.549543     0.562556 
C      -2.355135     0.674005     0.155100 
C      -3.128359     1.529185    -0.625970 
C      -4.414535     1.172933    -1.007994 
H      -4.598501    -1.865667     0.498904 
H      -2.288072    -1.215877     1.175021 
H      -2.726524     2.488570    -0.939398 
H      -5.028220     1.824556    -1.616446 
N      -6.281103    -0.440153    -0.992916 
O      -6.906702     0.341000    -1.678076 
O      -6.690901    -1.516217    -0.612363 
C      -0.933264     1.052757     0.523284 
O      -0.572382     0.620484     1.829619 
H      -0.829249     2.142251     0.442244 
40
     -1068.710462     -1068.437586   6.86   5.45
C       3.729126     0.021477     0.104914 
C       1.998299    -1.556328     0.711470 
C       3.354565    -2.268556     0.642968 
C       4.377878    -1.146176     0.830630 
H       4.071470     0.989721     0.469398 
H       1.572307    -1.552854     1.718560 
H       1.280803    -1.999042     0.022282 
H       3.431073    -3.058029     1.393415 
H       3.482148    -2.721824    -0.344003 
H       4.517731    -0.916793     1.892757 
H       5.345925    -1.370266     0.384299 
N       2.293483    -0.156568     0.331936 
C       3.912590    -0.028539    -1.490513 
O       5.071305    -0.194686    -1.860951 
O       2.845254     0.121064    -2.135609 
C       1.470894     0.651135    -0.259774 
C       1.814670     2.086376    -0.510622 
H       2.873934     2.256939    -0.666122 
H       1.273839     2.444571    -1.387090 
H       1.488164     2.657968     0.368418 
C       0.032862     0.288971    -0.494936 
H      -0.165998    -0.764058    -0.311710 
H      -0.165761     0.483997    -1.553239 
H      -1.040584     1.473643     2.293896 
C      -4.934527    -0.196684    -0.277465 
C      -4.134902    -0.895886     0.611825 
C      -2.838991    -0.452154     0.827722 
C      -2.354585     0.674396     0.163525 
C      -3.186433     1.358586    -0.719193 
C      -4.485494     0.926632    -0.949329 
H      -4.527966    -1.768196     1.117982 
H      -2.195137    -0.984546     1.519575 
H      -2.820666     2.242973    -1.233198 
H      -5.144560     1.445243    -1.633515 
N      -6.318368    -0.666871    -0.516126 
O      -6.996014    -0.035985    -1.299579 
O      -6.686180    -1.652895     0.086484 
C      -0.921262     1.126730     0.367761 
O      -0.478925     0.955291     1.708865 
H      -0.841964     2.181227     0.074291 
40
     -1068.711562     -1068.436473   6.17   6.15
C       2.321379    -0.819869    -1.106620 
C       0.771860    -1.405207     0.659594 
C       1.248126    -2.695569     0.000400 
C       1.746308    -2.219978    -1.370098 
H       3.412304    -0.823666    -1.090166 
H       0.760560    -1.454249     1.749502 
H      -0.220187    -1.120920     0.299744 
H       2.066626    -3.131389     0.583033 
H       0.447521    -3.434288    -0.067798 
H       2.489539    -2.884643    -1.810720 
H       0.916259    -2.143102    -2.077363 
N       1.777374    -0.427523     0.200483 
C       1.814827     0.259550    -2.148805 
O       2.059512     0.020387    -3.323231 
O       1.206495     1.242347    -1.627976 
C       1.810502     0.844004     0.499650 
C       3.021841     1.679678     0.215610 
H       3.620547     1.681655     1.137190 
H       3.633017     1.304181    -0.600056 
H       2.720542     2.702896    -0.008349 
C       0.844604     1.436380     1.487078 
H       1.388272     2.180962     2.075254 
H       0.470156     0.679847     2.178832 
H      -0.365927     3.869791     1.787270 
C      -3.408029    -0.670367    -0.153832 
C      -2.668290    -0.106533    -1.178315 
C      -1.696903     0.834008    -0.860342 
C      -1.468621     1.188988     0.465524 
C      -2.241905     0.615559     1.476212 
C      -3.217057    -0.321468     1.174679 
H      -2.848349    -0.405684    -2.202862 
H      -1.086280     1.268497    -1.641992 
H      -2.084013     0.913338     2.507381 
H      -3.825873    -0.777400     1.944703 
N      -4.440940    -1.676320    -0.486081 
O      -4.587789    -1.966239    -1.655032 
O      -5.077565    -2.151852     0.431215 
C      -0.367688     2.160417     0.833961 
O      -0.915368     3.080669     1.772750 
H      -0.027391     2.673113    -0.070424 
40
     -1068.710060     -1068.435696   7.12   6.64
C       0.940484     1.993168     1.886304 
C      -0.271999     0.039763     2.649756 
C       0.007188     0.977102     3.825310 
C       0.164280     2.340941     3.149629 
H       0.789631     2.710631     1.080883 
H      -1.339907     0.024352     2.407941 
H       0.068944    -0.980000     2.822683 
H      -0.795048     0.942656     4.565220 
H       0.943172     0.691793     4.313236 
H      -0.814556     2.769814     2.906512 
H       0.726376     3.057938     3.746596 
N       0.452933     0.655448     1.514496 
C       2.510381     1.834708     2.170043 
O       3.031882     2.848182     2.628585 
O       2.980643     0.707918     1.887472 
C       1.062730    -0.000378     0.577475 
C       1.743238     0.679544    -0.565236 
H       2.737484     0.248808    -0.683325 
H       1.159816     0.464015    -1.468095 
H       1.836813     1.754323    -0.442797 
C       0.940950    -1.494875     0.470782 
H       1.213300    -1.958320     1.421559 
H       1.657833    -1.845259    -0.273715 
H      -1.199899    -3.782333    -0.210167 
C      -1.583672    -0.339065    -3.723138 
C      -0.718096    -1.420807    -3.696822 
C      -0.369734    -1.962427    -2.468248 
C      -0.882103    -1.428108    -1.286471 
C      -1.753945    -0.344290    -1.348788 
C      -2.112055     0.212455    -2.569194 
H      -0.329810    -1.821972    -4.624014 
H       0.307011    -2.809151    -2.424157 
H      -2.163008     0.075482    -0.434358 
H      -2.787242     1.055834    -2.633125 
N      -1.958246     0.246112    -5.031170 
O      -1.481847    -0.257029    -6.026225 
O      -2.717241     1.192016    -5.022876 
C      -0.456618    -1.992504     0.057013 
O      -0.349187    -3.406538     0.040830 
H      -1.190870    -1.679941     0.809594 
40
     -1068.710327     -1068.435557   6.95   6.73
C       2.710261    -0.328939     0.087455 
C       0.706226    -1.028560    -1.020784 
C       1.267516    -2.255360    -0.313608 
C       2.726344    -1.861838    -0.037949 
H       2.942967     0.003849     1.098010 
H      -0.377342    -0.948939    -0.966221 
H       1.031313    -0.988545    -2.066940 
H       0.718244    -2.421249     0.619605 
H       1.173429    -3.153515    -0.927250 
H       3.125928    -2.335880     0.859600 
H       3.372804    -2.145401    -0.871311 
N       1.352190     0.078853    -0.294876 
C       3.693938     0.393777    -0.946534 
O       4.871094     0.064795    -0.831574 
O       3.124684     1.189455    -1.733972 
C       1.099686     1.339577    -0.472325 
C       1.778542     2.405135     0.325617 
H       2.070390     3.214167    -0.343542 
H       1.049311     2.802416     1.039213 
H       2.657587     2.050358     0.854960 
C      -0.036302     1.775424    -1.358618 
H      -0.199535     1.037519    -2.145397 
H       0.285072     2.702159    -1.841217 
H      -2.043886     3.382186     0.614925 
C      -2.851703    -1.484961     1.233788 
C      -3.317317    -1.157920    -0.028276 
C      -2.859588     0.013183    -0.617248 
C      -1.946919     0.834717     0.041141 
C      -1.514819     0.486356     1.320395 
C      -1.963547    -0.677900     1.925999 
H      -4.017803    -1.811508    -0.531737 
H      -3.215244     0.283998    -1.607583 
H      -0.814135     1.125684     1.845842 
H      -1.632000    -0.965684     2.915349 
N      -3.319792    -2.739692     1.865927 
O      -4.097447    -3.425857     1.237575 
O      -2.892128    -3.002703     2.969975 
C      -1.384779     2.057506    -0.660734 
O      -1.194965     3.149432     0.225488 
H      -2.078283     2.343905    -1.463164 
40
     -1068.710327     -1068.435555   6.95   6.73
C      -0.595391    -2.419947     1.118354 
C      -0.776158    -1.108050    -0.876650 
C      -2.195929    -1.350614    -0.381074 
C      -2.031617    -2.536983     0.580468 
H      -0.571894    -2.186180     2.181802 
H      -0.612028    -0.103827    -1.261401 
H      -0.485640    -1.848860    -1.630656 
H      -2.555261    -0.459831     0.145701 
H      -2.881526    -1.557372    -1.205269 
H      -2.766362    -2.527936     1.386721 
H      -2.139133    -3.487000     0.052531 
N       0.027299    -1.344761     0.335374 
C       0.283526    -3.728419     0.845420 
O      -0.174244    -4.752403     1.344462 
O       1.312733    -3.526771     0.154567 
C       1.307044    -1.152736     0.435579 
C       2.047812    -1.389620     1.711557 
H       2.976320    -1.914193     1.487554 
H       2.304378    -0.412624     2.134031 
H       1.481548    -1.967683     2.435420 
C       2.071890    -0.493228    -0.680669 
H       1.593205    -0.706680    -1.637471 
H       3.059868    -0.960799    -0.697939 
H       3.267500     2.216643     0.636162 
C      -1.486420     3.056404    -0.555410 
C      -0.984525     2.577029     0.643600 
C       0.252226     1.949298     0.641369 
C       0.972907     1.802003    -0.543316 
C       0.450320     2.317552    -1.727576 
C      -0.787641     2.946059    -1.745407 
H      -1.559234     2.692736     1.553479 
H       0.656278     1.562338     1.570238 
H       1.011322     2.222653    -2.653247 
H      -1.211319     3.341813    -2.659303 
N      -2.815196     3.710109    -0.564196 
O      -3.406301     3.788993     0.491914 
O      -3.228993     4.120958    -1.627385 
C       2.281036     1.032457    -0.564297 
O       3.069469     1.275806     0.590205 
H       2.838136     1.323665    -1.465243 
40
     -1068.710696     -1068.435422   6.72   6.81
C       2.407575     1.184080     0.289455 
C       0.696302    -0.205540     1.287931 
C       1.642625     0.317218     2.367598 
C       2.209088     1.592892     1.742357 
H       2.389728     2.030563    -0.395366 
H      -0.291253     0.257916     1.366170 
H       0.578270    -1.286637     1.312082 
H       1.119202     0.485480     3.311141 
H       2.447292    -0.403389     2.539778 
H       1.493566     2.418769     1.825677 
H       3.160038     1.902477     2.174172 
N       1.310859     0.241366     0.016186 
C       3.763860     0.355165     0.073214 
O       4.774807     0.958236     0.424319 
O       3.604638    -0.786249    -0.421394 
C       1.329031    -0.419160    -1.101645 
C       1.902889     0.161806    -2.354644 
H       2.481045     1.065513    -2.190405 
H       2.541003    -0.584451    -2.827119 
H       1.065794     0.373046    -3.028737 
C       0.604562    -1.729519    -1.268563 
H       0.631449    -2.301629    -0.341711 
H       1.165825    -2.300725    -2.012072 
H      -1.733761    -1.141478    -3.430114 
C      -3.298902     0.572779     0.960089 
C      -3.184803    -0.797601     1.124208 
C      -2.409296    -1.508271     0.218850 
C      -1.752300    -0.858603    -0.823873 
C      -1.897229     0.520309    -0.967753 
C      -2.673169     1.246839    -0.075746 
H      -3.695100    -1.287411     1.943383 
H      -2.315363    -2.585061     0.330547 
H      -1.393727     1.032892    -1.779765 
H      -2.792667     2.318412    -0.171138 
N      -4.117970     1.343026     1.924085 
O      -4.200564     2.541011     1.755324 
O      -4.651441     0.726483     2.821774 
C      -0.855972    -1.649462    -1.759806 
O      -0.839985    -1.113941    -3.073647 
H      -1.215941    -2.687153    -1.784843 
40
     -1068.710696     -1068.435422   6.72   6.81
C      -2.141051    -1.253784    -1.061200 
C       0.032445    -0.264877    -1.454177 
C      -0.715318    -0.428895    -2.776460 
C      -2.182591    -0.436655    -2.344953 
H      -2.964701    -1.025412    -0.386456 
H       0.120602     0.788932    -1.175088 
H       1.026175    -0.707103    -1.469126 
H      -0.467969     0.370734    -3.477866 
H      -0.456101    -1.387151    -3.235765 
H      -2.537792     0.582138    -2.152911 
H      -2.844695    -0.912988    -3.066991 
N      -0.838573    -0.929833    -0.457231 
C      -2.112194    -2.831814    -1.348174 
O      -3.068568    -3.233649    -2.006095 
O      -1.123478    -3.432322    -0.863770 
C      -0.443024    -1.624469     0.566094 
C      -1.407336    -2.183237     1.563450 
H      -1.141268    -3.220363     1.765690 
H      -1.285650    -1.611445     2.489732 
H      -2.442061    -2.142712     1.238447 
C       1.012924    -1.752808     0.931472 
H       1.631282    -1.775033     0.034684 
H       1.124801    -2.723908     1.419885 
H       1.313187    -0.242992     3.780358 
C       1.240096     3.245593     0.246713 
C       0.202609     2.759356     1.025205 
C       0.322932     1.490841     1.574746 
C       1.464585     0.723758     1.348214 
C       2.497126     1.249623     0.574710 
C       2.392264     2.513943     0.012004 
H      -0.678834     3.366105     1.188185 
H      -0.482976     1.091235     2.180094 
H       3.397829     0.665913     0.405026 
H       3.182857     2.932726    -0.597050 
N       1.113530     4.593254    -0.354312 
O       0.094283     5.211194    -0.131254 
O       2.036341     4.991217    -1.032992 
C       1.575818    -0.687847     1.895784 
O       0.910950    -0.838785     3.140124 
H       2.641543    -0.928480     2.011251 
40
     -1068.710492     -1068.434907   6.85   7.13
C       1.253378     1.271820     2.482846 
C       2.549778     1.907345     0.547508 
C       2.242505     3.144078     1.400612 
C       1.970829     2.575411     2.795397 
H       1.327724     0.538095     3.286529 
H       3.622868     1.692981     0.517950 
H       2.171225     2.011588    -0.468223 
H       3.063823     3.863168     1.378017 
H       1.344861     3.641066     1.021963 
H       2.907126     2.381087     3.329253 
H       1.339431     3.217613     3.408658 
N       1.868933     0.789218     1.246558 
C      -0.275913     1.477232     2.112680 
O      -0.952305     2.147141     2.879573 
O      -0.612498     0.896107     1.034016 
C       1.208252    -0.170307     0.629164 
C       0.662216    -1.346664     1.386044 
H       0.326917    -1.106747     2.390366 
H      -0.171406    -1.775593     0.829932 
H       1.465484    -2.093354     1.445197 
C       1.514273    -0.459942    -0.825636 
H       1.666278    -1.540385    -0.904237 
H       2.456576     0.016472    -1.102080 
H      -0.302479     1.599623    -2.533270 
C      -3.172037    -2.293650    -1.636139 
C      -2.046832    -2.891666    -2.180306 
C      -0.881045    -2.146007    -2.255492 
C      -0.835535    -0.832629    -1.785747 
C      -1.983033    -0.260061    -1.245051 
C      -3.161036    -0.991485    -1.168617 
H      -2.095650    -3.911769    -2.538322 
H       0.006983    -2.594780    -2.694083 
H      -1.944088     0.741921    -0.840705 
H      -4.059655    -0.564679    -0.742104 
N      -4.425875    -3.075588    -1.552357 
O      -4.403637    -4.215716    -1.967773 
O      -5.397676    -2.529731    -1.074121 
C       0.476843    -0.070777    -1.894442 
O       0.337748     1.333503    -1.865963 
H       0.936647    -0.373937    -2.847598 
40
     -1068.709038     -1068.434339   7.76   7.49
C       2.205233     1.412860    -0.553718 
C       0.171027     1.256558     0.750457 
C       0.723235     2.679406     0.810336 
C       1.547923     2.783935    -0.473352 
H       2.465971     1.127740    -1.571913 
H      -0.747973     1.208860     0.159400 
H      -0.021696     0.831702     1.732997 
H      -0.079130     3.417011     0.878395 
H       1.373713     2.790818     1.682649 
H       0.899935     2.962227    -1.338961 
H       2.311840     3.559545    -0.436572 
N       1.214638     0.492486     0.028206 
C       3.510391     1.308382     0.375982 
O       4.371706     2.142304     0.106400 
O       3.469759     0.398234     1.235988 
C       1.554891    -0.738641     0.244346 
C       2.563375    -1.438723    -0.610455 
H       3.243764    -1.999959     0.030269 
H       2.015941    -2.144856    -1.245461 
H       3.146576    -0.768346    -1.232807 
C       0.842750    -1.603174     1.251507 
H       0.489443    -1.007416     2.093029 
H       1.598627    -2.286198     1.653218 
H       0.651472    -4.020506     0.102472 
C      -3.400412     0.111432    -0.803220 
C      -3.388846    -0.202865     0.545636 
C      -2.404613    -1.061337     1.013549 
C      -1.445179    -1.586360     0.150775 
C      -1.492334    -1.262701    -1.203376 
C      -2.473027    -0.409764    -1.690130 
H      -4.136562     0.219157     1.204461 
H      -2.385736    -1.323117     2.068058 
H      -0.762648    -1.685039    -1.883752 
H      -2.523726    -0.146255    -2.738689 
N      -4.441054     1.032459    -1.313556 
O      -4.428978     1.289203    -2.498744 
O      -5.238445     1.474035    -0.513277 
C      -0.336912    -2.450815     0.710643 
O       0.071844    -3.362877    -0.294794 
H      -0.736785    -2.999406     1.574004 
40
     -1068.709331     -1068.434114   7.57   7.63
C       2.963497     1.336218     0.113934 
C       3.123357    -1.059026    -0.206730 
C       4.096363    -0.339044    -1.144585 
C       4.338432     1.001589    -0.448050 
H       3.010448     2.001189     0.975722 
H       3.651798    -1.636243     0.558905 
H       2.441353    -1.720078    -0.738810 
H       5.006431    -0.920948    -1.302448 
H       3.620865    -0.173300    -2.115391 
H       5.074079     0.895661     0.356776 
H       4.665758     1.788288    -1.126442 
N       2.384430     0.034129     0.465896 
C       1.984931     1.965935    -0.982288 
O       2.423448     2.960814    -1.547943 
O       0.890187     1.355943    -1.113682 
C       1.132124    -0.020818     0.810945 
C       0.495031     1.080636     1.595266 
H      -0.535432     1.225776     1.277137 
H       0.494208     0.769438     2.648908 
H       1.022922     2.024541     1.510104 
C       0.409529    -1.336109     0.680899 
H       1.022338    -2.097585     1.176247 
H       0.375837    -1.606456    -0.380092 
H      -1.585940    -3.215999     0.665172 
C      -4.271330     0.325798    -0.821206 
C      -4.509495    -0.438790     0.311081 
C      -3.425360    -0.995652     0.966271 
C      -2.121291    -0.797096     0.501079 
C      -1.915223    -0.025302    -0.639486 
C      -2.996457     0.543979    -1.305060 
H      -5.522976    -0.586390     0.660785 
H      -3.586594    -1.599379     1.853562 
H      -0.920198     0.178911    -1.019562 
H      -2.850022     1.152868    -2.187723 
N      -5.421920     0.930956    -1.530606 
O      -5.186399     1.597997    -2.515477 
O      -6.529613     0.721626    -1.081884 
C      -0.992793    -1.455230     1.286772 
O      -1.276689    -2.837215     1.495568 
H      -0.979638    -1.031631     2.296445 
40
     -1068.708618     -1068.433795   8.02   7.83
C       1.335136     0.952058     2.140226 
C       0.911194    -1.029682     0.852955 
C       0.369962    -1.284550     2.253922 
C       1.085372    -0.222441     3.100834 
H       0.726868     1.821090     2.387817 
H       0.268422    -1.406938     0.060366 
H       1.924188    -1.432195     0.738044 
H      -0.714904    -1.132226     2.259490 
H       0.571534    -2.305266     2.584852 
H       0.503352     0.085443     3.970331 
H       2.044330    -0.596431     3.466661 
N       0.990020     0.441221     0.806692 
C       2.874030     1.384674     2.069174 
O       3.338443     1.745533     3.147050 
O       3.389551     1.289122     0.928763 
C       1.283494     1.147225    -0.239017 
C       1.284982     2.641618    -0.209112 
H       1.294745     3.050105     0.796477 
H       2.161892     3.008069    -0.743620 
H       0.387567     2.984740    -0.735612 
C       1.462620     0.493243    -1.582199 
H       1.783358    -0.542481    -1.458522 
H       2.288853     1.023203    -2.069369 
H       0.541911     2.274174    -3.331728 
C      -2.967203    -1.603615    -0.667746 
C      -2.127234    -2.278990    -1.536578 
C      -1.118492    -1.563784    -2.167428 
C      -0.949254    -0.202729    -1.924676 
C      -1.827469     0.452676    -1.063535 
C      -2.843365    -0.244924    -0.427287 
H      -2.263309    -3.339349    -1.704512 
H      -0.450255    -2.078776    -2.852080 
H      -1.718678     1.516491    -0.888737 
H      -3.530118     0.247441     0.248920 
N      -4.034854    -2.358758     0.025750 
O      -4.115998    -3.547813    -0.199447 
O      -4.758232    -1.741787     0.778967 
C       0.232907     0.522936    -2.527404 
O      -0.171485     1.842588    -2.850652 
H       0.536108    -0.010910    -3.438032 
40
     -1068.708394     -1068.433717   8.16   7.88
C       1.644367     2.072987     1.455250 
C       3.065471     0.992636    -0.161074 
C       3.829358     2.191795     0.391167 
C       2.730387     3.065672     1.009823 
H       1.578691     1.989879     2.541032 
H       3.690945     0.103023    -0.248148 
H       2.602255     1.203798    -1.129955 
H       4.535840     1.856361     1.157713 
H       4.395473     2.705060    -0.388411 
H       3.091126     3.670318     1.842689 
H       2.310970     3.749755     0.268707 
N       2.012609     0.787836     0.851541 
C       0.218402     2.432551     0.874045 
O      -0.211968     3.547336     1.136562 
O      -0.302694     1.500321     0.191622 
C       1.058686    -0.112808     0.770142 
C       0.150570    -0.389930     1.930843 
H       0.626371    -1.183268     2.523678 
H      -0.019699     0.472875     2.568433 
H      -0.808166    -0.755553     1.563814 
C       1.199863    -1.253882    -0.211469 
H       0.982526    -2.174938     0.337421 
H       2.231336    -1.317365    -0.559036 
H       0.124686    -0.095590    -3.030316 
C      -3.859257    -1.734809    -0.649446 
C      -3.017335    -2.832665    -0.572913 
C      -1.672120    -2.646052    -0.848691 
C      -1.174110    -1.385752    -1.182714 
C      -2.045617    -0.303057    -1.252154 
C      -3.397668    -0.474513    -0.985172 
H      -3.416527    -3.803611    -0.310094 
H      -1.000283    -3.500098    -0.808649 
H      -1.660259     0.683756    -1.467766 
H      -4.087239     0.358867    -1.024697 
N      -5.299365    -1.918407    -0.361350 
O      -6.016389    -0.943106    -0.436870 
O      -5.673740    -3.034711    -0.066986 
C       0.313342    -1.250457    -1.471245 
O       0.660392    -0.113907    -2.231031 
H       0.608770    -2.160339    -2.016295 
40
     -1068.707798     -1068.433258   8.54   8.17
C       2.657249     0.526084    -0.820976 
C       2.398875    -1.600862     0.292191 
C       3.699955    -1.650838    -0.501248 
C       3.516776    -0.530635    -1.533462 
H       3.241089     1.401274    -0.536258 
H       2.474199    -2.028655     1.293096 
H       1.582732    -2.087011    -0.254248 
H       4.544897    -1.437237     0.161871 
H       3.862122    -2.630803    -0.953788 
H       4.462095    -0.112728    -1.880243 
H       2.981993    -0.898543    -2.412804 
N       2.127344    -0.155098     0.368334 
C       1.403140     0.979368    -1.690182 
O       1.693109     1.513600    -2.756464 
O       0.288698     0.717334    -1.167159 
C       1.146762     0.385405     1.025558 
C       1.028489     1.867621     1.179740 
H       1.741923     2.411197     0.566451 
H       0.026258     2.190773     0.907106 
H       1.209491     2.106033     2.236087 
C       0.304276    -0.478336     1.918168 
H       0.812590    -0.545840     2.890017 
H       0.242683    -1.491496     1.521800 
H      -2.576322    -0.745398     3.254335 
C      -3.492179     0.197855    -1.367824 
C      -3.291474     1.355850    -0.640872 
C      -2.529763     1.282247     0.517318 
C      -1.974658     0.077229     0.930591 
C      -2.212192    -1.075805     0.183747 
C      -2.968678    -1.024021    -0.973759 
H      -3.719127     2.289725    -0.981381 
H      -2.365901     2.183544     1.100863 
H      -1.803807    -2.026574     0.510052 
H      -3.154011    -1.906974    -1.571461 
N      -4.298353     0.262920    -2.607613 
O      -4.747259     1.343428    -2.928478 
O      -4.460694    -0.768030    -3.226157 
C      -1.122977     0.014141     2.184556 
O      -1.638891    -0.923902     3.123889 
H      -1.090462     1.013161     2.638606 
40
     -1068.706158     -1068.432746   9.57   8.49
C      -0.355302    -0.473222     2.840203 
C      -2.246042    -0.765676     1.403778 
C      -2.721959     0.075222     2.582417 
C      -1.631854    -0.157419     3.639191 
H       0.406914     0.295559     2.955573 
H      -2.665917    -0.459818     0.446645 
H      -2.445571    -1.830697     1.568776 
H      -2.764725     1.129558     2.288869 
H      -3.716951    -0.224228     2.916824 
H      -1.495432     0.704435     4.293755 
H      -1.876562    -1.011858     4.273685 
N      -0.786674    -0.568845     1.437824 
C       0.265054    -1.898427     3.214802 
O       0.612550    -1.994737     4.388325 
O       0.298028    -2.716173     2.263479 
C       0.037499    -1.024274     0.547157 
C       1.516140    -0.840769     0.647459 
H       1.834954    -0.412209     1.593290 
H       1.991205    -1.814109     0.522196 
H       1.832849    -0.188651    -0.173099 
C      -0.480723    -1.615724    -0.733096 
H      -1.298252    -2.305286    -0.497551 
H       0.322525    -2.202268    -1.184158 
H      -2.002981    -1.900912    -2.809575 
C       2.102888     2.267968    -2.581833 
C       2.127675     1.060728    -3.261594 
C       1.117052     0.141454    -3.021761 
C       0.099259     0.432228    -2.115532 
C       0.096189     1.658742    -1.457212 
C       1.101480     2.588981    -1.682146 
H       2.926899     0.853995    -3.961422 
H       1.113214    -0.806681    -3.546857 
H      -0.698195     1.894291    -0.755041 
H       1.116222     3.545193    -1.175622 
N       3.182802     3.250252    -2.828240 
O       3.137131     4.296762    -2.216449 
O       4.045605     2.946713    -3.624555 
C      -0.963591    -0.593339    -1.793872 
O      -1.290700    -1.279212    -2.989833 
H      -1.842701    -0.057543    -1.414803 
