40
     -1068.710316     -1068.438966   0.00   0.00
C       0.776826    -1.771895     1.425910 
C       0.692074    -0.536834     3.517181 
C       0.394381    -2.019508     3.766711 
C       1.066446    -2.724746     2.586294 
H       1.497826    -1.898489     0.616987 
H       1.588355    -0.207784     4.051439 
H      -0.142132     0.111259     3.793859 
H       0.769037    -2.350211     4.736914 
H      -0.684400    -2.198063     3.743418 
H       2.147520    -2.797553     2.743154 
H       0.666682    -3.716115     2.383205 
N       0.939465    -0.449818     2.058292 
C      -0.636668    -2.036262     0.834407 
O      -1.436024    -1.034210     0.643765 
O      -0.910765    -3.192291     0.587673 
C       1.083311     0.691736     1.428626 
C       1.390045     1.920697     2.233822 
H       0.681674     2.055308     3.049644 
H       2.400275     1.827190     2.648061 
H       1.356031     2.804358     1.598690 
C       1.364744     0.767065    -0.057982 
H       1.373060    -0.211460    -0.535281 
H       2.318152     1.265265    -0.255280 
H      -1.080472     0.036664     0.685014 
C      -1.573960     0.656977    -4.257219 
C      -2.402243     0.641440    -3.148285 
C      -1.858311     0.925050    -1.903561 
C      -0.503474     1.217192    -1.775344 
C       0.305113     1.229381    -2.913393 
C      -0.221871     0.947978    -4.163298 
H      -3.452811     0.407529    -3.263663 
H      -2.487413     0.912272    -1.022723 
H       1.362834     1.463147    -2.825132 
H       0.392219     0.952015    -5.054745 
N      -2.148445     0.354822    -5.585514 
O      -3.334553     0.104849    -5.642915 
O      -1.398018     0.375062    -6.539878 
C       0.095818     1.561610    -0.427235 
O      -0.717431     1.277587     0.682465 
H       0.327101     2.638787    -0.444082 
