40
     -1068.718493     -1068.444059   0.00   0.00
C      -0.849305     2.513365    -0.500065 
C      -3.154022     2.099370    -1.054569 
C      -2.771603     3.438474    -1.675497 
C      -1.519577     3.844284    -0.885671 
H       0.077965     2.347624    -1.049414 
H      -3.761393     1.470873    -1.707484 
H      -3.670540     2.239496    -0.097698 
H      -2.535712     3.298537    -2.735373 
H      -3.580292     4.167518    -1.600658 
H      -0.846404     4.482280    -1.458951 
H      -1.792383     4.389135     0.021234 
N      -1.842490     1.475164    -0.816461 
C      -0.567019     2.400574     1.051894 
O       0.170241     3.244134     1.532562 
O      -1.167348     1.425469     1.612883 
C      -1.672587     0.295428    -0.275879 
C      -2.835511    -0.605733    -0.022119 
H      -2.699042    -1.066504     0.958517 
H      -3.787684    -0.081541    -0.036521 
H      -2.847747    -1.405914    -0.770557 
C      -0.305432    -0.338853    -0.259963 
H       0.479400     0.406797    -0.144082 
H      -0.183774    -0.769314    -1.265041 
H      -0.603590    -0.114150     2.102920 
C       3.937396    -2.828035     0.374125 
C       2.984563    -3.278619    -0.525291 
C       1.677371    -2.842744    -0.372809 
C       1.329060    -1.970288     0.657300 
C       2.308056    -1.541296     1.549559 
C       3.621361    -1.968331     1.412945 
H       3.270466    -3.955409    -1.320208 
H       0.915965    -3.195221    -1.063951 
H       2.033041    -0.878853     2.361274 
H       4.395176    -1.645962     2.097915 
N       5.335212    -3.284256     0.221798 
O       5.583291    -4.038416    -0.696548 
O       6.150823    -2.877660     1.023060 
C      -0.103457    -1.467798     0.772259 
O      -0.411706    -1.076796     2.083287 
H      -0.760768    -2.306829     0.501275 
40
     -1068.718493     -1068.444058   0.00   0.00
C       1.476305     1.116163    -1.965474 
C       1.273035     3.446822    -1.402185 
C       1.633405     3.367523    -2.881658 
C       2.215973     1.954519    -3.023468 
H       0.781010     0.407866    -2.417096 
H       0.510169     4.193256    -1.176176 
H       2.161418     3.633977    -0.787550 
H       0.728165     3.478689    -3.487254 
H       2.335074     4.151319    -3.172189 
H       2.087286     1.542691    -4.024811 
H       3.286423     1.952207    -2.804619 
N       0.763777     2.093382    -1.127779 
C       2.463363     0.341296    -1.003039 
O       3.217814    -0.459105    -1.528728 
O       2.345183     0.667843     0.223882 
C       0.338140     1.686686     0.041112 
C       0.162211     2.648310     1.169474 
H       0.693235     3.584018     1.014287 
H      -0.904726     2.853135     1.311917 
H       0.536655     2.174632     2.079420 
C      -0.349406     0.351892     0.172578 
H       0.067419    -0.381520    -0.515715 
H      -1.384083     0.535612    -0.152952 
H       1.564456    -0.116317     1.529236 
C      -2.406074    -4.011025     1.327900 
C      -1.023257    -3.996023     1.403473 
C      -0.373875    -2.773937     1.506433 
C      -1.101432    -1.587102     1.532459 
C      -2.492996    -1.636174     1.463438 
C      -3.158427    -2.847897     1.358935 
H      -0.473878    -4.928577     1.382959 
H       0.706200    -2.736270     1.579674 
H      -3.069289    -0.715173     1.499469 
H      -4.238106    -2.902145     1.303900 
N      -3.103365    -5.309619     1.215349 
O      -2.422897    -6.314108     1.192391 
O      -4.315553    -5.292961     1.152240 
C      -0.393379    -0.240856     1.596485 
O       0.873954    -0.349590     2.187023 
H      -1.009928     0.416567     2.226664 
40
     -1068.718441     -1068.443465   0.03   0.38
C       1.361531     0.927169    -2.037335 
C      -0.378928     1.642910    -3.556828 
C       0.926887     2.377772    -3.876701 
C       2.006683     1.450422    -3.314197 
H       1.772316    -0.031281    -1.718441 
H      -0.664463     0.960793    -4.363980 
H      -1.206401     2.324811    -3.366779 
H       1.030954     2.568619    -4.946447 
H       0.950813     3.338114    -3.353575 
H       2.212743     0.626483    -4.005445 
H       2.941453     1.961124    -3.085131 
N      -0.069290     0.835647    -2.354914 
C       1.460068     1.959792    -0.836216 
O       2.572456     2.358089    -0.538901 
O       0.328869     2.248989    -0.319702 
C      -0.885072     0.703744    -1.332758 
C      -2.294840     1.195324    -1.448747 
H      -2.744826     0.830644    -2.376815 
H      -2.900376     0.873622    -0.606394 
H      -2.293834     2.287191    -1.467664 
C      -0.563961    -0.293125    -0.246481 
H       0.508949    -0.349654    -0.073544 
H      -0.868686    -1.268060    -0.654730 
H      -0.579618     1.734562     1.043424 
C       0.430274    -2.871743     3.869617 
C       0.815723    -1.543107     3.932620 
C       0.245713    -0.640313     3.046034 
C      -0.694683    -1.064829     2.111426 
C      -1.068162    -2.407719     2.079089 
C      -0.508609    -3.323836     2.956267 
H       1.547668    -1.230191     4.666279 
H       0.522399     0.406260     3.085023 
H      -1.813362    -2.745128     1.363219 
H      -0.788032    -4.369511     2.942831 
N       1.035656    -3.838729     4.809545 
O       0.678009    -4.996241     4.732771 
O       1.853731    -3.418083     5.601008 
C      -1.288611    -0.089538     1.102778 
O      -1.246346     1.235128     1.559401 
H      -2.344798    -0.366119     0.980394 
40
     -1068.712220     -1068.439581   3.94   2.81
C      -1.054856    -0.811496    -1.163952 
C       1.103311    -1.906826    -1.212460 
C       0.512329    -1.847945    -2.625620 
C      -0.472753    -0.676800    -2.561346 
H      -1.446780     0.126672    -0.774444 
H       2.012600    -1.303164    -1.125384 
H       1.318619    -2.925080    -0.887834 
H       1.290244    -1.724811    -3.382002 
H      -0.028928    -2.773886    -2.838576 
H       0.046035     0.282261    -2.674120 
H      -1.266215    -0.743405    -3.304447 
N       0.062490    -1.299355    -0.353365 
C      -2.187776    -1.940114    -1.043439 
O      -3.079196    -1.858972    -1.883069 
O      -2.009021    -2.748477    -0.097575 
C      -0.153828    -1.628246     0.881116 
C       0.772212    -2.572656     1.582369 
H       1.816855    -2.398862     1.314166 
H       0.656172    -2.500585     2.663665 
H       0.502890    -3.589807     1.279649 
C      -1.146571    -0.897156     1.736721 
H      -1.543080    -1.594904     2.475693 
H      -1.985191    -0.510330     1.164988 
H      -1.073197     1.532230     3.842262 
C       0.871996     3.123934    -0.422821 
C       1.805653     2.293393     0.173020 
C       1.369206     1.394735     1.136879 
C       0.025026     1.325107     1.493194 
C      -0.886341     2.192395     0.889936 
C      -0.469478     3.096987    -0.075143 
H       2.845697     2.351250    -0.120743 
H       2.090779     0.737721     1.614723 
H      -1.933041     2.148332     1.172414 
H      -1.165564     3.768307    -0.561376 
N       1.321380     4.071633    -1.466786 
O       0.481178     4.780384    -1.979857 
O       2.501879     4.077151    -1.747148 
C      -0.462490     0.274222     2.474652 
O      -1.442846     0.781350     3.365504 
H       0.400599    -0.105184     3.040559 
40
     -1068.712487     -1068.439544   3.77   2.84
C      -1.541027    -1.088227    -1.727983 
C      -3.518816    -1.353090    -0.361501 
C      -3.759376    -1.944338    -1.755655 
C      -2.350683    -2.256440    -2.268945 
H      -0.476268    -1.306817    -1.636846 
H      -3.546351    -2.120688     0.418069 
H      -4.231233    -0.567152    -0.111266 
H      -4.412286    -2.818585    -1.714259 
H      -4.229417    -1.195427    -2.398698 
H      -1.987652    -3.207681    -1.863984 
H      -2.285852    -2.283841    -3.355830 
N      -2.146633    -0.800228    -0.425471 
C      -1.726550     0.250583    -2.595446 
O      -1.483110     0.113220    -3.790860 
O      -2.084834     1.251762    -1.927817 
C      -1.761412     0.260204     0.217172 
C      -2.651844     0.893988     1.236479 
H      -3.389811     1.503710     0.704863 
H      -3.177134     0.142835     1.829842 
H      -2.074881     1.531355     1.902644 
C      -0.329852     0.720304     0.147555 
H      -0.283029     1.761092     0.471532 
H       0.066276     0.673805    -0.862462 
H       0.484275    -0.665377     2.951597 
C       4.571085     1.285500     0.963962 
C       3.655561     1.916433     1.790955 
C       2.355347     1.436321     1.829288 
C       1.980346     0.340535     1.052012 
C       2.926499    -0.274951     0.235970 
C       4.231797     0.194251     0.183252 
H       3.964607     2.765728     2.386645 
H       1.622157     1.915174     2.469432 
H       2.646764    -1.135461    -0.365092 
H       4.978416    -0.271461    -0.446922 
N       5.959882     1.794711     0.915085 
O       6.740336     1.223438     0.182678 
O       6.231031     2.751335     1.609892 
C       0.545352    -0.150163     1.064854 
O      -0.033192    -0.106210     2.363703 
H       0.521510    -1.180146     0.681554 
40
     -1068.712487     -1068.439542   3.77   2.84
C      -1.461812    -1.672204     1.269558 
C       0.129028    -3.480811     1.486912 
C      -1.219711    -3.890973     2.090054 
C      -2.228535    -2.980637     1.383760 
H      -1.827407    -1.026356     0.470170 
H       0.388408    -4.088989     0.614824 
H       0.943437    -3.530649     2.209481 
H      -1.417205    -4.955244     1.946399 
H      -1.223049    -3.683398     3.163465 
H      -2.485349    -3.373787     0.393747 
H      -3.143244    -2.828476     1.955099 
N      -0.074882    -2.084117     1.039362 
C      -1.442649    -0.841585     2.643977 
O      -2.555425    -0.615042     3.110403 
O      -0.293152    -0.532124     3.043159 
C       0.852677    -1.175625     1.052749 
C       2.270245    -1.544074     1.349879 
H       2.371404    -1.640627     2.435889 
H       2.541575    -2.494035     0.884913 
H       2.947256    -0.770235     0.995300 
C       0.579687     0.205754     0.520611 
H       1.344390     0.883243     0.903538 
H      -0.385171     0.585343     0.843368 
H       1.911526    -0.400317    -2.361134 
C      -0.001327     4.158626    -2.486444 
C      -1.070375     3.279920    -2.464927 
C      -0.854852     1.989186    -2.002013 
C       0.406197     1.589715    -1.565974 
C       1.463613     2.498546    -1.603769 
C       1.266746     3.790973    -2.065732 
H      -2.044403     3.606631    -2.805480 
H      -1.682257     1.285510    -1.986306 
H       2.448072     2.189361    -1.269257 
H       2.075119     4.509920    -2.101892 
N      -0.219829     5.537636    -2.977390 
O      -1.339641     5.832321    -3.339420 
O       0.733940     6.287063    -2.986896 
C       0.619041     0.192154    -1.016725 
O       1.873440    -0.358172    -1.400493 
H      -0.195527    -0.454425    -1.372769 
40
     -1068.714869     -1068.439524   2.27   2.85
C      -1.082264     2.129631    -1.916296 
C      -0.131525     0.369081    -3.269911 
C      -1.413666     0.896751    -3.924431 
C      -1.563682     2.306845    -3.348540 
H      -0.743426     3.060415    -1.463245 
H       0.751320     0.570272    -3.884742 
H      -0.181054    -0.699671    -3.064460 
H      -1.346923     0.876150    -5.013889 
H      -2.265037     0.280612    -3.622420 
H      -0.929163     3.019862    -3.885830 
H      -2.590961     2.668951    -3.357425 
N      -0.007201     1.137076    -2.009734 
C      -2.179826     1.464396    -0.974229 
O      -3.272461     2.015331    -0.952148 
O      -1.769754     0.438403    -0.356660 
C       0.449821     0.626436    -0.895095 
C       1.099071    -0.723926    -0.927157 
H       1.688533    -0.899417    -0.031208 
H       0.328397    -1.496089    -0.989806 
H       1.745628    -0.806576    -1.805514 
C       0.728764     1.512396     0.289731 
H       0.454515     2.544969     0.079587 
H       1.822294     1.494836     0.399115 
H       0.272785     2.065220     3.389472 
C       0.903670    -2.847798     2.927337 
C       1.885484    -1.886926     3.108999 
C       1.620014    -0.586904     2.704334 
C       0.394062    -0.258273     2.125315 
C      -0.576712    -1.244903     1.964324 
C      -0.324914    -2.550739     2.361978 
H       2.830720    -2.160134     3.560100 
H       2.368680     0.185927     2.843466 
H      -1.524081    -0.985789     1.505088 
H      -1.064834    -3.331080     2.238829 
N       1.176878    -4.237776     3.356389 
O       2.261204    -4.470154     3.849041 
O       0.300565    -5.059642     3.188793 
C       0.122967     1.160820     1.661501 
O       0.718610     2.115967     2.537731 
H      -0.956502     1.305458     1.601606 
40
     -1068.713426     -1068.438784   3.18   3.31
C      -1.228109     1.822518    -2.096562 
C      -0.539733    -0.195484    -3.197756 
C      -1.139372     0.710451    -4.267783 
C      -1.948703     1.730800    -3.454012 
H      -0.763520     2.795464    -1.942585 
H       0.356466    -0.723984    -3.523879 
H      -1.274282    -0.920001    -2.827370 
H      -0.335015     1.203936    -4.823048 
H      -1.748159     0.149867    -4.979407 
H      -2.010146     2.703048    -3.944296 
H      -2.971321     1.381792    -3.294797 
N      -0.222555     0.751670    -2.117702 
C      -2.189227     1.499785    -0.877475 
O      -3.144116     2.255085    -0.744866 
O      -1.843628     0.489459    -0.200472 
C       0.355423     0.407582    -0.999753 
C       0.917988    -0.974116    -0.880768 
H       1.491734    -1.093579     0.033819 
H       0.103958    -1.702589    -0.885372 
H       1.568874    -1.180445    -1.736193 
C       0.803052     1.454194    -0.017581 
H       0.557385     2.452825    -0.376974 
H       1.900018     1.381342    -0.013529 
H       0.718491     2.547541     2.967278 
C       1.016416    -2.426952     3.274088 
C       2.065344    -1.524455     3.199312 
C       1.831691    -0.287458     2.616582 
C       0.570488     0.035543     2.115439 
C      -0.467295    -0.889070     2.215032 
C      -0.248026    -2.131806     2.792964 
H       3.037232    -1.793057     3.592873 
H       2.633777     0.440235     2.552289 
H      -1.442203    -0.635248     1.814433 
H      -1.040123    -2.865193     2.872385 
N       1.255781    -3.749874     3.893282 
O       2.372911    -3.982398     4.306171 
O       0.321094    -4.521009     3.949518 
C       0.333287     1.377414     1.448432 
O       1.079524     2.413008     2.085073 
H      -0.735399     1.593157     1.473216 
40
     -1068.710936     -1068.438683   4.74   3.38
C      -1.292825    -1.648980    -1.346101 
C      -0.520676    -1.140813    -3.569073 
C      -2.035115    -1.306414    -3.645962 
C      -2.375500    -2.066133    -2.355548 
H      -1.691535    -1.028460    -0.542767 
H      -0.143329    -0.303018    -4.156077 
H       0.003232    -2.058489    -3.858250 
H      -2.511047    -0.320062    -3.655361 
H      -2.339304    -1.837356    -4.550007 
H      -3.378271    -1.842721    -1.989326 
H      -2.320104    -3.145642    -2.512304 
N      -0.299516    -0.905696    -2.132897 
C      -0.534921    -2.902713    -0.707184 
O      -1.270058    -3.645431    -0.060525 
O       0.694097    -2.949112    -0.951253 
C       0.839055    -0.607141    -1.591565 
C       2.063763    -0.359373    -2.401357 
H       2.433666     0.647965    -2.194208 
H       2.812699    -1.076178    -2.049905 
H       1.919955    -0.500454    -3.469947 
C       0.918523    -0.271044    -0.125982 
H       1.966289    -0.274416     0.181592 
H       0.394409    -1.000913     0.483723 
H       0.644420     2.920726    -0.551802 
C       0.431894     1.901942     4.337410 
C       1.514680     2.278679     3.560435 
C       1.468832     2.037821     2.194554 
C       0.352873     1.432155     1.620113 
C      -0.721143     1.066525     2.429545 
C      -0.690598     1.297203     3.796841 
H       2.372498     2.748112     4.024655 
H       2.307809     2.320759     1.568442 
H      -1.594117     0.592544     1.989305 
H      -1.515521     1.017818     4.439409 
N       0.475620     2.153014     5.795145 
O       1.469882     2.684122     6.243377 
O      -0.486077     1.811624     6.451328 
C       0.316211     1.119189     0.136087 
O       1.051591     2.053364    -0.642506 
H      -0.732341     1.106998    -0.192057 
40
     -1068.710936     -1068.438680   4.74   3.38
C      -1.486439     0.972107    -1.745966 
C      -3.548234     1.202438    -0.524499 
C      -3.897226     0.618328    -1.889739 
C      -2.659282     0.938377    -2.740191 
H      -0.799992     0.136247    -1.885570 
H      -4.092396     0.740149     0.299541 
H      -3.693255     2.288033    -0.498330 
H      -4.039508    -0.463823    -1.799203 
H      -4.816987     1.047977    -2.291195 
H      -2.496004     0.208960    -3.534467 
H      -2.753917     1.918151    -3.213551 
N      -2.108126     0.917626    -0.416036 
C      -0.661843     2.339394    -1.817088 
O      -0.129870     2.537598    -2.907016 
O      -0.671245     3.009921    -0.757601 
C      -1.379031     1.142685     0.631001 
C      -1.957904     1.631770     1.912706 
H      -1.731695     0.914651     2.705826 
H      -1.441396     2.568909     2.143405 
H      -3.027090     1.824623     1.866674 
C       0.059075     0.697830     0.665188 
H       0.555556     1.170249     1.515338 
H       0.593390     0.992486    -0.233048 
H      -0.554474    -2.135481     2.093393 
C       4.251448    -2.004272     0.725046 
C       3.539980    -1.957502    -0.462193 
C       2.202655    -1.592784    -0.415348 
C       1.590836    -1.278568     0.796806 
C       2.334299    -1.333799     1.974259 
C       3.672608    -1.699666     1.945787 
H       4.030318    -2.202844    -1.395371 
H       1.630036    -1.550640    -1.337781 
H       1.862558    -1.086865     2.918947 
H       4.266159    -1.748448     2.849688 
N       5.679065    -2.392113     0.687208 
O       6.160200    -2.652330    -0.395742 
O       6.279444    -2.425574     1.740758 
C       0.141525    -0.830402     0.813231 
O      -0.528696    -1.176345     2.017727 
H      -0.374543    -1.287049    -0.042592 
40
     -1068.713059     -1068.438661   3.41   3.39
C      -1.932424    -2.176988    -0.293623 
C      -0.862392    -1.280585    -2.269756 
C      -1.933422    -2.302519    -2.670759 
C      -2.883803    -2.327402    -1.470065 
H      -2.402196    -1.766894     0.598694 
H      -1.111517    -0.272875    -2.617562 
H       0.128583    -1.546803    -2.637604 
H      -2.420747    -2.027084    -3.608457 
H      -1.475278    -3.286923    -2.799777 
H      -3.590174    -1.490894    -1.510351 
H      -3.440187    -3.259984    -1.383933 
N      -0.883016    -1.282093    -0.790248 
C      -1.177594    -3.542373     0.071026 
O      -1.915036    -4.508406     0.241590 
O       0.075321    -3.438451     0.136790 
C       0.166088    -1.098002    -0.048505 
C       1.467036    -0.697105    -0.671906 
H       1.326742     0.040445    -1.464360 
H       2.148558    -0.291407     0.073321 
H       1.916520    -1.597598    -1.103749 
C       0.067492    -1.043193     1.453853 
H       1.052923    -1.280939     1.857725 
H      -0.630262    -1.779706     1.841466 
H      -2.095021     1.282929     2.016099 
C       2.125356     3.521516     0.598803 
C       2.485204     2.827435     1.742108 
C       1.654137     1.808445     2.184720 
C       0.488249     1.485777     1.492747 
C       0.152611     2.206519     0.348156 
C       0.970152     3.231267    -0.107412 
H       3.394783     3.087906     2.267606 
H       1.917948     1.260464     3.085407 
H      -0.754940     1.959677    -0.191681 
H       0.724182     3.800974    -0.994399 
N       3.003051     4.612491     0.117807 
O       2.662548     5.203353    -0.885146 
O       4.007145     4.845382     0.757047 
C      -0.382325     0.338734     1.974691 
O      -1.739396     0.496698     1.590363 
H      -0.304900     0.288213     3.069277 
40
     -1068.710307     -1068.437801   5.14   3.93
C      -1.980120     1.118154     1.998879 
C       0.348186     1.075466     2.611723 
C      -0.451506     0.671595     3.846477 
C      -1.861217     1.192098     3.530858 
H      -2.655553     0.324725     1.679397 
H       1.247473     0.480013     2.448657 
H       0.615037     2.138090     2.637908 
H      -0.450743    -0.419186     3.944846 
H      -0.031167     1.095347     4.760553 
H      -2.645038     0.617038     4.025015 
H      -1.971714     2.231549     3.848990 
N      -0.617181     0.859394     1.523788 
C      -2.440832     2.500515     1.350095 
O      -3.558427     2.868090     1.702708 
O      -1.599706     3.017060     0.573605 
C      -0.339650     0.990471     0.265506 
C       1.070758     1.272088    -0.145601 
H       1.138747     1.423319    -1.221073 
H       1.422807     2.170468     0.367355 
H       1.724308     0.437240     0.124368 
C      -1.343566     0.648646    -0.800256 
H      -1.148315     1.282975    -1.666023 
H      -2.359222     0.861466    -0.473303 
H      -2.527589    -1.550696     0.121195 
C       2.501080    -1.987587    -2.832869 
C       1.689745    -1.117479    -3.544029 
C       0.462797    -0.769861    -3.002256 
C       0.054687    -1.275474    -1.767361 
C       0.888369    -2.155219    -1.081932 
C       2.120517    -2.516206    -1.612350 
H       2.020092    -0.730715    -4.499261 
H      -0.188535    -0.097603    -3.554461 
H       0.568687    -2.564906    -0.132013 
H       2.780278    -3.198575    -1.092072 
N       3.812815    -2.367833    -3.401498 
O       4.502173    -3.132282    -2.759712 
O       4.117657    -1.890424    -4.474505 
C      -1.284679    -0.846800    -1.203616 
O      -1.599729    -1.677347    -0.098761 
H      -2.031726    -0.977616    -1.998965 
40
     -1068.711589     -1068.437609   4.33   4.05
C       0.482882    -2.885820     0.330123 
C      -0.085239    -2.036800    -1.861763 
C       0.084150    -3.558967    -1.917593 
C      -0.164534    -4.003705    -0.473824 
H       0.071040    -2.790308     1.334074 
H      -1.119565    -1.736226    -2.056584 
H       0.571242    -1.514981    -2.557327 
H      -0.598444    -4.013763    -2.638440 
H       1.108036    -3.807049    -2.210689 
H      -1.237985    -4.065461    -0.263031 
H       0.301125    -4.957900    -0.230138 
N       0.247086    -1.678782    -0.464990 
C       2.075312    -3.030056     0.430297 
O       2.461921    -4.106448     0.874565 
O       2.710962    -2.013407     0.049677 
C       0.858443    -0.585684    -0.119390 
C       1.126970     0.474472    -1.141768 
H       1.432306     1.405518    -0.669874 
H       1.940213     0.124323    -1.785126 
H       0.245452     0.663450    -1.758607 
C       1.085584    -0.237596     1.327629 
H       1.946775     0.430736     1.380095 
H       1.332160    -1.116925     1.918642 
H      -1.064142    -1.140846     2.653657 
C      -1.272791     4.016014    -0.084449 
C      -0.160985     4.030777     0.742615 
C       0.175808     2.865741     1.413829 
C      -0.580629     1.704595     1.256707 
C      -1.696963     1.724041     0.424921 
C      -2.050075     2.883418    -0.252845 
H       0.417728     4.938629     0.852489 
H       1.039823     2.863470     2.073196 
H      -2.298228     0.829973     0.315241 
H      -2.915400     2.916594    -0.902291 
N      -1.643939     5.253703    -0.805226 
O      -0.944843     6.230923    -0.636816 
O      -2.623213     5.214135    -1.519999 
C      -0.151220     0.440720     1.970852 
O      -1.253734    -0.450288     2.011567 
H       0.146907     0.719781     2.990598 
40
     -1068.710896     -1068.437563   4.77   4.08
C      -1.797810     0.647947    -0.432930 
C      -1.558354     0.075288     1.901045 
C      -2.347396    -1.043851     1.228776 
C      -2.881978    -0.367577    -0.041121 
H      -1.218525     0.311465    -1.291500 
H      -0.798171    -0.274791     2.600256 
H      -2.218848     0.789005     2.406057 
H      -1.671154    -1.868975     0.977874 
H      -3.136171    -1.432513     1.875768 
H      -3.080318    -1.073537    -0.848063 
H      -3.815310     0.161998     0.165855 
N      -0.933167     0.746919     0.750430 
C      -2.375976     2.106023    -0.723646 
O      -3.177862     2.135949    -1.655401 
O      -1.937463     3.003949     0.032013 
C      -0.011117     1.644548     0.826278 
C       0.536133     2.033856     2.164405 
H      -0.276263     2.415664     2.788295 
H       0.979438     1.174041     2.676484 
H       1.292491     2.811282     2.060295 
C       0.690954     2.165045    -0.390553 
H       0.879113     3.231186    -0.257995 
H       0.099038     2.040096    -1.292997 
H       3.464232     1.571517    -1.908098 
C       1.252248    -2.762422    -0.937634 
C       1.820124    -2.288377     0.232228 
C       2.103720    -0.932202     0.325314 
C       1.816663    -0.067654    -0.727574 
C       1.268614    -0.582363    -1.902906 
C       0.979422    -1.933858    -2.015223 
H       2.029389    -2.970197     1.046343 
H       2.558344    -0.546436     1.233799 
H       1.058427     0.085257    -2.732076 
H       0.542774    -2.347387    -2.915293 
N       0.927704    -4.202357    -1.041827 
O       1.185446    -4.904811    -0.086525 
O       0.420767    -4.589505    -2.073509 
C       2.035090     1.428069    -0.580001 
O       2.622100     2.005458    -1.734200 
H       2.673647     1.604251     0.297555 
40
     -1068.710651     -1068.437048   4.92   4.40
C      -0.617036     0.262265     1.633238 
C      -0.042160     2.390647     0.631531 
C       0.268782     2.415577     2.132083 
C       0.439050     0.936904     2.493527 
H      -0.390184    -0.782110     1.423589 
H       0.867157     2.460925     0.025651 
H      -0.734056     3.177389     0.330135 
H       1.148934     3.023914     2.350277 
H      -0.580977     2.833832     2.678679 
H       1.440603     0.578923     2.228560 
H       0.251995     0.728837     3.546096 
N      -0.643210     1.057818     0.404614 
C      -2.101515     0.367470     2.232498 
O      -2.203848     0.026185     3.406440 
O      -2.959650     0.778998     1.410201 
C      -1.542467     0.799346    -0.490633 
C      -1.936220     1.843815    -1.488288 
H      -1.077457     2.422440    -1.836180 
H      -2.443545     1.395821    -2.342837 
H      -2.636609     2.527944    -0.998325 
C      -2.028215    -0.597250    -0.746700 
H      -3.074082    -0.528590    -1.059091 
H      -1.992724    -1.221005     0.141753 
H      -2.631839    -2.497083    -2.361976 
C       2.837831    -1.558398    -0.475546 
C       2.505242    -0.548906    -1.362536 
C       1.202095    -0.491671    -1.836813 
C       0.250660    -1.421444    -1.427166 
C       0.623452    -2.440218    -0.550844 
C       1.921141    -2.514621    -0.067480 
H       3.253784     0.171500    -1.665799 
H       0.926175     0.292327    -2.536757 
H      -0.109446    -3.179044    -0.246861 
H       2.225780    -3.293706     0.619332 
N       4.218084    -1.618754     0.052951 
O       4.483044    -2.511012     0.831146 
O       4.999256    -0.768688    -0.321353 
C      -1.191732    -1.278505    -1.860327 
O      -1.702636    -2.574556    -2.123008 
H      -1.223461    -0.667311    -2.773782 
40
     -1068.709061     -1068.435893   5.92   5.13
C       0.457666    -0.073191     1.817986 
C      -1.424028    -1.548664     1.429893 
C      -1.519347    -0.933143     2.829649 
C      -0.692425     0.350865     2.717955 
H       0.906897     0.762745     1.284655 
H      -2.232790    -1.204158     0.777543 
H      -1.420067    -2.638341     1.447362 
H      -2.556827    -0.761478     3.123773 
H      -1.061852    -1.605398     3.560741 
H      -1.275096     1.154004     2.252573 
H      -0.307789     0.698984     3.675644 
N      -0.143950    -1.035548     0.890298 
C       1.607841    -0.877023     2.592263 
O       2.053968    -0.295552     3.577317 
O       1.900282    -1.984712     2.077487 
C       0.621421    -1.695514     0.079569 
C       0.160025    -2.996524    -0.499883 
H      -0.888833    -2.957856    -0.803452 
H       0.775591    -3.283709    -1.351693 
H       0.268722    -3.765548     0.271468 
C       1.865727    -1.100484    -0.511724 
H       2.604687    -1.896190    -0.616040 
H       2.297479    -0.335933     0.130663 
H       3.192637     0.580708    -2.101954 
C      -1.229565     2.724649    -1.619090 
C      -1.608177     1.564688    -2.271415 
C      -0.687227     0.530032    -2.369598 
C       0.588718     0.649816    -1.826296 
C       0.939019     1.839912    -1.185962 
C       0.035103     2.884547    -1.074732 
H      -2.603673     1.480171    -2.687801 
H      -0.969558    -0.383657    -2.884278 
H       1.927006     1.962069    -0.749397 
H       0.293164     3.807692    -0.572115 
N      -2.205643     3.829231    -1.495688 
O      -1.856818     4.818852    -0.886600 
O      -3.293997     3.675031    -2.008791 
C       1.570834    -0.506536    -1.909271 
O       2.777665    -0.154512    -2.565116 
H       1.133201    -1.280324    -2.545943 
40
     -1068.709314     -1068.435422   5.76   5.42
C      -0.764076     1.658141     0.632266 
C       1.641364     1.590006     0.860640 
C       1.037456     1.411713     2.250161 
C      -0.376994     1.983361     2.082815 
H      -1.471446     0.831416     0.577281 
H       2.476431     0.920852     0.650191 
H       1.949239     2.626425     0.682897 
H       1.001648     0.345371     2.499943 
H       1.621849     1.923339     3.017301 
H      -1.092183     1.565175     2.791547 
H      -0.375282     3.067398     2.222021 
N       0.499630     1.281806    -0.015417 
C      -1.348371     2.913860    -0.159367 
O      -2.373494     3.373138     0.339824 
O      -0.685251     3.252952    -1.167800 
C       0.566321     1.118769    -1.291957 
C       1.892584     1.191939    -1.982373 
H       1.780071     1.034998    -3.054945 
H       2.328933     2.180445    -1.816502 
H       2.587371     0.445346    -1.585830 
C      -0.610489     0.650232    -2.092235 
H      -0.611023     1.196241    -3.039526 
H      -1.554230     0.851076    -1.592848 
H      -1.730295    -0.799828    -3.879066 
C      -0.323140    -2.829128     1.438411 
C       0.833285    -2.717685     0.686416 
C       0.751702    -2.116987    -0.562839 
C      -0.460380    -1.631439    -1.044396 
C      -1.612451    -1.781994    -0.272825 
C      -1.551059    -2.380963     0.975963 
H       1.770191    -3.092595     1.077528 
H       1.648367    -2.032830    -1.170606 
H      -2.563008    -1.426707    -0.655052 
H      -2.433374    -2.498073     1.591918 
N      -0.246271    -3.450340     2.778578 
O       0.839813    -3.841057     3.153963 
O      -1.272204    -3.527227     3.421403 
C      -0.514619    -0.875070    -2.353816 
O      -1.655796    -1.315833    -3.069733 
H       0.399184    -1.096237    -2.923934 
40
     -1068.708487     -1068.435402   6.28   5.44
C       1.769787    -1.449549    -1.138822 
C       3.755821    -0.305022    -0.358094 
C       4.141222    -1.419005    -1.337444 
C       2.873429    -1.623455    -2.171726 
H       0.814771    -1.154207    -1.575341 
H       3.987196     0.687385    -0.757469 
H       4.232837    -0.416013     0.615330 
H       5.016039    -1.147042    -1.931565 
H       4.371868    -2.333454    -0.784233 
H       2.797385    -0.866009    -2.959874 
H       2.809855    -2.612968    -2.622440 
N       2.286184    -0.423498    -0.227752 
C       1.550171    -2.761974    -0.239037 
O       1.305065    -3.776002    -0.886771 
O       1.645644    -2.564825     0.996884 
C       1.628471    -0.162857     0.858343 
C       2.322855     0.454569     2.029189 
H       2.928344    -0.317436     2.514487 
H       2.977358     1.270906     1.715091 
H       1.601355     0.836255     2.748428 
C       0.125219    -0.244562     0.876298 
H      -0.200839    -0.328074     1.915670 
H      -0.225011    -1.126491     0.348619 
H      -0.462951     2.378795     1.624533 
C      -4.737266     1.200175     0.001774 
C      -3.977256     2.276953    -0.428481 
C      -2.598446     2.186354    -0.342728 
C      -1.981607     1.039728     0.166612 
C      -2.776215    -0.022167     0.591553 
C      -4.162126     0.051209     0.509924 
H      -4.465768     3.159644    -0.820460 
H      -1.983058     3.016013    -0.675233 
H      -2.328622    -0.923832     0.992648 
H      -4.790618    -0.767608     0.835896 
N      -6.212649     1.283787    -0.085930 
O      -6.851746     0.326710     0.297310 
O      -6.689873     2.304255    -0.535587 
C      -0.460315     1.014998     0.220462 
O       0.050459     2.199559     0.829509 
H      -0.086969     1.058751    -0.809573 
40
     -1068.709860     -1068.435400   5.42   5.44
C      -1.402795    -2.721098    -0.018223 
C      -2.614480    -1.293544     1.506264 
C      -3.594144    -2.188440     0.737243 
C      -2.737129    -3.378297     0.298614 
H      -0.564414    -3.415164     0.022541 
H      -2.623007    -1.508068     2.579389 
H      -2.818561    -0.233773     1.357082 
H      -4.448898    -2.471575     1.354491 
H      -3.968819    -1.658090    -0.142445 
H      -2.629121    -4.105648     1.110428 
H      -3.124527    -3.885183    -0.584187 
N      -1.279321    -1.646209     0.970584 
C      -1.397385    -1.983576    -1.430974 
O      -1.756056    -2.658837    -2.386824 
O      -1.012467    -0.779840    -1.377349 
C      -0.312117    -0.779891     0.818593 
C      -0.463362     0.589548     1.407772 
H       0.494830     1.097120     1.479652 
H      -1.120557     1.184758     0.768819 
H      -0.912541     0.524446     2.402669 
C       1.074635    -1.238371     0.447797 
H       1.105741    -2.318092     0.310580 
H       1.678713    -1.017872     1.341530 
H       3.630774    -0.922704    -0.183034 
C       1.918076     3.663201    -0.720918 
C       2.799067     2.960966     0.085210 
C       2.753432     1.575100     0.058910 
C       1.845610     0.899434    -0.757880 
C       0.974549     1.638014    -1.556102 
C       1.003473     3.025551    -1.541251 
H       3.499102     3.495520     0.714183 
H       3.441750     1.027406     0.697797 
H       0.257169     1.114352    -2.177309 
H       0.329476     3.610289    -2.153965 
N       1.956993     5.142267    -0.701984 
O       1.176307     5.733533    -1.417392 
O       2.767797     5.672140     0.029144 
C       1.780091    -0.616398    -0.780044 
O       3.062909    -1.215462    -0.902612 
H       1.229210    -0.917513    -1.666801 
40
     -1068.709547     -1068.434826   5.61   5.80
C      -2.978148    -0.294085     0.185054 
C      -1.858103     0.479318     2.191188 
C      -3.346910     0.247198     2.473687 
C      -3.774301    -0.753527     1.396676 
H      -2.827215    -1.074425    -0.560039 
H      -1.219959    -0.193538     2.772516 
H      -1.551160     1.508974     2.374395 
H      -3.509754    -0.111022     3.492259 
H      -3.896877     1.183222     2.347261 
H      -3.505078    -1.777186     1.682253 
H      -4.839873    -0.715350     1.175486 
N      -1.697457     0.154760     0.752076 
C      -3.631958     0.990244    -0.529976 
O      -4.803937     0.815493    -0.856561 
O      -2.861171     1.966493    -0.654207 
C      -0.775561     0.662031     0.000068 
C       0.291703     1.520452     0.597817 
H       0.622597     1.151253     1.570273 
H       1.147592     1.601190    -0.068665 
H      -0.138350     2.520026     0.732142 
C      -0.667537     0.305944    -1.454102 
H      -0.228391     1.160738    -1.971702 
H      -1.644141     0.125537    -1.892678 
H      -0.595048    -1.911200    -0.165182 
C       4.305201    -0.303751    -0.616732 
C       3.761394     0.383335    -1.691240 
C       2.438513     0.144301    -2.024767 
C       1.663467    -0.758872    -1.294148 
C       2.245860    -1.443904    -0.232342 
C       3.572200    -1.219385     0.115456 
H       4.370246     1.084494    -2.247081 
H       2.004267     0.668012    -2.872042 
H       1.672240    -2.176201     0.322908 
H       4.036303    -1.745363     0.939815 
N       5.716526    -0.055888    -0.248888 
O       6.167773    -0.674910     0.691575 
O       6.333779     0.752044    -0.910684 
C       0.204834    -0.959149    -1.680523 
O      -0.380055    -2.100851    -1.085044 
H       0.176491    -1.156460    -2.756305 
40
     -1068.706517     -1068.434728   7.51   5.86
C      -2.081757    -0.988867     0.902591 
C      -3.736967     0.074028    -0.484489 
C      -4.234214     0.163860     0.954919 
C      -3.408509    -0.911513     1.677426 
H      -1.243433    -0.593650     1.477756 
H      -3.892219     0.981708    -1.069204 
H      -4.179780    -0.780046    -1.009068 
H      -4.017128     1.159270     1.356880 
H      -5.310879    -0.002416     1.023995 
H      -3.248226    -0.680893     2.731218 
H      -3.907187    -1.882210     1.629674 
N      -2.300165    -0.185263    -0.305746 
C      -1.735773    -2.474204     0.419743 
O      -1.569396    -3.263423     1.347716 
O      -1.681007    -2.618823    -0.823654 
C      -1.431059    -0.198400    -1.263221 
C      -1.841270     0.201822    -2.643230 
H      -2.785585    -0.270987    -2.917777 
H      -1.960269     1.289899    -2.689998 
H      -1.076592    -0.089006    -3.363163 
C       0.031327    -0.370522    -0.954496 
H       0.556856    -0.673884    -1.864113 
H       0.182875    -1.156960    -0.223208 
H       0.913261     1.727701    -2.203707 
C       4.651083     0.488494     0.942744 
C       3.660685    -0.337467     1.450312 
C       2.363532    -0.173354     0.993864 
C       2.054526     0.798476     0.038405 
C       3.071461     1.621155    -0.438660 
C       4.378383     1.469870     0.008233 
H       3.910728    -1.089143     2.187864 
H       1.585869    -0.813615     1.398287 
H       2.846367     2.406263    -1.150458 
H       5.176646     2.103461    -0.356513 
N       6.040062     0.319260     1.422271 
O       6.246948    -0.548310     2.244721 
O       6.886128     1.057830     0.963473 
C       0.614826     0.960559    -0.435249 
O       0.453350     1.989233    -1.398041 
H       0.016502     1.290062     0.421904 
40
     -1068.708705     -1068.433535   6.14   6.61
C      -1.406509    -1.994207    -0.672181 
C      -3.231186    -1.068817    -1.968331 
C      -3.082663    -2.560404    -2.272487 
C      -2.388924    -3.104475    -1.023792 
H      -1.170437    -1.971077     0.387360 
H      -4.152930    -0.860966    -1.415146 
H      -3.213608    -0.453845    -2.865957 
H      -4.047854    -3.027926    -2.478048 
H      -2.439586    -2.697256    -3.146781 
H      -3.110700    -3.255911    -0.213641 
H      -1.851312    -4.036053    -1.197176 
N      -2.082200    -0.756168    -1.085251 
C      -0.060521    -2.063552    -1.522643 
O       0.544285    -3.129488    -1.441879 
O       0.220337    -1.004119    -2.143536 
C      -1.403704     0.350760    -1.159662 
C      -1.871720     1.431652    -2.094410 
H      -2.938331     1.631559    -1.961240 
H      -1.318037     2.354185    -1.925886 
H      -1.701491     1.111141    -3.125521 
C      -0.326063     0.834842    -0.219698 
H      -0.770085     1.713904     0.271018 
H       0.471857     1.202638    -0.867608 
H      -0.354392    -0.764071     2.574183 
C       3.682359     2.106374     2.391306 
C       2.445069     2.344425     2.965972 
C       1.345316     1.644593     2.488896 
C       1.490484     0.721283     1.456158 
C       2.749369     0.501150     0.899874 
C       3.857248     1.194895     1.362465 
H       2.354178     3.065738     3.768069 
H       0.365573     1.817990     2.920916 
H       2.859560    -0.218642     0.093573 
H       4.842386     1.039108     0.941997 
N       4.858353     2.851346     2.893123 
O       5.930126     2.624931     2.371554 
O       4.678728     3.642845     3.795016 
C       0.292010    -0.017901     0.884705 
O      -0.723625    -0.237693     1.857051 
H       0.658640    -0.962782     0.477642 
40
     -1068.706558     -1068.432997   7.49   6.95
C      -0.994408    -2.535498    -0.508486 
C      -0.502934    -1.840600    -2.758295 
C      -0.862243    -3.321341    -2.811290 
C      -0.683349    -3.779842    -1.358196 
H      -1.928402    -2.636946     0.044034 
H      -0.940665    -1.263037    -3.573002 
H       0.582357    -1.688784    -2.742225 
H      -1.903739    -3.434523    -3.129900 
H      -0.230774    -3.867142    -3.514676 
H      -1.330538    -4.617895    -1.097429 
H       0.346861    -4.094648    -1.174703 
N      -1.065011    -1.419273    -1.464189 
C       0.188072    -2.184170     0.494782 
O       0.388092    -3.014915     1.376734 
O       0.761886    -1.090281     0.250617 
C      -1.005038    -0.202203    -0.993457 
C      -0.499975     0.916342    -1.836728 
H      -0.264884     0.612637    -2.853436 
H      -1.212114     1.742155    -1.835415 
H       0.419723     1.272101    -1.362859 
C      -1.756671     0.114378     0.277391 
H      -1.621790    -0.681338     1.005099 
H      -2.817282     0.106473    -0.013979 
H      -2.238153     3.264408     0.727276 
C       2.496573     2.304926     2.161448 
C       1.898194     3.126316     1.224197 
C       0.594560     2.846126     0.833375 
C      -0.092443     1.763658     1.374280 
C       0.540632     0.957519     2.319193 
C       1.839059     1.218519     2.717338 
H       2.445935     3.963033     0.810048 
H       0.115678     3.473304     0.090089 
H       0.028889     0.095803     2.733942 
H       2.345256     0.588091     3.436487 
N       3.885918     2.593454     2.580045 
O       4.389501     1.857169     3.402385 
O       4.437961     3.549686     2.075640 
C      -1.532239     1.458919     0.985515 
O      -2.122780     2.477952     0.185637 
H      -2.099715     1.369469     1.922705 
40
     -1068.707511     -1068.432882   6.89   7.02
C       0.020565    -0.688180     2.960927 
C       0.805409     1.556309     2.901329 
C       0.927640     1.105117     4.354446 
C       0.085899    -0.183408     4.412852 
H       0.420900    -1.695209     2.842796 
H       1.631514     2.181207     2.560124 
H      -0.142804     2.076474     2.721153 
H       1.976918     0.894874     4.584402 
H       0.579024     1.874923     5.045116 
H       0.525787    -0.926564     5.079850 
H      -0.928063     0.012017     4.765120 
N       0.784794     0.280673     2.173681 
C      -1.455571    -0.654080     2.347108 
O      -2.308727    -1.239127     3.001884 
O      -1.542965    -0.027028     1.253390 
C       0.753185     0.184198     0.871825 
C       0.989309     1.413307     0.057397 
H       0.737828     1.257588    -0.986622 
H       0.394963     2.240638     0.446672 
H       2.050998     1.678800     0.108075 
C       0.818826    -1.201269     0.258904 
H      -0.111326    -1.734129     0.452012 
H       1.606509    -1.738606     0.803136 
H       3.120103    -1.262809    -1.164054 
C      -1.683272     0.113958    -4.091831 
C      -2.103284    -0.081734    -2.789564 
C      -1.184854    -0.524526    -1.845251 
C       0.137857    -0.764129    -2.211473 
C       0.533272    -0.552267    -3.534173 
C      -0.373176    -0.111234    -4.483722 
H      -3.132671     0.114447    -2.519075 
H      -1.515528    -0.642138    -0.818603 
H       1.563765    -0.729298    -3.818478 
H      -0.079691     0.058202    -5.511528 
N      -2.660373     0.584684    -5.097910 
O      -2.262729     0.749377    -6.232767 
O      -3.799595     0.777573    -4.728251 
C       1.162814    -1.310239    -1.228021 
O       2.421920    -0.699375    -1.510462 
H       1.234830    -2.389020    -1.430415 
40
     -1068.703603     -1068.429731   9.34   9.00
C      -0.636251    -2.208998     1.057464 
C      -1.180824    -1.621332     3.338617 
C      -0.734704    -3.078374     3.326265 
C      -0.952768    -3.479100     1.863593 
H       0.348929    -2.262369     0.601609 
H      -0.771133    -1.036424     4.163434 
H      -2.273980    -1.546574     3.347074 
H       0.324481    -3.144506     3.596870 
H      -1.305872    -3.685415     4.031356 
H      -0.327969    -4.315048     1.548974 
H      -1.994298    -3.767445     1.696507 
N      -0.676498    -1.117765     2.046941 
C      -1.741621    -1.894255    -0.034931 
O      -1.836959    -2.745769    -0.915817 
O      -2.365122    -0.815619     0.141572 
C      -0.785667     0.120163     1.679300 
C      -1.381835     1.105245     2.642235 
H      -2.325856     0.732305     3.041761 
H      -0.694439     1.277084     3.478179 
H      -1.561460     2.059123     2.146770 
C      -0.166407     0.772785     0.469275 
H       0.434165     1.601816     0.879912 
H      -0.995946     1.236005    -0.067867 
H       2.295915     0.176216     0.649986 
C       1.528635     2.617509    -3.813486 
C       2.556729     2.346741    -2.928865 
C       2.309799     1.490701    -1.862444 
C       1.053204     0.921149    -1.687828 
C       0.040405     1.202680    -2.606998 
C       0.268843     2.054481    -3.674465 
H       3.529245     2.797928    -3.079087 
H       3.118682     1.256510    -1.179527 
H      -0.935837     0.741424    -2.485943 
H      -0.506367     2.284317    -4.394095 
N       1.783024     3.530314    -4.949011 
O       0.864023     3.748165    -5.710689 
O       2.894888     4.006017    -5.049450 
C       0.726679     0.008309    -0.513986 
O       1.874769    -0.517715     0.132912 
H       0.199401    -0.850271    -0.926112 
40
     -1068.704480     -1068.429287   8.79   9.27
C       0.217742     1.225151     0.976503 
C       0.978166     2.476707    -0.887891 
C       2.230852     2.071398    -0.117516 
C       1.688497     1.571541     1.233957 
H      -0.031408     0.203729     1.241648 
H       1.102422     2.457726    -1.970729 
H       0.625862     3.468769    -0.580932 
H       2.743786     1.267491    -0.654755 
H       2.926174     2.906581    -0.017377 
H       2.244114     0.704948     1.597150 
H       1.728492     2.344095     2.002837 
N      -0.003984     1.464251    -0.456855 
C      -0.840040     2.173420     1.691289 
O      -0.516263     2.699635     2.742589 
O      -1.939880     2.235841     1.050585 
C      -1.188343     1.352384    -0.989960 
C      -1.518195     2.240753    -2.156603 
H      -2.574001     2.157374    -2.411855 
H      -1.292797     3.282247    -1.923164 
H      -0.929290     1.945614    -3.032515 
C      -2.186005     0.231072    -0.830256 
H      -2.209944    -0.227521    -1.829717 
H      -3.157421     0.717986    -0.715361 
H      -2.465441     0.532430     1.498830 
C       1.417604    -3.328685     0.233885 
C       1.021964    -2.750858    -0.960086 
C      -0.111534    -1.950368    -0.967459 
C      -0.839734    -1.727158     0.200256 
C      -0.414456    -2.326704     1.386370 
C       0.716462    -3.128945     1.411708 
H       1.594421    -2.928364    -1.861374 
H      -0.416055    -1.501483    -1.906969 
H      -0.974063    -2.147786     2.296582 
H       1.056995    -3.595285     2.327331 
N       2.624278    -4.182770     0.251170 
O       3.216903    -4.338405    -0.796626 
O       2.949004    -4.675800     1.311173 
C      -2.119473    -0.891702     0.209200 
O      -2.436241    -0.445597     1.504822 
H      -2.919167    -1.583720    -0.099885 
