40
     -1068.706543     -1068.435995   0.00   0.00
C       2.289896     2.531307     0.488992 
C       2.848225     0.256632    -0.143308 
C       3.887325     1.232649    -0.708492 
C       3.793009     2.443960     0.224139 
H       2.058913     3.078166     1.402587 
H       3.304063    -0.453800     0.552334 
H       2.325954    -0.296083    -0.924640 
H       4.882871     0.786615    -0.736480 
H       3.618108     1.522622    -1.727657 
H       4.325395     2.256340     1.162259 
H       4.165925     3.366448    -0.217381 
N       1.902806     1.115951     0.611280 
C       1.581442     3.243247    -0.700849 
O       1.946008     4.375678    -0.935480 
O       0.703801     2.587810    -1.395900 
C       0.763497     0.713472     1.104207 
C      -0.008056     1.598512     2.034577 
H      -1.000305     1.182505     2.193080 
H       0.521551     1.652784     2.993769 
H      -0.120407     2.604224     1.630053 
C       0.349081    -0.724440     0.920565 
H      -0.346953    -1.010140     1.709667 
H       1.181439    -1.429819     0.909754 
H       0.137474     1.705886    -0.992976 
C      -3.922269    -2.948630    -0.571859 
C      -4.051401    -1.580091    -0.407755 
C      -2.902592    -0.801355    -0.377093 
C      -1.647911    -1.388146    -0.509292 
C      -1.550608    -2.769886    -0.679706 
C      -2.686463    -3.562238    -0.711489 
H      -5.036009    -1.141194    -0.307700 
H      -2.963957     0.273791    -0.260566 
H      -0.574072    -3.233562    -0.793645 
H      -2.629820    -4.635384    -0.842024 
N      -5.141189    -3.784241    -0.603123 
O      -6.210986    -3.224573    -0.480346 
O      -4.998671    -4.981011    -0.749491 
C      -0.395999    -0.538543    -0.435991 
O      -0.664356     0.826289    -0.461452 
H       0.265241    -0.851751    -1.262569 
40
     -1068.706543     -1068.435993   0.00   0.00
C       3.288191     0.940911     0.439005 
C       2.540653    -1.320344    -0.023149 
C       3.945281    -1.100035    -0.597828 
C       4.510522     0.041982     0.252035 
H       3.381182     1.595836     1.304734 
H       2.538489    -2.107533     0.736291 
H       1.808445    -1.566546    -0.792562 
H       4.545219    -2.010354    -0.550522 
H       3.881001    -0.791637    -1.644737 
H       4.852279    -0.327577     1.224318 
H       5.323787     0.583618    -0.227778 
N       2.200221    -0.032559     0.630583 
C       3.081469     1.826008    -0.825257 
O       3.999148     2.564807    -1.112315 
O       1.993782     1.690442    -1.519162 
C       1.019858     0.277466     1.092774 
C       0.838686     1.507519     1.928432 
H       1.308013     1.344523     2.906513 
H       1.287204     2.381859     1.457177 
H      -0.222688     1.701299     2.065100 
C      -0.101219    -0.724236     0.979463 
H      -0.847021    -0.530209     1.750763 
H       0.221606    -1.763940     1.052249 
H       1.039494     1.283457    -1.089553 
C      -4.888433    -0.424350    -0.573422 
C      -4.175207    -1.612946    -0.615537 
C      -2.791738    -1.552265    -0.579056 
C      -2.132275    -0.324851    -0.499822 
C      -2.875781     0.850719    -0.464344 
C      -4.262862     0.808510    -0.501173 
H      -4.703361    -2.555956    -0.676163 
H      -2.216727    -2.473950    -0.617246 
H      -2.350439     1.796844    -0.418032 
H      -4.857905     1.712596    -0.475667 
N      -6.365200    -0.476897    -0.610652 
O      -6.887280    -1.571086    -0.675270 
O      -6.967320     0.576140    -0.574076 
C      -0.620449    -0.274920    -0.419986 
O      -0.112994     1.014562    -0.543106 
H      -0.225634    -0.956904    -1.193022 
40
     -1068.699297     -1068.425745   4.55   6.43
C       2.446968    -0.816902     1.930985 
C       2.035656    -2.514768     0.231862 
C       3.295608    -2.887037     1.003767 
C       3.756725    -1.545957     1.572260 
H       2.180639    -0.989077     2.975150 
H       1.343088    -3.350184     0.129695 
H       2.255561    -2.098023    -0.756665 
H       3.050552    -3.586326     1.809712 
H       4.042078    -3.357142     0.361996 
H       4.406857    -1.629019     2.442671 
H       4.293676    -0.977692     0.805754 
N       1.432696    -1.446941     1.054049 
C       2.679344     0.697679     1.770991 
O       3.239411     1.260283     2.680825 
O       2.348352     1.297476     0.652273 
C       0.283329    -0.896720     0.771933 
C      -0.327404     0.113613     1.691301 
H      -0.873053     0.855916     1.109670 
H      -1.053985    -0.427948     2.309232 
H       0.375664     0.616686     2.350036 
C      -0.637026    -1.436551    -0.291158 
H      -1.660963    -1.498222     0.083958 
H      -0.332678    -2.417965    -0.648833 
H       1.745072     0.801295    -0.009325 
C      -3.571948     2.509813    -1.678274 
C      -3.855464     1.166865    -1.878357 
C      -2.820077     0.252628    -1.775627 
C      -1.522558     0.667943    -1.471216 
C      -1.270308     2.023838    -1.285503 
C      -2.294542     2.955986    -1.386647 
H      -4.866692     0.858959    -2.112050 
H      -3.024514    -0.802084    -1.942619 
H      -0.255593     2.334738    -1.066058 
H      -2.113266     4.013933    -1.244367 
N      -4.668033     3.495041    -1.785242 
O      -4.394025     4.664173    -1.608435 
O      -5.777879     3.075620    -2.043342 
C      -0.383341    -0.345632    -1.374608 
O       0.827993     0.198826    -1.015050 
H      -0.335922    -0.837115    -2.364748 
