43
     -1145.132411     -1144.837043   0.00   0.00
C      -0.698235     1.366026    -2.000798 
C       1.092916     2.936285    -1.963962 
C       0.250884     3.193123    -3.232454 
C      -1.080495     2.461266    -2.990777 
H      -1.558364     0.978866    -1.453221 
H       1.359747     3.861666    -1.442897 
H       1.995909     2.375875    -2.203562 
H       0.108964     4.260089    -3.418314 
H       0.764413     2.769070    -4.097310 
H      -1.824057     3.133709    -2.547619 
H      -1.497533     2.026790    -3.898426 
N       0.209673     2.110514    -1.087610 
C       0.039777     0.186453    -2.714524 
O       1.260613     0.046904    -2.406172 
O      -0.662037    -0.462799    -3.485734 
C       0.779786     1.489453     0.073804 
C       2.271949     1.521277     0.245683 
H       2.679805     2.528307     0.129452 
H       2.538592     1.123880     1.225446 
H       2.710996     0.882309    -0.519460 
C       0.036126     0.327472     0.706344 
H      -1.030490     0.564251     0.737804 
H       0.383627     0.300702     1.742439 
H       1.675844    -1.036617    -1.104341 
C      -1.294833    -3.785993     3.075121 
C       0.072092    -3.576618     2.998564 
C       0.561866    -2.719655     2.023298 
C      -0.307947    -2.084061     1.140654 
C      -1.677980    -2.322899     1.237138 
C      -2.184401    -3.175021     2.206391 
H       0.732407    -4.080539     3.692810 
H       1.628256    -2.548597     1.934583 
H      -2.359124    -1.844005     0.538803 
H      -3.245357    -3.370653     2.294813 
N      -1.822750    -4.695650     4.114316 
O      -1.023700    -5.220625     4.861825 
O      -3.024401    -4.862311     4.157503 
C       0.216887    -1.098795     0.113630 
O       1.555652    -1.382616    -0.190339 
H      -0.405760    -1.190974    -0.782016 
O       0.160845     2.741538     1.045485 
H      -0.236739     2.889938    -0.037969 
H       0.846573     3.382666     1.281602 
43
     -1145.132622     -1144.836130  -0.13   0.57
C       2.876710    -1.263174     0.698827 
C       2.293844     0.816195     1.812434 
C       3.407670     0.103846     2.604584 
C       4.047409    -0.866948     1.601658 
H       3.208491    -1.630615    -0.273847 
H       2.541644     1.861557     1.606532 
H       1.339036     0.768102     2.337004 
H       4.129118     0.814485     3.013950 
H       2.964091    -0.454408     3.429285 
H       4.828282    -0.368340     1.013937 
H       4.486567    -1.742708     2.080328 
N       2.212327     0.069022     0.528092 
C       2.027495    -2.375813     1.383336 
O       2.371272    -3.520019     1.087288 
O       1.138650    -1.984954     2.191312 
C       1.100490     0.240402    -0.368216 
C       0.375463     1.554194    -0.214672 
H      -0.292950     1.710307    -1.064426 
H      -0.233714     1.516414     0.687070 
H       1.072923     2.392297    -0.137382 
C       0.254555    -0.947719    -0.767034 
H       0.838152    -1.862839    -0.667690 
H       0.016714    -0.832176    -1.826542 
H      -0.173825    -1.185311     1.786762 
C      -4.352515     0.967853    -1.780685 
C      -3.675355    -0.005025    -2.499286 
C      -2.616416    -0.657822    -1.890124 
C      -2.228170    -0.341938    -0.585879 
C      -2.941594     0.628820     0.113250 
C      -4.007076     1.292163    -0.481192 
H      -3.982514    -0.240225    -3.510223 
H      -2.093292    -1.435770    -2.439463 
H      -2.662698     0.857054     1.134349 
H      -4.567783     2.049935     0.051265 
N      -5.483331     1.672871    -2.420553 
O      -6.060786     2.517267    -1.767954 
O      -5.764487     1.364132    -3.560242 
C      -1.063937    -1.079590     0.058311 
O      -0.905198    -0.641419     1.376897 
H      -1.314217    -2.150501     0.034788 
O       2.134401     0.496045    -1.635281 
H       2.767845     0.542099    -0.677800 
H       1.986711     1.352257    -2.062774 
43
     -1145.132622     -1144.836123  -0.13   0.58
C      -2.424149    -2.044890     0.549472 
C      -1.732338    -1.762531    -1.762420 
C      -2.500445    -3.090588    -1.614541 
C      -3.313685    -2.935309    -0.321437 
H      -2.989092    -1.526911     1.326469 
H      -2.121548    -1.153094    -2.583197 
H      -0.666170    -1.934014    -1.914141 
H      -3.132945    -3.289529    -2.482552 
H      -1.788816    -3.909680    -1.508606 
H      -4.272727    -2.439272    -0.516308 
H      -3.515014    -3.887711     0.169818 
N      -1.960145    -1.053674    -0.473979 
C      -1.316644    -2.901970     1.232511 
O      -0.270187    -3.107650     0.555554 
O      -1.627765    -3.325187     2.345657 
C      -1.176313     0.093562    -0.102046 
C      -0.558728     0.827884    -1.265913 
H      -1.275939     0.970264    -2.078420 
H      -0.182418     1.798320    -0.934477 
H       0.286703     0.250769    -1.637213 
C      -0.379736     0.086445     1.183176 
H      -0.824575    -0.617979     1.885884 
H      -0.471741     1.081128     1.624328 
H       0.791762    -1.994651     0.155482 
C       3.542023     3.223152     0.343374 
C       2.775151     3.133543     1.494586 
C       2.002176     2.000165     1.685765 
C       1.983452     0.971683     0.740545 
C       2.779417     1.086949    -0.396686 
C       3.561945     2.215383    -0.603832 
H       2.794735     3.937302     2.219325 
H       1.413827     1.913257     2.595117 
H       2.790348     0.279802    -1.118428 
H       4.183022     2.317368    -1.484732 
N       4.369850     4.428619     0.127107 
O       5.033478     4.480004    -0.887438 
O       4.334384     5.293715     0.977760 
C       1.128069    -0.263334     0.980653 
O       1.321058    -1.175341    -0.061852 
H       1.455902    -0.695610     1.937597 
O      -2.552116     0.951364     0.231818 
H      -2.881798     0.002248    -0.325578 
H      -2.612275     1.765994    -0.288202 
43
     -1145.132622     -1144.836116  -0.13   0.58
C       0.195821     2.077315     2.450897 
C      -1.808881     0.709798     2.331342 
C      -1.634721     1.241716     3.767403 
C      -0.704413     2.455441     3.629554 
H       0.646474     2.950513     1.975898 
H      -2.813523     0.900262     1.942747 
H      -1.595986    -0.358144     2.273750 
H      -2.594037     1.501943     4.220249 
H      -1.157541     0.476934     4.380558 
H      -1.273735     3.363898     3.396399 
H      -0.115344     2.642285     4.527898 
N      -0.818266     1.475063     1.526681 
C       1.337592     1.133103     2.933080 
O       2.366999     1.721846     3.262796 
O       1.062130    -0.098645     2.983633 
C      -0.466473     1.071489     0.191648 
C      -1.513942     0.235866    -0.501018 
H      -1.490807    -0.771038    -0.087150 
H      -2.515415     0.652566    -0.365915 
H      -1.286666     0.165336    -1.567122 
C       0.972552     0.763212    -0.155599 
H       1.635753     1.289215     0.530967 
H       1.156735     1.167866    -1.153001 
H       0.784062    -1.024800     1.722175 
C       0.734462    -2.610087    -3.961957 
C       0.059888    -3.119643    -2.867196 
C       0.245408    -2.519918    -1.628434 
C       1.090420    -1.421467    -1.488807 
C       1.770589    -0.944820    -2.612081 
C       1.596066    -1.529469    -3.855589 
H      -0.595832    -3.972525    -2.988626 
H      -0.261971    -2.911013    -0.755435 
H       2.459636    -0.110132    -2.516479 
H       2.116058    -1.166201    -4.732689 
N       0.538503    -3.241538    -5.284113 
O      -0.217616    -4.188389    -5.348155 
O       1.145770    -2.773460    -6.225065 
C       1.306282    -0.761576    -0.135096 
O       0.575525    -1.446891     0.840686 
H       2.383945    -0.819066     0.078037 
O      -0.740226     2.605475    -0.366625 
H      -1.168602     2.560446     0.698553 
H      -1.406672     2.627239    -1.068795 
43
     -1145.129072     -1144.833487   2.10   2.23
C      -0.215850    -1.052787     2.012762 
C      -0.983731    -3.220111     1.330838 
C      -0.331047    -3.340237     2.721940 
C      -0.295985    -1.908228     3.272351 
H      -0.537184    -0.028447     2.198011 
H      -1.956438    -3.721233     1.283572 
H      -0.323967    -3.619411     0.562581 
H      -0.881655    -4.023759     3.372013 
H       0.684349    -3.723736     2.609476 
H      -1.210835    -1.678720     3.831621 
H       0.561830    -1.721663     3.918198 
N      -1.177488    -1.753178     1.117341 
C       1.222211    -1.062705     1.403530 
O       1.373091    -1.812653     0.407344 
O       2.028286    -0.324984     1.982277 
C      -1.430406    -1.273318    -0.213952 
C      -1.457806    -2.284025    -1.322891 
H      -0.422917    -2.566385    -1.528512 
H      -2.015173    -3.182720    -1.052071 
H      -1.871980    -1.832923    -2.223681 
C      -0.973049     0.126269    -0.588919 
H      -0.781915     0.706739     0.311607 
H      -1.808379     0.602459    -1.110068 
H       0.553685    -0.143525    -3.415713 
C       1.792326     4.206230    -1.215858 
C       0.844245     3.936877    -2.188925 
C       0.355791     2.642725    -2.295747 
C       0.814073     1.639121    -1.443551 
C       1.771842     1.937870    -0.473862 
C       2.264512     3.229403    -0.354776 
H       0.501360     4.728952    -2.842402 
H      -0.388384     2.407875    -3.048700 
H       2.127718     1.165598     0.203522 
H       3.004363     3.482001     0.393721 
N       2.316403     5.583802    -1.091857 
O       1.886407     6.420465    -1.859532 
O       3.144457     5.795892    -0.230525 
C       0.248081     0.231466    -1.523186 
O      -0.213133    -0.083516    -2.837089 
H       1.011447    -0.478991    -1.196412 
O      -3.056144    -0.988570     0.199731 
H      -2.517740    -1.389442     1.136748 
H      -3.655268    -1.628477    -0.210960 
43
     -1145.129072     -1144.833485   2.10   2.23
C      -0.466791    -0.168966    -2.227037 
C      -1.246459     2.046063    -2.714578 
C      -0.747216     1.397239    -4.020481 
C      -0.712233    -0.109266    -3.730680 
H      -0.763961    -1.128866    -1.806177 
H      -2.228499     2.516217    -2.833205 
H      -0.527191     2.777948    -2.351345 
H      -1.389355     1.644186    -4.868794 
H       0.258207     1.760411    -4.239529 
H      -1.670467    -0.580631    -3.979697 
H       0.080352    -0.627866    -4.269787 
N      -1.357393     0.919507    -1.738039 
C       1.025321     0.132067    -1.877347 
O       1.248591     1.292522    -1.451818 
O       1.795986    -0.816897    -2.063013 
C      -1.450405     1.223311    -0.336032 
C      -1.402677     2.668319     0.066047 
H      -1.701988     2.771844     1.108230 
H      -0.364213     2.994676    -0.023919 
H      -2.021093     3.298648    -0.575747 
C      -0.900378     0.225557     0.669251 
H      -0.780988    -0.747727     0.197142 
H      -1.656919     0.115602     1.451354 
H       0.900787     1.919396     2.738356 
C       2.077323    -2.960429     3.050266 
C       1.225847    -2.196407     3.830988 
C       0.699492    -1.032145     3.290368 
C       1.025594    -0.642402     1.992200 
C       1.888237    -1.429762     1.228799 
C       2.417396    -2.598391     1.757248 
H       0.985172    -2.514522     4.837399 
H       0.029071    -0.418320     3.881676 
H       2.140132    -1.141368     0.211312 
H       3.084702    -3.224811     1.179551 
N       2.640643    -4.205280     3.616617 
O       3.382114    -4.859057     2.912810 
O       2.327192    -4.498799     4.752320 
C       0.414785     0.605345     1.377202 
O       0.080836     1.578260     2.367246 
H       1.110666     1.018413     0.642779 
O      -3.097665     0.797182    -0.355108 
H      -2.676542     0.629185    -1.414835 
H      -3.676006     1.570016    -0.281988 
43
     -1145.129072     -1144.833485   2.10   2.23
C      -2.259859     0.007441    -0.314675 
C      -2.421186     0.853535    -2.553008 
C      -3.701133     0.057918    -2.229950 
C      -3.734517    -0.041454    -0.699006 
H      -2.122047     0.302410     0.724963 
H      -2.639999     1.828261    -3.001955 
H      -1.770184     0.280739    -3.211066 
H      -4.593135     0.539634    -2.636450 
H      -3.624227    -0.938221    -2.668746 
H      -4.271220     0.808414    -0.260728 
H      -4.193705    -0.963313    -0.342504 
N      -1.749043     1.061544    -1.233910 
C      -1.551663    -1.358304    -0.583910 
O      -0.854269    -1.399598    -1.627705 
O      -1.768407    -2.224541     0.271419 
C      -0.365413     1.451087    -1.214099 
C       0.333013     1.600113    -2.533950 
H       0.532377     0.594035    -2.909539 
H      -0.276060     2.130149    -3.268625 
H       1.287771     2.104760    -2.391744 
C       0.499126     1.029084    -0.038043 
H      -0.131953     0.741427     0.800658 
H       1.065382     1.912374     0.270635 
H       3.207327    -0.190175    -1.292437 
C       2.722393    -1.674155     3.488436 
C       1.634535    -2.229801     2.835415 
C       1.265745    -1.721230     1.598357 
C       1.981021    -0.665238     1.032556 
C       3.070874    -0.124484     1.713210 
C       3.451623    -0.627584     2.948826 
H       1.089835    -3.045572     3.292856 
H       0.407165    -2.142839     1.081647 
H       3.625274     0.695967     1.271181 
H       4.295702    -0.221516     3.491620 
N       3.118442    -2.214882     4.806956 
O       4.076001    -1.710408     5.357241 
O       2.463008    -3.130017     5.260257 
C       1.529232    -0.087356    -0.297904 
O       2.610219     0.511152    -1.013117 
H       1.059736    -0.877515    -0.889072 
O      -0.816725     3.022753    -0.743567 
H      -1.776482     2.390490    -0.831302 
H      -0.704570     3.664910    -1.459216 
43
     -1145.127248     -1144.831108   3.24   3.72
C       1.743092     1.596407    -1.079573 
C       3.564432     0.552857     0.107629 
C       4.100333     1.814071    -0.593784 
C       2.855619     2.633300    -0.954287 
H       0.771227     2.051518    -0.909869 
H       3.862205     0.501278     1.161532 
H       3.912190    -0.335101    -0.415987 
H       4.788612     2.372307     0.044944 
H       4.631766     1.517699    -1.498099 
H       2.609089     3.342946    -0.155801 
H       2.972644     3.195093    -1.882197 
N       2.072863     0.650291     0.025991 
C       1.749676     0.845165    -2.443615 
O       2.620394    -0.037535    -2.562844 
O       0.843612     1.189807    -3.232828 
C       1.299788    -0.556637     0.171384 
C       2.057006    -1.856437     0.272276 
H       1.382964    -2.655304     0.586744 
H       2.431519    -2.081735    -0.730390 
H       2.906800    -1.806198     0.956073 
C      -0.000803    -0.707469    -0.592247 
H      -0.428167    -1.660646    -0.274182 
H       0.277983    -0.833524    -1.640940 
H      -0.672836     1.068085    -2.311380 
C      -4.545131    -1.273809     1.401666 
C      -4.408523    -1.389499     0.027241 
C      -3.296076    -0.828614    -0.579937 
C      -2.334891    -0.161857     0.179313 
C      -2.504548    -0.056714     1.557075 
C      -3.612446    -0.612877     2.181667 
H      -5.165669    -1.908729    -0.546150 
H      -3.171226    -0.892139    -1.654345 
H      -1.768616     0.473652     2.153431 
H      -3.759365    -0.538623     3.251507 
N      -5.728674    -1.871327     2.056266 
O      -6.532612    -2.444051     1.350481 
O      -5.824595    -1.753256     3.260478 
C      -1.094965     0.402101    -0.491231 
O      -1.465777     0.894882    -1.747912 
H      -0.728291     1.214515     0.154099 
O       0.835444    -0.134302     1.704425 
H       1.452314     0.735370     1.318967 
H       1.301642    -0.654966     2.374406 
43
     -1145.125347     -1144.830596   4.43   4.05
C      -2.229252    -1.267777    -0.626502 
C      -1.294169    -3.433687    -0.887581 
C      -2.816961    -3.544160    -1.117294 
C      -3.301943    -2.098233    -1.320194 
H      -2.213976    -0.235945    -0.979158 
H      -0.717665    -4.014232    -1.615243 
H      -1.035275    -3.747973     0.124162 
H      -3.055472    -4.183137    -1.971155 
H      -3.284976    -3.981794    -0.233428 
H      -3.350540    -1.848771    -2.386683 
H      -4.275349    -1.910508    -0.869187 
N      -0.993293    -1.982705    -1.049324 
C      -2.396566    -1.287743     0.935494 
O      -1.438513    -1.799576     1.571002 
O      -3.452053    -0.788130     1.331886 
C       0.299365    -1.493326    -0.648281 
C       1.233210    -2.456365     0.032559 
H       2.253386    -2.072680     0.008065 
H       0.889184    -2.547033     1.065819 
H       1.212955    -3.445327    -0.427600 
C       0.337813    -0.060192    -0.154987 
H      -0.310382    -0.019913     0.721405 
H      -0.075711     0.597526    -0.922916 
H       3.474741     0.640516    -0.564109 
C       1.338573     4.550594     1.426698 
C       1.295285     3.571316     2.403918 
C       1.435325     2.245981     2.017305 
C       1.611249     1.910283     0.676864 
C       1.649918     2.920219    -0.283745 
C       1.514860     4.250298     0.086197 
H       1.155880     3.849730     3.440484 
H       1.405130     1.463894     2.770658 
H       1.784372     2.662827    -1.328907 
H       1.542320     5.047961    -0.644923 
N       1.190557     5.967914     1.828168 
O       1.232100     6.805788     0.951998 
O       1.036828     6.201871     3.008560 
C       1.716462     0.451973     0.266572 
O       2.626369     0.259441    -0.812926 
H       2.049489    -0.121937     1.141979 
O       0.775356    -1.353258    -2.219907 
H      -0.285492    -1.720609    -2.278426 
H       1.466863    -1.983122    -2.467323 
43
     -1145.125347     -1144.830594   4.43   4.05
C       1.441206    -2.053723    -0.821261 
C      -0.277400    -3.689337    -0.751476 
C       1.003772    -4.370413    -1.279302 
C       2.147619    -3.398309    -0.942092 
H       2.019153    -1.334827    -0.239501 
H      -0.813073    -4.310028    -0.025750 
H      -0.941358    -3.429595    -1.576776 
H       1.155094    -5.356457    -0.833123 
H       0.923564    -4.503118    -2.359921 
H       2.622676    -3.669034     0.008182 
H       2.910340    -3.355776    -1.718374 
N       0.203845    -2.443189    -0.089996 
C       1.106115    -1.443173    -2.229511 
O      -0.119644    -1.289517    -2.469545 
O       2.100078    -1.188467    -2.913582 
C      -0.758776    -1.442527     0.288591 
C      -2.190314    -1.656319    -0.121343 
H      -2.254622    -1.392360    -1.179828 
H      -2.502147    -2.695110    -0.003549 
H      -2.849774    -1.017386     0.466407 
C      -0.262818    -0.009925     0.269426 
H       0.033832     0.198283    -0.759404 
H       0.618714     0.075888     0.908837 
H      -2.416830     1.406309     2.232385 
C       0.605920     4.877886     0.611739 
C       0.716873     4.097459     1.750519 
C       0.088616     2.860904     1.771418 
C      -0.640417     2.417952     0.668450 
C      -0.734988     3.228243    -0.460670 
C      -0.109786     4.466478    -0.499263 
H       1.287029     4.458346     2.596828 
H       0.166664     2.231902     2.651734 
H      -1.302154     2.889270    -1.322953 
H      -0.171267     5.107825    -1.368925 
N       1.276629     6.197399     0.581433 
O       1.163343     6.859465    -0.428779 
O       1.897157     6.533386     1.568089 
C      -1.292242     1.046403     0.675820 
O      -1.817526     0.705481     1.955728 
H      -2.099434     1.052128    -0.069180 
O      -0.620673    -1.857349     1.877630 
H       0.104955    -2.531773     1.346228 
H      -1.417945    -2.273297     2.234660 
43
     -1145.128876     -1144.830573   2.22   4.06
C      -0.055738     1.503189    -2.070569 
C      -2.309013     1.047559    -2.810795 
C      -1.587552     1.761851    -3.941379 
C      -0.468942     2.478714    -3.185531 
H       0.847872     0.966392    -2.339351 
H      -2.966829     0.244074    -3.159178 
H      -2.888296     1.761907    -2.217314 
H      -1.182846     1.032127    -4.652868 
H      -2.246684     2.441527    -4.485971 
H       0.384904     2.733902    -3.815108 
H      -0.853721     3.398147    -2.737573 
N      -1.183769     0.502091    -2.006152 
C       0.106302     2.219737    -0.705013 
O      -0.939682     2.714485    -0.250287 
O       1.251428     2.161166    -0.193819 
C      -1.531836    -0.230433    -0.806141 
C      -2.943500    -0.047166    -0.296543 
H      -3.703968    -0.105369    -1.076057 
H      -3.162519    -0.786633     0.475117 
H      -2.979327     0.951236     0.149811 
C      -0.559542    -0.402990     0.352359 
H      -1.096722    -1.012002     1.085437 
H      -0.433317     0.578885     0.810524 
H       1.719540     0.488483    -0.542022 
C       2.601165    -1.451216     4.027072 
C       2.525671    -0.199331     3.435160 
C       1.951130    -0.088887     2.179379 
C       1.460383    -1.221572     1.525651 
C       1.553613    -2.463393     2.144818 
C       2.125218    -2.591051     3.404496 
H       2.911953     0.666789     3.956667 
H       1.881057     0.885461     1.705046 
H       1.183623    -3.349431     1.636664 
H       2.205676    -3.550701     3.898814 
N       3.211774    -1.571979     5.368545 
O       3.621999    -0.557825     5.893563 
O       3.265722    -2.678934     5.864323 
C       0.808054    -1.092588     0.153437 
O       1.647332    -0.468861    -0.777867 
H       0.629159    -2.102658    -0.228078 
O      -1.436991    -1.668170    -1.593893 
H      -1.049067    -0.902660    -2.329714 
H      -2.313713    -1.993876    -1.845658 
43
     -1145.127384     -1144.830557   3.15   4.07
C      -0.232367    -3.179015    -0.253315 
C      -0.718085    -1.988288    -2.260313 
C      -0.886685    -3.485344    -2.582132 
C      -0.801106    -4.211963    -1.223458 
H      -0.552557    -3.335702     0.776930 
H      -1.478510    -1.374515    -2.745893 
H       0.276609    -1.635768    -2.539247 
H      -1.845649    -3.677137    -3.071506 
H      -0.087309    -3.805857    -3.247251 
H      -1.793869    -4.536294    -0.890820 
H      -0.151927    -5.085763    -1.265896 
N      -0.874474    -1.922667    -0.782374 
C       1.323743    -3.068039    -0.333517 
O       1.825781    -3.320948    -1.434813 
O       1.881221    -2.669433     0.723726 
C      -0.886824    -0.664547    -0.080775 
C      -0.928600     0.561562    -0.950133 
H       0.060148     0.694839    -1.392313 
H      -1.665323     0.480049    -1.750945 
H      -1.149132     1.439544    -0.341615 
C      -0.150961    -0.525007     1.236212 
H       0.074279    -1.511616     1.635109 
H      -0.832389    -0.020896     1.924254 
H       2.210460    -1.028390     0.190738 
C       0.715854     4.519778     1.352095 
C       0.160088     3.736278     2.351065 
C       0.321183     2.362191     2.279131 
C       1.016930     1.771613     1.221565 
C       1.576110     2.590370     0.242735 
C       1.426751     3.969643     0.300640 
H      -0.379621     4.203021     3.164984 
H      -0.093564     1.744981     3.070996 
H       2.137548     2.139907    -0.566262 
H       1.855160     4.615574    -0.455238 
N       0.551217     5.987456     1.418460 
O       1.053604     6.649732     0.534577 
O      -0.077183     6.439898     2.353113 
C       1.188778     0.261421     1.173166 
O       1.952594    -0.086904     0.051793 
H       1.716064    -0.026429     2.094136 
O      -2.476917    -0.927821     0.390026 
H      -2.172425    -1.793701    -0.318623 
H      -3.088648    -0.285820     0.000988 
43
     -1145.124126     -1144.829705   5.20   4.60
C      -0.955076     2.325665     0.711583 
C      -2.900346     2.294734    -0.656572 
C      -2.934650     3.582324     0.193447 
C      -1.507256     3.744435     0.742576 
H       0.134975     2.306170     0.716343 
H      -3.184904     2.470601    -1.698729 
H      -3.542620     1.528555    -0.221617 
H      -3.253401     4.447985    -0.391975 
H      -3.644417     3.454780     1.012941 
H      -0.912543     4.402704     0.098447 
H      -1.486214     4.133600     1.759535 
N      -1.481373     1.835658    -0.595824 
C      -1.502810     1.452869     1.898792 
O      -2.172593     0.444084     1.555492 
O      -1.189573     1.871895     3.014544 
C      -1.164630     0.517253    -1.048765 
C      -2.279809    -0.385178    -1.484730 
H      -1.890803    -1.186490    -2.113415 
H      -2.713991    -0.801360    -0.571675 
H      -3.060714     0.150761    -2.025215 
C       0.029209    -0.134301    -0.393042 
H      -0.241073    -0.228075     0.658589 
H       0.896885     0.530333    -0.457006 
H       1.090209    -0.686418    -2.560632 
C       3.670277    -3.074990     1.369486 
C       3.843916    -2.902570     0.008935 
C       2.786884    -2.399717    -0.740292 
C       1.579791    -2.074065    -0.131734 
C       1.432718    -2.269003     1.244123 
C       2.476412    -2.768416     2.004505 
H       4.789538    -3.160722    -0.450300 
H       2.900847    -2.276305    -1.810441 
H       0.491939    -2.027744     1.731549 
H       2.378589    -2.922321     3.071382 
N       4.791475    -3.607435     2.173914 
O       4.609049    -3.749114     3.365241 
O       5.824571    -3.869580     1.593976 
C       0.407261    -1.518475    -0.931342 
O       0.642322    -1.507219    -2.330551 
H      -0.434030    -2.203888    -0.783138 
O      -0.470922     1.175731    -2.478929 
H      -0.810381     2.044287    -1.801625 
H      -1.042731     1.038957    -3.247850 
43
     -1145.124126     -1144.829705   5.20   4.60
C      -1.944881    -0.051378     1.744198 
C      -1.469826     2.025840     2.800798 
C      -2.753437     1.449892     3.434991 
C      -2.786798    -0.028593     3.012838 
H      -1.563677    -1.047654     1.518965 
H      -0.782297     2.440548     3.544651 
H      -1.714308     2.785816     2.058237 
H      -2.760085     1.570206     4.520888 
H      -3.621339     1.978268     3.036022 
H      -2.337952    -0.665903     3.783731 
H      -3.793586    -0.386420     2.802037 
N      -0.827565     0.864065     2.118370 
C      -2.732821     0.504368     0.502616 
O      -2.235182     1.530235    -0.030360 
O      -3.733548    -0.152362     0.209611 
C       0.238307     1.109856     1.197956 
C       0.611987     2.527987     0.885976 
H       0.553655     3.175202     1.761690 
H       1.620456     2.568844     0.473677 
H      -0.110964     2.881195     0.145719 
C       0.394838     0.098608     0.087719 
H      -0.528360     0.164218    -0.487764 
H       0.454552    -0.909933     0.509585 
H       2.800446    -0.248516     0.558451 
C       1.489369    -2.615823    -3.967548 
C       0.415765    -1.751233    -3.817835 
C       0.464885    -0.805323    -2.808019 
C       1.569413    -0.725851    -1.955776 
C       2.634094    -1.601533    -2.137693 
C       2.600337    -2.556276    -3.147075 
H      -0.433900    -1.826847    -4.484045 
H      -0.370197    -0.121217    -2.683554 
H       3.505510    -1.529791    -1.498221 
H       3.421232    -3.244830    -3.301242 
N       1.445103    -3.630818    -5.042495 
O       2.397924    -4.373880    -5.153512 
O       0.457755    -3.658113    -5.747485 
C       1.581712     0.327567    -0.854394 
O       2.817020     0.392994    -0.159493 
H       1.470519     1.301668    -1.342540 
O       1.372475     0.541825     2.360390 
H       0.311196     0.422832     2.793832 
H       1.872175     1.270266     2.756100 
43
     -1145.124126     -1144.829701   5.20   4.61
C      -0.782082    -0.184376    -2.486230 
C       0.627209    -1.991597    -3.122305 
C      -0.271829    -1.640269    -4.326424 
C      -0.857099    -0.254720    -4.005502 
H      -0.809247     0.841468    -2.118096 
H       1.667449    -2.170809    -3.411756 
H       0.236416    -2.858938    -2.589637 
H       0.285762    -1.646233    -5.265971 
H      -1.070418    -2.379968    -4.408333 
H      -0.252119     0.539956    -4.457603 
H      -1.888789    -0.143656    -4.336222 
N       0.554477    -0.796598    -2.230901 
C      -1.922159    -1.020943    -1.799475 
O      -3.059928    -0.627025    -2.061978 
O      -1.525322    -1.966335    -1.069490 
C       1.052119    -0.903258    -0.894981 
C       1.546667    -2.233553    -0.411430 
H       2.082141    -2.784082    -1.185610 
H       2.197920    -2.100825     0.452818 
H       0.660039    -2.807541    -0.128912 
C       0.397365    -0.002398     0.124583 
H      -0.643794    -0.322705     0.158760 
H       0.416709     1.033807    -0.228406 
H       2.562019     0.896692     0.921447 
C      -1.325089     2.448085     4.129457 
C      -1.946069     1.394442     3.476178 
C      -1.183901     0.590545     2.645673 
C       0.179707     0.837393     2.466064 
C       0.774723     1.896600     3.142448 
C       0.023548     2.712393     3.980148 
H      -3.003687     1.217528     3.623244 
H      -1.660259    -0.239403     2.130766 
H       1.836472     2.079175     3.029339 
H       0.472312     3.540612     4.513445 
N      -2.131612     3.313382     5.017417 
O      -3.312287     3.056321     5.129395 
O      -1.563920     4.226969     5.579040 
C       0.981545    -0.069253     1.539820 
O       2.373933     0.202651     1.561902 
H       0.878250    -1.089859     1.923507 
O       2.440228     0.010763    -1.339479 
H       1.736741    -0.055079    -2.249981 
H       3.225856    -0.549357    -1.416733 
43
     -1145.127252     -1144.828970   3.24   5.07
C      -1.169204     0.279472     2.240625 
C      -0.382176     2.526588     2.697567 
C      -1.686565     2.290287     3.477916 
C      -1.851832     0.767986     3.515163 
H      -0.821386    -0.743977     2.339383 
H       0.414631     2.909260     3.343885 
H      -0.554046     3.225942     1.879559 
H      -1.640271     2.725098     4.479121 
H      -2.515970     2.743516     2.936489 
H      -1.347763     0.339398     4.389555 
H      -2.897630     0.457553     3.543017 
N       0.016793     1.189082     2.165260 
C      -2.061029     0.427785     0.978564 
O      -2.291898     1.592248     0.613762 
O      -2.399733    -0.657557     0.440651 
C       0.947778     1.110164     1.063806 
C       1.635420     2.421704     0.747191 
H       1.908882     2.988332     1.639084 
H       2.528233     2.235714     0.146041 
H       0.948255     3.025429     0.149054 
C       0.651301     0.328117    -0.211778 
H       1.337522     0.715418    -0.970736 
H      -0.348671     0.627871    -0.533458 
H      -0.949440    -1.632017     0.510714 
C       0.213487    -2.377804    -4.336217 
C      -0.882628    -1.979766    -3.585648 
C      -0.688390    -1.611029    -2.264325 
C       0.590561    -1.643473    -1.703719 
C       1.669035    -2.050816    -2.481770 
C       1.491418    -2.421989    -3.808605 
H      -1.866110    -1.962109    -4.037140 
H      -1.537189    -1.294495    -1.665178 
H       2.664306    -2.090089    -2.047943 
H       2.320613    -2.742101    -4.426441 
N       0.009446    -2.769536    -5.747556 
O      -1.120636    -2.722633    -6.187022 
O       0.985415    -3.114399    -6.382141 
C       0.803677    -1.211474    -0.256735 
O      -0.009296    -1.917643     0.634673 
H       1.835558    -1.454860     0.017314 
O       2.009709     0.241457     1.940461 
H       1.196303     0.518372     2.669939 
H       2.843514     0.710977     2.087615 
43
     -1145.124121     -1144.828644   5.20   5.27
C       2.210085     1.472295    -1.373977 
C       1.858762     2.530534     0.721939 
C       3.241471     2.970015     0.195090 
C       3.250398     2.581372    -1.293157 
H       1.825296     1.337961    -2.384998 
H       1.291279     3.359762     1.156356 
H       1.962492     1.732139     1.457613 
H       3.412390     4.038866     0.343653 
H       4.022256     2.430297     0.734258 
H       2.955552     3.430185    -1.920895 
H       4.218496     2.213009    -1.629104 
N       1.143993     2.004427    -0.476879 
C       2.761474     0.102943    -0.838556 
O       2.114794    -0.396524     0.122571 
O       3.753157    -0.313044    -1.438147 
C      -0.068458     1.263371    -0.282893 
C      -0.493579     0.954691     1.123479 
H      -1.530334     0.620461     1.149402 
H       0.148607     0.150361     1.485631 
H      -0.376527     1.817109     1.782745 
C      -0.391796     0.282112    -1.386898 
H       0.422842    -0.436740    -1.434795 
H      -0.404206     0.820836    -2.337073 
H      -2.597956    -1.691351    -2.537066 
C      -2.093489    -3.584586     1.615561 
C      -3.224645    -2.914825     1.182945 
C      -3.065320    -1.891436     0.260053 
C      -1.803956    -1.545129    -0.226295 
C      -0.684048    -2.239701     0.232544 
C      -0.826799    -3.261581     1.160725 
H      -4.198432    -3.191338     1.565733 
H      -3.942832    -1.348433    -0.082547 
H       0.316036    -1.975806    -0.095482 
H       0.033139    -3.803066     1.532833 
N      -2.243597    -4.676315     2.604655 
O      -3.366137    -4.935139     2.985829 
O      -1.236382    -5.242880     2.971822 
C      -1.722549    -0.457185    -1.288020 
O      -1.901116    -1.028705    -2.584612 
H      -2.528233     0.270263    -1.103150 
O      -0.986998     2.609375    -0.764139 
H       0.122491     2.873710    -0.900599 
H      -1.377620     3.067691    -0.006157 
43
     -1145.124121     -1144.828641   5.20   5.27
C       1.463791     0.677216    -2.517658 
C       2.487907     1.900754    -0.759727 
C       3.463819     1.882473    -1.955500 
C       2.620480     1.431018    -3.160056 
H       0.596962     0.609891    -3.175188 
H       2.430224     2.882555    -0.278982 
H       2.767511     1.147378    -0.022397 
H       3.926238     2.858930    -2.118060 
H       4.262610     1.164730    -1.759534 
H       2.249396     2.294875    -3.723546 
H       3.165766     0.775320    -3.837176 
N       1.162031     1.547663    -1.344733 
C       1.880914    -0.763848    -2.053799 
O       2.299879    -1.485852    -2.958879 
O       1.723102    -0.998048    -0.824298 
C       0.087721     1.210265    -0.456564 
C       0.384844     1.115843     1.012004 
H       1.016578     1.938371     1.353268 
H      -0.536870     1.105498     1.593020 
H       0.917860     0.177644     1.173818 
C      -0.969696     0.312120    -1.057768 
H      -0.484225    -0.617240    -1.346359 
H      -1.342977     0.779552    -1.971759 
H      -3.836908    -0.977020    -0.608551 
C      -1.727139    -2.713470     3.081543 
C      -2.731881    -1.762477     3.118386 
C      -2.838055    -0.882244     2.051449 
C      -1.963262    -0.951156     0.966327 
C      -0.960094    -1.921100     0.962164 
C      -0.837144    -2.804525     2.025452 
H      -3.405578    -1.717625     3.964181 
H      -3.615712    -0.122521     2.069466 
H      -0.239484    -1.982893     0.153268 
H      -0.058587    -3.556041     2.040807 
N      -1.595092    -3.658122     4.214196 
O      -0.702880    -4.477462     4.160076 
O      -2.388714    -3.552403     5.125989 
C      -2.190225     0.006424    -0.195155 
O      -3.132559    -0.553945    -1.110396 
H      -2.596191     0.948538     0.204967 
O      -0.611051     2.740662    -0.694663 
H       0.298312     2.656943    -1.391437 
H      -0.441620     3.333334     0.051802 
43
     -1145.124368     -1144.828605   5.05   5.29
C       0.640474    -0.246829    -2.895050 
C      -1.390430     0.975351    -2.749138 
C      -0.795051     1.209483    -4.153873 
C       0.274973     0.118469    -4.327434 
H       1.097959    -1.233879    -2.823706 
H      -2.471357     0.804107    -2.773747 
H      -1.167872     1.816120    -2.091237 
H      -1.560233     1.165207    -4.932438 
H      -0.338057     2.200095    -4.192587 
H      -0.135343    -0.752077    -4.852068 
H       1.156096     0.470130    -4.861976 
N      -0.699294    -0.244828    -2.240535 
C       1.587460     0.817471    -2.235189 
O       1.141507     1.351606    -1.182302 
O       2.653525     0.985375    -2.827126 
C      -0.818344    -0.570683    -0.848899 
C      -1.542841     0.394110     0.044931 
H      -1.772356    -0.065734     1.005780 
H      -0.880670     1.245472     0.207896 
H      -2.466497     0.755474    -0.411686 
C       0.323243    -1.390453    -0.286911 
H       1.234624    -0.806695    -0.406137 
H       0.430340    -2.289719    -0.897259 
H       1.949514    -2.599077     1.548081 
C       0.824161     0.989695     4.292658 
C       1.296476     1.293840     3.030067 
C       1.083503     0.390085     1.994980 
C       0.397716    -0.800600     2.232452 
C      -0.063243    -1.077049     3.521475 
C       0.142822    -0.187273     4.561988 
H       1.819263     2.225835     2.859241 
H       1.436467     0.654400     1.002342 
H      -0.584471    -2.010783     3.711342 
H      -0.209541    -0.390830     5.564897 
N       1.050217     1.953501     5.393592 
O       1.646567     2.976312     5.130645 
O       0.624122     1.659948     6.491175 
C       0.178291    -1.862095     1.162208 
O       1.068980    -2.954140     1.383621 
H      -0.818935    -2.297451     1.294274 
O      -1.938935    -1.794263    -1.214837 
H      -1.557884    -1.358486    -2.207068 
H      -2.846942    -1.519143    -1.022435 
43
     -1145.130036     -1144.827761   1.49   5.82
C       0.523971     0.527602     1.431569 
C       2.392121     0.975399     0.045582 
C       2.841183    -0.130986     0.992962 
C       1.717592    -0.214871     2.049695 
H      -0.395289    -0.054345     1.447484 
H       2.783985     0.905745    -0.966559 
H       2.578565     1.966793     0.460750 
H       2.934840    -1.075314     0.447379 
H       3.816130     0.095340     1.426054 
H       1.464808    -1.250704     2.283022 
H       1.988929     0.282925     2.981368 
N       0.905775     0.789175    -0.001215 
C       0.250068     1.927871     2.004364 
O       0.216254     2.102425     3.207204 
O       0.086144     2.780882     1.059041 
C       0.120701     1.867711    -0.665427 
C       0.736529     3.085704    -1.316651 
H       1.814525     2.992430    -1.440744 
H       0.284671     3.209757    -2.299751 
H       0.527351     3.969300    -0.717074 
C      -1.392535     1.675767    -0.724408 
H      -1.779685     2.581825    -1.195636 
H      -1.772164     1.684123     0.297571 
H      -0.893391     0.564589    -2.917866 
C      -1.172082    -3.204406     0.582568 
C      -2.100580    -2.333298     1.131310 
C      -2.393090    -1.164515     0.445775 
C      -1.765286    -0.855772    -0.763546 
C      -0.862090    -1.771936    -1.303975 
C      -0.555798    -2.948393    -0.631001 
H      -2.575703    -2.574193     2.073662 
H      -3.124052    -0.476140     0.862292 
H      -0.392757    -1.557037    -2.255706 
H       0.150575    -3.661065    -1.037754 
N      -0.838326    -4.446685     1.309513 
O      -0.019906    -5.189285     0.808161 
O      -1.399248    -4.646084     2.367437 
C      -2.075335     0.476020    -1.446409 
O      -1.881332     0.456862    -2.823976 
H      -3.144562     0.657731    -1.279232 
O       0.574304     0.760386    -2.346010 
H       0.727296    -0.028680    -0.593585 
H       1.096892     1.247349    -2.988239 
43
     -1145.121539     -1144.827066   6.82   6.26
C       0.652447     0.938338    -2.752681 
C      -0.800809    -0.930224    -2.997908 
C      -0.052240    -0.728445    -4.332180 
C       1.127857     0.197930    -3.996925 
H       1.484711     1.353334    -2.184349 
H      -0.848216    -1.982944    -2.699991 
H      -1.807725    -0.517316    -3.057969 
H       0.275460    -1.677135    -4.764345 
H      -0.719138    -0.247494    -5.050208 
H       2.030698    -0.383546    -3.774808 
H       1.352422     0.904563    -4.794862 
N      -0.008289    -0.161337    -1.994361 
C      -0.364638     2.079767    -3.107353 
O       0.129728     2.999770    -3.764818 
O      -1.533949     1.907075    -2.681131 
C      -0.586919     0.084627    -0.701797 
C      -2.006297    -0.353717    -0.484679 
H      -2.200671    -1.340018    -0.909356 
H      -2.257694    -0.347389     0.572486 
H      -2.632470     0.381620    -0.995064 
C      -0.138063     1.361485    -0.024417 
H      -0.592309     2.170069    -0.600943 
H       0.946264     1.445312    -0.124531 
H      -2.085193     2.278735     2.354760 
C       1.166607    -1.293435     4.155932 
C       2.006352    -0.380779     3.535801 
C       1.450158     0.544251     2.668167 
C       0.078391     0.558332     2.413974 
C      -0.737955    -0.367428     3.058300 
C      -0.198634    -1.301757     3.934361 
H       3.069190    -0.401766     3.739388 
H       2.097822     1.270270     2.184519 
H      -1.807780    -0.352715     2.886123 
H      -0.822494    -2.024779     4.444250 
N       1.747325    -2.282154     5.090177 
O       2.947306    -2.248137     5.266139 
O       0.987391    -3.064817     5.621150 
C      -0.489747     1.595711     1.453801 
O      -1.897238     1.743760     1.578346 
H      -0.004339     2.551522     1.692682 
O       0.412468    -1.075170    -0.009142 
H       0.697280    -1.030732    -1.100169 
H      -0.067067    -1.873235     0.253627 
43
     -1145.120100     -1144.825289   7.73   7.38
C       1.300272     0.751267    -1.800509 
C       1.633012     2.794142    -0.630341 
C       1.234761     3.198013    -2.045121 
C       1.353848     1.889118    -2.845192 
H       0.497515     0.046328    -2.020160 
H       1.239142     3.476267     0.128279 
H       2.717951     2.702566    -0.527066 
H       0.200554     3.562030    -2.049248 
H       1.871993     3.995308    -2.433287 
H       0.559142     1.791504    -3.587665 
H       2.305091     1.839932    -3.378632 
N       1.011874     1.453688    -0.511991 
C       2.666265    -0.006358    -1.736352 
O       2.800566    -0.889633    -2.590337 
O       3.442905     0.385001    -0.829753 
C       1.139315     0.734376     0.732533 
C       1.994672     1.353197     1.807110 
H       3.025792     1.262894     1.457181 
H       1.771882     2.408623     1.977096 
H       1.874411     0.795113     2.735043 
C       1.242731    -0.784311     0.668532 
H       2.286679    -1.011910     0.888429 
H       1.068357    -1.136424    -0.344792 
H       0.193924    -1.727678     3.554919 
C      -3.626908    -2.241145     0.099807 
C      -2.537526    -2.646348    -0.655154 
C      -1.265855    -2.424109    -0.152956 
C      -1.078401    -1.795432     1.079850 
C      -2.194504    -1.402508     1.811855 
C      -3.477314    -1.623762     1.328736 
H      -2.693469    -3.128743    -1.611337 
H      -0.408842    -2.751049    -0.734934 
H      -2.063384    -0.905363     2.765568 
H      -4.352676    -1.321363     1.889329 
N      -4.988199    -2.477381    -0.423953 
O      -5.086119    -3.019430    -1.505430 
O      -5.923424    -2.114881     0.259090 
C       0.340112    -1.603975     1.605443 
O       0.377828    -1.038461     2.910846 
H       0.799605    -2.601226     1.629702 
O      -0.435785     1.042450     1.113030 
H      -0.299946     1.515391     0.113923 
H      -0.517843     1.654272     1.857912 
43
     -1145.118044     -1144.820352   9.02  10.47
C      -0.951600    -2.524843    -0.566310 
C      -0.431172    -0.724975    -2.083097 
C      -0.256633    -2.048822    -2.853273 
C      -0.898096    -3.133478    -1.966561 
H      -1.763414    -2.927573     0.040600 
H      -0.958135     0.028795    -2.672244 
H       0.534159    -0.333064    -1.760060 
H      -0.733578    -2.004895    -3.835643 
H       0.804682    -2.246040    -2.991220 
H      -1.912209    -3.369064    -2.309391 
H      -0.320904    -4.058661    -1.962349 
N      -1.250421    -1.091258    -0.895747 
C       0.392643    -2.654866     0.199269 
O       0.287857    -3.048930     1.384577 
O       1.407353    -2.314848    -0.431027 
C      -1.582550    -0.121066     0.118334 
C      -1.415036     1.308357    -0.335302 
H      -0.359406     1.526909    -0.487840 
H      -1.938349     1.492840    -1.277245 
H      -1.793188     1.989772     0.428506 
C      -1.403281    -0.413087     1.601509 
H      -1.464381    -1.489265     1.761567 
H      -2.290392     0.028794     2.063979 
H       0.545856    -1.757308     2.454959 
C       2.488220     2.792212     0.402842 
C       2.610426     1.432819     0.160046 
C       1.768978     0.550993     0.823483 
C       0.804130     1.032383     1.708879 
C       0.723549     2.402558     1.948986 
C       1.560111     3.297869     1.297089 
H       3.359315     1.077106    -0.536380 
H       1.867817    -0.512627     0.630261 
H      -0.002988     2.781025     2.663400 
H       1.503545     4.364538     1.473252 
N       3.382959     3.731475    -0.307375 
O       4.179757     3.263958    -1.093915 
O       3.263944     4.914393    -0.061803 
C      -0.155125     0.093933     2.428512 
O       0.516339    -0.965543     3.043251 
H      -0.585774     0.681803     3.246700 
O      -3.205815    -0.428888    -0.110242 
H      -2.629924    -0.978741    -0.951145 
H      -3.699269     0.355303    -0.391827 
43
     -1145.118322     -1144.819397   8.84  11.07
C      -1.303367     2.782838     0.793660 
C      -1.931412     1.541954     2.633223 
C      -0.799875     2.447460     3.151035 
C      -0.437612     3.331075     1.932281 
H      -2.279671     3.278065     0.816913 
H      -2.897263     2.052266     2.698723 
H      -2.024862     0.599099     3.168211 
H      -1.118883     3.023511     4.022875 
H       0.056798     1.839538     3.460575 
H      -0.670289     4.384998     2.095607 
H       0.622986     3.282498     1.683276 
N      -1.642796     1.370806     1.193527 
C      -0.847522     2.878392    -0.687988 
O       0.260338     3.400969    -0.920470 
O      -1.674198     2.362633    -1.464788 
C      -0.776165     0.240948     0.775058 
C      -0.741728    -0.924698     1.747480 
H      -1.737484    -1.231535     2.081353 
H      -0.254476    -1.766990     1.247584 
H      -0.142430    -0.665801     2.622878 
C       0.614643     0.556489     0.224898 
H       1.340287    -0.077418     0.741132 
H       0.865977     1.582786     0.478365 
H       1.643779     2.112650    -1.596769 
C       1.591269    -3.694133    -2.250637 
C       2.576305    -2.957256    -1.610271 
C       2.325735    -1.625649    -1.322858 
C       1.108042    -1.037381    -1.668277 
C       0.147215    -1.801742    -2.324792 
C       0.379287    -3.139343    -2.620025 
H       3.516004    -3.427579    -1.350504 
H       3.088041    -1.023749    -0.839516 
H      -0.786859    -1.340433    -2.630606 
H      -0.357686    -3.745274    -3.131423 
N       1.848360    -5.117654    -2.558105 
O       0.971037    -5.737882    -3.122526 
O       2.920522    -5.579232    -2.226714 
C       0.835852     0.406205    -1.305640 
O       1.952800     1.189687    -1.668575 
H      -0.055830     0.750769    -1.833750 
O      -1.734134    -0.177927    -0.351608 
H      -2.323638     0.700689     0.088651 
H      -2.127096    -1.044647    -0.171465 
