43
     -1145.202015     -1144.908146   0.00   0.00
C       1.874827     1.291296     1.293089 
C       3.661676     0.874985    -0.302972 
C       4.167089     1.768260     0.835272 
C       3.226322     1.435195     1.995939 
H       1.183365     0.672483     1.866843 
H       4.205713    -0.073346    -0.344942 
H       3.724864     1.362756    -1.278371 
H       5.217538     1.577751     1.061593 
H       4.066627     2.822763     0.562894 
H       3.507287     0.484512     2.460897 
H       3.183788     2.207342     2.761395 
N       2.246150     0.607103     0.038521 
C       1.199138     2.681448     1.112338 
O       1.081782     3.339769     2.126712 
O       0.811177     3.052414    -0.061423 
C       1.413410    -0.014015    -0.755850 
C       1.957692    -0.836062    -1.886297 
H       2.225051    -1.824141    -1.491590 
H       1.204540    -0.963167    -2.660516 
H       2.848262    -0.392781    -2.327723 
C       0.020893    -0.300405    -0.245650 
H      -0.433055     0.620557     0.126910 
H       0.139647    -0.969828     0.616171 
H      -0.595041     0.581969    -2.365444 
C      -4.536857    -1.881268     0.912852 
C      -4.507428    -0.755067     0.107260 
C      -3.348680    -0.471166    -0.601356 
C      -2.237890    -1.305062    -0.502003 
C      -2.302449    -2.436716     0.310019 
C      -3.451025    -2.734510     1.026561 
H      -5.380893    -0.119020     0.041277 
H      -3.303420     0.395672    -1.249053 
H      -1.445106    -3.101435     0.379772 
H      -3.515896    -3.608555     1.661724 
N      -5.767504    -2.186940     1.672196 
O      -5.765936    -3.181404     2.368583 
O      -6.705628    -1.426030     1.554811 
C      -0.947921    -0.975465    -1.236450 
O      -1.208340    -0.186217    -2.367161 
H      -0.506975    -1.934032    -1.552158 
O       0.714929     1.607491    -1.983371 
H       0.800525     2.362816    -0.988742 
H       1.277747     1.930044    -2.692559 
43
     -1145.199128     -1144.905677   1.81   1.55
C       2.061530     0.106242     0.851360 
C       3.079708     1.975445    -0.328893 
C       4.127678     1.261574     0.531370 
C       3.561767    -0.151505     0.686951 
H       1.482063    -0.769337     0.555167 
H       3.330861     1.934279    -1.393796 
H       2.946560     3.020336    -0.038725 
H       5.116327     1.282223     0.068597 
H       4.201687     1.743529     1.510315 
H       3.743334    -0.740187    -0.218817 
H       3.958587    -0.692161     1.544727 
N       1.830137     1.221880    -0.088536 
C       1.708978     0.382050     2.341767 
O       1.948279    -0.543360     3.101349 
O       1.215647     1.520310     2.661155 
C       0.642230     1.697669    -0.431001 
C       0.576827     2.682302    -1.565875 
H      -0.434462     3.075615    -1.661881 
H       1.266043     3.510605    -1.414390 
H       0.824354     2.160590    -2.494256 
C      -0.562444     0.811891    -0.191535 
H      -1.468905     1.412618    -0.292322 
H      -0.535259     0.415812     0.824298 
H      -0.964557    -0.504994    -3.111525 
C      -3.738190    -3.018068     0.155411 
C      -4.088623    -1.948605    -0.651999 
C      -3.088598    -1.095991    -1.096883 
C      -1.759213    -1.315797    -0.738854 
C      -1.439488    -2.402867     0.072386 
C      -2.427519    -3.263285     0.528440 
H      -5.126044    -1.794297    -0.919751 
H      -3.342279    -0.251452    -1.728372 
H      -0.407002    -2.585093     0.356655 
H      -2.195998    -4.110972     1.160301 
N      -4.799927    -3.929737     0.635912 
O      -4.463995    -4.857524     1.341876 
O      -5.939563    -3.692661     0.294342 
C      -0.669090    -0.356723    -1.184994 
O      -0.930706     0.206040    -2.463381 
H       0.283685    -0.901020    -1.208772 
O       0.321640     3.010386     0.995596 
H       0.762794     2.340001     1.810676 
H      -0.608859     3.154236     1.195911 
43
     -1145.199197     -1144.905026   1.77   1.96
C       1.856350     0.280153     1.123057 
C       1.778760    -1.374655     2.911530 
C       3.052131    -0.532508     3.031288 
C       2.686790     0.768799     2.315224 
H       1.168040     1.058791     0.794066 
H       1.120306    -1.242368     3.776672 
H       1.996816    -2.438310     2.793264 
H       3.345767    -0.384072     4.072312 
H       3.877959    -1.026531     2.511766 
H       2.071627     1.402821     2.962767 
H       3.548906     1.344329     1.980559 
N       1.111003    -0.858432     1.697476 
C       2.770637    -0.037692    -0.092416 
O       3.299953     0.939375    -0.599451 
O       2.916054    -1.258059    -0.456253 
C       0.181005    -1.553718     1.055076 
C      -0.656494    -2.515985     1.851583 
H      -0.040863    -3.184842     2.449496 
H      -1.316762    -1.939602     2.505423 
H      -1.280474    -3.109965     1.184674 
C      -0.448603    -0.919163    -0.167667 
H      -1.025670    -1.676892    -0.702727 
H       0.330674    -0.559414    -0.839676 
H      -3.098739     0.396618     1.118445 
C      -2.333775     2.284459    -3.485733 
C      -1.151167     2.580540    -2.826846 
C      -0.872223     1.920453    -1.640449 
C      -1.762010     0.977887    -1.123600 
C      -2.939211     0.696860    -1.812601 
C      -3.234532     1.352511    -3.000636 
H      -0.471217     3.312804    -3.242647 
H       0.057871     2.138229    -1.122523 
H      -3.628179    -0.042964    -1.420916 
H      -4.145076     1.148127    -3.549231 
N      -2.640764     2.985204    -4.751837 
O      -3.682096     2.707194    -5.308960 
O      -1.831672     3.794727    -5.154567 
C      -1.404765     0.239961     0.156760 
O      -2.535429    -0.319734     0.808174 
H      -0.905241     0.946085     0.831599 
O       1.268334    -2.904088     0.154256 
H       2.092842    -2.157835    -0.129447 
H       0.873133    -3.239093    -0.657286 
43
     -1145.199196     -1144.905023   1.77   1.96
C      -1.027015    -1.628096    -1.039385 
C      -1.505692    -0.763820    -3.268049 
C      -2.064911    -2.182156    -3.124437 
C      -2.257923    -2.337424    -1.615046 
H      -1.234745    -1.261000    -0.034212 
H      -2.300012    -0.027566    -3.430890 
H      -0.780467    -0.686308    -4.081029 
H      -2.987287    -2.315719    -3.693092 
H      -1.333930    -2.911131    -3.485294 
H      -3.169403    -1.824026    -1.290473 
H      -2.303170    -3.373239    -1.281101 
N      -0.842567    -0.498676    -1.973337 
C       0.166127    -2.614608    -0.906993 
O       0.016494    -3.482472    -0.060624 
O       1.180261    -2.467626    -1.676895 
C       0.062095     0.461322    -1.828474 
C      -0.038970     1.666677    -2.722168 
H      -0.922858     2.240134    -2.429649 
H       0.833740     2.305211    -2.589564 
H      -0.115133     1.384532    -3.770245 
C       0.663782     0.655187    -0.452046 
H       1.527014     1.319807    -0.533049 
H       1.016122    -0.301033    -0.065019 
H      -1.215399     3.003672     0.714947 
C       1.422815     0.924265     4.465077 
C       0.745334    -0.156605     3.923694 
C       0.179287    -0.019449     2.665982 
C       0.291718     1.179725     1.961266 
C       0.984876     2.245841     2.529093 
C       1.554443     2.125082     3.789859 
H       0.669258    -1.080114     4.482958 
H      -0.344465    -0.865268     2.228919 
H       1.084684     3.175709     1.980622 
H       2.095650     2.943205     4.247668 
N       2.028824     0.787711     5.807617 
O       2.616856     1.748507     6.258322 
O       1.900072    -0.277152     6.374749 
C      -0.302762     1.282119     0.565704 
O      -0.529899     2.622677     0.156665 
H      -1.250793     0.730148     0.555418 
O       1.610665    -0.337103    -2.712625 
H       1.423070    -1.377206    -2.265203 
H       2.454219    -0.013737    -2.379664 
43
     -1145.200247     -1144.904535   1.11   2.27
C       2.180539    -0.326497     0.546867 
C       3.264325     1.636735    -0.413429 
C       4.254144     0.476891    -0.384008 
C       3.703840    -0.403306     0.736356 
H       1.859999    -1.109469    -0.143723 
H       3.213843     2.128936    -1.386493 
H       3.508543     2.387325     0.348214 
H       4.235710    -0.058905    -1.339000 
H       5.276925     0.813956    -0.204829 
H       4.051831    -1.435981     0.703523 
H       3.970686     0.013613     1.713002 
N       1.973956     1.002023    -0.083545 
C       1.480573    -0.598104     1.898113 
O       1.156689    -1.758858     2.104000 
O       1.353756     0.384450     2.713909 
C       0.838376     1.696786    -0.054634 
C       0.784603     2.972167    -0.853929 
H       0.807576     2.718163    -1.917165 
H      -0.150743     3.495279    -0.656298 
H       1.614940     3.632310    -0.609406 
C      -0.464691     0.933851     0.099244 
H      -1.286249     1.651758     0.162257 
H      -0.467840     0.354979     1.020296 
H      -1.043920     0.219195    -2.992078 
C      -4.071832    -2.502575    -0.031660 
C      -4.297676    -1.413765    -0.855794 
C      -3.220392    -0.609229    -1.203036 
C      -1.942022    -0.900063    -0.734121 
C      -1.744397    -2.002904     0.098998 
C      -2.812062    -2.811084     0.456974 
H      -5.298772    -1.205595    -1.211135 
H      -3.377493     0.254618    -1.839266 
H      -0.755312    -2.226191     0.491221 
H      -2.679525    -3.667288     1.105437 
N      -5.215086    -3.362687     0.344531 
O      -6.307469    -3.069767    -0.095976 
O      -4.991173    -4.308700     1.070503 
C      -0.755643    -0.013644    -1.073312 
O      -0.967726     0.793613    -2.223403 
H       0.113773    -0.661134    -1.233267 
O       0.936194     2.519550     1.687412 
H       1.191273     1.537624     2.234669 
H       0.077926     2.821929     2.003979 
43
     -1145.200247     -1144.904532   1.11   2.27
C      -1.220089     0.568033    -1.830045 
C      -2.883938     2.091626    -0.901974 
C      -3.466122     1.392427    -2.125914 
C      -2.216975     1.005443    -2.915009 
H      -1.348104    -0.497316    -1.626697 
H      -3.545330     2.052522    -0.034394 
H      -2.648603     3.140970    -1.117899 
H      -4.021345     0.498929    -1.821258 
H      -4.145771     2.039169    -2.684126 
H      -2.378410     0.210294    -3.643205 
H      -1.818217     1.875920    -3.446166 
N      -1.635441     1.350945    -0.638578 
C       0.222690     0.761049    -2.350360 
O       0.732291    -0.217697    -2.876669 
O       0.742548     1.930228    -2.251442 
C      -0.853180     1.642567     0.398771 
C      -1.487348     2.345398     1.570189 
H      -2.177161     1.652854     2.060145 
H      -0.722632     2.622972     2.295267 
H      -2.018054     3.243140     1.258016 
C       0.303263     0.709669     0.708722 
H       0.872324     1.122281     1.545524 
H       0.980061     0.636978    -0.139866 
H      -1.225418    -1.460192     2.541031 
C       3.288906    -3.248718     1.213467 
C       2.711720    -2.943636    -0.009129 
C       1.590102    -2.129531    -0.029586 
C       1.060262    -1.627621     1.160691 
C       1.666302    -1.943803     2.373720 
C       2.787557    -2.762328     2.408366 
H       3.139671    -3.338255    -0.921428 
H       1.140428    -1.870052    -0.984807 
H       1.263785    -1.543856     3.297691 
H       3.272231    -3.021132     3.341054 
N       4.484620    -4.119220     1.242373 
O       4.906196    -4.529762     0.181315 
O       4.971128    -4.369849     2.325721 
C      -0.146061    -0.706208     1.096913 
O      -0.840469    -0.602918     2.332421 
H      -0.822751    -1.090126     0.325282 
O       0.129772     3.158946    -0.276231 
H       0.414417     2.645284    -1.268124 
H       0.941141     3.324581     0.216228 
43
     -1145.200282     -1144.904132   1.09   2.52
C       1.852799     1.841843     0.441566 
C       3.790483     0.366535     0.562698 
C       4.241468     1.829232     0.513025 
C       3.034463     2.591229     1.063208 
H       0.953147     1.954674     1.049783 
H       4.082508    -0.113421     1.503064 
H       4.183493    -0.219257    -0.271896 
H       5.155992     1.992373     1.086924 
H       4.430296     2.127621    -0.522062 
H       2.997521     2.514747     2.155411 
H       3.013892     3.642981     0.782070 
N       2.316421     0.437447     0.480104 
C       1.519169     2.404560    -0.975894 
O       1.174662     3.579055    -0.980768 
O       1.624941     1.626293    -1.980261 
C       1.574303    -0.609332     0.151613 
C       2.071254    -1.979458     0.524486 
H       1.881103    -2.138073     1.592456 
H       1.549534    -2.744560    -0.047773 
H       3.138329    -2.081927     0.341416 
C       0.073286    -0.375263     0.123537 
H      -0.151020     0.435553    -0.571157 
H      -0.203236    -0.023240     1.124046 
H      -1.162835    -2.709829    -1.752381 
C      -4.908875    -0.325711     0.089339 
C      -4.388219    -1.126813     1.089680 
C      -3.065449    -1.537691     0.985237 
C      -2.283478    -1.147927    -0.097992 
C      -2.839252    -0.339806    -1.091725 
C      -4.158262     0.076206    -1.004490 
H      -5.010682    -1.418897     1.925561 
H      -2.642269    -2.172716     1.758442 
H      -2.234097    -0.030866    -1.937815 
H      -4.607306     0.703097    -1.764041 
N      -6.317765     0.117928     0.189975 
O      -6.748756     0.818761    -0.701172 
O      -6.951527    -0.247619     1.157586 
C      -0.828188    -1.570160    -0.187994 
O      -0.508701    -2.052973    -1.493658 
H      -0.652459    -2.362993     0.551049 
O       1.954632    -0.779170    -1.762411 
H       1.843597     0.281349    -1.931337 
H       1.205080    -1.233784    -2.167446 
43
     -1145.197527     -1144.904006   2.82   2.60
C       0.813599     1.206227    -0.410743 
C       0.703717     1.587123     1.991344 
C       0.496433     2.905718     1.239117 
C      -0.015343     2.461440    -0.133221 
H       0.300730     0.549001    -1.109635 
H      -0.170065     1.323205     2.596288 
H       1.585386     1.608682     2.636448 
H      -0.193409     3.568984     1.764810 
H       1.450991     3.428104     1.129207 
H      -1.077959     2.200238    -0.087424 
H       0.133755     3.203157    -0.916217 
N       0.883771     0.577238     0.925331 
C       2.180855     1.573356    -1.054151 
O       2.103765     2.153088    -2.125273 
O       3.260035     1.262511    -0.436138 
C       1.321176    -0.641170     1.180414 
C       1.126570    -1.183844     2.571861 
H       1.612938    -2.154813     2.666929 
H       1.540739    -0.515558     3.323486 
H       0.055529    -1.306550     2.766196 
C       1.385856    -1.660245     0.065975 
H       2.145706    -2.399789     0.323925 
H       1.679865    -1.198040    -0.877382 
H      -0.351186    -4.066645    -1.147989 
C      -3.033464    -0.004791    -1.748236 
C      -3.026685    -0.260616    -0.387765 
C      -2.025148    -1.073019     0.125858 
C      -1.050220    -1.618569    -0.705181 
C      -1.095953    -1.355447    -2.074899 
C      -2.086346    -0.542117    -2.605542 
H      -3.788890     0.172598     0.247237 
H      -2.009474    -1.283343     1.191461 
H      -0.339148    -1.778126    -2.727204 
H      -2.127717    -0.316666    -3.663357 
N      -4.087884     0.871971    -2.305299 
O      -4.065971     1.086041    -3.498872 
O      -4.906443     1.323596    -1.531696 
C       0.077184    -2.453354    -0.126893 
O       0.432460    -3.531979    -0.980982 
H      -0.244123    -2.844310     0.848616 
O       3.272065    -0.304145     1.389458 
H       3.294651     0.469156     0.540936 
H       3.837653    -1.038297     1.129206 
43
     -1145.196572     -1144.902532   3.42   3.52
C       1.348278     1.265703    -2.216822 
C       2.896255     0.308174    -0.602535 
C       3.628304     1.309967    -1.502707 
C       2.511513     2.233979    -1.994422 
H       0.390285     1.777632    -2.149786 
H       2.929837     0.609375     0.449478 
H       3.297220    -0.704523    -0.691458 
H       4.420240     1.835600    -0.965342 
H       4.084044     0.791228    -2.351175 
H       2.242888     2.961187    -1.220987 
H       2.754704     2.764998    -2.913218 
N       1.496468     0.338680    -1.076041 
C       1.431371     0.617222    -3.625243 
O       1.461361     1.397857    -4.560680 
O       1.458061    -0.665823    -3.724021 
C       0.601871    -0.543164    -0.676489 
C       0.850235    -1.257662     0.623922 
H       0.073567    -2.000057     0.804156 
H       1.816378    -1.757671     0.615526 
H       0.829889    -0.534140     1.443305 
C      -0.830850    -0.408148    -1.150347 
H      -1.292228    -1.394732    -1.087204 
H      -0.845206    -0.108930    -2.199168 
H      -1.774376     2.502341    -0.110443 
C      -2.682176    -0.833319     3.581808 
C      -3.237140    -1.468414     2.482275 
C      -2.920070    -0.996389     1.218279 
C      -2.055218     0.085818     1.052016 
C      -1.519873     0.705226     2.178294 
C      -1.830134     0.248956     3.453179 
H      -3.904148    -2.308810     2.624486 
H      -3.361377    -1.477489     0.349060 
H      -0.846627     1.546702     2.060748 
H      -1.419077     0.718913     4.337499 
N      -3.015011    -1.326604     4.936772 
O      -3.764824    -2.276841     5.017293 
O      -2.516850    -0.750160     5.880623 
C      -1.727106     0.564963    -0.356018 
O      -1.120061     1.845719    -0.367678 
H      -2.673504     0.599368    -0.913592 
O       1.105577    -2.098523    -1.830541 
H       1.306045    -1.401519    -2.774377 
H       0.401466    -2.716693    -2.048424 
43
     -1145.197262     -1144.902482   2.98   3.55
C       1.258897     0.782762    -0.213889 
C       0.636477     1.658641     1.977718 
C       0.656633     2.797093     0.963951 
C       1.616505     2.272405    -0.101732 
H       0.458971     0.653388    -0.941052 
H      -0.274593     1.638325     2.578439 
H       1.500857     1.707715     2.651146 
H      -0.343881     2.942313     0.542206 
H       0.978610     3.739664     1.410643 
H       1.523933     2.767224    -1.068481 
H       2.653055     2.378904     0.235862 
N       0.735171     0.448593     1.138423 
C       2.487324    -0.001749    -0.730469 
O       2.594736    -0.061371    -1.945575 
O       3.322873    -0.457820     0.130139 
C       0.629692    -0.768712     1.647959 
C      -0.029837    -0.906839     2.996974 
H       0.022641    -1.942712     3.332859 
H       0.452664    -0.276066     3.741209 
H      -1.084161    -0.620259     2.920546 
C       0.495665    -1.964930     0.729802 
H       0.781477    -2.857346     1.289904 
H       1.156187    -1.893230    -0.132899 
H      -1.783251    -3.715151    -0.685714 
C      -2.081660     0.682527    -2.696429 
C      -2.646820     0.759962    -1.435315 
C      -2.293862    -0.199022    -0.495298 
C      -1.388044    -1.208356    -0.810473 
C      -0.849746    -1.268266    -2.096894 
C      -1.190827    -0.320123    -3.048406 
H      -3.343470     1.555338    -1.203127 
H      -2.731372    -0.153351     0.498293 
H      -0.132959    -2.042471    -2.346865 
H      -0.767310    -0.340469    -4.044174 
N      -2.440500     1.707503    -3.702082 
O      -3.192143     2.594632    -3.353603 
O      -1.959612     1.599672    -4.810317 
C      -0.946334    -2.208854     0.240120 
O      -0.934019    -3.537230    -0.267516 
H      -1.634289    -2.147894     1.095154 
O       2.465847    -1.064899     2.292478 
H       2.935919    -0.735164     1.297503 
H       2.684558    -1.994381     2.418980 
43
     -1145.198563     -1144.901967   2.17   3.88
C       2.465070     0.432835     1.008144 
C       3.558397     1.051932    -1.086913 
C       4.618774     0.587178    -0.094085 
C       3.937071     0.808294     1.254577 
H       2.298680    -0.621199     1.244558 
H       3.672868     0.591611    -2.069502 
H       3.566672     2.142671    -1.205418 
H       4.833778    -0.475550    -0.249506 
H       5.553228     1.141770    -0.200496 
H       4.359588     0.221413     2.069801 
H       3.998660     1.864308     1.537629 
N       2.296373     0.629585    -0.455698 
C       1.571740     1.275777     1.960017 
O       1.492688     0.835599     3.099551 
O       1.062535     2.354747     1.508642 
C       1.127163     0.677855    -1.079685 
C       1.129984     0.695016    -2.585811 
H       1.415398    -0.297162    -2.953922 
H       0.140734     0.944080    -2.964813 
H       1.831797     1.432821    -2.968704 
C      -0.032693    -0.011282    -0.375487 
H      -0.190254     0.436464     0.604739 
H       0.287665    -1.045103    -0.202412 
H      -2.724641     1.239333    -1.666447 
C      -4.167226    -2.258857     1.277244 
C      -3.809791    -0.977989     1.668684 
C      -2.910301    -0.272366     0.885577 
C      -2.379383    -0.842994    -0.272928 
C      -2.761810    -2.129629    -0.640369 
C      -3.660045    -2.851770     0.135043 
H      -4.231785    -0.553579     2.570549 
H      -2.613487     0.728741     1.180464 
H      -2.358639    -2.577234    -1.544393 
H      -3.967642    -3.853862    -0.134612 
N      -5.125832    -3.018774     2.111292 
O      -5.555329    -2.474901     3.106661 
O      -5.420741    -4.137405     1.746168 
C      -1.373008    -0.072523    -1.108004 
O      -1.815876     1.264140    -1.350563 
H      -1.246529    -0.597465    -2.064062 
O       0.625624     2.550757    -0.880730 
H       0.833224     2.561011     0.178540 
H      -0.332702     2.601704    -0.993321 
43
     -1145.199464     -1144.901755   1.60   4.01
C       2.180140    -1.204915     0.478692 
C       2.282456     0.852862    -0.817114 
C       3.321345    -0.138070    -1.334180 
C       3.582051    -1.016990    -0.111792 
H       1.668092    -2.016935    -0.033689 
H       1.644125     1.254494    -1.607242 
H       2.766381     1.688128    -0.297205 
H       2.904396    -0.735444    -2.151876 
H       4.216252     0.364786    -1.705873 
H       4.039236    -1.978348    -0.350429 
H       4.224853    -0.499776     0.607318 
N       1.487789     0.069664     0.151493 
C       2.233934    -1.563086     1.974396 
O       1.908498    -2.699945     2.294008 
O       2.634486    -0.646681     2.786486 
C       0.557917     0.662628     0.905662 
C      -0.050276     1.925444     0.342000 
H       0.714644     2.661191     0.101057 
H      -0.611658     1.679342    -0.563429 
H      -0.741936     2.365175     1.060435 
C      -0.360343    -0.163291     1.801661 
H      -1.013844     0.547891     2.313499 
H       0.203011    -0.670863     2.584022 
H       0.029017    -2.681374     1.359193 
C      -3.469226     0.520640    -2.101278 
C      -3.875004     0.761466    -0.798247 
C      -3.163123     0.169250     0.233387 
C      -2.061680    -0.643913    -0.030551 
C      -1.684319    -0.873813    -1.351583 
C      -2.387546    -0.291712    -2.397201 
H      -4.730436     1.396881    -0.608611 
H      -3.474678     0.341157     1.260383 
H      -0.837161    -1.515775    -1.558135 
H      -2.107839    -0.460149    -3.429338 
N      -4.218452     1.148067    -3.210660 
O      -5.165161     1.850266    -2.921764 
O      -3.840169     0.923709    -4.341485 
C      -1.267887    -1.222142     1.122509 
O      -0.563038    -2.350076     0.663943 
H      -1.984138    -1.520678     1.902289 
O       1.643725     1.474110     2.242378 
H       2.229772     0.472472     2.528468 
H       1.135798     1.764354     3.008401 
43
     -1145.195253     -1144.901642   4.24   4.08
C       0.897860     0.092145     1.200685 
C       0.704423    -2.319968     0.924173 
C       0.636416    -1.953048     2.409912 
C       0.156079    -0.499805     2.400653 
H       0.367794     0.955062     0.801866 
H      -0.217535    -2.802219     0.582505 
H       1.550523    -2.971062     0.692125 
H      -0.023537    -2.623667     2.963786 
H       1.632962    -2.013436     2.856578 
H      -0.924188    -0.447454     2.230730 
H       0.398433     0.046210     3.310863 
N       0.862214    -1.023088     0.230324 
C       2.316486     0.578415     1.611516 
O       2.335265     1.442203     2.472140 
O       3.341937     0.052931     1.046387 
C       1.186386    -0.944210    -1.044515 
C       0.894629    -2.128676    -1.927129 
H       1.323983    -3.042635    -1.523397 
H      -0.189268    -2.260413    -2.013399 
H       1.306765    -1.965027    -2.923200 
C       1.225032     0.405256    -1.723472 
H       1.933520     0.330505    -2.552844 
H       1.589359     1.181617    -1.049376 
H       0.639384     1.817911    -3.842249 
C      -2.979842     1.652948     0.748096 
C      -2.125068     2.665880     0.343473 
C      -1.221452     2.406751    -0.676528 
C      -1.172327     1.148806    -1.276828 
C      -2.056218     0.158087    -0.857985 
C      -2.968624     0.400225     0.159170 
H      -2.170918     3.633610     0.826074 
H      -0.546796     3.186721    -1.009817 
H      -2.041327    -0.819024    -1.331535 
H      -3.658790    -0.361867     0.497703 
N      -3.937882     1.918483     1.843615 
O      -4.670164     1.010763     2.179844 
O      -3.930515     3.025204     2.340100 
C      -0.131769     0.844192    -2.331458 
O       0.057546     2.020472    -3.103172 
H      -0.513511     0.035951    -2.970609 
O       3.154420    -1.289303    -0.937565 
H       3.269325    -0.669418     0.037768 
H       3.698988    -0.876030    -1.615011 
43
     -1145.196073     -1144.901136   3.73   4.40
C      -1.688782     0.431805    -1.128296 
C      -1.305247    -0.419217    -3.384033 
C      -2.684821     0.239103    -3.302786 
C      -2.544481     1.214244    -2.132897 
H      -1.119129     1.118898    -0.502262 
H      -0.635543     0.120031    -4.062672 
H      -1.365755    -1.462478    -3.700309 
H      -2.958929     0.727996    -4.239559 
H      -3.444421    -0.513555    -3.074562 
H      -2.011113     2.117061    -2.448855 
H      -3.495691     1.512115    -1.692374 
N      -0.782699    -0.339976    -2.003365 
C      -2.582920    -0.400467    -0.171588 
O      -3.149502     0.247875     0.695768 
O      -2.682935    -1.665069    -0.363285 
C       0.166113    -1.154668    -1.556967 
C       1.181817    -1.663302    -2.541645 
H       1.857124    -0.839996    -2.793117 
H       1.771504    -2.463711    -2.094119 
H       0.713813    -2.042018    -3.447784 
C       0.613182    -0.974410    -0.120955 
H       1.231834    -1.830400     0.166775 
H      -0.254239    -0.980069     0.536772 
H       3.168070    -0.584768    -0.115914 
C       1.546432     1.427316     4.239382 
C       0.320995     1.251402     3.616887 
C       0.298864     0.887822     2.280097 
C       1.490152     0.695420     1.572252 
C       2.703938     0.894975     2.224627 
C       2.741356     1.259797     3.564452 
H      -0.594476     1.399308     4.174820 
H      -0.668163     0.760850     1.802097 
H       3.635561     0.788160     1.681799 
H       3.679295     1.417123     4.081405 
N       1.576482     1.813708     5.666605 
O       2.663545     1.964233     6.184585 
O       0.512461     1.956111     6.231796 
C       1.443323     0.308389     0.096830 
O       2.726363     0.183836    -0.493610 
H       0.980983     1.137849    -0.446169 
O      -0.827063    -2.819350    -1.370587 
H      -1.758304    -2.302600    -0.921270 
H      -0.469001    -3.419373    -0.707967 
43
     -1145.196672     -1144.900803   3.35   4.61
C       1.894708     0.480638    -1.032399 
C       3.572372     0.135531     0.705842 
C       4.017048     1.279540    -0.199154 
C       3.269653     0.988357    -1.499267 
H       1.203962     1.321267    -0.934695 
H       3.638103     0.382659     1.766761 
H       4.157415    -0.773223     0.518597 
H       3.697768     2.238180     0.223213 
H       5.101221     1.308325    -0.323355 
H       3.166689     1.851511    -2.157000 
H       3.778880     0.196645    -2.058529 
N       2.169918    -0.089318     0.310289 
C       1.314539    -0.466145    -2.108669 
O       0.627154     0.069239    -2.966531 
O       1.643378    -1.705019    -2.061959 
C       1.379717    -0.945982     0.948849 
C       1.750398    -1.317101     2.360119 
H       2.780760    -1.663084     2.420783 
H       1.610241    -0.443532     3.003153 
H       1.097488    -2.112709     2.720292 
C      -0.096628    -0.930757     0.601776 
H      -0.585776    -1.776156     1.096337 
H      -0.240944    -1.069188    -0.467417 
H      -1.298704    -0.317784     2.815686 
C      -4.613580     0.782567    -0.846116 
C      -4.565779     0.719549     0.534345 
C      -3.328080     0.587912     1.151078 
C      -2.159951     0.515932     0.397327 
C      -2.240072     0.598366    -0.996423 
C      -3.468101     0.728467    -1.624529 
H      -5.481222     0.776652     1.109134 
H      -3.282305     0.565909     2.233627 
H      -1.345162     0.563505    -1.612185 
H      -3.544869     0.788995    -2.702340 
N      -5.926976     0.920009    -1.511662 
O      -5.939576     0.975478    -2.723578 
O      -6.912509     0.968632    -0.804805 
C      -0.793797     0.369052     1.056942 
O      -0.834859     0.453516     2.472047 
H      -0.186394     1.225321     0.751908 
O       1.896716    -2.630674     0.141359 
H       1.845652    -2.229247    -0.938810 
H       1.231497    -3.321838     0.229966 
43
     -1145.193846     -1144.900750   5.13   4.64
C       1.435520    -0.155603    -0.446652 
C       1.876404     0.991252     1.653774 
C       2.787188     1.543038     0.551764 
C       2.027805     1.223798    -0.738182 
H       0.552816    -0.331560    -1.056058 
H       1.219444     1.765436     2.063287 
H       2.440437     0.538215     2.472729 
H       2.985791     2.608359     0.685021 
H       3.745813     1.016578     0.559277 
H       1.219312     1.944303    -0.903687 
H       2.661917     1.193107    -1.622718 
N       1.056684    -0.037578     0.976523 
C       2.446341    -1.286143    -0.787738 
O       2.794774    -1.324646    -1.957035 
O       2.835828    -2.073102     0.145868 
C       0.313902    -0.896410     1.650469 
C      -0.131125    -0.504001     3.035140 
H      -0.664663    -1.329702     3.506234 
H       0.714363    -0.235618     3.664586 
H      -0.804172     0.357359     2.968046 
C      -0.590207    -1.853069     0.904076 
H      -0.761238    -2.722363     1.540892 
H      -0.114132    -2.203654    -0.014184 
H      -2.815092    -2.629465    -0.554471 
C      -1.935937     1.676302    -2.500456 
C      -2.177775     2.079090    -1.199106 
C      -2.207435     1.113088    -0.201913 
C      -1.997867    -0.231114    -0.496620 
C      -1.770421    -0.601517    -1.824171 
C      -1.734209     0.346609    -2.834784 
H      -2.335453     3.127093    -0.978794 
H      -2.402619     1.417119     0.822278 
H      -1.582299    -1.640050    -2.085896 
H      -1.541338     0.072078    -3.863743 
N      -1.886746     2.697974    -3.569697 
O      -2.069099     3.853542    -3.248348 
O      -1.664175     2.315610    -4.699110 
C      -1.995544    -1.271370     0.608464 
O      -2.909046    -2.329715     0.355136 
H      -2.373843    -0.802146     1.520494 
O       1.693128    -2.190297     2.259575 
H       2.277644    -2.136831     1.273398 
H       1.379325    -3.093994     2.366338 
43
     -1145.193846     -1144.900748   5.13   4.64
C      -0.961690     0.920419    -0.715801 
C      -2.431897     0.282846     1.115439 
C      -3.212500     0.303771    -0.203136 
C      -2.130528     0.102658    -1.266822 
H      -0.016745     0.552285    -1.107027 
H      -2.427009    -0.713698     1.568796 
H      -2.822567     0.998945     1.842516 
H      -3.990336    -0.462087    -0.226424 
H      -3.691957     1.277284    -0.339414 
H      -1.842097    -0.951972    -1.335695 
H      -2.418017     0.456868    -2.255422 
N      -1.051083     0.653544     0.734598 
C      -1.069263     2.412357    -1.138613 
O      -1.057891     2.604113    -2.344118 
O      -1.162153     3.310273    -0.228808 
C      -0.137043     0.967855     1.634187 
C      -0.315950     0.435682     3.032090 
H      -0.236468    -0.656500     3.016076 
H       0.458834     0.833804     3.687515 
H      -1.286701     0.707074     3.440831 
C       1.287498     1.229417     1.196030 
H       1.757634     1.871991     1.942038 
H       1.310986     1.758589     0.240946 
H       3.835102     0.579399     0.320180 
C       1.202356    -2.548815    -2.206306 
C       1.851646    -1.345828    -2.433899 
C       2.171166    -0.551038    -1.344032 
C       1.843152    -0.944641    -0.044492 
C       1.201265    -2.165235     0.144670 
C       0.874039    -2.978080    -0.932660 
H       2.085662    -1.041843    -3.445904 
H       2.653932     0.405659    -1.528716 
H       0.953923    -2.495070     1.149423 
H       0.371197    -3.926797    -0.795561 
N       0.845349    -3.398949    -3.363598 
O       0.279634    -4.447417    -3.134390 
O       1.138221    -2.992153    -4.468161 
C       2.160861    -0.049139     1.138930 
O       3.535459     0.306273     1.192921 
H       1.994986    -0.621793     2.055245 
O      -0.668632     2.830480     2.076292 
H      -0.939395     3.084157     0.990287 
H       0.057023     3.405310     2.339986 
43
     -1145.196327     -1144.900745   3.57   4.64
C      -1.968052    -0.258570    -2.162552 
C      -2.592751    -1.976851    -0.549837 
C      -3.844227    -1.402208    -1.218668 
C      -3.318886    -0.865961    -2.551066 
H      -1.288063    -0.250860    -3.017281 
H      -2.463890    -3.039551    -0.782669 
H      -2.606860    -1.851755     0.535394 
H      -4.626782    -2.154951    -1.333114 
H      -4.248384    -0.581595    -0.618441 
H      -3.168929    -1.686574    -3.260848 
H      -3.962680    -0.117120    -3.009781 
N      -1.477733    -1.203512    -1.135959 
C      -2.128298     1.227476    -1.716216 
O      -2.604834     1.967072    -2.562673 
O      -1.741973     1.570947    -0.541806 
C      -0.276090    -1.147062    -0.565623 
C       0.177331    -2.339386     0.229381 
H       0.525702    -3.104220    -0.471707 
H       1.011352    -2.079100     0.874931 
H      -0.629445    -2.743965     0.836107 
C       0.757879    -0.350685    -1.346761 
H       0.344119     0.632965    -1.565958 
H       0.864908    -0.875523    -2.303534 
H       3.769386    -1.290004    -0.766081 
C       2.296475     2.180883     2.787151 
C       2.759851     0.878589     2.830854 
C       2.728388     0.119513     1.665735 
C       2.244285     0.661344     0.478452 
C       1.793709     1.985050     0.466025 
C       1.808681     2.751164     1.619907 
H       3.132007     0.469772     3.761705 
H       3.074763    -0.907160     1.685984 
H       1.399209     2.419929    -0.447538 
H       1.446244     3.770937     1.627062 
N       2.314994     2.990327     4.025883 
O       2.747752     2.465888     5.030435 
O       1.893831     4.125685     3.957645 
C       2.179835    -0.151503    -0.807657 
O       2.818063    -1.416542    -0.706019 
H       2.684089     0.443929    -1.581580 
O      -0.689866    -0.012372     0.941628 
H      -1.209690     0.754530     0.303229 
H       0.074585     0.391034     1.365862 
43
     -1145.193584     -1144.900633   5.29   4.71
C       2.691850    -1.607684     0.751357 
C       2.487209    -1.261209    -1.649580 
C       3.918258    -1.673299    -1.299628 
C       3.749295    -2.434131     0.014952 
H       2.144670    -2.227968     1.462138 
H       1.992755    -2.012103    -2.275136 
H       2.450907    -0.300216    -2.168344 
H       4.374186    -2.269465    -2.092427 
H       4.538252    -0.785843    -1.141617 
H       3.372089    -3.445132    -0.172218 
H       4.661538    -2.502110     0.605018 
N       1.794530    -1.174764    -0.344434 
C       3.351101    -0.453131     1.562782 
O       4.162959    -0.814703     2.397866 
O       3.014357     0.758186     1.308810 
C       0.636814    -0.554301    -0.193333 
C      -0.246088    -0.432204    -1.405453 
H      -1.025438     0.304657    -1.245454 
H       0.311442    -0.166896    -2.302290 
H      -0.719017    -1.406357    -1.573556 
C      -0.030375    -0.650074     1.161644 
H       0.709146    -0.856822     1.931630 
H      -0.681442    -1.533067     1.106184 
H      -1.776998     0.720380     3.438296 
C      -4.188496     1.766918    -0.657729 
C      -3.106107     2.619097    -0.523858 
C      -2.030647     2.204936     0.250971 
C      -2.039990     0.959545     0.873707 
C      -3.151351     0.128384     0.726791 
C      -4.233140     0.524593    -0.043854 
H      -3.113087     3.582058    -1.018142 
H      -1.164413     2.848352     0.362341 
H      -3.171416    -0.833472     1.228946 
H      -5.103156    -0.106938    -0.169802 
N      -5.340585     2.198597    -1.480668 
O      -5.275786     3.289696    -2.007045 
O      -6.277860     1.434521    -1.578261 
C      -0.863345     0.516739     1.719646 
O      -1.318082     0.011147     2.976614 
H      -0.198280     1.369541     1.872725 
O       1.151006     1.403208    -0.068837 
H       2.070451     1.117165     0.568675 
H       1.472286     1.744164    -0.909424 
43
     -1145.195013     -1144.900319   4.39   4.91
C      -1.930128     1.385327    -1.715752 
C      -2.068935     2.009643     0.638526 
C      -3.480819     1.896866     0.074330 
C      -3.259943     2.104615    -1.422832 
H      -2.108800     0.352762    -2.011554 
H      -1.949615     1.492220     1.591444 
H      -1.768676     3.056886     0.767783 
H      -3.882775     0.897387     0.270950 
H      -4.160086     2.629429     0.514808 
H      -4.060212     1.713151    -2.050528 
H      -3.157568     3.172985    -1.642034 
N      -1.236892     1.382157    -0.401522 
C      -1.244042     2.094916    -2.904285 
O      -1.679924     1.804096    -4.004799 
O      -0.334805     2.976426    -2.667325 
C       0.033344     1.077365    -0.205510 
C       0.531823     1.008946     1.213662 
H       1.603302     0.811259     1.227668 
H       0.341412     1.945718     1.734417 
H       0.030620     0.193320     1.741110 
C       0.757140     0.237552    -1.239772 
H       1.827228     0.419057    -1.127419 
H       0.479101     0.548663    -2.245620 
H      -1.000088    -2.445156    -1.497891 
C       2.438868    -3.088983     2.244889 
C       1.056851    -3.030192     2.216726 
C       0.436736    -2.447903     1.118549 
C       1.190133    -1.932671     0.067142 
C       2.581756    -2.018470     0.122725 
C       3.218107    -2.592064     1.212258 
H       0.483824    -3.432364     3.042461 
H      -0.644866    -2.386681     1.082886 
H       3.182750    -1.638969    -0.699732 
H       4.296702    -2.662076     1.268624 
N       3.106553    -3.705618     3.412410 
O       4.319174    -3.743021     3.408127 
O       2.399812    -4.134324     4.300232 
C       0.531953    -1.286614    -1.144997 
O      -0.861534    -1.539615    -1.205710 
H       1.021768    -1.700042    -2.037050 
O       0.881004     2.824730    -0.605954 
H       0.262306     2.959988    -1.615825 
H       1.817439     2.789302    -0.825620 
43
     -1145.194049     -1144.899846   5.00   5.21
C      -1.663691    -2.003406     1.287872 
C       0.682726    -2.133488     1.923198 
C      -0.033058    -3.443465     2.275009 
C      -1.232900    -3.470583     1.325055 
H      -2.223296    -1.774267     0.381844 
H       1.511081    -2.295080     1.226182 
H       1.064675    -1.617896     2.807509 
H       0.625333    -4.307424     2.165266 
H      -0.380944    -3.414252     3.311162 
H      -0.928869    -3.800205     0.325009 
H      -2.049450    -4.102092     1.670454 
N      -0.355168    -1.302830     1.268568 
C      -2.592466    -1.675354     2.493541 
O      -3.601968    -2.357345     2.559295 
O      -2.248757    -0.748805     3.308128 
C      -0.168459    -0.015148     1.023563 
C       1.246914     0.477686     0.891571 
H       1.690878     0.064986    -0.019689 
H       1.261798     1.563748     0.812353 
H       1.850715     0.180956     1.746395 
C      -1.249789     0.742927     0.285595 
H      -1.136509     1.801327     0.521035 
H      -2.231207     0.431729     0.644535 
H      -0.618294    -1.285678    -1.203679 
C       2.005996     2.706957    -3.133495 
C       1.887562     1.347678    -3.357468 
C       0.845134     0.658910    -2.749790 
C      -0.061903     1.319602    -1.925703 
C       0.075686     2.696821    -1.738651 
C       1.110093     3.399686    -2.334411 
H       2.598849     0.843383    -3.998935 
H       0.731153    -0.401764    -2.938563 
H      -0.639801     3.239604    -1.127547 
H       1.227296     4.466251    -2.192600 
N       3.114863     3.446916    -3.774130 
O       3.189160     4.638980    -3.560715 
O       3.880665     2.815853    -4.471861 
C      -1.215742     0.578534    -1.256298 
O      -1.303129    -0.776184    -1.652354 
H      -2.140220     1.035150    -1.624156 
O      -0.439941     0.764482     2.840852 
H      -1.288614     0.044935     3.102527 
H      -0.796404     1.658170     2.863523 
43
     -1145.197977     -1144.899126   2.53   5.66
C       2.013459     0.262325     1.581452 
C       2.047285     2.688979     1.857540 
C       3.314236     2.085981     2.458860 
C       2.887251     0.653931     2.779441 
H       2.635929    -0.137918     0.777227 
H       2.253445     3.515831     1.173724 
H       1.368866     3.045952     2.642669 
H       4.121242     2.087573     1.718609 
H       3.657232     2.640642     3.334377 
H       3.719966    -0.039125     2.903318 
H       2.285844     0.630366     3.694193 
N       1.430231     1.559268     1.139377 
C       1.005636    -0.848486     1.967423 
O       1.297539    -1.992401     1.645758 
O      -0.051680    -0.483950     2.598071 
C       0.237593     1.682304     0.537145 
C      -0.134094     3.046489     0.008143 
H      -0.083123     3.809728     0.782231 
H       0.552208     3.307513    -0.803994 
H      -1.148617     3.029875    -0.393162 
C      -0.159291     0.518283    -0.367375 
H       0.435618    -0.361640    -0.136598 
H       0.168464     0.832849    -1.366860 
H      -1.676366    -0.778862     1.268415 
C      -1.775259    -3.193100    -3.257134 
C      -1.139014    -3.366748    -2.037100 
C      -1.098124    -2.303501    -1.150364 
C      -1.688543    -1.081588    -1.484396 
C      -2.318793    -0.939769    -2.715680 
C      -2.368359    -1.996455    -3.616251 
H      -0.685656    -4.319545    -1.796568 
H      -0.590478    -2.437085    -0.198612 
H      -2.785972     0.005077    -2.977767 
H      -2.856022    -1.902861    -4.578045 
N      -1.819712    -4.326222    -4.207511 
O      -1.291075    -5.364318    -3.868942 
O      -2.382358    -4.147384    -5.267942 
C      -1.630847     0.084666    -0.509809 
O      -2.270193    -0.244557     0.714361 
H      -2.221577     0.908025    -0.924757 
O      -0.931830     1.692360     1.988479 
H      -0.520217     0.780650     2.407851 
H      -1.804842     1.396854     1.680200 
43
     -1145.194796     -1144.899056   4.53   5.70
C      -0.731493    -1.293188     0.060520 
C      -2.444386     0.074112     1.132965 
C      -2.056080    -1.074902     2.056914 
C      -1.527097    -2.121628     1.078965 
H       0.284298    -1.147259     0.424339 
H      -2.428150     1.045737     1.630628 
H      -3.439652    -0.083442     0.700182 
H      -1.264917    -0.756222     2.743932 
H      -2.901383    -1.426018     2.651732 
H      -0.896032    -2.882550     1.538590 
H      -2.358085    -2.627147     0.575453 
N      -1.430549     0.020493     0.060219 
C      -0.640835    -2.062957    -1.276082 
O       0.339735    -2.779373    -1.410597 
O      -1.616305    -1.950366    -2.103872 
C      -1.422454     0.906733    -0.926948 
C      -2.120836     2.221065    -0.680807 
H      -1.597049     2.769083     0.109400 
H      -2.107102     2.826779    -1.587148 
H      -3.155498     2.072099    -0.378165 
C      -0.260039     0.967793    -1.897284 
H      -0.595396     1.502880    -2.787674 
H       0.056553    -0.024899    -2.214574 
H       2.376411     1.463318    -2.676026 
C       3.117749    -0.474451     1.586363 
C       2.485543     0.696682     1.967545 
C       1.796406     1.419156     1.003033 
C       1.740720     0.980243    -0.316633 
C       2.397433    -0.200958    -0.667289 
C       3.085950    -0.939896     0.281319 
H       2.534263     1.025734     2.997661 
H       1.293564     2.339182     1.286520 
H       2.333295    -0.597746    -1.676182 
H       3.570554    -1.872763     0.025142 
N       3.844774    -1.259040     2.608936 
O       3.848030    -0.832421     3.745054 
O       4.390846    -2.280586     2.248656 
C       0.954980     1.756516    -1.354807 
O       1.771872     2.174596    -2.440994 
H       0.602881     2.687704    -0.902005 
O      -2.786723     0.149307    -2.106402 
H      -2.300698    -0.899911    -2.103569 
H      -2.745096     0.488512    -3.007011 
43
     -1145.193943     -1144.898440   5.07   6.09
C       2.495291    -0.696607     0.573330 
C       3.092040    -1.439696    -1.665709 
C       4.360445    -1.082590    -0.883847 
C       3.934305    -1.227073     0.578064 
H       1.908907    -1.129171     1.380940 
H       3.073654    -2.498095    -1.946627 
H       2.987737    -0.835156    -2.570033 
H       5.198428    -1.728856    -1.151802 
H       4.646422    -0.048116    -1.089850 
H       3.933706    -2.279840     0.878955 
H       4.562691    -0.670821     1.274343 
N       1.984068    -1.156977    -0.726813 
C       2.485460     0.840524     0.751368 
O       2.579528     1.248808     1.904332 
O       2.382880     1.572846    -0.298957 
C       0.729790    -0.980484    -1.144183 
C       0.327794    -1.740778    -2.386077 
H       0.199277    -2.794649    -2.115057 
H      -0.619412    -1.365372    -2.771558 
H       1.074536    -1.670476    -3.173733 
C      -0.416375    -0.830223    -0.146876 
H      -0.457274    -1.770165     0.416318 
H      -1.324663    -0.798249    -0.751204 
H       0.712896     0.452378     2.433066 
C      -4.584962     1.558158     1.097864 
C      -3.718412     2.259822     0.278129 
C      -2.387626     1.866419     0.237382 
C      -1.934845     0.790830     0.997620 
C      -2.831115     0.112599     1.822162 
C      -4.163282     0.491783     1.877011 
H      -4.084115     3.094110    -0.306611 
H      -1.692089     2.424736    -0.383732 
H      -2.476555    -0.710272     2.432570 
H      -4.873381    -0.023076     2.511550 
N      -6.005714     1.965374     1.149558 
O      -6.345643     2.903979     0.459393 
O      -6.744529     1.336382     1.877945 
C      -0.489771     0.329454     0.891038 
O      -0.032964    -0.104288     2.159329 
H       0.099178     1.180303     0.543170 
O       0.819429     0.740646    -1.934657 
H       1.600674     1.179430    -1.200321 
H      -0.006406     1.232447    -1.877786 
43
     -1145.194492     -1144.898436   4.72   6.09
C       0.810598     0.289710     1.244961 
C       0.382876    -2.109690     1.393604 
C      -0.277837    -1.407587     2.574740 
C       0.541459    -0.124383     2.700605 
H       0.004609     0.930677     0.889903 
H      -0.286499    -2.802869     0.881150 
H       1.284365    -2.653487     1.700793 
H      -1.321674    -1.176281     2.337757 
H      -0.261009    -2.020241     3.478102 
H       0.036632     0.674754     3.243072 
H       1.490584    -0.329633     3.207283 
N       0.760629    -0.997208     0.501571 
C       2.116819     1.114440     1.185890 
O       1.993138     2.299069     1.450546 
O       3.220435     0.503585     0.942515 
C       1.218271    -1.197456    -0.721063 
C       0.969727    -2.540665    -1.358132 
H       1.476638    -2.595936    -2.322084 
H       1.335075    -3.349800    -0.728839 
H      -0.104262    -2.677838    -1.523447 
C       1.350779    -0.031550    -1.676587 
H       2.110946    -0.299206    -2.415825 
H       1.686475     0.875354    -1.175286 
H       0.929679     0.858685    -4.097609 
C      -2.837036     1.873374     0.267442 
C      -1.888158     2.724897    -0.276998 
C      -0.978350     2.210665    -1.188017 
C      -1.017506     0.862734    -1.543515 
C      -1.996401     0.038780    -0.995452 
C      -2.915000     0.535888    -0.081429 
H      -1.862847     3.765073     0.020954 
H      -0.223046     2.858077    -1.617857 
H      -2.048035    -1.007934    -1.281783 
H      -3.677890    -0.093320     0.359117 
N      -3.800202     2.410067     1.253699 
O      -4.593853     1.632015     1.742711 
O      -3.736101     3.592391     1.516734 
C       0.044800     0.284994    -2.450521 
O       0.315332     1.241768    -3.463801 
H      -0.343496    -0.637896    -2.903068 
O       3.135595    -1.528317    -0.332027 
H       3.218331    -0.580641     0.336977 
H       3.735403    -1.415059    -1.076784 
43
     -1145.193184     -1144.898433   5.54   6.09
C      -3.214365    -0.095661     0.031754 
C      -2.320481    -2.229355    -0.747828 
C      -3.833054    -2.216325    -0.944372 
C      -4.294627    -1.187626     0.084724 
H      -3.478270     0.650656    -0.721225 
H      -1.779181    -2.549396    -1.639484 
H      -2.039762    -2.886809     0.085359 
H      -4.074952    -1.883772    -1.959138 
H      -4.274601    -3.203656    -0.796966 
H      -5.280856    -0.768658    -0.111048 
H      -4.315527    -1.634807     1.084541 
N      -2.000981    -0.826761    -0.421223 
C      -3.166280     0.632375     1.398784 
O      -4.085429     1.411301     1.585688 
O      -2.241646     0.334780     2.237984 
C      -0.760740    -0.370420    -0.351214 
C       0.325440    -1.199726    -0.982569 
H       0.206619    -1.152593    -2.071051 
H       1.302500    -0.803379    -0.724051 
H       0.278096    -2.244607    -0.676051 
C      -0.571461     1.131616    -0.359055 
H      -1.511313     1.638434    -0.150389 
H      -0.317728     1.375686    -1.399591 
H       0.866798     3.693156     0.857955 
C       4.528756     0.638521    -0.176699 
C       3.869929     1.406332    -1.124581 
C       2.557810     1.778136    -0.877371 
C       1.912461     1.381194     0.295232 
C       2.605638     0.617621     1.230535 
C       3.921283     0.237368     1.000389 
H       4.384872     1.704915    -2.028643 
H       2.027805     2.392915    -1.597667 
H       2.103758     0.304887     2.138919 
H       4.472341    -0.359657     1.715640 
N       5.931125     0.239340    -0.430110 
O       6.440156     0.606071    -1.468698 
O       6.485472    -0.430455     0.416092 
C       0.476356     1.801715     0.545934 
O       0.310831     3.190588     0.253824 
H       0.218164     1.601208     1.588118 
O      -0.214749    -0.746750     1.555568 
H      -1.208944    -0.284728     1.926982 
H      -0.241260    -1.693675     1.724998 
43
     -1145.193184     -1144.898429   5.54   6.10
C       1.917694     0.154683     2.576970 
C       3.086015     1.008559     0.610919 
C       4.072385     0.886597     1.768019 
C       3.162068     0.955852     2.991474 
H       2.053529    -0.899089     2.831379 
H       3.455991     0.558567    -0.311638 
H       2.843286     2.060747     0.412852 
H       4.585034    -0.079778     1.721478 
H       4.829065     1.673047     1.746920 
H       3.601484     0.548526     3.901151 
H       2.878829     1.994345     3.194817 
N       1.891543     0.291833     1.096262 
C       0.697540     0.665520     3.384054 
O       0.671882     0.293922     4.544980 
O      -0.136374     1.465421     2.825016 
C       0.858860     0.008494     0.318678 
C       1.064486     0.083649    -1.170690 
H       0.115669    -0.014986    -1.688944 
H       1.535756     1.017868    -1.475829 
H       1.714225    -0.746146    -1.471372 
C      -0.131169    -1.018798     0.825151 
H       0.003521    -1.189286     1.891229 
H       0.158152    -1.954454     0.327649 
H      -3.158963    -1.889174     1.256535 
C      -2.924527    -0.656303    -3.459036 
C      -2.461646    -1.859766    -2.949640 
C      -2.051432    -1.902719    -1.626429 
C      -2.095631    -0.758273    -0.828101 
C      -2.574058     0.432360    -1.368316 
C      -2.990895     0.493510    -2.691565 
H      -2.433348    -2.737429    -3.582534 
H      -1.700951    -2.837841    -1.201701 
H      -2.604081     1.322516    -0.750603 
H      -3.361312     1.412458    -3.127467 
N      -3.367929    -0.601231    -4.869909 
O      -3.770628     0.463225    -5.290325 
O      -3.301100    -1.623845    -5.519574 
C      -1.643542    -0.829093     0.618512 
O      -2.200767    -1.981373     1.253681 
H      -1.956809     0.078360     1.139476 
O      -0.303934     1.654038     0.441721 
H      -0.201976     1.634851     1.594583 
H       0.174058     2.420637     0.110170 
43
     -1145.194611     -1144.898395   4.65   6.12
C       0.694731     2.664829    -1.037108 
C       2.603064     2.074954     0.366924 
C       2.886265     3.405416    -0.322492 
C       1.974277     3.351977    -1.546069 
H      -0.019210     3.414701    -0.686000 
H       2.812155     2.104623     1.437527 
H       3.181147     1.257263    -0.081538 
H       2.602705     4.234365     0.334763 
H       3.941577     3.520232    -0.577431 
H       1.749220     4.326388    -1.979118 
H       2.431356     2.737204    -2.328800 
N       1.165896     1.864871     0.123552 
C       0.027470     1.922383    -2.224973 
O      -0.637322     2.632291    -2.963666 
O       0.256776     0.669182    -2.375750 
C       0.477148     0.877608     0.695634 
C       1.034164     0.285368     1.962084 
H       0.492997    -0.615614     2.235741 
H       2.087953     0.041010     1.845955 
H       0.913047     1.009609     2.774410 
C      -1.034722     0.984909     0.541482 
H      -1.289417     1.054943    -0.514208 
H      -1.294909     1.957711     0.979784 
H      -2.306961     0.711788     2.946937 
C      -1.460730    -4.003453    -0.392190 
C      -1.301573    -3.808378     0.967461 
C      -1.468708    -2.528334     1.484162 
C      -1.793361    -1.464314     0.647164 
C      -1.965236    -1.697756    -0.721244 
C      -1.790819    -2.965460    -1.251723 
H      -1.049300    -4.645478     1.605822 
H      -1.350410    -2.356713     2.546709 
H      -2.211960    -0.879669    -1.391068 
H      -1.902414    -3.155489    -2.311292 
N      -1.271785    -5.360647    -0.949926 
O      -0.998587    -6.252358    -0.174200 
O      -1.399821    -5.495180    -2.148814 
C      -1.971345    -0.055162     1.181385 
O      -1.882382    -0.077558     2.599245 
H      -2.982285     0.262204     0.888795 
O       0.965386    -0.589820    -0.444213 
H       0.691645    -0.053354    -1.389360 
H       0.394271    -1.361092    -0.354352 
43
     -1145.194413     -1144.898352   4.77   6.15
C       2.346483    -0.652890     0.095488 
C       1.895748     1.224685    -1.389059 
C       3.396056     0.942937    -1.402341 
C       3.480761    -0.510448    -0.938790 
H       1.855303    -1.613889    -0.014584 
H       1.411754     0.890545    -2.314319 
H       1.685260     2.282314    -1.243169 
H       3.836337     1.103729    -2.388522 
H       3.900044     1.599578    -0.688162 
H       3.295675    -1.190677    -1.775630 
H       4.450181    -0.768840    -0.509246 
N       1.394462     0.431403    -0.247969 
C       2.891893    -0.587133     1.533510 
O       3.012088    -1.649189     2.129890 
O       3.205492     0.572978     2.004775 
C       0.474847     0.920634     0.587531 
C      -0.553607     1.857861    -0.002065 
H      -1.131116     1.318687    -0.758033 
H      -1.240194     2.202141     0.771052 
H      -0.093996     2.729100    -0.462061 
C       0.007135     0.113759     1.796435 
H      -0.667084     0.770474     2.351905 
H       0.839392    -0.097785     2.468168 
H       0.867880    -2.315061     1.803622 
C      -3.809803    -0.750944    -1.377461 
C      -4.044957    -0.317045    -0.082720 
C      -3.049597    -0.501024     0.864691 
C      -1.838464    -1.101378     0.523943 
C      -1.636647    -1.536138    -0.784053 
C      -2.623222    -1.363287    -1.744696 
H      -4.988967     0.150187     0.166257 
H      -3.222298    -0.174424     1.886855 
H      -0.703418    -2.017314    -1.048757 
H      -2.482455    -1.695140    -2.765406 
N      -4.861775    -0.557651    -2.398244 
O      -4.628354    -0.942765    -3.524865 
O      -5.893365    -0.024136    -2.046372 
C      -0.748304    -1.222363     1.566980 
O       0.098328    -2.292504     1.214257 
H      -1.231988    -1.438575     2.530600 
O       1.529429     2.228449     1.516472 
H       2.434491     1.467405     1.743605 
H       1.140569     2.513739     2.350492 
43
     -1145.195855     -1144.895599   3.87   7.87
C       2.387651    -0.729289    -0.399809 
C       2.772425    -2.190877     1.525025 
C       3.808307    -2.504538     0.441039 
C       3.832275    -1.240475    -0.420363 
H       2.361390     0.359379    -0.465290 
H       3.239335    -1.777729     2.426525 
H       2.213557    -3.085443     1.808904 
H       4.784651    -2.739034     0.870507 
H       3.476339    -3.354386    -0.156817 
H       4.489238    -0.484085     0.020845 
H       4.174714    -1.428210    -1.439613 
N       1.876027    -1.182501     0.922322 
C       1.505698    -1.312004    -1.528861 
O       0.937716    -0.520938    -2.291737 
O       1.359590    -2.577891    -1.496266 
C       0.543098    -1.172168     1.205006 
C       0.161950    -1.478651     2.636935 
H       0.526311    -2.450951     2.962376 
H       0.584766    -0.703826     3.282959 
H      -0.924139    -1.467573     2.743629 
C      -0.203602     0.040748     0.630434 
H       0.392636     0.511563    -0.145885 
H      -0.260782     0.759023     1.456290 
H      -1.004336    -0.864141    -1.664002 
C      -3.045387     3.714504    -1.166349 
C      -3.635898     3.105946    -0.073770 
C      -3.173226     1.854806     0.314208 
C      -2.140593     1.231962    -0.378274 
C      -1.563598     1.872588    -1.477713 
C      -2.015505     3.119164    -1.878824 
H      -4.438739     3.604918     0.453512 
H      -3.630889     1.357873     1.164699 
H      -0.752530     1.401309    -2.025142 
H      -1.582161     3.631415    -2.727995 
N      -3.528863     5.047611    -1.589769 
O      -4.430235     5.546702    -0.948746 
O      -2.994244     5.559096    -2.551009 
C      -1.624631    -0.125158     0.066266 
O      -1.684117    -1.074560    -0.995195 
H      -2.297008    -0.518687     0.835915 
O      -0.125587    -2.620481     0.452054 
H       0.556370    -2.778729    -0.357450 
H      -0.927973    -2.336279    -0.040575 
43
     -1145.190329     -1144.895250   7.33   8.09
C       1.899614     1.946142    -1.327960 
C      -0.212639     3.156705    -1.162382 
C       0.812759     4.040004    -1.866203 
C       2.140526     3.465046    -1.379293 
H       2.182749     1.491107    -2.280839 
H      -1.168118     3.121329    -1.687810 
H      -0.391053     3.504459    -0.135881 
H       0.716584     3.927959    -2.951176 
H       0.683661     5.095998    -1.621361 
H       2.992095     3.704315    -2.015122 
H       2.364697     3.833791    -0.372580 
N       0.428577     1.831103    -1.154984 
C       2.822162     1.334106    -0.240192 
O       3.993549     1.240361    -0.568946 
O       2.325994     1.035108     0.904119 
C      -0.209648     0.708878    -0.835122 
C      -1.713638     0.731155    -0.849341 
H      -2.105074     1.617155    -0.348626 
H      -2.058999     0.730091    -1.887412 
H      -2.109016    -0.153037    -0.359305 
C       0.519770    -0.575738    -1.192504 
H       1.447266    -0.633980    -0.624424 
H       0.813536    -0.460891    -2.243774 
H      -1.019763    -2.116331    -2.854536 
C      -1.285214    -3.153612     2.864424 
C      -2.271437    -3.094091     1.897915 
C      -1.924951    -2.686925     0.614923 
C      -0.611667    -2.343326     0.312412 
C       0.362959    -2.425072     1.308306 
C       0.034769    -2.824705     2.590630 
H      -3.289358    -3.363422     2.148703 
H      -2.682520    -2.643187    -0.157665 
H       1.392482    -2.158078     1.091485 
H       0.778854    -2.880331     3.374554 
N      -1.646595    -3.584202     4.230925 
O      -0.760124    -3.628862     5.059038 
O      -2.807799    -3.867472     4.443518 
C      -0.202708    -1.929732    -1.089045 
O      -1.331770    -1.996027    -1.953452 
H       0.542931    -2.667720    -1.418223 
O      -0.023412     0.563066     1.109066 
H       1.073025     0.833643     1.083857 
H      -0.503056     1.275215     1.544282 
43
     -1145.190329     -1144.895243   7.33   8.10
C      -1.675235    -2.243030    -1.150631 
C      -0.863818    -3.106245     0.982684 
C      -1.690412    -4.186040     0.291446 
C      -2.584774    -3.375926    -0.643668 
H      -1.178842    -2.548755    -2.075471 
H       0.091691    -3.480811     1.352789 
H      -1.416801    -2.667664     1.824304 
H      -1.031928    -4.848661    -0.279784 
H      -2.249904    -4.795386     1.003767 
H      -2.997637    -3.946922    -1.474454 
H      -3.424698    -2.948317    -0.085654 
N      -0.656999    -2.105500    -0.077594 
C      -2.558529    -1.013850    -1.493905 
O      -3.182186    -1.118590    -2.537503 
O      -2.618606    -0.036454    -0.665584 
C       0.203149    -1.096084     0.023700 
C       1.267824    -1.187905     1.082343 
H       2.024722    -1.910403     0.763014 
H       1.752083    -0.225578     1.215318 
H       0.854221    -1.510141     2.038393 
C       0.506418    -0.370189    -1.276730 
H      -0.403005     0.100697    -1.647633 
H       0.757128    -1.158228    -1.998390 
H       3.192567    -0.447853    -1.808633 
C       1.090264     4.199166     0.991268 
C       2.237058     3.453116     1.187715 
C       2.417002     2.295996     0.438989 
C       1.459133     1.896552    -0.486880 
C       0.317296     2.678357    -0.669581 
C       0.120885     3.830326     0.069447 
H       2.972993     3.776046     1.912776 
H       3.313731     1.703779     0.572663 
H      -0.442436     2.380809    -1.385457 
H      -0.765867     4.438351    -0.054126 
N       0.891615     5.429699     1.784779 
O      -0.123724     6.066024     1.590429 
O       1.755319     5.730549     2.583113 
C       1.649778     0.656751    -1.340671 
O       2.910886     0.065597    -1.046529 
H       1.652681     1.003834    -2.383980 
O      -0.812955     0.344491     0.876794 
H      -1.715639     0.178013     0.218425 
H      -1.044444     0.100377     1.778708 
