40
     -1068.723329     -1068.447227   0.00   0.00
C       3.653255     0.185700     0.051792 
C       1.963415     1.741357     0.799457 
C       3.082232     1.644323     1.844485 
C       4.290420     1.137634     1.053117 
H       4.264679     0.033609    -0.838445 
H       1.902453     2.742196     0.361791 
H       0.995378     1.473319     1.221491 
H       3.258765     2.602860     2.336094 
H       2.810528     0.916018     2.614364 
H       4.789259     1.959934     0.529967 
H       5.022733     0.614071     1.667240 
N       2.355887     0.788993    -0.269494 
C       3.298493    -1.222353     0.676991 
O       4.172613    -1.826911     1.268599 
O       2.079635    -1.574324     0.472747 
C       1.510626    -0.041777    -0.860039 
C       1.950368    -0.857372    -2.042134 
H       2.984113    -1.187406    -1.991991 
H       1.307859    -1.732789    -2.140376 
H       1.822879    -0.227937    -2.932094 
C       0.021562     0.179680    -0.780096 
H      -0.376921     0.104657    -1.795968 
H      -0.211593     1.177386    -0.406817 
H       0.614585    -1.145590     1.465809 
C      -4.905265    -0.110033    -0.180608 
C      -4.274394    -0.822036    -1.187849 
C      -2.916416    -1.071428    -1.066522 
C      -2.200089    -0.614982     0.039345 
C      -2.864506     0.092099     1.038724 
C      -4.224305     0.349121     0.933990 
H      -4.843403    -1.169333    -2.040576 
H      -2.408341    -1.637077    -1.842871 
H      -2.314158     0.431432     1.907684 
H      -4.756757     0.895909     1.701641 
N      -6.353341     0.163558    -0.298686 
O      -6.924752    -0.252164    -1.285591 
O      -6.883054     0.787183     0.597352 
C      -0.706931    -0.855343     0.116838 
O      -0.278724    -0.751659     1.451453 
H      -0.490254    -1.858283    -0.274644 
40
     -1068.723329     -1068.447223   0.00   0.01
C       3.376708     1.345976     0.411801 
C       1.387477     1.580237     1.761879 
C       2.601904     1.321461     2.662684 
C       3.797582     1.760397     1.813917 
H       3.886047     1.911472    -0.369404 
H       0.954107     2.569069     1.938930 
H       0.618253     0.820541     1.896832 
H       2.523342     1.859220     3.609404 
H       2.678021     0.253434     2.887385 
H       3.936013     2.845351     1.863047 
H       4.730864     1.272404     2.093910 
N       1.924724     1.548411     0.378391 
C       3.574054    -0.198577     0.138391 
O       4.663526    -0.689444     0.365721 
O       2.516504    -0.771867    -0.313427 
C       1.322003     0.937444    -0.629991 
C       1.845434     1.088066    -2.029722 
H       1.410931     2.009550    -2.437821 
H       2.927931     1.153774    -2.092571 
H       1.510023     0.246824    -2.636877 
C      -0.136611     0.564640    -0.551201 
H      -0.616014     0.917131    -1.468990 
H      -0.627383     1.058232     0.288220 
H       1.130329    -1.465776     0.642274 
C      -4.592706    -1.639861    -0.569496 
C      -3.900751    -1.438462    -1.752763 
C      -2.530629    -1.239341    -1.688454 
C      -1.863497    -1.237846    -0.463978 
C      -2.586369    -1.450135     0.707587 
C      -3.958531    -1.652860     0.661158 
H      -4.432301    -1.441610    -2.695617 
H      -1.971411    -1.089812    -2.608091 
H      -2.067722    -1.468139     1.658272 
H      -4.535703    -1.820531     1.561453 
N      -6.054743    -1.852329    -0.624464 
O      -6.637597    -2.028448     0.425132 
O      -6.583724    -1.837298    -1.716832 
C      -0.374943    -0.962717    -0.421428 
O       0.163769    -1.453931     0.780157 
H       0.099717    -1.456147    -1.280100 
40
     -1068.721940     -1068.446536   0.87   0.44
C       3.551174     0.026201     0.729424 
C       1.604073     0.246574     2.135451 
C       2.816894     0.098098     3.048318 
C       3.884127    -0.514507     2.131434 
H       4.285361     0.754729     0.382688 
H       0.914997     1.023536     2.470655 
H       1.056126    -0.695524     2.023598 
H       3.131544     1.084418     3.404347 
H       2.597120    -0.521356     3.919659 
H       4.899772    -0.256166     2.432519 
H       3.812289    -1.604741     2.126202 
N       2.217276     0.631303     0.850921 
C       3.414740    -1.122762    -0.339522 
O       4.382190    -1.838644    -0.521346 
O       2.264367    -1.168536    -0.901933 
C       1.551930     0.761379    -0.280898 
C       2.201947     1.387731    -1.478106 
H       3.272362     1.207798    -1.538488 
H       1.729726     1.023445    -2.390602 
H       2.030859     2.469510    -1.400976 
C       0.047803     0.769213    -0.288112 
H      -0.279244     1.645596    -0.855697 
H      -0.355110     0.846096     0.721632 
H       0.688308    -1.822404    -0.340850 
C      -4.792710     0.061384    -1.161579 
C      -3.983058     0.639529    -2.125768 
C      -2.615095     0.430148    -2.048433 
C      -2.065091    -0.340049    -1.024503 
C      -2.906323    -0.913684    -0.073989 
C      -4.278402    -0.715624    -0.137482 
H      -4.424540     1.235386    -2.914168 
H      -1.966500     0.868287    -2.802215 
H      -2.482300    -1.527179     0.711395 
H      -4.947105    -1.154649     0.591812 
N      -6.253456     0.278076    -1.232205 
O      -6.941252    -0.240367    -0.377480 
O      -6.676447     0.962220    -2.141247 
C      -0.562610    -0.505053    -0.933660 
O      -0.257147    -1.643318    -0.170790 
H      -0.156650    -0.604748    -1.949208 
40
     -1068.721940     -1068.446532   0.87   0.44
C       3.477745     0.317757     0.995950 
C       2.244497    -1.566335     0.132253 
C       3.716191    -1.963583     0.183400 
C       4.449638    -0.617504     0.254623 
H       3.825216     0.561985     2.000752 
H       1.581285    -2.352512     0.496855 
H       1.932909    -1.272695    -0.876209 
H       3.905523    -2.556325     1.084177 
H       4.006626    -2.561891    -0.682009 
H       5.411179    -0.685797     0.764233 
H       4.638109    -0.224410    -0.747252 
N       2.197055    -0.402259     1.035984 
C       3.205608     1.650878     0.202158 
O       4.162401     2.359594    -0.050381 
O       1.972153     1.830513    -0.094627 
C       1.131070     0.353073     1.219745 
C       1.094217     1.360202     2.329916 
H       0.401423     2.163857     2.079872 
H       0.719709     0.836696     3.219382 
H       2.065144     1.790575     2.562058 
C      -0.212152    -0.078638     0.698314 
H      -0.930154    -0.002445     1.520400 
H      -0.192981    -1.113201     0.356047 
H       0.942045     1.125971    -1.386454 
C      -4.696943    -0.444072    -1.410627 
C      -3.656597    -0.905388    -2.199229 
C      -2.364437    -0.490024    -1.909995 
C      -2.122150     0.374982    -0.845446 
C      -3.192609     0.828382    -0.075583 
C      -4.489171     0.422146    -0.349521 
H      -3.863450    -1.576218    -3.023231 
H      -1.536143    -0.828638    -2.520133 
H      -3.013040     1.515289     0.747060 
H      -5.330069     0.764987     0.239441 
N      -6.075154    -0.885800    -1.712513 
O      -6.967477    -0.464520    -1.005678 
O      -6.231311    -1.642790    -2.647918 
C      -0.710940     0.791577    -0.487868 
O       0.125499     0.635487    -1.604529 
H      -0.724349     1.840694    -0.163442 
40
     -1068.720410     -1068.443372   1.83   2.42
C       2.083867     1.229172    -1.333423 
C       1.107917    -0.957379    -0.996103 
C       0.612202    -0.368306    -2.319346 
C       1.696415     0.647706    -2.687165 
H       3.099694     1.627075    -1.317752 
H       1.768838    -1.814071    -1.165655 
H       0.290995    -1.264219    -0.347801 
H       0.469330    -1.141852    -3.076135 
H      -0.344876     0.138466    -2.165745 
H       2.556238     0.149947    -3.147326 
H       1.346847     1.435724    -3.353497 
N       1.910452     0.125248    -0.381994 
C       1.092113     2.354926    -0.838957 
O       0.818526     3.262405    -1.602465 
O       0.682921     2.169630     0.359962 
C       1.856714     0.495971     0.886465 
C       2.913583     1.406384     1.447621 
H       2.516255     1.931945     2.315421 
H       3.740408     0.762792     1.775454 
H       3.296047     2.130327     0.733605 
C       1.165431    -0.359639     1.924033 
H       1.793274    -0.337141     2.817723 
H       1.123686    -1.396273     1.582179 
H      -0.052687     1.973434     1.964520 
C      -3.240397    -1.214358    -0.424519 
C      -2.900401     0.127234    -0.404800 
C      -1.948157     0.566761     0.505053 
C      -1.339991    -0.328477     1.381243 
C      -1.721381    -1.671632     1.347423 
C      -2.667784    -2.129480     0.444354 
H      -3.372650     0.812842    -1.096916 
H      -1.669890     1.611519     0.512625 
H      -1.272575    -2.375245     2.044457 
H      -2.965952    -3.169362     0.408185 
N      -4.248680    -1.685473    -1.398081 
O      -4.541649    -2.863063    -1.376866 
O      -4.719957    -0.867107    -2.159927 
C      -0.258502     0.089325     2.371935 
O      -0.294561     1.439029     2.742061 
H      -0.451691    -0.472523     3.292135 
40
     -1068.720410     -1068.443372   1.83   2.42
C       2.430368    -0.422010    -1.242943 
C       0.872149     1.355411    -0.733042 
C       1.998784     1.342165     0.303407 
C       3.149143     0.645317    -0.427458 
H       2.987065    -0.723313    -2.131639 
H       0.927884     2.245465    -1.368797 
H      -0.112527     1.309727    -0.274639 
H       2.247687     2.350063     0.640610 
H       1.694901     0.756695     1.175927 
H       3.669229     1.344368    -1.090515 
H       3.876325     0.186845     0.242003 
N       1.130818     0.169765    -1.581929 
C       2.084742    -1.713071    -0.400865 
O       2.970768    -2.234289     0.250749 
O       0.861310    -2.072479    -0.515844 
C       0.219223    -0.699548    -1.985170 
C       0.553327    -1.690516    -3.065482 
H       1.587318    -2.023549    -3.053580 
H      -0.104358    -2.555064    -2.980803 
H       0.354202    -1.190600    -4.022434 
C      -1.257777    -0.402361    -1.856185 
H      -1.730035    -0.755362    -2.775826 
H      -1.415847     0.677193    -1.803329 
H      -0.830408    -2.612609    -0.492059 
C      -1.446380     1.067674     2.987468 
C      -0.780187    -0.134358     2.822659 
C      -0.965826    -0.851019     1.648044 
C      -1.805077    -0.366276     0.648190 
C      -2.476946     0.840378     0.856141 
C      -2.301985     1.571189     2.020676 
H      -0.122750    -0.497202     3.602545 
H      -0.435228    -1.782969     1.510404 
H      -3.155153     1.215965     0.093694 
H      -2.815118     2.509375     2.188212 
N      -1.243803     1.835942     4.234518 
O      -0.474733     1.381974     5.055908 
O      -1.857976     2.875294     4.359163 
C      -2.014029    -1.088639    -0.678529 
O      -1.782982    -2.468769    -0.635501 
H      -3.075299    -0.976364    -0.925235 
40
     -1068.718725     -1068.442090   2.89   3.23
C       2.655477     0.058392    -0.250737 
C       0.670448    -0.739904    -1.355682 
C       1.613740    -0.205771    -2.427954 
C       2.551411     0.716095    -1.636784 
H       3.629819    -0.405991    -0.089704 
H       0.191259    -1.680215    -1.632370 
H      -0.098431    -0.002436    -1.108085 
H       2.170480    -1.033846    -2.878553 
H       1.073892     0.313859    -3.221485 
H       3.530041     0.830459    -2.103642 
H       2.118861     1.714338    -1.534081 
N       1.579047    -0.940785    -0.212271 
C       2.361956     1.056963     0.931305 
O       3.023537     2.077223     0.991655 
O       1.426930     0.660608     1.708508 
C       1.225231    -1.345492     0.992518 
C       2.269731    -1.789735     1.975537 
H       1.896423    -1.657447     2.990556 
H       2.428147    -2.861677     1.797065 
H       3.220182    -1.273613     1.869180 
C      -0.158466    -1.889330     1.251075 
H      -0.045688    -2.742428     1.924412 
H      -0.591184    -2.257032     0.318626 
H       0.129272     0.200024     2.828720 
C      -2.857607     1.730083    -1.000674 
C      -1.979470     2.255613    -0.068667 
C      -1.441526     1.415071     0.896670 
C      -1.773939     0.063534     0.922935 
C      -2.680085    -0.428786    -0.018668 
C      -3.225461     0.393762    -0.991031 
H      -1.719159     3.305717    -0.105799 
H      -0.742816     1.818492     1.616366 
H      -2.968124    -1.476832     0.008200 
H      -3.924524     0.020240    -1.728191 
N      -3.426716     2.621210    -2.034049 
O      -4.194104     2.130982    -2.836655 
O      -3.091328     3.787056    -2.018225 
C      -1.172470    -0.915171     1.924856 
O      -0.650942    -0.325879     3.081907 
H      -1.994124    -1.555230     2.264289 
40
     -1068.718725     -1068.442089   2.89   3.23
C       2.115923    -1.125566    -1.170536 
C      -0.073652    -1.651229    -0.317344 
C       0.118973    -2.434463    -1.611294 
C       1.245373    -1.667115    -2.316571 
H       3.067779    -1.653838    -1.094213 
H      -0.540880    -2.236882     0.475796 
H      -0.662148    -0.745901    -0.491677 
H       0.429592    -3.459054    -1.382308 
H      -0.799528    -2.479948    -2.199026 
H       1.821478    -2.290139    -3.001185 
H       0.843281    -0.831120    -2.894128 
N       1.311945    -1.303100     0.046277 
C       2.395275     0.420319    -1.283356 
O       2.897080     0.834101    -2.312548 
O       2.043330     1.075622    -0.243103 
C       1.676974    -0.566774     1.078297 
C       3.115750    -0.529181     1.506277 
H       3.820425    -0.644699     0.687047 
H       3.317345     0.405022     2.029488 
H       3.252355    -1.361524     2.209521 
C       0.686768    -0.200021     2.156358 
H       1.209966    -0.282454     3.112051 
H      -0.134418    -0.919399     2.164076 
H       1.568612     2.068475     1.149663 
C      -3.100636     1.399729    -0.768072 
C      -1.915941     2.049029    -1.069486 
C      -0.880758     2.022486    -0.144574 
C      -1.028654     1.347558     1.063912 
C      -2.245074     0.721942     1.345027 
C      -3.288627     0.735412     0.433805 
H      -1.808036     2.560879    -2.017234 
H       0.051760     2.514787    -0.383229 
H      -2.382040     0.214379     2.296714 
H      -4.233225     0.248992     0.640545 
N      -4.202282     1.420409    -1.753872 
O      -5.228611     0.842630    -1.460264 
O      -4.013358     2.011721    -2.796267 
C       0.091813     1.239779     2.091730 
O       1.085879     2.218531     1.982648 
H      -0.370867     1.397045     3.072138 
40
     -1068.715897     -1068.440986   4.66   3.92
C       3.160112    -0.457667     0.454375 
C       2.537939    -0.890823    -1.836632 
C       3.818566    -0.047382    -1.793378 
C       4.405412    -0.335065    -0.409245 
H       3.324677    -1.034261     1.364841 
H       2.713135    -1.873390    -2.285039 
H       1.739702    -0.392741    -2.387304 
H       4.494005    -0.300859    -2.612638 
H       3.568109     1.013983    -1.875108 
H       4.968732    -1.274162    -0.408422 
H       5.046556     0.463988    -0.038712 
N       2.162212    -1.084914    -0.415144 
C       2.528933     0.950340     0.835690 
O       3.280152     1.782763     1.320665 
O       1.286092     1.031835     0.579469 
C       0.923022    -1.052762     0.025440 
C       0.592492    -1.376664     1.450588 
H      -0.331258    -0.869452     1.729405 
H       0.423190    -2.460628     1.499886 
H       1.371652    -1.107006     2.157345 
C      -0.218809    -1.178708    -0.947033 
H      -0.964990    -1.852092    -0.517747 
H       0.124411    -1.624983    -1.880573 
H      -1.916872     0.761156    -2.861853 
C      -3.904867     1.186889     1.562092 
C      -2.696943     1.860534     1.598615 
C      -1.723553     1.537819     0.661956 
C      -1.961828     0.548460    -0.288759 
C      -3.192300    -0.111094    -0.302134 
C      -4.174393     0.202743     0.624099 
H      -2.525506     2.620906     2.349535 
H      -0.762052     2.036519     0.684064 
H      -3.381515    -0.873855    -1.050515 
H      -5.133948    -0.297949     0.627940 
N      -4.945363     1.527904     2.557959 
O      -5.995390     0.922180     2.502054 
O      -4.684960     2.391436     3.369075 
C      -0.896675     0.163485    -1.303023 
O      -1.457452    -0.042824    -2.596920 
H      -0.133308     0.947298    -1.329756 
40
     -1068.714421     -1068.439911   5.59   4.59
C       2.689682    -1.146707    -1.153804 
C       3.024247    -0.649431     1.177771 
C       4.302185    -1.305054     0.665274 
C       3.853213    -2.002808    -0.625604 
H       2.952989    -0.607810    -2.064015 
H       3.215076     0.202503     1.830791 
H       2.381800    -1.369952     1.697146 
H       5.048507    -0.532998     0.451482 
H       4.727218    -1.992389     1.398922 
H       4.656051    -2.088758    -1.358522 
H       3.492221    -3.012788    -0.418480 
N       2.365753    -0.213519    -0.065908 
C       1.377000    -2.000565    -1.406736 
O       1.484938    -2.916702    -2.210554 
O       0.377261    -1.623089    -0.727328 
C       1.214172     0.403213    -0.128212 
C       0.700430     0.961496    -1.417302 
H      -0.388403     0.955013    -1.416548 
H       1.041504     2.005018    -1.461174 
H       1.060378     0.435048    -2.296665 
C       0.558654     0.908804     1.123794 
H       0.244167     1.943641     0.958979 
H       1.250285     0.897888     1.964448 
H      -1.626278    -0.052406     3.260997 
C      -4.179909     1.017229    -0.694441 
C      -3.557979    -0.199536    -0.911173 
C      -2.421567    -0.508766    -0.174720 
C      -1.918144     0.395800     0.756566 
C      -2.571288     1.613515     0.956060 
C      -3.707667     1.935047     0.230648 
H      -3.957263    -0.886921    -1.645634 
H      -1.902137    -1.444109    -0.344909 
H      -2.188425     2.311485     1.693730 
H      -4.226962     2.873996     0.372582 
N      -5.392245     1.351126    -1.475889 
O      -5.785520     0.532218    -2.279628 
O      -5.917951     2.424151    -1.264394 
C      -0.668964     0.076984     1.560405 
O      -0.845635     0.408002     2.935141 
H      -0.430295    -0.984230     1.440044 
40
     -1068.714421     -1068.439909   5.59   4.60
C       1.663845    -2.601389    -0.592192 
C       3.207066    -0.802882    -0.168669 
C       4.029349    -2.075218    -0.343688 
C       3.003952    -3.196184    -0.127390 
H       1.306142    -3.059197    -1.514518 
H       3.643605     0.059088    -0.673727 
H       3.052664    -0.565132     0.890233 
H       4.436420    -2.110296    -1.359481 
H       4.865011    -2.117140     0.357192 
H       3.253182    -4.105776    -0.674773 
H       2.932795    -3.461808     0.929806 
N       1.917953    -1.166584    -0.782087 
C       0.537875    -2.705534     0.520247 
O       0.266547    -3.837164     0.898242 
O       0.066799    -1.587667     0.883586 
C       0.876995    -0.378969    -0.862295 
C      -0.332461    -0.767614    -1.651944 
H      -0.481733    -1.841159    -1.724106 
H      -1.220822    -0.310690    -1.218779 
H      -0.188473    -0.358355    -2.661385 
C       0.998289     1.073242    -0.502838 
H       0.539107     1.668484    -1.297693 
H       2.041158     1.373898    -0.417977 
H       0.526141     2.980543     2.027900 
C      -3.915349     1.839629     0.517345 
C      -3.402031     0.740997     1.183526 
C      -2.023498     0.612596     1.295691 
C      -1.179424     1.570228     0.739414 
C      -1.728119     2.670305     0.077605 
C      -3.101657     2.813446    -0.040132 
H      -4.072295     0.001274     1.601755 
H      -1.597169    -0.251955     1.790091 
H      -1.070569     3.425195    -0.341528 
H      -3.544286     3.659831    -0.549200 
N      -5.384017     1.981851     0.396126 
O      -6.074806     1.116584     0.891499 
O      -5.806558     2.955575    -0.191923 
C       0.330453     1.436843     0.843034 
O       0.930719     2.676526     1.208475 
H       0.568916     0.655773     1.571521 
40
     -1068.710942     -1068.436621   7.77   6.66
C       3.244802    -0.627996    -0.533754 
C       2.695018     1.131880     1.038485 
C       3.628905     0.114490     1.698947 
C       4.348382    -0.532245     0.512403 
H       3.626911    -0.648085    -1.554864 
H       3.202214     2.089214     0.877865 
H       1.786276     1.311681     1.611640 
H       4.305301     0.591756     2.410671 
H       3.042081    -0.637070     2.235344 
H       5.163923     0.106703     0.157206 
H       4.745305    -1.522540     0.732602 
N       2.398564     0.544377    -0.289778 
C       2.295637    -1.884737    -0.311875 
O       2.846880    -2.972581    -0.229755 
O       1.062516    -1.590851    -0.251308 
C       1.219319     0.545963    -0.860736 
C       1.034020     0.116917    -2.283359 
H       1.794887    -0.573633    -2.635771 
H       0.052179    -0.341953    -2.398320 
H       1.068144     1.028560    -2.895663 
C       0.109730     1.375666    -0.270674 
H      -0.607618     1.615400    -1.057768 
H       0.539695     2.318341     0.080717 
H      -1.162327     2.370150     1.815771 
C      -4.385728    -0.810345    -0.422123 
C      -3.253643    -1.599140    -0.538867 
C      -2.044865    -1.105735    -0.070969 
C      -1.971804     0.164544     0.502217 
C      -3.130523     0.931226     0.609369 
C      -4.347934     0.449863     0.149249 
H      -3.324410    -2.581228    -0.988309 
H      -1.144196    -1.705812    -0.148677 
H      -3.106774     1.917529     1.061990 
H      -5.255550     1.034393     0.227173 
N      -5.677350    -1.330697    -0.920621 
O      -5.682983    -2.437232    -1.417425 
O      -6.652627    -0.618017    -0.802435 
C      -0.615865     0.698762     0.936346 
O      -0.677565     1.573311     2.052225 
H      -0.015202    -0.149300     1.266625 
40
     -1068.710942     -1068.436613   7.77   6.66
C       3.220195    -0.048461    -0.914697 
C       2.680749    -0.856045     1.305251 
C       3.477611    -1.917595     0.542649 
C       4.239418    -1.105493    -0.508037 
H       3.681168     0.858830    -1.306362 
H       3.270905    -0.429532     2.123384 
H       1.744926    -1.236298     1.713038 
H       4.128546    -2.487650     1.208355 
H       2.793572    -2.616169     0.051719 
H       5.127464    -0.638193    -0.069252 
H       4.540412    -1.691638    -1.375536 
N       2.448955     0.212860     0.304731 
C       2.162993    -0.589610    -1.972536 
O       2.621093    -1.096138    -2.986238 
O       0.955071    -0.418874    -1.622684 
C       1.323449     0.867382     0.158272 
C       1.221865     2.067371    -0.731660 
H       1.375017     2.948421    -0.093327 
H       1.953844     2.081402    -1.534146 
H       0.220415     2.117887    -1.158666 
C       0.236278     0.714977     1.189098 
H      -0.394500     1.605672     1.170102 
H       0.707059     0.666335     2.175497 
H      -1.121075    -0.761321     2.903310 
C      -4.385846     0.567058    -0.714797 
C      -3.311566     0.289272    -1.543168 
C      -2.110564    -0.102180    -0.970560 
C      -1.987433    -0.208871     0.415422 
C      -3.089092     0.073013     1.220903 
C      -4.298385     0.462222     0.662657 
H      -3.420444     0.379100    -2.616285 
H      -1.255015    -0.327916    -1.598585 
H      -3.026875    -0.013515     2.301119 
H      -5.162041     0.683134     1.276505 
N      -5.668754     0.986326    -1.319706 
O      -5.718565     1.070984    -2.528680 
O      -6.593129     1.220566    -0.568903 
C      -0.634331    -0.569876     1.008059 
O      -0.719333    -1.305255     2.218769 
H      -0.128928    -1.230873     0.303262 
40
     -1068.709800     -1068.435864   8.49   7.13
C      -2.120686     0.784761    -1.530169 
C      -0.348836    -0.837654    -1.382911 
C      -0.106730    -0.018344    -2.644389 
C      -1.479467     0.612696    -2.916833 
H      -2.176744     1.831207    -1.231348 
H       0.555965    -1.048234    -0.815766 
H      -0.874268    -1.772435    -1.608202 
H       0.649026     0.748803    -2.442791 
H       0.251363    -0.639809    -3.467481 
H      -1.410612     1.562047    -3.449121 
H      -2.100767    -0.054064    -3.519389 
N      -1.256134     0.031677    -0.611664 
C      -3.573526     0.125988    -1.426916 
O      -4.388770     0.596034    -2.215809 
O      -3.674686    -0.777541    -0.561726 
C      -1.650241    -0.184003     0.602071 
C      -2.508683     0.789304     1.346413 
H      -2.970803     1.534282     0.706280 
H      -3.290633     0.244690     1.874587 
H      -1.881858     1.304083     2.085957 
C      -1.091987    -1.319174     1.409375 
H      -0.708102    -2.114246     0.769571 
H      -1.922491    -1.733092     1.987355 
H       0.886561    -1.825732     3.885499 
C       3.407562     0.429351     0.173487 
C       3.305820    -0.912855     0.500340 
C       2.220032    -1.332047     1.256454 
C       1.252720    -0.419712     1.676261 
C       1.397591     0.926622     1.348738 
C       2.474347     1.363309     0.590371 
H       4.060729    -1.609103     0.158408 
H       2.112920    -2.380606     1.511793 
H       0.658414     1.649838     1.680628 
H       2.593741     2.404553     0.320715 
N       4.551211     0.880695    -0.651527 
O       5.354256     0.042425    -1.001564 
O       4.609033     2.060312    -0.928280 
C       0.009353    -0.898948     2.405057 
O       0.249999    -2.048097     3.197648 
H      -0.371163    -0.081921     3.031991 
40
     -1068.709800     -1068.435856   8.49   7.14
C       1.282041     2.480821    -0.015840 
C      -0.042580     0.942916    -1.309452 
C       1.287907     1.111279    -2.032410 
C       1.836431     2.420879    -1.448552 
H       2.059216     2.322755     0.731489 
H      -0.403513    -0.083681    -1.287476 
H      -0.811879     1.600191    -1.729958 
H       1.943091     0.266138    -1.794087 
H       1.157826     1.145172    -3.115858 
H       2.925992     2.466078    -1.460859 
H       1.468502     3.281516    -2.012107 
N       0.276658     1.411748     0.051440 
C       0.512944     3.846016     0.300487 
O       1.213569     4.848123     0.187348 
O      -0.693901     3.702582     0.613795 
C      -0.514997     1.344658     1.073127 
C      -0.086936     1.768464     2.442600 
H       0.821800     2.362196     2.446016 
H      -0.887076     2.346282     2.904030 
H       0.082784     0.865913     3.043783 
C      -1.835011     0.636012     0.987142 
H      -2.200809     0.594814    -0.039189 
H      -2.548255     1.226863     1.567917 
H      -3.238576    -2.064665     2.006366 
C       0.714367    -3.224158    -0.865112 
C       1.252645    -2.605704     0.250567 
C       0.411730    -1.852411     1.057179 
C      -0.939703    -1.713405     0.748661 
C      -1.454282    -2.364309    -0.371973 
C      -0.628940    -3.125145    -1.188250 
H       2.306140    -2.713891     0.473278 
H       0.822726    -1.361630     1.934557 
H      -2.506367    -2.261400    -0.614199 
H      -1.010010    -3.629260    -2.067010 
N       1.605612    -4.015813    -1.743324 
O       2.777962    -4.078856    -1.438286 
O       1.108226    -4.546677    -2.713323 
C      -1.820476    -0.791167     1.573567 
O      -3.176805    -1.199636     1.587191 
H      -1.429121    -0.750340     2.598530 
40
     -1068.708607     -1068.435475   9.24   7.38
C       1.356105    -1.349830    -3.177532 
C       1.658289    -1.499819    -0.805069 
C       2.972628    -1.933668    -1.443009 
C       2.565306    -2.256374    -2.888034 
H       1.582400    -0.584307    -3.918123 
H       1.782968    -0.889302     0.088949 
H       1.024213    -2.363012    -0.572633 
H       3.686998    -1.103972    -1.413377 
H       3.415729    -2.783176    -0.919877 
H       3.375569    -2.088237    -3.598571 
H       2.260489    -3.300851    -2.983789 
N       1.015326    -0.735917    -1.886516 
C       0.068640    -2.175902    -3.639842 
O       0.229589    -2.796299    -4.687806 
O      -0.913703    -2.082998    -2.865376 
C      -0.092542    -0.074508    -1.764202 
C      -0.710948     0.680145    -2.892574 
H      -0.646433     1.744853    -2.642874 
H      -0.232487     0.492799    -3.849725 
H      -1.762301     0.399735    -2.962846 
C      -0.698388     0.119393    -0.402408 
H      -0.616682    -0.804509     0.172524 
H      -1.761282     0.335490    -0.530440 
H       0.045610     3.212629     0.162925 
C      -1.642056     1.202388     4.375064 
C      -2.390239     1.794881     3.370908 
C      -1.868043     1.829496     2.086525 
C      -0.615419     1.279881     1.815986 
C       0.114141     0.698119     2.849493 
C      -0.394408     0.651926     4.140359 
H      -3.360735     2.215742     3.600398 
H      -2.437014     2.288852     1.285367 
H       1.096251     0.277819     2.651448 
H       0.158892     0.201660     4.954275 
N      -2.195416     1.158059     5.747991 
O      -3.289784     1.648921     5.926610 
O      -1.518637     0.633015     6.606708 
C      -0.068993     1.274345     0.399484 
O      -0.364572     2.474311    -0.298998 
H       1.018892     1.131246     0.444981 
40
     -1068.708607     -1068.435474   9.24   7.38
C       3.570389    -0.886697    -0.246879 
C       1.364765    -1.823437    -0.258527 
C       2.313686    -2.940692     0.158569 
C       3.683313    -2.420347    -0.301336 
H       4.200185    -0.453995     0.528903 
H       0.422542    -1.818436     0.288953 
H       1.161728    -1.854338    -1.335097 
H       2.285215    -3.059834     1.246959 
H       2.040188    -3.894962    -0.295565 
H       4.500703    -2.787582     0.320493 
H       3.892889    -2.727433    -1.328366 
N       2.152432    -0.612899     0.025470 
C       3.902939    -0.198311    -1.650170 
O       5.051840    -0.395757    -2.037554 
O       2.945568     0.432511    -2.159022 
C       1.703486     0.598916    -0.073244 
C       2.542875     1.797015     0.218534 
H       2.450868     2.496220    -0.613064 
H       2.133814     2.266234     1.119988 
H       3.593244     1.561833     0.365426 
C       0.236173     0.834114    -0.298643 
H      -0.146021     0.112613    -1.022646 
H       0.113396     1.830301    -0.729192 
H      -0.687858     1.796677     2.644295 
C      -4.746659     0.941856    -0.080927 
C      -4.180439    -0.290916     0.191814 
C      -2.841557    -0.335245     0.555844 
C      -2.086357     0.831572     0.639833 
C      -2.688014     2.058553     0.362595 
C      -4.025296     2.121763     0.000366 
H      -4.780712    -1.188604     0.119914 
H      -2.385218    -1.295055     0.781528 
H      -2.104695     2.970380     0.432590 
H      -4.509799     3.064515    -0.219016 
N      -6.173934     1.001555    -0.471343 
O      -6.645641     2.094342    -0.703290 
O      -6.780407    -0.046910    -0.534653 
C      -0.609914     0.761259     0.986625 
O      -0.197483     1.836349     1.816832 
H      -0.414903    -0.193291     1.493424 
40
     -1068.709711     -1068.434789   8.54   7.81
C       2.862533    -1.296235     0.226183 
C       2.550476     0.106482    -1.701818 
C       3.417671    -1.068750    -2.138063 
C       3.953299    -1.620173    -0.808979 
H       2.352067    -2.191299     0.579865 
H       1.785744     0.393978    -2.420287 
H       3.166713     0.974090    -1.438731 
H       2.797658    -1.812521    -2.649988 
H       4.208055    -0.756588    -2.823642 
H       4.164591    -2.689425    -0.850590 
H       4.879925    -1.117125    -0.522944 
N       1.925126    -0.405353    -0.469379 
C       3.422044    -0.473543     1.477555 
O       4.288842    -1.066621     2.114532 
O       2.904592     0.659931     1.629898 
C       1.010645     0.206259     0.213622 
C       0.382162    -0.409551     1.422782 
H      -0.581439    -0.835252     1.122471 
H       0.987358    -1.193783     1.866481 
H       0.198819     0.362286     2.169520 
C       0.427431     1.502882    -0.279523 
H       1.170189     2.040103    -0.870937 
H       0.227212     2.105328     0.610089 
H      -1.279497     0.763977    -2.914155 
C      -4.204461    -0.103905     1.097275 
C      -3.647846    -0.901045     0.113274 
C      -2.567265    -0.410689    -0.609648 
C      -2.056517     0.858286    -0.348258 
C      -2.645875     1.638645     0.646048 
C      -3.721829     1.163891     1.379742 
H      -4.053463    -1.886707    -0.075590 
H      -2.109947    -1.030062    -1.372576 
H      -2.263264     2.634986     0.851599 
H      -4.186321     1.757381     2.156438 
N      -5.353277    -0.621800     1.874406 
O      -5.752441    -1.735652     1.608233 
O      -5.821471     0.101059     2.728456 
C      -0.865535     1.413257    -1.114549 
O      -0.563549     0.662663    -2.279380 
H      -1.104846     2.449506    -1.391728 
40
     -1068.708433     -1068.434467   9.35   8.01
C      -2.000050     0.530524    -1.836900 
C      -0.073773    -0.837008    -1.362720 
C       0.223488    -0.061988    -2.640356 
C      -1.171042     0.363537    -3.120628 
H      -2.213855     1.576878    -1.620057 
H       0.768511    -0.891156    -0.674944 
H      -0.441265    -1.845237    -1.583944 
H       0.844075     0.809281    -2.403980 
H       0.760230    -0.673701    -3.368126 
H      -1.154431     1.280430    -3.710740 
H      -1.622076    -0.414741    -3.740869 
N      -1.178206    -0.058802    -0.771521 
C      -3.368458    -0.295697    -1.864570 
O      -4.126629     0.032605    -2.772783 
O      -3.472220    -1.161883    -0.962266 
C      -1.694649    -0.257050     0.397474 
C      -2.753519     0.633394     0.966541 
H      -2.299149     1.246432     1.755556 
H      -3.202678     1.292768     0.230437 
H      -3.536123     0.019588     1.411860 
C      -1.115523    -1.273064     1.337367 
H      -0.555992    -2.041033     0.802431 
H      -1.972988    -1.763177     1.812785 
H      -0.600885    -2.049934     3.777400 
C       3.225602     1.005399     0.547839 
C       3.285055    -0.304479     0.994422 
C       2.181870    -0.836729     1.646913 
C       1.037660    -0.065610     1.845873 
C       1.020053     1.256465     1.406835 
C       2.112574     1.803520     0.749831 
H       4.179193    -0.890508     0.825430 
H       2.206796    -1.859504     2.003442 
H       0.142189     1.873826     1.572668 
H       2.109021     2.826225     0.396103 
N       4.390561     1.572073    -0.167889 
O       5.354118     0.853520    -0.328025 
O       4.306040     2.719392    -0.553495 
C      -0.209273    -0.678159     2.445483 
O       0.182760    -1.703275     3.339444 
H      -0.762240     0.103077     2.983549 
40
     -1068.707024     -1068.432051  10.23   9.53
C       2.856788     0.225988    -1.432804 
C       3.052715     1.029676     0.825028 
C       4.439109     1.113415     0.196092 
C       4.333529     0.163872    -1.004821 
H       2.728340     0.740827    -2.384438 
H       2.799186     1.892491     1.441561 
H       2.938018     0.112892     1.414875 
H       4.632174     2.139972    -0.132532 
H       5.222142     0.829443     0.901462 
H       5.001216     0.440280    -1.821374 
H       4.581702    -0.859585    -0.714042 
N       2.171863     0.949356    -0.351665 
C       2.188489    -1.214451    -1.509647 
O       2.693445    -1.971728    -2.330188 
O       1.232645    -1.386706    -0.705120 
C       0.871161     0.929560    -0.303271 
C       0.060366     0.959775    -1.556576 
H      -0.234693     2.004367    -1.717791 
H       0.611441     0.610464    -2.424147 
H      -0.835394     0.351145    -1.445831 
C       0.223396     1.175408     1.033998 
H       0.625889     2.124375     1.407246 
H       0.576460     0.399034     1.720893 
H      -2.171714     2.122223    -0.399700 
C      -3.771232    -2.132516     0.461972 
C      -4.353557    -0.902544     0.726503 
C      -3.523221     0.185044     0.936253 
C      -2.131665     0.052459     0.878020 
C      -1.577839    -1.197356     0.614034 
C      -2.401036    -2.298051     0.402222 
H      -5.431151    -0.811893     0.768350 
H      -3.958581     1.154380     1.158977 
H      -0.506433    -1.339243     0.530801 
H      -1.982924    -3.272665     0.186240 
N      -4.647275    -3.304365     0.234096 
O      -4.112968    -4.367977     0.002688 
O      -5.846167    -3.127181     0.292996 
C      -1.299441     1.298054     1.152092 
O      -1.772712     2.427400     0.420579 
H      -1.468758     1.557340     2.204380 
40
     -1068.705959     -1068.431949  10.90   9.59
C       1.299479     2.340633    -0.350896 
C       0.028582     0.633982    -1.477616 
C       1.422959     0.638358    -2.091418 
C       1.972165     2.015862    -1.694554 
H       2.001089     2.292406     0.481447 
H      -0.374516    -0.363637    -1.310467 
H      -0.672600     1.225450    -2.077120 
H       2.019048    -0.168057    -1.650371 
H       1.389443     0.484108    -3.171712 
H       3.059611     2.030791    -1.614108 
H       1.689664     2.772968    -2.429898 
N       0.245646     1.329024    -0.195712 
C       0.567466     3.762010    -0.345875 
O       1.321238     4.708031    -0.556151 
O      -0.668555     3.709841    -0.134640 
C      -0.633310     1.461978     0.744325 
C      -0.314561     2.108698     2.054590 
H       0.632464     2.639694     2.053952 
H      -1.110178     2.808423     2.308843 
H      -0.279980     1.326800     2.823989 
C      -1.972561     0.790282     0.654784 
H      -2.242508     0.606752    -0.388436 
H      -2.699847     1.496737     1.065179 
H      -3.847554    -0.852830     0.649170 
C       0.610568    -3.380845    -0.251201 
C       1.067648    -2.523825     0.735731 
C       0.168515    -1.635892     1.306725 
C      -1.163676    -1.596299     0.896945 
C      -1.595344    -2.492054    -0.079361 
C      -0.711329    -3.389494    -0.662780 
H       2.105356    -2.555581     1.041389 
H       0.517595    -0.962017     2.083322 
H      -2.632826    -2.502384    -0.395206 
H      -1.032922    -4.084555    -1.427632 
N       1.564438    -4.319724    -0.882805 
O       2.716524    -4.284255    -0.504656 
O       1.135271    -5.061262    -1.740858 
C      -2.090043    -0.528828     1.458176 
O      -3.442999    -0.935493     1.518736 
H      -1.806485    -0.339323     2.496816 
40
     -1068.584634     -1068.314354  87.03  83.38
C       1.361795    -1.352907    -3.168087 
C       1.654486    -1.496612    -0.794177 
C       2.970963    -1.933248    -1.425841 
C       2.569451    -2.259259    -2.871854 
H       1.590489    -0.590334    -3.911036 
H       1.775068    -0.883644     0.098674 
H       1.019142    -2.358941    -0.561953 
H       3.686000    -1.104199    -1.395351 
H       3.411166    -2.781878    -0.898885 
H       3.382759    -2.092838    -3.579309 
H       2.264544    -3.303759    -2.966743 
N       1.016994    -0.734897    -1.880513 
C       0.074006    -2.178447    -3.630272 
O       0.237442    -2.811150    -4.670258 
O      -0.913289    -2.072581    -2.863170 
C      -0.095090    -0.078034    -1.765702 
C      -0.702920     0.681362    -2.897007 
H      -0.626465     1.745288    -2.647105 
H      -0.223755     0.488081    -3.852598 
H      -1.757231     0.413537    -2.969638 
C      -0.707729     0.116946    -0.407547 
H      -0.625249    -0.804786     0.170430 
H      -1.770582     0.329634    -0.540175 
H      -0.024458     3.216957     0.187495 
C      -1.665908     1.229360     4.381919 
C      -2.427240     1.778366     3.353825 
C      -1.902338     1.801395     2.073205 
C      -0.630264     1.287009     1.809427 
C       0.112485     0.750517     2.853442 
C      -0.402898     0.716971     4.144360 
H      -3.412813     2.177908     3.556239 
H      -2.483057     2.225999     1.260241 
H       1.108008     0.357037     2.666522 
H       0.165663     0.299447     4.968008 
N      -2.111717     1.146897     5.758444 
O      -2.947275     2.243469     6.074770 
O      -3.511531     0.949027     5.813662 
C      -0.084393     1.274815     0.394563 
O      -0.378274     2.472943    -0.310370 
H       1.004014     1.134546     0.442370 
40
     -1068.582248     -1068.311020  88.53  85.47
C       2.477127    -1.464599    -1.115158 
C       1.321311    -3.096766     0.245554 
C       1.884167    -3.766642    -1.011383 
C       3.034204    -2.846556    -1.423922 
H       3.257007    -0.722920    -0.952458 
H       1.813440    -3.459426     1.153789 
H       0.246864    -3.240769     0.345220 
H       2.194388    -4.794559    -0.813329 
H       1.121758    -3.781447    -1.795101 
H       3.930597    -3.049662    -0.827378 
H       3.286883    -2.918634    -2.480951 
N       1.650627    -1.661690     0.082309 
C       1.476061    -0.936347    -2.251535 
O       1.965183    -0.908482    -3.377145 
O       0.332174    -0.626438    -1.834588 
C       0.909150    -0.679170     0.501419 
C       1.359136     0.738289     0.379986 
H       0.612604     1.316229    -0.160181 
H       1.447296     1.144500     1.392547 
H       2.312192     0.830051    -0.132594 
C      -0.318707    -1.015328     1.306859 
H      -0.031668    -1.726083     2.089072 
H      -0.996144    -1.543721     0.630222 
H      -0.805224     0.950491     3.749871 
C      -2.676822     3.197501    -0.554984 
C      -2.158603     3.538721     0.687630 
C      -1.631862     2.537578     1.488733 
C      -1.618923     1.205595     1.072925 
C      -2.136436     0.891854    -0.181273 
C      -2.662177     1.885182    -0.996314 
H      -2.162118     4.568477     1.021675 
H      -1.205528     2.807899     2.448382 
H      -2.107048    -0.121876    -0.563096 
H      -3.057192     1.648884    -1.978036 
N      -3.253018     4.152948    -1.480861 
O      -3.897307     5.197475    -0.777983 
O      -2.604898     5.405098    -1.368859 
C      -1.088474     0.111255     1.996902 
O      -0.256026     0.611994     3.038121 
H      -1.963988    -0.378905     2.445912 
40
     -1068.582240     -1068.310062  88.53  86.08
C       2.863450     0.240765    -1.437070 
C       3.054551     1.018977     0.828733 
C       4.441440     1.115766     0.202851 
C       4.341051     0.182815    -1.011526 
H       2.730861     0.761532    -2.384837 
H       2.797945     1.872986     1.456054 
H       2.942065     0.094590     1.407083 
H       4.631419     2.147452    -0.111147 
H       5.224545     0.824729     0.905286 
H       5.006098     0.476085    -1.824403 
H       4.596674    -0.843044    -0.736313 
N       2.175321     0.951213    -0.349767 
C       2.201597    -1.202451    -1.523450 
O       2.712700    -1.954345    -2.345396 
O       1.243816    -1.382154    -0.723438 
C       0.873827     0.921308    -0.302118 
C       0.064448     0.965059    -1.555701 
H      -0.236226     2.009941    -1.699562 
H       0.618182     0.628064    -2.426464 
H      -0.830482     0.354550    -1.452223 
C       0.225911     1.146411     1.038814 
H       0.638365     2.083469     1.430670 
H       0.569264     0.353100     1.711031 
H      -2.269500     2.104795    -0.335831 
C      -3.819962    -2.123385     0.455195 
C      -4.377217    -0.886977     0.770024 
C      -3.528992     0.183612     0.981698 
C      -2.137860     0.047070     0.877190 
C      -1.605890    -1.198443     0.567483 
C      -2.451400    -2.284695     0.354933 
H      -5.450237    -0.771000     0.852149 
H      -3.947795     1.150909     1.246722 
H      -0.538368    -1.349476     0.452858 
H      -2.047527    -3.259521     0.104486 
N      -4.601673    -3.319949     0.210384 
O      -5.775298    -3.315188     0.999191 
O      -5.835009    -2.989800    -0.397869 
C      -1.295043     1.282922     1.154097 
O      -1.740022     2.414982     0.404652 
H      -1.465025     1.547319     2.205533 
40
     -1068.581573     -1068.309919  88.95  86.17
C       2.676110     0.991390    -1.156248 
C       3.007312     0.432748     1.156791 
C       4.357737     0.877898     0.606912 
C       4.175384     0.746837    -0.911083 
H       2.493453     1.934605    -1.668937 
H       2.801389     0.807215     2.160046 
H       2.913109    -0.659330     1.147383 
H       4.544232     1.919122     0.890240 
H       5.174821     0.268075     0.996732 
H       4.794683     1.447941    -1.471532 
H       4.436067    -0.258847    -1.248911 
N       2.061162     0.994915     0.179304 
C       1.996410    -0.200019    -1.965913 
O       2.440654    -0.360529    -3.098192 
O       1.108439    -0.821698    -1.327221 
C       0.765713     0.934911     0.281978 
C      -0.120388     1.604186    -0.712129 
H      -0.526241     2.499771    -0.228291 
H       0.405141     1.881721    -1.620812 
H      -0.955833     0.956457    -0.967512 
C       0.197566     0.386308     1.564974 
H       0.659294     0.943152     2.389704 
H       0.552008    -0.644562     1.665290 
H      -1.573004     2.164840     2.677940 
C      -3.864363    -1.893967    -0.761031 
C      -4.395372    -0.870683     0.007188 
C      -3.553698    -0.114570     0.809415 
C      -2.185374    -0.374899     0.846793 
C      -1.671422    -1.407543     0.061718 
C      -2.503811    -2.168211    -0.746100 
H      -5.461400    -0.675087    -0.029978 
H      -3.962655     0.690810     1.408106 
H      -0.607243    -1.608356     0.025360 
H      -2.094175    -2.959016    -1.361339 
N      -4.829019    -2.621586    -1.561600 
O      -4.447372    -3.977137    -1.690744 
O      -4.244076    -3.056161    -2.773522 
C      -1.316119     0.429509     1.801507 
O      -1.789968     1.774890     1.826332 
H      -1.459146    -0.015103     2.797381 
