43
     -1145.198516     -1144.904709   0.00   0.00
C      -2.065783    -0.916013    -2.580500 
C       0.266706    -1.085869    -1.913293 
C       0.119112    -1.404874    -3.405884 
C      -1.174010    -0.687579    -3.802878 
H      -2.846561    -0.157720    -2.502596 
H       0.916398    -0.219167    -1.752936 
H       0.660160    -1.930875    -1.343005 
H       0.988585    -1.077216    -3.979129 
H       0.005401    -2.482919    -3.548109 
H      -0.995209     0.384014    -3.941898 
H      -1.637902    -1.088977    -4.702556 
N      -1.107369    -0.770841    -1.466867 
C      -2.767196    -2.302697    -2.672192 
O      -3.524420    -2.434231    -3.620332 
O      -2.494686    -3.188045    -1.786055 
C      -1.454847    -0.709976    -0.193707 
C      -2.890482    -0.408026     0.138003 
H      -3.109144     0.623586    -0.150650 
H      -3.568393    -1.082194    -0.385540 
H      -3.051087    -0.488016     1.213087 
C      -0.392147    -0.304145     0.801462 
H       0.513702    -0.885611     0.635841 
H      -0.745171    -0.526430     1.809537 
H      -1.023973     2.849769     1.090354 
C       3.413068     1.963062     3.106355 
C       3.562741     1.815317     1.738572 
C       2.428730     1.583795     0.972440 
C       1.171671     1.497692     1.565880 
C       1.054639     1.654989     2.946615 
C       2.176751     1.889901     3.727085 
H       4.546655     1.883084     1.292815 
H       2.529033     1.474253    -0.103808 
H       0.076936     1.594363     3.412661 
H       2.105690     2.014171     4.800020 
N       4.615632     2.209785     3.934001 
O       4.456283     2.337040     5.129506 
O       5.684559     2.268711     3.363616 
C      -0.051870     1.192228     0.720207 
O      -1.200943     1.905901     1.157055 
H       0.171233     1.450813    -0.323861 
O      -1.419738    -2.638623     0.303122 
H      -1.900032    -2.938026    -0.684097 
H      -2.042720    -2.864402     1.001668 
43
     -1145.198516     -1144.904708   0.00   0.00
C      -3.175981     1.058837     0.746652 
C      -1.985519    -0.973865     0.142148 
C      -3.495097    -1.170623    -0.041827 
C      -4.023890     0.252597    -0.239591 
H      -3.117674     2.110984     0.463320 
H      -1.448156    -1.103846    -0.803015 
H      -1.563180    -1.656298     0.883757 
H      -3.719048    -1.835066    -0.878675 
H      -3.928115    -1.606166     0.862681 
H      -3.837529     0.596063    -1.262776 
H      -5.084588     0.359469    -0.017697 
N      -1.850622     0.423537     0.606572 
C      -3.793415     0.991749     2.174082 
O      -4.908381     1.477799     2.275418 
O      -3.118595     0.431281     3.108872 
C      -0.740086     0.901458     1.139188 
C      -0.731517     2.332891     1.600899 
H       0.208077     2.557870     2.105423 
H      -0.798844     2.985441     0.726255 
H      -1.566297     2.538070     2.271129 
C       0.567658     0.287084     0.695637 
H       0.504805    -0.798924     0.747912 
H       1.358676     0.603293     1.377220 
H       1.462481     2.385032    -1.590781 
C       4.282088    -1.666552    -2.009602 
C       3.009677    -2.025572    -2.418434 
C       1.940374    -1.239094    -2.012753 
C       2.142222    -0.118812    -1.210248 
C       3.437648     0.217904    -0.818648 
C       4.518047    -0.554947    -1.217272 
H       2.869241    -2.900087    -3.040431 
H       0.936276    -1.503182    -2.332777 
H       3.600405     1.092776    -0.198258 
H       5.530417    -0.309602    -0.923001 
N       5.430500    -2.498241    -2.435594 
O       6.534706    -2.160468    -2.064840 
O       5.193985    -3.465384    -3.128494 
C       0.956756     0.700794    -0.732289 
O       1.241667     2.093036    -0.700481 
H       0.107298     0.510759    -1.402382 
O      -0.752117     0.001470     2.916253 
H      -1.873085     0.161445     3.029113 
H      -0.321264     0.515095     3.607342 
43
     -1145.198569     -1144.904023  -0.03   0.43
C       1.215814    -1.927543     0.359262 
C      -0.891887    -0.909080     1.029944 
C      -0.190870    -1.525598     2.244293 
C       1.284878    -1.535353     1.837004 
H       2.096892    -1.586499    -0.187654 
H      -1.000919     0.171708     1.142741 
H      -1.872467    -1.351265     0.837901 
H      -0.382589    -0.952938     3.153793 
H      -0.541124    -2.549219     2.404517 
H       1.718374    -0.534682     1.937709 
H       1.891214    -2.243854     2.399374 
N       0.018633    -1.196850    -0.101313 
C       1.147826    -3.475016     0.207659 
O       2.123310    -4.078672     0.622274 
O       0.097225    -3.996134    -0.313063 
C      -0.342850    -1.097051    -1.366982 
C       0.676494    -1.442186    -2.422363 
H       1.499611    -0.720690    -2.389088 
H       1.091360    -2.437713    -2.266397 
H       0.222037    -1.394777    -3.412814 
C      -1.397941    -0.089255    -1.758006 
H      -2.187001    -0.033766    -1.008200 
H      -1.854671    -0.416231    -2.692685 
H      -1.575642     2.932800    -2.823104 
C       0.470723     3.078347     1.675376 
C       1.409429     2.472414     0.857745 
C       0.984076     1.931932    -0.347393 
C      -0.355105     1.990888    -0.725162 
C      -1.272049     2.624751     0.113046 
C      -0.865455     3.172410     1.321387 
H       2.445472     2.425152     1.167441 
H       1.710574     1.454144    -0.998112 
H      -2.315418     2.678213    -0.179123 
H      -1.566023     3.659148     1.987614 
N       0.909941     3.644465     2.970517 
O       2.081917     3.528549     3.262355 
O       0.070870     4.184551     3.659497 
C      -0.826098     1.321702    -2.004230 
O      -1.881530     2.041023    -2.625454 
H       0.026319     1.245343    -2.693468 
O      -1.516993    -2.683328    -1.529852 
H      -0.788782    -3.332506    -0.926942 
H      -1.567583    -3.047333    -2.420049 
43
     -1145.197620     -1144.902703   0.56   1.26
C      -2.136280    -1.509053    -0.778005 
C      -2.501584    -0.660753     1.472600 
C      -3.444231    -1.836555     1.190970 
C      -2.724238    -2.622602     0.091745 
H      -1.274392    -1.858466    -1.349356 
H      -1.822792    -0.868130     2.301111 
H      -3.043010     0.267958     1.671538 
H      -3.631344    -2.428087     2.089360 
H      -4.406583    -1.472405     0.819501 
H      -1.916436    -3.227698     0.516509 
H      -3.381154    -3.266812    -0.490912 
N      -1.712327    -0.519669     0.228132 
C      -3.192208    -1.007467    -1.803024 
O      -3.591906    -1.842925    -2.594985 
O      -3.579143     0.218850    -1.746354 
C      -0.971866     0.537598    -0.045556 
C      -0.242759     0.567162    -1.363379 
H       0.268697     1.521126    -1.493492 
H       0.512527    -0.222319    -1.382892 
H      -0.930085     0.411474    -2.194838 
C      -0.395185     1.342184     1.100267 
H      -1.150872     1.472672     1.874461 
H      -0.153718     2.334384     0.717397 
H       1.234565    -0.747931     2.948389 
C       4.274977     0.611314    -0.828277 
C       3.672527    -0.577258    -0.456756 
C       2.569590    -0.530264     0.386682 
C       2.079687     0.688656     0.849201 
C       2.717435     1.867427     0.462596 
C       3.816200     1.840309    -0.382125 
H       4.061866    -1.517260    -0.826440 
H       2.079721    -1.452628     0.677341 
H       2.356789     2.824843     0.829948 
H       4.317509     2.748058    -0.691964 
N       5.448800     0.569279    -1.729062 
O       5.956089     1.627544    -2.035924 
O       5.828409    -0.520157    -2.103437 
C       0.869066     0.766536     1.769790 
O       0.536442    -0.488915     2.339279 
H       1.116498     1.478427     2.570101 
O      -2.389185     1.866893    -0.460661 
H      -3.010374     1.061526    -1.071377 
H      -2.115723     2.553131    -1.078106 
43
     -1145.196645     -1144.902474   1.17   1.40
C      -1.805539     1.396689     0.006457 
C       0.109368     0.830835    -1.387917 
C      -0.082424     2.349801    -1.342677 
C      -0.831436     2.576721    -0.026822 
H      -2.112780     1.158747     1.026582 
H       1.070181     0.539600    -0.957951 
H       0.029059     0.424700    -2.399134 
H       0.872232     2.877293    -1.389982 
H      -0.697427     2.679269    -2.184923 
H      -0.143249     2.516321     0.822715 
H      -1.367077     3.523889     0.015938 
N      -0.986646     0.299961    -0.545966 
C      -3.094762     1.729967    -0.798471 
O      -3.750021     2.662341    -0.365186 
O      -3.366686     1.032593    -1.841872 
C      -1.351957    -0.967021    -0.542462 
C      -2.489867    -1.375879     0.356700 
H      -2.743090    -2.423869     0.190302 
H      -2.192604    -1.258278     1.404094 
H      -3.374539    -0.763666     0.183756 
C      -0.330806    -2.033552    -0.861171 
H       0.349809    -1.706998    -1.647407 
H      -0.874762    -2.901790    -1.241242 
H       0.711754    -4.337389    -0.238276 
C       3.048072     0.695066     1.630675 
C       1.821193     0.533933     2.251192 
C       1.017258    -0.525943     1.856904 
C       1.429587    -1.403774     0.858048 
C       2.681669    -1.229123     0.269935 
C       3.499523    -0.175635     0.651855 
H       1.509271     1.229077     3.019892 
H       0.054177    -0.665633     2.338560 
H       3.016120    -1.922462    -0.493000 
H       4.470506    -0.020189     0.199690 
N       3.905697     1.832990     2.028310 
O       4.983191     1.941684     1.482359 
O       3.474898     2.590042     2.873474 
C       0.498251    -2.489801     0.365942 
O       1.292244    -3.610785     0.008650 
H      -0.183945    -2.760537     1.183820 
O      -2.286223    -1.071262    -2.295385 
H      -2.793371    -0.045217    -2.125234 
H      -2.984854    -1.732721    -2.340767 
43
     -1145.195902     -1144.902312   1.64   1.50
C      -2.667497    -2.139848    -0.495733 
C      -0.274760    -2.167325    -0.066446 
C      -0.579963    -3.236261    -1.108572 
C      -2.067692    -3.508063    -0.884251 
H      -3.135242    -1.662693    -1.359082 
H       0.611292    -1.580349    -0.309612 
H      -0.140175    -2.600678     0.932227 
H      -0.403824    -2.837048    -2.113416 
H       0.041527    -4.124672    -0.981396 
H      -2.576221    -3.928688    -1.751528 
H      -2.197633    -4.209709    -0.054571 
N      -1.489469    -1.336857    -0.081420 
C      -3.768798    -2.377176     0.568220 
O      -4.831079    -2.784694     0.125912 
O      -3.467365    -2.207128     1.802863 
C      -1.571437    -0.140115     0.475525 
C      -2.840715     0.648136     0.293076 
H      -3.722976     0.078882     0.580402 
H      -2.795898     1.568287     0.875770 
H      -2.921914     0.930293    -0.760363 
C      -0.289152     0.639183     0.666499 
H       0.456082     0.013162     1.155323 
H      -0.487958     1.483251     1.328450 
H      -0.290462     2.557579    -1.930321 
C       4.262791     2.593231     0.008802 
C       4.081031     1.356529    -0.584376 
C       2.783426     0.918087    -0.810941 
C       1.691326     1.701307    -0.445812 
C       1.909272     2.945509     0.145794 
C       3.198569     3.400577     0.376750 
H       4.940060     0.759001    -0.860777 
H       2.625767    -0.045927    -1.286533 
H       1.061870     3.562741     0.424799 
H       3.387205     4.362922     0.835024 
N       5.642194     3.071026     0.256031 
O       5.773277     4.159015     0.775465 
O       6.553977     2.343408    -0.076522 
C       0.277461     1.187263    -0.653215 
O      -0.607629     2.210304    -1.090360 
H       0.305716     0.379124    -1.397078 
O      -1.750824    -0.622169     2.395282 
H      -2.531370    -1.415118     2.162485 
H      -2.192793     0.055695     2.917629 
43
     -1145.195134     -1144.901609   2.12   1.95
C      -2.396164    -0.141940     1.149112 
C      -2.521386     1.144576    -0.902322 
C      -3.130960     1.986745     0.210481 
C      -3.492624     0.941829     1.268196 
H      -1.658890    -0.032935     1.946985 
H      -1.876719     1.718675    -1.561013 
H      -3.291261     0.633818    -1.494139 
H      -2.378227     2.686489     0.588563 
H      -3.993332     2.562515    -0.131381 
H      -3.545586     1.338968     2.281987 
H      -4.467248     0.500139     1.039993 
N      -1.746881     0.142564    -0.151840 
C      -3.058719    -1.530536     1.316886 
O      -3.389613    -1.816793     2.454483 
O      -3.273248    -2.242999     0.266085 
C      -0.799892    -0.615725    -0.675784 
C      -0.071084    -1.567402     0.240206 
H      -0.758132    -2.240633     0.750180 
H       0.650493    -2.158605    -0.324481 
H       0.478434    -0.997691     0.993322 
C      -0.053469    -0.131214    -1.903633 
H      -0.761612     0.226608    -2.651109 
H       0.450038    -0.997836    -2.334821 
H       0.975121     2.892622    -1.363023 
C       4.078164    -0.148359     1.087161 
C       4.095716    -0.681332    -0.191446 
C       3.099714    -0.301672    -1.078598 
C       2.098598     0.588582    -0.693157 
C       2.112685     1.109929     0.598798 
C       3.104288     0.744275     1.499519 
H       4.877003    -1.373995    -0.476307 
H       3.108336    -0.703878    -2.088485 
H       1.332336     1.795764     0.908779 
H       3.125849     1.137660     2.507823 
N       5.136080    -0.546070     2.043141 
O       5.090447    -0.070312     3.157890 
O       5.980743    -1.323159     1.650801 
C       1.009119     0.965976    -1.685941 
O       0.345189     2.166487    -1.322667 
H       1.487878     1.096685    -2.666743 
O      -1.894641    -1.922922    -1.676833 
H      -2.623686    -2.069526    -0.759153 
H      -1.452860    -2.765371    -1.827511 
43
     -1145.195134     -1144.901082   2.12   2.28
C       1.267410     0.867912    -2.166639 
C      -0.411829     2.473977    -1.474635 
C      -0.652233     2.157530    -2.944739 
C       0.701753     1.609093    -3.400290 
H       1.139093    -0.211059    -2.273471 
H      -1.329970     2.516598    -0.896512 
H       0.147850     3.408882    -1.346036 
H      -1.434503     1.395723    -3.027744 
H      -0.967834     3.036141    -3.510867 
H       0.642366     0.947332    -4.264496 
H       1.369199     2.433967    -3.666953 
N       0.429259     1.345799    -1.042359 
C       2.787186     1.147601    -2.080439 
O       3.472872     0.561985    -2.900470 
O       3.208663     2.006912    -1.219182 
C       0.640619     1.011355     0.218532 
C       1.500000    -0.197876     0.492758 
H       2.481363    -0.107210     0.030073 
H       1.626241    -0.336968     1.566902 
H       1.010452    -1.089707     0.094417 
C      -0.390310     1.378554     1.268241 
H      -0.675127     2.425011     1.158481 
H       0.095304     1.283617     2.240694 
H      -3.309461     0.428498     0.232779 
C      -0.964766    -3.652984     1.873065 
C      -0.849740    -2.794441     2.954185 
C      -1.094537    -1.444178     2.753810 
C      -1.440337    -0.958333     1.493795 
C      -1.552129    -1.849320     0.428493 
C      -1.314533    -3.205195     0.611118 
H      -0.577332    -3.184731     3.926194 
H      -1.018633    -0.761274     3.596183 
H      -1.811886    -1.477831    -0.556362 
H      -1.393286    -3.908786    -0.207815 
N      -0.705807    -5.096466     2.074430 
O      -0.410057    -5.460690     3.192963 
O      -0.805004    -5.822780     1.108138 
C      -1.679819     0.532287     1.305538 
O      -2.431888     0.810563     0.134638 
H      -2.230422     0.891710     2.186394 
O       1.910996     2.426083     0.760328 
H       2.546556     2.283041    -0.224819 
H       2.474261     2.179662     1.501679 
43
     -1145.196198     -1144.901079   1.45   2.28
C      -1.311456     1.740312     1.007359 
C      -0.935122     0.732186    -1.176392 
C      -0.315948     2.124107    -1.181007 
C      -1.065373     2.833275    -0.053248 
H      -0.552385     1.787072     1.791338 
H      -0.280994    -0.016188    -1.617845 
H      -1.901481     0.714317    -1.695043 
H       0.753835     2.054174    -0.959089 
H      -0.432818     2.620205    -2.146489 
H      -0.527682     3.679887     0.373320 
H      -2.027487     3.204663    -0.419915 
N      -1.149596     0.469323     0.256975 
C      -2.687274     2.005942     1.667720 
O      -2.696614     2.893191     2.504929 
O      -3.703331     1.343916     1.246313 
C      -1.447206    -0.718741     0.754669 
C      -1.538917    -0.857589     2.254474 
H      -2.259375    -0.168008     2.689968 
H      -1.821418    -1.877450     2.519699 
H      -0.559292    -0.646241     2.695609 
C      -1.039631    -1.969000     0.008853 
H      -1.159731    -1.849386    -1.067458 
H      -1.705174    -2.775603     0.318203 
H       1.351805    -4.104334    -0.043722 
C       3.384461     0.196344    -1.231606 
C       3.024925     0.308242     0.100571 
C       2.063028    -0.558749     0.599933 
C       1.471038    -1.518761    -0.217160 
C       1.865381    -1.613119    -1.552119 
C       2.823859    -0.753835    -2.069955 
H       3.490119     1.060424     0.724559 
H       1.776031    -0.484325     1.644659 
H       1.414343    -2.365034    -2.191180 
H       3.136747    -0.810779    -3.104625 
N       4.402288     1.122190    -1.777866 
O       4.695340     1.004863    -2.948745 
O       4.877264     1.941364    -1.019482 
C       0.392961    -2.439104     0.329045 
O       0.478572    -3.742937    -0.230210 
H       0.508998    -2.496526     1.420155 
O      -3.361676    -0.835815     0.283153 
H      -3.569352     0.218525     0.683267 
H      -3.861655    -1.453003     0.828388 
43
     -1145.195134     -1144.901071   2.12   2.28
C       2.148276    -1.318595     0.835871 
C       0.164384    -2.685871     1.105812 
C       0.881967    -2.641540     2.448290 
C       2.309437    -2.252100     2.058088 
H       2.270819    -0.274362     1.130179 
H      -0.911884    -2.576188     1.198758 
H       0.394261    -3.604625     0.551853 
H       0.422137    -1.873687     3.079278 
H       0.830443    -3.595582     2.976694 
H       2.867966    -1.763130     2.856375 
H       2.873269    -3.142452     1.764187 
N       0.750258    -1.536560     0.396646 
C       3.265859    -1.647115    -0.183176 
O       4.380351    -1.258913     0.121397 
O       2.967651    -2.347353    -1.221716 
C       0.229937    -0.980542    -0.683394 
C       0.935230     0.217549    -1.269158 
H       0.427211     0.550662    -2.174708 
H       0.912842     1.039998    -0.550291 
H       1.974164    -0.004110    -1.507602 
C      -1.261254    -1.095022    -0.933963 
H      -1.580967    -2.129071    -0.804467 
H      -1.430166    -0.840931    -1.981535 
H      -2.836428    -0.223483     1.759642 
C      -1.316491     3.981327    -0.443768 
C      -0.922997     3.319889     0.706462 
C      -1.209084     1.966392     0.826465 
C      -1.878182     1.288475    -0.190375 
C      -2.267974     1.987057    -1.331997 
C      -1.987397     3.338071    -1.471023 
H      -0.400116     3.859000     1.486110 
H      -0.894782     1.427971     1.713446 
H      -2.803747     1.472799    -2.125847 
H      -2.281271     3.891919    -2.353195 
N      -1.011201     5.423309    -0.580618 
O      -1.376414     5.978229    -1.595471 
O      -0.414682     5.957774     0.330209 
C      -2.182754    -0.198164    -0.081389 
O      -2.137569    -0.657464     1.260646 
H      -3.191314    -0.358881    -0.487876 
O       0.711420    -2.325054    -2.050595 
H       1.816250    -2.399997    -1.639982 
H       0.762554    -1.969625    -2.944265 
43
     -1145.194646     -1144.900996   2.43   2.33
C      -2.232654     0.477100    -2.562550 
C       0.171592     0.323185    -2.226302 
C      -0.132393     1.005338    -3.565728 
C      -1.539953     1.575930    -3.371464 
H      -3.077570     0.866547    -1.992493 
H       0.737029     0.982031    -1.559534 
H       0.724752    -0.610803    -2.352044 
H       0.611577     1.765609    -3.811385 
H      -0.138928     0.264582    -4.369836 
H      -1.504857     2.503650    -2.790457 
H      -2.068604     1.762430    -4.304988 
N      -1.160107     0.044964    -1.644925 
C      -2.776001    -0.633242    -3.508084 
O      -3.628524    -0.264597    -4.299334 
O      -2.291334    -1.816405    -3.407170 
C      -1.344553    -0.764610    -0.619724 
C      -2.748508    -0.987330    -0.130213 
H      -2.761470    -1.770441     0.628499 
H      -3.108179    -0.066298     0.336910 
H      -3.413968    -1.265544    -0.947360 
C      -0.210481    -0.908064     0.369913 
H       0.716326    -1.099837    -0.170030 
H      -0.411021    -1.777102     1.000208 
H      -1.147942    -0.005453     2.830943 
C       3.439988     0.520073     3.713961 
C       2.639513     1.642876     3.567795 
C       1.522951     1.552951     2.754837 
C       1.204707     0.363249     2.093623 
C       2.028106    -0.745640     2.268180 
C       3.155233    -0.673598     3.079800 
H       2.895566     2.558669     4.084698 
H       0.878173     2.417517     2.630398 
H       1.806690    -1.685079     1.774762 
H       3.804648    -1.527804     3.222190 
N       4.638749     0.602407     4.579561 
O       5.319842    -0.395176     4.688647 
O       4.863276     1.662388     5.124310 
C      -0.056657     0.346608     1.241258 
O      -1.208660     0.561707     2.054878 
H      -0.028039     1.222690     0.585280 
O      -1.033029    -2.543567    -1.482358 
H      -1.596690    -2.218265    -2.423318 
H      -1.538597    -3.263653    -1.091354 
43
     -1145.194466     -1144.900719   2.54   2.50
C      -1.055162    -2.034618    -0.009608 
C       0.063006    -0.507902     1.522469 
C       0.514351    -1.947731     1.786092 
C       0.269795    -2.649272     0.447431 
H      -1.171418    -2.091635    -1.093470 
H       0.901082     0.117212     1.206477 
H      -0.420606    -0.051700     2.389790 
H       1.556132    -1.990063     2.109811 
H      -0.104686    -2.401911     2.564932 
H       1.062080    -2.401827    -0.266860 
H       0.188610    -3.732228     0.527611 
N      -0.907667    -0.627379     0.411481 
C      -2.256624    -2.793431     0.625094 
O      -2.354343    -3.966476     0.306548 
O      -3.030498    -2.158016     1.428104 
C      -1.741351     0.335781     0.067647 
C      -2.691067     0.077944    -1.073437 
H      -3.374722     0.919658    -1.190749 
H      -2.125765    -0.034733    -2.004458 
H      -3.268400    -0.832387    -0.913765 
C      -1.349228     1.776802     0.299584 
H      -0.820922     1.881758     1.249710 
H      -2.263993     2.367449     0.363061 
H      -0.203880     4.049663     0.148236 
C       3.363437     0.522618    -0.927003 
C       2.369549     0.050708    -1.767087 
C       1.135675     0.684467    -1.751712 
C       0.892075     1.768361    -0.910921 
C       1.924318     2.231035    -0.095711 
C       3.166133     1.612282    -0.094981 
H       2.564268    -0.797296    -2.410956 
H       0.350426     0.324512    -2.409519 
H       1.771951     3.083240     0.559304 
H       3.971069     1.957362     0.540996 
N       4.677632    -0.156548    -0.918958 
O       5.533792     0.288236    -0.184119 
O       4.814103    -1.118881    -1.645163 
C      -0.498315     2.379148    -0.845225 
O      -0.477157     3.792995    -0.738296 
H      -0.998900     2.188150    -1.798658 
O      -3.027867     0.246624     1.578099 
H      -3.028686    -0.904384     1.557816 
H      -3.918222     0.542412     1.360365 
43
     -1145.195976     -1144.900353   1.59   2.73
C      -2.538618    -0.413999     0.933934 
C      -1.282186    -2.491599     1.129410 
C      -2.785999    -2.766261     1.257936 
C      -3.439983    -1.584438     0.535949 
H      -2.602661     0.408747     0.219954 
H      -0.836002    -3.034486     0.292742 
H      -0.733740    -2.735699     2.042231 
H      -3.057288    -3.733652     0.831142 
H      -3.079696    -2.765980     2.310935 
H      -3.413146    -1.728596    -0.550023 
H      -4.469587    -1.401963     0.839884 
N      -1.194405    -1.029555     0.878125 
C      -2.962547     0.143708     2.324586 
O      -4.078313     0.636017     2.359042 
O      -2.146478     0.030439     3.306017 
C      -0.064217    -0.347531     1.013268 
C      -0.121886     1.147961     0.857573 
H      -0.875306     1.582758     1.514048 
H       0.850029     1.589673     1.077166 
H      -0.372849     1.398534    -0.177078 
C       1.230090    -1.047064     0.667061 
H       1.221679    -2.060396     1.067066 
H       2.045757    -0.512886     1.153840 
H      -0.381077    -1.443835    -1.269989 
C       2.508514     2.651347    -2.613035 
C       1.423924     1.954282    -3.113021 
C       1.099697     0.727685    -2.546667 
C       1.846362     0.209701    -1.492223 
C       2.946437     0.931460    -1.024973 
C       3.283947     2.157004    -1.576037 
H       0.849294     2.367228    -3.932180 
H       0.264796     0.163718    -2.944555 
H       3.560941     0.531016    -0.223587 
H       4.132599     2.725962    -1.218968 
N       2.858832     3.959195    -3.208876 
O       3.817994     4.544110    -2.750654 
O       2.165176     4.365282    -4.117420 
C       1.503239    -1.133980    -0.855885 
O       0.468334    -1.816947    -1.536018 
H       2.384866    -1.773619    -0.968256 
O       0.195756    -0.446760     2.981493 
H      -0.904676    -0.255477     3.177656 
H       0.682398     0.298899     3.348388 
43
     -1145.194057     -1144.900331   2.80   2.75
C       2.160795     0.733408     2.163621 
C       0.418594     2.422843     2.000611 
C       1.512307     2.884624     2.969263 
C       2.745335     2.103584     2.510989 
H       2.784105     0.206936     1.438726 
H       0.335954     3.092584     1.138268 
H      -0.559826     2.357588     2.483693 
H       1.648482     3.967409     2.940405 
H       1.252415     2.603022     3.993814 
H       3.182736     2.563016     1.618240 
H       3.513928     2.010827     3.276076 
N       0.864761     1.088221     1.549023 
C       2.062073    -0.169235     3.429974 
O       3.108928    -0.321479     4.037583 
O       0.925573    -0.675599     3.738793 
C       0.087696     0.242890     0.895680 
C       0.694719    -1.047684     0.424397 
H      -0.079858    -1.768713     0.184991 
H       1.277723    -0.849685    -0.482140 
H       1.343544    -1.484501     1.180918 
C      -1.055356     0.848694     0.112567 
H      -0.603632     1.493468    -0.650009 
H      -1.640073     1.505702     0.757293 
H      -3.825126     0.209342    -1.334331 
C      -0.711978    -1.997025    -4.150370 
C      -1.171305    -2.785948    -3.111820 
C      -1.598021    -2.160445    -1.947309 
C      -1.558692    -0.774299    -1.821207 
C      -1.105921    -0.008919    -2.896915 
C      -0.674753    -0.613921    -4.066707 
H      -1.191765    -3.862781    -3.219026 
H      -1.963577    -2.766623    -1.123394 
H      -1.103289     1.074017    -2.827924 
H      -0.317804    -0.033547    -4.907721 
N      -0.250020    -2.651177    -5.395636 
O       0.145454    -1.934776    -6.290851 
O      -0.295808    -3.862448    -5.441237 
C      -2.054462    -0.103789    -0.549721 
O      -3.179218     0.727013    -0.842026 
H      -2.334727    -0.877010     0.175313 
O      -1.014218    -0.648976     2.308713 
H      -0.106946    -0.665407     3.013695 
H      -1.668749    -0.071198     2.715696 
43
     -1145.194164     -1144.899364   2.73   3.35
C      -1.949697     1.355206    -0.095530 
C       0.021544     0.841623    -1.431267 
C       0.146187     2.273129    -0.924915 
C      -1.302071     2.653696    -0.618763 
H      -1.954590     1.340213     0.996598 
H       0.944570     0.277651    -1.316154 
H      -0.293052     0.806320    -2.481374 
H       0.758128     2.293022    -0.017607 
H       0.610339     2.928626    -1.664337 
H      -1.405627     3.462363     0.104499 
H      -1.808724     2.965792    -1.537495 
N      -1.049161     0.282242    -0.587292 
C      -3.422306     1.322219    -0.572924 
O      -4.190952     2.019041     0.067590 
O      -3.707756     0.642218    -1.625181 
C      -1.330793    -1.005329    -0.507027 
C      -2.377902    -1.447752     0.484483 
H      -2.031204    -1.223554     1.498598 
H      -3.329017    -0.940843     0.334492 
H      -2.537033    -2.524482     0.407306 
C      -0.267267    -2.028700    -0.833891 
H       0.350541    -1.710663    -1.673238 
H      -0.786846    -2.937372    -1.147917 
H       0.918869    -4.256019    -0.209733 
C       3.137774     0.847189     1.564996 
C       3.572801     0.006647     0.552894 
C       2.766177    -1.058602     0.179741 
C       1.540123    -1.274547     0.808320 
C       1.138781    -0.418357     1.830287 
C       1.933504     0.651011     2.218731 
H       4.525837     0.189932     0.073642 
H       3.094136    -1.735021    -0.601155 
H       0.196304    -0.587966     2.341874 
H       1.632407     1.324862     3.010406 
N       3.989304     1.989885     1.963266 
O       5.040236     2.138078     1.376197 
O       3.581530     2.709249     2.851424 
C       0.638788    -2.406642     0.363512 
O       1.472304    -3.495485    -0.006725 
H       0.005691    -2.694708     1.214175 
O      -2.342370    -1.252495    -2.198102 
H      -2.989001    -0.313830    -1.992684 
H      -2.940499    -2.007845    -2.199720 
43
     -1145.193979     -1144.899071   2.85   3.54
C      -1.520640    -2.708532    -1.039518 
C      -1.338167    -0.884030    -2.640349 
C      -1.503711    -2.218111    -3.375624 
C      -2.209128    -3.105615    -2.347808 
H      -2.156969    -2.910451    -0.176510 
H      -2.172364    -0.205715    -2.848671 
H      -0.401608    -0.381732    -2.894328 
H      -2.064482    -2.102334    -4.305212 
H      -0.523454    -2.636904    -3.619765 
H      -3.276463    -2.864569    -2.298456 
H      -2.095532    -4.171918    -2.536856 
N      -1.343909    -1.251916    -1.208981 
C      -0.207106    -3.521878    -0.849981 
O      -0.357686    -4.730042    -0.764285 
O       0.907379    -2.889664    -0.817695 
C      -0.965549    -0.424518    -0.249201 
C      -1.057212    -0.914583     1.167701 
H      -0.509029    -0.263824     1.841451 
H      -2.107753    -0.898620     1.473596 
H      -0.665844    -1.926771     1.256704 
C      -1.119801     1.052519    -0.561811 
H      -2.151099     1.185362    -0.907504 
H      -0.463379     1.296930    -1.396119 
H      -2.089951     2.713494     1.990679 
C       3.018338     2.372268     2.228308 
C       2.840749     2.586119     0.868991 
C       1.563783     2.479397     0.343778 
C       0.476422     2.154374     1.157219 
C       0.689928     1.946860     2.517132 
C       1.964157     2.054172     3.063514 
H       3.691291     2.831686     0.246278 
H       1.417394     2.644495    -0.719103 
H      -0.144357     1.693643     3.161048 
H       2.141066     1.894581     4.119412 
N       4.378182     2.487469     2.800410 
O       5.284809     2.748074     2.037868 
O       4.499872     2.313201     3.994536 
C      -0.920727     2.091313     0.548001 
O      -1.940964     1.890069     1.517170 
H      -1.083316     3.059122     0.052329 
O       1.010640    -0.503637    -0.482017 
H       0.994962    -1.634388    -0.670148 
H       1.511235    -0.345391     0.323823 
43
     -1145.192121     -1144.898884   4.01   3.66
C      -3.298737     0.682911     0.834859 
C      -2.016591    -0.561996    -0.814127 
C      -3.128675     0.182162    -1.543122 
C      -4.146695     0.438152    -0.431546 
H      -3.187169     1.751817     1.026358 
H      -1.058342    -0.498989    -1.330134 
H      -2.265365    -1.620176    -0.667643 
H      -2.743216     1.125725    -1.944493 
H      -3.536976    -0.398566    -2.372363 
H      -4.813358     1.277852    -0.626805 
H      -4.769970    -0.449268    -0.284713 
N      -1.970701     0.114532     0.492771 
C      -4.040012     0.059574     2.043870 
O      -4.976168     0.717055     2.468640 
O      -3.675033    -1.102323     2.447633 
C      -0.979907    -0.012604     1.356772 
C      -1.007756     0.823100     2.607582 
H      -0.837653     1.866281     2.326536 
H      -1.955852     0.742142     3.136067 
H      -0.199286     0.524038     3.275722 
C       0.374055    -0.429277     0.824554 
H       0.256099    -1.315445     0.201296 
H       1.000277    -0.710255     1.674098 
H       2.168432     1.626469     1.352800 
C       4.586912    -0.390234    -2.141652 
C       4.069081    -1.308797    -1.249390 
C       2.919602    -0.975838    -0.540711 
C       2.299517     0.256393    -0.728697 
C       2.855271     1.161727    -1.637259 
C       3.999433     0.848373    -2.350247 
H       4.559703    -2.264093    -1.113861 
H       2.518648    -1.698334     0.160958 
H       2.382277     2.128606    -1.779207 
H       4.438608     1.541530    -3.056003 
N       5.810873    -0.739449    -2.898749 
O       6.302751    -1.829244    -2.695466 
O       6.243416     0.086676    -3.674059 
C       1.056614     0.696030     0.033612 
O       1.356540     1.812544     0.869168 
H       0.343016     1.096354    -0.693986 
O      -1.390155    -1.800859     2.144411 
H      -2.496595    -1.530829     2.260619 
H      -1.046914    -1.923474     3.035897 
43
     -1145.192614     -1144.898806   3.70   3.70
C      -2.278526     2.667540    -0.725389 
C      -1.384112     0.864650    -2.088064 
C      -2.622873     1.470098    -2.759962 
C      -2.707145     2.881739    -2.177060 
H      -1.886713     3.587081    -0.288227 
H      -0.489409     0.944655    -2.708844 
H      -1.535035    -0.185261    -1.837245 
H      -2.537223     1.457712    -3.848171 
H      -3.515534     0.900692    -2.485637 
H      -2.000811     3.551044    -2.679379 
H      -3.704304     3.315947    -2.223886 
N      -1.201300     1.666168    -0.856133 
C      -3.478811     2.211151     0.154797 
O      -4.457410     2.936390     0.119402 
O      -3.361891     1.131257     0.840699 
C      -0.304858     1.421197     0.070351 
C      -0.139194     2.428708     1.179390 
H       0.351699     3.321594     0.774020 
H      -1.095254     2.721359     1.612278 
H       0.496129     2.020214     1.964358 
C       0.921437     0.587976    -0.245499 
H       1.565713     0.637396     0.631805 
H       1.450351     1.103128    -1.056373 
H       1.072286    -1.900142    -2.313359 
C       3.100030    -3.379780     1.901514 
C       1.742596    -3.256629     2.143126 
C       0.989407    -2.458776     1.292836 
C       1.588880    -1.795690     0.224690 
C       2.958902    -1.940897     0.006855 
C       3.725093    -2.736530     0.845274 
H       1.294341    -3.778025     2.979129 
H      -0.076610    -2.343496     1.458950 
H       3.426547    -1.426524    -0.826097 
H       4.789300    -2.862243     0.692819 
N       3.911541    -4.228485     2.801943 
O       3.339681    -4.780065     3.718745 
O       5.098454    -4.320211     2.568019 
C       0.755663    -0.891509    -0.665443 
O       1.156333    -0.983209    -2.030917 
H      -0.288518    -1.183469    -0.545808 
O      -1.269410     0.001982     1.213812 
H      -2.300206     0.526611     1.010700 
H      -1.099233     0.094657     2.155987 
43
     -1145.192613     -1144.898795   3.70   3.71
C      -2.787863    -0.855404     2.080508 
C      -0.990395     0.760173     2.337857 
C      -2.136262     1.086461     3.303821 
C      -2.861740    -0.248344     3.481552 
H      -2.874521    -1.942383     2.114671 
H      -0.049811     0.561001     2.855449 
H      -0.824800     1.566195     1.623078 
H      -1.765533     1.503611     4.242027 
H      -2.811298     1.819287     2.852580 
H      -2.328442    -0.887314     4.193245 
H      -3.896933    -0.144727     3.802001 
N      -1.434763    -0.465910     1.635903 
C      -3.939866    -0.327356     1.176203 
O      -5.063371    -0.468928     1.626281 
O      -3.638915     0.206950     0.047384 
C      -0.790143    -1.037094     0.645862 
C      -1.289428    -2.370875     0.151694 
H      -2.365649    -2.367332    -0.018083 
H      -0.784330    -2.639519    -0.775336 
H      -1.053902    -3.135328     0.901819 
C       0.687145    -0.771691     0.433813 
H       1.015450    -1.449874    -0.353260 
H       1.196954    -1.083218     1.353426 
H       2.244105     2.005305     1.028112 
C       3.461544     0.589698    -3.509314 
C       2.135298     0.982305    -3.564856 
C       1.405884     1.016473    -2.384319 
C       1.996193     0.659738    -1.174262 
C       3.335153     0.269665    -1.151008 
C       4.078616     0.232900    -2.321013 
H       1.692930     1.254359    -4.514586 
H       0.364144     1.319542    -2.398361 
H       3.796560    -0.006387    -0.208678 
H       5.118756    -0.066569    -2.323813 
N       4.247779     0.550522    -4.762279 
O       5.407862     0.203649    -4.686237 
O       3.683500     0.867576    -5.788367 
C       1.168386     0.659536     0.098081 
O       1.924105     1.116865     1.217551 
H       0.301188     1.298610    -0.073398 
O      -1.462753     0.054060    -0.969354 
H      -2.518555     0.162755    -0.466899 
H      -1.592277    -0.478980    -1.759501 
43
     -1145.191648     -1144.898638   4.31   3.81
C      -2.612687     1.355737     1.096320 
C      -2.080711     2.129835    -1.146715 
C      -3.284879     2.900143    -0.594239 
C      -3.111455     2.791153     0.921942 
H      -2.045718     1.239523     2.021641 
H      -1.236957     2.797217    -1.351175 
H      -2.324040     1.586813    -2.063766 
H      -3.307834     3.929934    -0.955923 
H      -4.216007     2.413483    -0.898580 
H      -2.353426     3.498233     1.275258 
H      -4.032603     2.948626     1.479928 
N      -1.717400     1.188837    -0.066860 
C      -3.805229     0.354308     1.155636 
O      -4.641177     0.597487     2.010217 
O      -3.827679    -0.625820     0.329761 
C      -0.881300     0.178733    -0.230232 
C      -0.543279    -0.650562     0.976830 
H       0.154883    -0.086393     1.605272 
H      -1.433442    -0.888063     1.556390 
H      -0.068159    -1.581613     0.683901 
C       0.137160     0.316467    -1.341901 
H       0.751616     1.190884    -1.096037 
H      -0.368068     0.559395    -2.277345 
H       2.456091    -0.319310    -2.861387 
C       4.188135    -1.750749     1.127254 
C       3.406761    -2.788260     0.648509 
C       2.378262    -2.488484    -0.232303 
C       2.127817    -1.175316    -0.628240 
C       2.940616    -0.156493    -0.130013 
C       3.974800    -0.435710     0.752799 
H       3.607062    -3.804304     0.963283 
H       1.757508    -3.290766    -0.618995 
H       2.777012     0.876170    -0.422947 
H       4.608661     0.347148     1.148711 
N       5.287332    -2.056671     2.070714 
O       5.953546    -1.126594     2.473493 
O       5.450995    -3.217583     2.380871 
C       1.027148    -0.897802    -1.639987 
O       1.592210    -0.736576    -2.941961 
H       0.382508    -1.777377    -1.706335 
O      -1.973559    -1.271525    -1.068445 
H      -2.875619    -0.978170    -0.422106 
H      -2.218896    -1.095986    -1.983243 
43
     -1145.192874     -1144.898600   3.54   3.83
C      -3.047876     1.414917     1.095211 
C      -2.310302     0.729942    -1.120659 
C      -3.668733     1.409471    -1.250172 
C      -4.254795     1.246426     0.151989 
H      -2.983052     2.447704     1.445274 
H      -1.587084     1.042892    -1.872019 
H      -2.418084    -0.360234    -1.164306 
H      -3.535167     2.467716    -1.498511 
H      -4.283495     0.951734    -2.027485 
H      -5.042962     1.959100     0.393011 
H      -4.672677     0.241580     0.269427 
N      -1.876277     1.126806     0.230993 
C      -3.247199     0.512976     2.337104 
O      -4.101398     0.899085     3.116786 
O      -2.570458    -0.574899     2.425956 
C      -0.632521     1.135537     0.655889 
C      -0.329023     1.846565     1.949420 
H       0.675631     1.596667     2.289099 
H      -0.365285     2.926540     1.761744 
H      -1.040245     1.609027     2.738457 
C       0.509795     1.073086    -0.336562 
H       1.431931     1.202675     0.229799 
H       0.412167     1.951673    -0.985045 
H       0.684764    -0.437831    -3.189617 
C       4.296912    -2.251161    -0.507671 
C       3.114218    -2.795824    -0.039394 
C       1.927856    -2.119091    -0.290729 
C       1.931554    -0.918045    -0.994753 
C       3.141057    -0.396808    -1.456509 
C       4.334041    -1.060245    -1.215747 
H       3.130271    -3.729251     0.508558 
H       0.988163    -2.521098     0.071550 
H       3.145312     0.535133    -2.012757 
H       5.281457    -0.671563    -1.566202 
N       5.565917    -2.965577    -0.244614 
O       5.505340    -4.005981     0.376339 
O       6.588358    -2.466631    -0.666003 
C       0.635449    -0.169381    -1.248105 
O       0.572464     0.309965    -2.593088 
H      -0.191408    -0.852555    -1.046706 
O      -0.427856    -0.771912     1.356259 
H      -1.488034    -0.723351     1.843151 
H       0.201279    -0.845772     2.080631 
43
     -1145.192231     -1144.898511   3.94   3.89
C      -1.005272     0.747400    -2.935078 
C      -0.064627     2.653829    -1.740831 
C      -1.165314     3.150769    -2.672023 
C      -1.234127     2.047948    -3.725837 
H      -1.962000     0.318188    -2.628538 
H      -0.141060     3.071404    -0.736612 
H       0.928509     2.890746    -2.144463 
H      -2.110176     3.224322    -2.123504 
H      -0.937753     4.133162    -3.090055 
H      -2.174659     2.011358    -4.274180 
H      -0.430397     2.176438    -4.458342 
N      -0.271502     1.195128    -1.722538 
C      -0.313392    -0.282623    -3.864615 
O      -1.043959    -0.756825    -4.719215 
O       0.940418    -0.508062    -3.723764 
C       0.286605     0.379431    -0.842595 
C      -0.222265    -1.032037    -0.762961 
H      -0.538648    -1.419428    -1.727645 
H       0.541610    -1.691199    -0.361510 
H      -1.080376    -1.039887    -0.081394 
C       0.836672     1.011173     0.417394 
H      -0.010716     1.466967     0.942350 
H       1.512936     1.826175     0.154863 
H       2.784697     0.540242     2.899003 
C      -0.779354    -2.447973     3.855730 
C      -1.017550    -1.082499     3.878261 
C      -0.243894    -0.261693     3.073353 
C       0.747000    -0.797210     2.248821 
C       0.969575    -2.171435     2.264728 
C       0.205880    -3.011075     3.065630 
H      -1.791601    -0.681975     4.520123 
H      -0.404175     0.811283     3.099863 
H       1.749017    -2.598579     1.640463 
H       0.365962    -4.081417     3.082241 
N      -1.603013    -3.332085     4.711099 
O      -2.458628    -2.811019     5.394916 
O      -1.370404    -4.522013     4.673460 
C       1.609140     0.112275     1.388066 
O       2.320394     1.035026     2.215524 
H       2.313404    -0.499632     0.813313 
O       2.054071    -0.119950    -1.627943 
H       1.563230    -0.289259    -2.655358 
H       2.645736     0.634612    -1.720198 
43
     -1145.193107     -1144.898161   3.39   4.11
C      -0.336667    -2.241955    -1.624627 
C      -1.568858    -0.361334    -2.550203 
C      -2.483369    -1.578877    -2.584117 
C      -1.500889    -2.748584    -2.505783 
H      -0.415936    -2.635914    -0.609741 
H      -2.079231     0.541436    -2.219967 
H      -1.100838    -0.175944    -3.523854 
H      -3.151599    -1.566446    -1.715558 
H      -3.102552    -1.601459    -3.482754 
H      -1.934073    -3.662173    -2.098690 
H      -1.122000    -2.983350    -3.504710 
N      -0.526038    -0.766808    -1.585481 
C       0.990139    -2.769003    -2.228949 
O       1.238972    -3.937422    -1.980866 
O       1.666479    -1.983785    -2.984068 
C       0.360005     0.072273    -1.060910 
C       1.369148    -0.483225    -0.090476 
H       0.849312    -0.827892     0.808247 
H       1.921869    -1.320802    -0.511753 
H       2.070933     0.294230     0.211651 
C      -0.032382     1.523539    -0.889181 
H      -0.518024     1.887556    -1.793528 
H       0.883014     2.102035    -0.765740 
H      -1.953424     0.116701     0.084384 
C       1.012589     1.408559     4.106103 
C       1.486638     2.325117     3.180749 
C       0.830462     2.436693     1.965722 
C      -0.277876     1.640883     1.669153 
C      -0.737895     0.743388     2.628631 
C      -0.093851     0.618657     3.853441 
H       2.348717     2.934696     3.418778 
H       1.187166     3.165772     1.243607 
H      -1.618151     0.143808     2.430697 
H      -0.442046    -0.077314     4.605850 
N       1.705608     1.279792     5.406592 
O       2.670803     1.989304     5.599072 
O       1.266215     0.472782     6.198546 
C      -0.968611     1.789509     0.316674 
O      -2.169361     1.046557     0.225827 
H      -1.279982     2.835879     0.231989 
O       1.535651     0.394652    -2.621844 
H       1.592135    -0.713419    -2.866361 
H       2.427804     0.671892    -2.386546 
43
     -1145.191199     -1144.897925   4.59   4.26
C      -2.659066     1.349776     1.768883 
C      -1.185495     1.857952    -0.097239 
C      -1.377351     3.132712     0.715357 
C      -2.684250     2.861845     1.460767 
H      -2.318184     1.167758     2.789844 
H      -0.147320     1.697556    -0.387496 
H      -1.806794     1.854205    -1.001100 
H      -0.545627     3.254110     1.417823 
H      -1.421201     4.021245     0.082793 
H      -2.803243     3.446773     2.372515 
H      -3.537016     3.085744     0.812475 
N      -1.652127     0.807347     0.821753 
C      -4.104829     0.807033     1.648536 
O      -4.825919     1.047094     2.602957 
O      -4.449699     0.230464     0.555084 
C      -1.427594    -0.481661     0.643429 
C      -1.869039    -1.438472     1.717892 
H      -1.739166    -2.467778     1.380107 
H      -1.233481    -1.287269     2.595395 
H      -2.909655    -1.290683     2.000332 
C      -0.247543    -0.885462    -0.213717 
H      -0.299260    -0.364213    -1.168053 
H      -0.329448    -1.952066    -0.440834 
H       1.096568    -2.347886     1.413684 
C       4.342171    -1.099085    -2.309639 
C       3.373305    -0.137841    -2.550159 
C       2.339302    -0.000444    -1.639195 
C       2.264690    -0.810942    -0.503731 
C       3.263000    -1.756408    -0.287020 
C       4.307926    -1.909031    -1.190322 
H       3.437856     0.483756    -3.433810 
H       1.583834     0.757868    -1.821946 
H       3.245682    -2.371008     0.604927 
H       5.088874    -2.641568    -1.031581 
N       5.450039    -1.256632    -3.277500 
O       6.285251    -2.103544    -3.040428 
O       5.452806    -0.528548    -4.247861 
C       1.108801    -0.632521     0.476622 
O       1.243486    -1.423817     1.643714 
H       1.141164     0.397844     0.845658 
O      -2.786083    -0.909462    -0.759642 
H      -3.600373    -0.333658    -0.191763 
H      -3.064994    -1.831086    -0.777508 
43
     -1145.191050     -1144.897781   4.68   4.35
C      -2.112730    -1.904896     1.241370 
C      -1.582955    -0.042198     2.714247 
C      -2.533685    -1.016519     3.416648 
C      -2.275864    -2.341997     2.698036 
H      -1.511773    -2.619920     0.676538 
H      -0.621074     0.024284     3.233546 
H      -2.005911     0.962831     2.636063 
H      -2.347059    -1.060996     4.491306 
H      -3.571744    -0.706118     3.265473 
H      -1.349372    -2.801476     3.058394 
H      -3.089456    -3.058292     2.795198 
N      -1.380578    -0.627642     1.372333 
C      -3.494128    -1.802907     0.527226 
O      -4.184109    -2.806177     0.592328 
O      -3.803589    -0.710566    -0.070217 
C      -0.822207     0.021837     0.367607 
C      -0.598573    -0.725946    -0.915092 
H      -0.436881    -0.035833    -1.736388 
H       0.296577    -1.348295    -0.803834 
H      -1.448143    -1.358298    -1.164017 
C       0.104532     1.161531     0.728073 
H       0.929525     0.727388     1.304575 
H      -0.410481     1.841386     1.409168 
H       0.563467     3.832459     0.319011 
C       3.825191     0.165084    -2.655477 
C       2.721340     0.653894    -3.330076 
C       1.706238     1.246813    -2.591243 
C       1.789482     1.341588    -1.205473 
C       2.925319     0.854157    -0.559313 
C       3.949421     0.258641    -1.278326 
H       2.665853     0.569820    -4.407652 
H       0.835848     1.641441    -3.107076 
H       3.025850     0.954981     0.516243 
H       4.835864    -0.125813    -0.790688 
N       4.912472    -0.473074    -3.430230 
O       4.778427    -0.539164    -4.634267 
O       5.869826    -0.891174    -2.813440 
C       0.680464     2.012937    -0.416041 
O       1.259810     3.191787     0.146075 
H      -0.132650     2.276721    -1.100809 
O      -2.304029     1.143584    -0.410465 
H      -3.042082     0.262288    -0.252074 
H      -2.616434     1.851856     0.162742 
43
     -1145.192005     -1144.897679   4.09   4.41
C      -1.651254     1.674619     0.405275 
C      -1.080052    -0.026676    -1.239947 
C      -0.819902     1.341005    -1.858474 
C      -1.699216     2.266938    -1.018354 
H      -0.911597     2.197499     1.015436 
H      -0.269169    -0.727534    -1.425839 
H      -2.021142    -0.463120    -1.596408 
H       0.238310     1.600191    -1.751751 
H      -1.071931     1.363724    -2.920477 
H      -1.376895     3.308025    -1.020987 
H      -2.729477     2.239755    -1.386945 
N      -1.199537     0.275589     0.196562 
C      -3.037501     1.883326     1.063962 
O      -3.246272     3.008700     1.485088 
O      -3.871101     0.906465     1.052469 
C      -1.187469    -0.640019     1.149290 
C      -1.212891    -0.175500     2.584294 
H      -2.069011     0.461923     2.796421 
H      -1.236928    -1.034534     3.256315 
H      -0.303842     0.398115     2.792557 
C      -0.509090    -1.970264     0.908172 
H      -0.692759    -2.321183    -0.109280 
H      -0.959398    -2.696532     1.585922 
H       1.260268    -3.786658     0.516165 
C       3.227789     0.442346    -1.552123 
C       2.855948     0.982615    -0.333255 
C       2.149376     0.184873     0.555463 
C       1.818133    -1.130562     0.237935 
C       2.221107    -1.644814    -0.994452 
C       2.925908    -0.864293    -1.899259 
H       3.115587     2.005865    -0.094145 
H       1.860729     0.596832     1.517584 
H       1.990621    -2.669923    -1.268765 
H       3.239429    -1.252836    -2.859633 
N       3.972320     1.285599    -2.513394 
O       4.223368     2.424799    -2.180496 
O       4.282413     0.785472    -3.573931 
C       1.007268    -1.966238     1.216196 
O       1.478887    -3.300685     1.317726 
H       1.159935    -1.551869     2.216528 
O      -3.030837    -1.347284     0.985215 
H      -3.479260    -0.287394     0.961072 
H      -3.360864    -1.776357     1.782264 
43
     -1145.190803     -1144.895814   4.84   5.58
C      -0.612028    -1.237352    -2.931327 
C      -2.247193     0.381546    -2.139927 
C      -2.749181    -0.200516    -3.456116 
C      -1.465697    -0.715649    -4.105229 
H      -0.731956    -2.316672    -2.817793 
H      -3.029458     0.443580    -1.383484 
H      -1.812583     1.379240    -2.279132 
H      -3.443399    -1.023868    -3.256764 
H      -3.268303     0.543354    -4.063531 
H      -1.625810    -1.494749    -4.850181 
H      -0.939896     0.108181    -4.597998 
N      -1.190400    -0.562119    -1.740903 
C       0.876970    -0.960420    -3.259812 
O       1.381464    -1.742688    -4.049843 
O       1.426353     0.081480    -2.755124 
C      -0.660179    -0.607098    -0.527370 
C       0.301102    -1.722335    -0.225401 
H      -0.279613    -2.636634    -0.067410 
H       1.004087    -1.883208    -1.039140 
H       0.856921    -1.524525     0.686590 
C      -1.515619    -0.036372     0.591714 
H      -2.501587    -0.508508     0.493951 
H      -1.656920     1.029144     0.407107 
H      -2.021813    -1.916316     2.492934 
C       2.616900     1.515160     3.260582 
C       1.638215     2.316107     2.690734 
C       0.445749     1.727754     2.302832 
C       0.233948     0.357358     2.468128 
C       1.233139    -0.417105     3.052166 
C       2.433850     0.158478     3.451457 
H       1.816920     3.375541     2.559702 
H      -0.323767     2.348809     1.855554 
H       1.069902    -1.476840     3.202309 
H       3.218416    -0.432903     3.905607 
N       3.893982     2.134238     3.678235 
O       4.035577     3.320435     3.466196 
O       4.719054     1.417624     4.204328 
C      -1.099208    -0.247002     2.058925 
O      -1.109658    -1.623824     2.412487 
H      -1.863971     0.280657     2.647411 
O       0.606680     0.915230    -0.647961 
H       0.997984     0.586822    -1.666537 
H       1.341028     0.865967    -0.027963 
43
     -1145.189300     -1144.895798   5.78   5.59
C       0.886216    -2.500889     1.714767 
C       0.646136    -0.469069     3.042353 
C       1.742482    -1.333431     3.656105 
C       1.388014    -2.730046     3.151308 
H       1.712710    -2.597203     1.006701 
H       0.941278     0.575606     2.938977 
H      -0.272890    -0.516961     3.641006 
H       2.719912    -1.018914     3.275728 
H       1.762055    -1.260189     4.745046 
H       2.217721    -3.435577     3.166864 
H       0.581313    -3.156329     3.756845 
N       0.427076    -1.087130     1.722481 
C      -0.146410    -3.603822     1.367444 
O       0.340868    -4.708812     1.196940 
O      -1.395345    -3.313016     1.344958 
C      -0.248706    -0.515364     0.740096 
C      -0.155735    -1.119473    -0.631709 
H      -0.039509    -2.199392    -0.609323 
H      -1.039245    -0.879757    -1.215751 
H       0.717011    -0.681296    -1.128867 
C      -0.487380     0.974914     0.848171 
H       0.495090     1.461079     0.837286 
H      -0.926438     1.194978     1.823459 
H      -2.491612     2.863375     0.856192 
C       0.464066     2.273902    -4.018002 
C      -0.713384     1.551009    -3.959469 
C      -1.301593     1.347380    -2.718131 
C      -0.719637     1.849512    -1.558517 
C       0.458719     2.589816    -1.656161 
C       1.061788     2.803799    -2.885165 
H      -1.153714     1.161635    -4.868247 
H      -2.230210     0.787846    -2.656563 
H       0.904139     3.023382    -0.766811 
H       1.976772     3.374621    -2.976545 
N       1.103104     2.495196    -5.334092 
O       2.133855     3.134682    -5.356728 
O       0.556908     2.022655    -6.309041 
C      -1.385457     1.638225    -0.211468 
O      -1.743123     2.940422     0.257140 
H      -2.280318     1.022832    -0.347861 
O      -2.163381    -1.056516     1.033781 
H      -1.823737    -2.154172     1.210245 
H      -2.519409    -0.749506     1.874566 
43
     -1145.193420     -1144.895515   3.20   5.77
C      -1.972483     0.465972    -2.025201 
C      -1.264060     0.447531     0.296683 
C      -2.175112     1.649688     0.029302 
C      -3.006462     1.211826    -1.178024 
H      -2.443337    -0.229487    -2.719801 
H      -1.695502    -0.215080     1.051098 
H      -0.263336     0.735321     0.612662 
H      -2.780806     1.896540     0.902818 
H      -1.577033     2.529361    -0.225054 
H      -3.800689     0.522275    -0.873748 
H      -3.445835     2.037720    -1.734163 
N      -1.202131    -0.268300    -1.002822 
C      -1.153725     1.483412    -2.863995 
O      -1.788968     2.216527    -3.588921 
O       0.138404     1.526076    -2.727881 
C      -0.517320    -1.359049    -1.230319 
C      -0.687088    -2.074663    -2.541864 
H      -0.706515    -1.397123    -3.393757 
H       0.125839    -2.788227    -2.670171 
H      -1.631685    -2.633580    -2.510522 
C      -0.055905    -2.221943    -0.067198 
H      -0.134782    -3.252873    -0.421548 
H      -0.787659    -2.112878     0.738364 
H       2.204672    -1.558955    -1.065357 
C       1.712606     1.369934     3.044784 
C       0.994234     0.273806     3.495953 
C       0.920433    -0.843847     2.679800 
C       1.537329    -0.867353     1.428108 
C       2.267741     0.244037     1.013435 
C       2.356356     1.371254     1.818669 
H       0.514445     0.304989     4.465861 
H       0.370579    -1.715823     3.025980 
H       2.752209     0.243272     0.046164 
H       2.910269     2.245658     1.501771 
N       1.800142     2.570281     3.902918 
O       1.229752     2.537789     4.973958 
O       2.435294     3.515802     3.484838 
C       1.369625    -2.102573     0.552219 
O       2.374845    -2.266462    -0.399753 
H       1.432400    -2.966625     1.224156 
O       1.358027    -0.436483    -1.947004 
H       0.659566     0.674757    -2.288912 
H       1.625656    -0.762495    -2.813532 
43
     -1145.189365     -1144.895235   5.74   5.95
C      -0.967176     1.085384    -2.780473 
C      -0.139784     2.857591    -1.327011 
C      -1.262975     3.421483    -2.189913 
C      -1.280016     2.468475    -3.383564 
H      -1.890018     0.542705    -2.565496 
H      -0.234873     3.136379    -0.277570 
H       0.845737     3.173581    -1.689991 
H      -2.210655     3.377095    -1.642799 
H      -1.081757     4.460169    -2.472413 
H      -2.223615     2.453535    -3.928411 
H      -0.492215     2.742409    -4.092608 
N      -0.282599     1.401178    -1.501085 
C      -0.170491     0.269277    -3.826739 
O      -0.842643    -0.240032    -4.707559 
O       1.110676     0.257984    -3.739396 
C       0.308809     0.505076    -0.731248 
C      -0.095077    -0.934149    -0.885489 
H       0.657555    -1.600020    -0.471667 
H      -1.019496    -1.089868    -0.318041 
H      -0.271331    -1.207129    -1.923161 
C       0.804855     0.993324     0.612169 
H      -0.064341     1.366278     1.165561 
H       1.461261     1.846211     0.432489 
H       2.856706     1.313538     2.220903 
C      -0.808743    -2.999402     3.400691 
C      -1.156153    -1.668046     3.567138 
C      -0.382308    -0.698545     2.949399 
C       0.718015    -1.054329     2.169608 
C       1.048481    -2.399679     2.039090 
C       0.286200    -3.386508     2.649889 
H      -2.013944    -1.407844     4.173686 
H      -0.631473     0.347164     3.095127 
H       1.917150    -2.687735     1.454146 
H       0.530480    -4.436305     2.552140 
N      -1.632674    -4.040970     4.053780 
O      -1.303906    -5.197647     3.892840 
O      -2.585524    -3.673325     4.708344 
C       1.573180     0.011979     1.510873 
O       2.167510     0.745197     2.580130 
H       2.355236    -0.482406     0.921877 
O       2.134336     0.429650    -1.572225 
H       1.674284     0.410089    -2.641294 
H       2.593315    -0.411811    -1.481724 
43
     -1145.187820     -1144.894103   6.71   6.66
C      -2.246892    -2.092357    -1.932619 
C      -2.191095     0.296544    -1.460011 
C      -3.077310     0.016487    -2.676386 
C      -3.517381    -1.432642    -2.468987 
H      -2.481986    -2.968531    -1.324363 
H      -2.757109     0.719599    -0.626920 
H      -1.374407     0.980477    -1.693843 
H      -3.910585     0.718888    -2.739289 
H      -2.493511     0.099509    -3.598546 
H      -4.313774    -1.489067    -1.719414 
H      -3.849298    -1.925565    -3.380584 
N      -1.668988    -1.033601    -1.075989 
C      -1.325590    -2.588845    -3.087722 
O      -1.883051    -3.219721    -3.968426 
O      -0.065578    -2.341763    -3.027310 
C      -0.710868    -1.238531    -0.198778 
C      -0.412656    -2.660152     0.202470 
H      -1.207915    -2.998636     0.878328 
H      -0.364499    -3.332809    -0.651532 
H       0.538354    -2.702074     0.728998 
C      -0.397473    -0.216782     0.880842 
H       0.343983    -0.686638     1.524008 
H      -1.309868    -0.103551     1.479135 
H      -0.706232     2.985146     0.455374 
C       3.507338     2.114093     2.950140 
C       2.287701     2.667625     3.295015 
C       1.179317     2.381444     2.507627 
C       1.300115     1.558934     1.391331 
C       2.542796     1.007608     1.074899 
C       3.656634     1.281285     1.852225 
H       2.213638     3.306226     4.165892 
H       0.212457     2.793609     2.772683 
H       2.634934     0.341209     0.222371 
H       4.627244     0.861407     1.622027 
N       4.691483     2.414200     3.785330 
O       5.746902     1.911438     3.461471 
O       4.533273     3.143950     4.741343 
C       0.096713     1.203465     0.529929 
O      -0.987171     2.101936     0.717886 
H       0.420894     1.233713    -0.514775 
O       1.024274    -1.109464    -1.268753 
H       0.493054    -1.731453    -2.126416 
H       1.202131    -0.266611    -1.698659 
43
     -1145.186315     -1144.891314   7.66   8.41
C      -0.924321    -2.737668    -1.514984 
C      -1.118480    -0.639449    -2.727575 
C      -1.011650    -1.810343    -3.710424 
C      -1.521233    -3.002502    -2.898260 
H      -1.498993    -3.232264    -0.730066 
H      -2.069361    -0.108474    -2.840653 
H      -0.301417     0.076902    -2.849193 
H      -1.585382    -1.627939    -4.621106 
H       0.032313    -1.971604    -3.993689 
H      -2.615131    -2.994282    -2.844734 
H      -1.190463    -3.966067    -3.281426 
N      -1.058641    -1.270524    -1.392058 
C       0.536197    -3.276055    -1.433858 
O       0.660293    -4.463318    -1.687484 
O       1.473676    -2.460385    -1.125015 
C      -0.892012    -0.586747    -0.273108 
C      -0.912151    -1.356143     1.018830 
H      -0.316333    -2.263694     0.944247 
H      -0.486872    -0.758484     1.822223 
H      -1.945780    -1.637408     1.254510 
C      -1.367103     0.855744    -0.307582 
H      -2.410432     0.814178    -0.641971 
H      -0.818418     1.389403    -1.085862 
H      -2.135285     0.374807     2.184783 
C       2.501048     2.592603     2.587521 
C       2.187462     3.006018     1.300678 
C       0.929313     2.713666     0.803494 
C      -0.003080     2.006096     1.565520 
C       0.335992     1.629315     2.860118 
C       1.592987     1.915854     3.379513 
H       2.919037     3.548831     0.715884 
H       0.667222     3.054708    -0.194907 
H      -0.387426     1.122308     3.487859 
H       1.868077     1.624398     4.385110 
N       3.840466     2.901000     3.132291 
O       4.612249     3.501994     2.414176 
O       4.084566     2.533988     4.262553 
C      -1.375999     1.719978     0.969743 
O      -2.332347     1.276026     1.914945 
H      -1.769044     2.688185     0.640499 
O       1.070726    -0.289789    -0.150876 
H       1.299633    -1.295112    -0.629748 
H       1.436100     0.402249    -0.709919 
43
     -1145.183873     -1144.888863   9.19   9.94
C       2.792792    -0.290110     1.633802 
C       2.360630    -1.971107    -0.070752 
C       3.644159    -2.348124     0.659712 
C       4.098172    -1.012488     1.245184 
H       2.572543    -0.444073     2.692487 
H       1.698925    -2.822924    -0.225378 
H       2.582261    -1.513412    -1.043948 
H       3.419402    -3.067610     1.454073 
H       4.381047    -2.797446    -0.008695 
H       4.763998    -1.105715     2.102415 
H       4.624879    -0.428627     0.483864 
N       1.749799    -0.974089     0.824265 
C       2.992347     1.232169     1.413683 
O       3.720187     1.766921     2.235082 
O       2.457913     1.782392     0.388795 
C       0.481589    -0.597328     0.765992 
C      -0.036223     0.274083     1.877864 
H       0.674687     1.047153     2.157761 
H      -0.953313     0.773123     1.570974 
H      -0.217709    -0.355376     2.757720 
C      -0.471181    -1.560741     0.077338 
H      -0.342980    -2.523538     0.585834 
H      -0.138124    -1.706596    -0.952581 
H      -2.196152    -0.798662     1.956901 
C      -3.256394     2.163397    -2.111319 
C      -2.580714     1.147544    -2.772289 
C      -2.187135     0.037460    -2.045938 
C      -2.444278    -0.059429    -0.676755 
C      -3.145679     0.965414    -0.051830 
C      -3.553316     2.087403    -0.763794 
H      -2.379496     1.235151    -3.832285 
H      -1.677392    -0.772845    -2.561061 
H      -3.399751     0.891775     0.999117 
H      -4.096945     2.892410    -0.286026 
N      -3.685068     3.353905    -2.875794 
O      -4.279512     4.223415    -2.273671 
O      -3.415210     3.387244    -4.058469 
C      -1.993909    -1.308441     0.070174 
O      -2.569531    -1.449382     1.356107 
H      -2.403829    -2.156774    -0.489123 
O       0.436099     0.875951    -0.558998 
H       1.406490     1.319959    -0.176590 
H       0.565926     0.607969    -1.473842 
