43
     -1145.140677     -1144.844114   0.00   0.00
C       2.130781    -1.091978    -0.106929 
C       1.629633    -3.313897    -0.867864 
C       3.070775    -3.336809    -0.381392 
C       3.446417    -1.851625    -0.391846 
H       2.161702    -0.636145     0.882833 
H       1.081629    -4.227344    -0.622725 
H       1.580107    -3.126054    -1.944612 
H       3.115466    -3.748224     0.634082 
H       3.712703    -3.944543    -1.022880 
H       4.218034    -1.600805     0.338090 
H       3.816048    -1.568131    -1.380221 
N       1.076050    -2.155680    -0.124412 
C       1.891446    -0.006611    -1.195741 
O       2.161729     1.157850    -0.848865 
O       1.446273    -0.448581    -2.276622 
C      -0.341834    -1.836154    -0.311634 
C      -1.030606    -2.553419    -1.450101 
H      -0.633322    -2.139778    -2.380188 
H      -0.863496    -3.629467    -1.426135 
H      -2.104983    -2.369022    -1.401973 
C      -0.832111    -0.390837    -0.226894 
H      -1.924578    -0.445636    -0.281605 
H      -0.489208     0.116090    -1.129091 
H      -0.726369     0.210229     2.952830 
C      -2.186289     4.341248     0.454664 
C      -0.908167     4.087482    -0.014833 
C      -0.362535     2.827742     0.183564 
C      -1.100997     1.844282     0.841251 
C      -2.386461     2.123117     1.299902 
C      -2.939501     3.382153     1.110264 
H      -0.356861     4.865633    -0.526335 
H       0.631711     2.587933    -0.185713 
H      -2.962470     1.355802     1.806066 
H      -3.935568     3.622974     1.458620 
N      -2.771023     5.685712     0.245528 
O      -3.892431     5.881595     0.666397 
O      -2.093690     6.508619    -0.333457 
C      -0.489822     0.465740     0.994216 
O      -1.017812    -0.227891     2.146548 
H       0.589213     0.587209     1.087852 
O      -0.759952    -2.551686     1.022492 
H       0.366607    -2.615224     1.041764 
H      -1.016236    -1.835869     1.665101 
43
     -1145.140757     -1144.843378  -0.05   0.46
C       2.201750     0.334956     0.912160 
C       3.578994    -0.792091    -0.714808 
C       4.416009     0.292571    -0.013522 
C       3.661522     0.587174     1.286641 
H       1.609627     0.125577     1.804468 
H       4.080951    -1.764846    -0.711317 
H       3.362007    -0.498519    -1.740951 
H       5.441492    -0.039108     0.165266 
H       4.443935     1.186203    -0.637947 
H       3.969253    -0.099882     2.084362 
H       3.803235     1.609511     1.639568 
N       2.318280    -0.891703     0.076552 
C       1.589099     1.543986     0.139399 
O       0.969997     2.348390     0.862455 
O       1.776278     1.543441    -1.095188 
C       1.127475    -1.482237    -0.535596 
C       1.385093    -2.148602    -1.870337 
H       1.459569    -1.379967    -2.642486 
H       2.299966    -2.741711    -1.859496 
H       0.548064    -2.807103    -2.107538 
C      -0.206344    -0.735069    -0.561641 
H      -0.902319    -1.375907    -1.112719 
H      -0.041779     0.166488    -1.155998 
H      -1.384777    -1.334970     2.398668 
C      -4.571698     1.597239    -0.189597 
C      -4.572907     0.217415    -0.070513 
C      -3.382023    -0.419097     0.249907 
C      -2.220994     0.324038     0.448800 
C      -2.246373     1.712922     0.326698 
C      -3.430530     2.358506     0.001961 
H      -5.488854    -0.336997    -0.229126 
H      -3.358384    -1.499790     0.345036 
H      -1.329433     2.277122     0.480469 
H      -3.476348     3.434709    -0.102024 
N      -5.838035     2.282963    -0.535327 
O      -5.812412     3.491367    -0.636864 
O      -6.823765     1.593450    -0.695984 
C      -0.894784    -0.340575     0.749404 
O      -1.058432    -1.555047     1.519683 
H      -0.293507     0.377460     1.304989 
O       1.045237    -2.639162     0.501271 
H       1.975578    -2.085269     0.821100 
H       0.270287    -2.437834     1.100121 
43
     -1145.140757     -1144.843377  -0.05   0.46
C       2.059551     0.201341     1.228681 
C       3.686704     0.229627    -0.550542 
C       4.267299     0.961705     0.672509 
C       3.426659     0.471407     1.855471 
H       1.491787    -0.502000     1.839926 
H       4.371913    -0.531259    -0.937540 
H       3.449680     0.941085    -1.340406 
H       5.331801     0.752954     0.802302 
H       4.137366     2.036847     0.544235 
H       3.838472    -0.455338     2.273392 
H       3.350202     1.206350     2.657858 
N       2.445591    -0.436959    -0.059750 
C       1.244326     1.517823     1.037528 
O       1.468626     2.140009    -0.021630 
O       0.453849     1.765939     1.968520 
C       1.417145    -0.841915    -1.018801 
C       1.846307    -0.734754    -2.466654 
H       1.165483    -1.322087    -3.084737 
H       1.791732     0.310913    -2.776755 
H       2.860094    -1.105960    -2.619394 
C      -0.037140    -0.397194    -0.859758 
H      -0.572946    -0.796108    -1.727237 
H      -0.035828     0.692092    -0.941015 
H      -1.169778    -2.523799     1.309733 
C      -4.789381     0.741173     0.008990 
C      -4.519731    -0.506430    -0.528481 
C      -3.237212    -1.019804    -0.395774 
C      -2.254649    -0.289499     0.268323 
C      -2.552044     0.963136     0.804059 
C      -3.829640     1.487479     0.672622 
H      -5.301172    -1.054278    -1.039072 
H      -3.002002    -1.993920    -0.812041 
H      -1.771421     1.521911     1.315082 
H      -4.085385     2.458446     1.076286 
N      -6.154763     1.297142    -0.132384 
O      -6.977583     0.622623    -0.716245 
O      -6.366940     2.392347     0.343759 
C      -0.833339    -0.796059     0.387394 
O      -0.777259    -2.239597     0.477443 
H      -0.405805    -0.347787     1.282967 
O       1.532676    -2.350875    -0.658210 
H       2.322984    -1.878605    -0.004760 
H       0.713775    -2.588125    -0.135894 
43
     -1145.135593     -1144.838555   3.19   3.49
C       2.136108     1.358424     0.578827 
C       2.773017    -0.644733     1.802594 
C       4.002200    -0.085344     1.061283 
C       3.654710     1.381020     0.769606 
H       1.690026     2.340870     0.754099 
H       2.975686    -0.817224     2.862962 
H       2.420155    -1.570844     1.348216 
H       4.911185    -0.183007     1.658729 
H       4.139010    -0.627205     0.125808 
H       3.917146     2.024165     1.618428 
H       4.157288     1.767436    -0.118105 
N       1.737007     0.416369     1.670502 
C       1.761805     0.918606    -0.863983 
O       1.848048    -0.318138    -1.102844 
O       1.439548     1.841182    -1.616316 
C       0.347672     0.139437     1.939172 
C       0.122891    -1.015164     2.880040 
H      -0.907863    -0.993639     3.238502 
H       0.293363    -1.946435     2.339104 
H       0.791227    -0.959676     3.740573 
C      -0.701840     0.311687     0.862096 
H      -0.381799     1.034629     0.109396 
H      -1.605914     0.710755     1.335713 
H       0.718225    -1.335932    -0.548527 
C      -3.504678    -0.195961    -3.236074 
C      -2.137717     0.021386    -3.313312 
C      -1.350184    -0.262917    -2.209112 
C      -1.931101    -0.758342    -1.040527 
C      -3.306609    -0.967950    -0.994736 
C      -4.108776    -0.688948    -2.092927 
H      -1.703784     0.410115    -4.225351 
H      -0.280675    -0.087686    -2.261560 
H      -3.762556    -1.364889    -0.091772 
H      -5.179266    -0.848409    -2.072179 
N      -4.345912     0.108652    -4.413649 
O      -5.539844    -0.092049    -4.318373 
O      -3.794246     0.540819    -5.404189 
C      -1.083196    -1.038927     0.192225 
O       0.029463    -1.852417    -0.050751 
H      -1.710924    -1.592025     0.900327 
O       0.242492     1.425108     2.969193 
H       1.354844     1.299551     2.703260 
H      -0.126231     2.197649     2.513629 
43
     -1145.135593     -1144.838553   3.19   3.49
C       1.744791     0.836888     1.731646 
C       3.332783     0.491012    -0.077927 
C       3.670153     1.803262     0.655238 
C       2.990264     1.676806     2.025570 
H       1.373521     0.333433     2.628084 
H       4.202805    -0.164787    -0.168470 
H       2.921252     0.682071    -1.069285 
H       4.748924     1.949848     0.741823 
H       3.246132     2.644179     0.107052 
H       3.637277     1.152254     2.739172 
H       2.721361     2.642279     2.456251 
N       2.311476    -0.169612     0.780683 
C       0.594745     1.721036     1.174042 
O       0.698324     2.060027    -0.037727 
O      -0.281361     2.004149     1.994584 
C       1.502083    -1.251893     0.278012 
C       2.132959    -2.013603    -0.858059 
H       3.181161    -2.234851    -0.651680 
H       1.600488    -2.955641    -1.001069 
H       2.053213    -1.416875    -1.767176 
C      -0.005851    -1.133285     0.220526 
H      -0.374968    -0.416274     0.956241 
H      -0.429035    -2.111390     0.475760 
H       0.384910     0.991597    -1.212431 
C      -4.677873     0.187297    -0.935806 
C      -3.750561     1.115228    -0.487672 
C      -2.401159     0.815268    -0.584796 
C      -1.989552    -0.404387    -1.124723 
C      -2.944959    -1.314731    -1.568035 
C      -4.300431    -1.028379    -1.478418 
H      -4.086537     2.054325    -0.067623 
H      -1.671239     1.534818    -0.228747 
H      -2.629914    -2.260580    -2.000365 
H      -5.054283    -1.725903    -1.820434 
N      -6.118181     0.506184    -0.831070 
O      -6.908226    -0.324449    -1.231957 
O      -6.425132     1.577503    -0.351144 
C      -0.512065    -0.762649    -1.202393 
O       0.281825     0.210800    -1.819603 
H      -0.426799    -1.659790    -1.826282 
O       1.893583    -2.205313     1.567458 
H       2.563368    -1.271633     1.626114 
H       1.200723    -2.164240     2.244639 
43
     -1145.135874     -1144.838548   3.01   3.49
C       0.223202     0.666768    -2.050985 
C      -0.414192    -1.089952    -3.535279 
C       0.558856    -0.221882    -4.320605 
C       0.619683     1.071018    -3.491841 
H       1.031029     0.876680    -1.351079 
H      -0.319616    -2.156454    -3.758957 
H      -1.447324    -0.763136    -3.682593 
H       1.541384    -0.706755    -4.361040 
H       0.222185    -0.054459    -5.345877 
H       1.606303     1.537613    -3.520721 
H      -0.100729     1.799828    -3.869640 
N       0.000986    -0.811664    -2.138036 
C      -1.058550     1.436123    -1.609718 
O      -2.136951     0.927961    -1.985922 
O      -0.844170     2.456911    -0.931489 
C      -0.704108    -1.529316    -1.075225 
C      -2.045097    -2.133741    -1.411619 
H      -2.745180    -1.306712    -1.551590 
H      -2.003386    -2.735055    -2.319689 
H      -2.375175    -2.770039    -0.587740 
C      -0.693393    -0.863043     0.301321 
H      -1.327738    -1.463047     0.963260 
H      -1.188874     0.101222     0.206910 
H       0.626850    -2.401382     2.010160 
C       0.570116     1.962075     4.313287 
C       1.048742     0.681300     4.513745 
C       1.082718    -0.189953     3.431900 
C       0.636732     0.217455     2.176778 
C       0.175985     1.525900     1.998405 
C       0.138685     2.401253     3.072228 
H       1.390893     0.378582     5.494924 
H       1.489272    -1.183800     3.581688 
H      -0.151407     1.880472     1.021936 
H      -0.218521     3.415835     2.953755 
N       0.527474     2.897343     5.460478 
O       0.916534     2.485609     6.533800 
O       0.106284     4.016121     5.256680 
C       0.675666    -0.715953     0.978735 
O       1.179204    -2.028627     1.311735 
H       1.412515    -0.327514     0.270296 
O       0.355188    -2.679398    -1.061960 
H       0.844763    -1.903045    -1.724722 
H       0.793167    -2.701141    -0.165690 
43
     -1145.135874     -1144.838544   3.01   3.50
C       1.392202     1.653383     0.170360 
C       1.289044     2.990402    -1.803775 
C       2.680028     3.215411    -1.227894 
C       2.555868     2.673851     0.205088 
H       1.736869     0.659510     0.453089 
H       1.270549     2.978791    -2.897359 
H       0.576178     3.726358    -1.421593 
H       3.417572     2.640612    -1.800374 
H       2.971521     4.267302    -1.261301 
H       3.481583     2.215165     0.558106 
H       2.303247     3.480635     0.896589 
N       0.957233     1.649064    -1.262645 
C       0.254101     2.102042     1.136250 
O      -0.543890     2.939076     0.661600 
O       0.281308     1.562880     2.257198 
C      -0.326953     1.067968    -1.656274 
C      -1.382551     2.004400    -2.190641 
H      -1.723132     2.617519    -1.352922 
H      -0.993260     2.647489    -2.979818 
H      -2.214796     1.423561    -2.593877 
C      -0.905038     0.019282    -0.704965 
H      -1.897193    -0.255348    -1.080157 
H      -1.072513     0.500315     0.256691 
H      -1.014854    -2.322614    -1.943158 
C      -1.392248    -3.599328     2.808150 
C      -1.357704    -4.200822     1.564501 
C      -0.938003    -3.446787     0.475507 
C      -0.568607    -2.113162     0.634274 
C      -0.594358    -1.535994     1.907989 
C      -1.011788    -2.281043     2.999494 
H      -1.648691    -5.237662     1.456303 
H      -0.879072    -3.928212    -0.494138 
H      -0.283211    -0.504215     2.066157 
H      -1.042087    -1.849856     3.991545 
N      -1.840492    -4.393725     3.974599 
O      -1.858208    -3.842993     5.054868 
O      -2.162738    -5.546929     3.776638 
C      -0.096439    -1.274640    -0.541316 
O      -0.117075    -2.003208    -1.788840 
H       0.962505    -1.046831    -0.391463 
O       0.312627     0.317176    -2.869624 
H       1.220699     0.696173    -2.309776 
H       0.201768    -0.664998    -2.733093 
43
     -1145.136360     -1144.838082   2.71   3.79
C      -0.013865     1.890325    -1.576730 
C       2.122183     2.074508    -0.487559 
C       1.491246     3.456874    -0.455184 
C       0.456260     3.358824    -1.581034 
H      -1.017805     1.797560    -1.174239 
H       2.679345     1.823414     0.420158 
H       2.771671     1.970775    -1.361952 
H       1.010085     3.630485     0.514812 
H       2.226676     4.247951    -0.617465 
H      -0.385202     4.041524    -1.449623 
H       0.929987     3.581059    -2.540060 
N       0.930631     1.195859    -0.631444 
C       0.070995     1.252316    -2.989231 
O       1.216233     1.172501    -3.465030 
O      -1.014691     0.839027    -3.470905 
C       1.195418    -0.240558    -0.712153 
C       2.590912    -0.642689    -1.138991 
H       2.714027    -1.722373    -1.037907 
H       2.699212    -0.357187    -2.188841 
H       3.359442    -0.149237    -0.545215 
C       0.164793    -1.185723    -1.334612 
H       0.577902    -2.185424    -1.164285 
H       0.213364    -1.031073    -2.414117 
H      -1.842949     0.154717    -2.195942 
C      -1.762944    -1.988184     3.274008 
C      -2.239009    -0.800225     2.745798 
C      -2.117365    -0.578054     1.380284 
C      -1.524537    -1.533270     0.554029 
C      -1.069590    -2.730065     1.118575 
C      -1.181033    -2.965106     2.481806 
H      -2.695259    -0.066227     3.397792 
H      -2.488619     0.338051     0.938033 
H      -0.632909    -3.496521     0.483589 
H      -0.828904    -3.885755     2.928858 
N      -1.885321    -2.228175     4.729147 
O      -1.441774    -3.271036     5.161401 
O      -2.417674    -1.366413     5.395205 
C      -1.337077    -1.269237    -0.932880 
O      -2.124367    -0.183128    -1.297630 
H      -1.676278    -2.178267    -1.457026 
O       1.130626    -0.382078     0.861295 
H       0.691958     0.640124     0.689803 
H       0.454211    -1.029885     1.145462 
43
     -1145.132446     -1144.836761   5.16   4.62
C       2.295297     1.435835    -1.713274 
C       0.387776     2.866337    -1.559623 
C       1.286704     3.486544    -2.620171 
C       2.634439     2.791861    -2.377904 
H       2.609092     0.603502    -2.344328 
H      -0.677433     2.967310    -1.785424 
H       0.599066     3.278639    -0.568086 
H       0.898582     3.252665    -3.618779 
H       1.343823     4.573202    -2.525622 
H       3.208014     2.656248    -3.296684 
H       3.249556     3.381761    -1.694357 
N       0.800661     1.445697    -1.610066 
C       3.000275     1.331107    -0.325086 
O       4.160202     0.906434    -0.372496 
O       2.304598     1.704801     0.652616 
C       0.106034     0.508504    -0.733726 
C      -0.701011     1.096294     0.395303 
H      -1.393588     1.857957     0.037623 
H      -1.270464     0.322902     0.905544 
H       0.016010     1.540394     1.088311 
C       0.929565    -0.727424    -0.371682 
H       1.455559    -0.477500     0.550977 
H       1.695237    -0.891414    -1.132365 
H      -0.748371    -3.304987    -1.419800 
C      -2.471667    -2.280266     3.133782 
C      -3.007496    -2.272135     1.859454 
C      -2.142577    -2.204457     0.773691 
C      -0.764616    -2.149877     0.966937 
C      -0.257268    -2.160527     2.266877 
C      -1.105740    -2.222287     3.360296 
H      -4.080788    -2.312731     1.725382 
H      -2.557356    -2.173251    -0.227913 
H       0.815976    -2.114020     2.428957 
H      -0.726513    -2.227609     4.373908 
N      -3.387931    -2.350127     4.295391 
O      -2.888173    -2.355254     5.400204 
O      -4.577826    -2.397318     4.066282 
C       0.216140    -2.073819    -0.189975 
O      -0.382509    -2.415372    -1.451330 
H       1.020409    -2.790789     0.013489 
O      -0.901346     0.092013    -1.884975 
H      -0.137263     0.685867    -2.439842 
H      -0.853084    -0.884715    -2.031508 
43
     -1145.132447     -1144.836757   5.16   4.62
C       2.723781    -0.985617     1.369460 
C       3.201843     0.689836    -0.265427 
C       4.545232     0.077253     0.105436 
C       4.236525    -0.661530     1.415617 
H       2.556151    -2.063289     1.369769 
H       3.127800     0.957008    -1.323249 
H       2.977223     1.562455     0.355752 
H       4.861532    -0.624493    -0.675628 
H       5.325055     0.834014     0.215973 
H       4.836915    -1.564655     1.539850 
H       4.438418    -0.015982     2.273575 
N       2.269193    -0.412018     0.062170 
C       2.003654    -0.346525     2.597471 
O       1.515107     0.793028     2.391912 
O       2.021935    -1.042494     3.618901 
C       0.851144    -0.199989    -0.207972 
C       0.404198     1.219544    -0.446072 
H       0.517640     1.742282     0.505495 
H       1.007946     1.705817    -1.212073 
H      -0.637740     1.248779    -0.756343 
C      -0.078600    -1.037401     0.670167 
H      -0.300684    -0.422311     1.543538 
H       0.457329    -1.915523     1.035489 
H      -1.848434    -2.879209    -1.338158 
C      -4.258168     1.455022    -0.938280 
C      -3.633066     0.773664    -1.965943 
C      -2.701235    -0.206351    -1.645304 
C      -2.407152    -0.497509    -0.315699 
C      -3.057086     0.209052     0.697074 
C      -3.984631     1.192670     0.394676 
H      -3.870519     1.012861    -2.994524 
H      -2.189470    -0.727754    -2.446840 
H      -2.831933    -0.007259     1.737652 
H      -4.493540     1.750994     1.169621 
N      -5.250746     2.502144    -1.273070 
O      -5.467509     2.711287    -2.447735 
O      -5.781831     3.082419    -0.350235 
C      -1.395436    -1.558799     0.079517 
O      -1.059473    -2.439799    -1.005399 
H      -1.843543    -2.157415     0.881482 
O       0.954804    -0.919096    -1.617174 
H       1.939902    -1.160789    -1.152936 
H       0.317463    -1.674318    -1.652538 
43
     -1145.132446     -1144.836753   5.16   4.62
C       1.892132     1.960987    -1.685582 
C       0.937694     3.145204     0.156999 
C       1.560763     4.206073    -0.739573 
C       2.491611     3.387377    -1.645632 
H       1.585086     1.695760    -2.697934 
H       0.005701     3.471725     0.626700 
H       1.642544     2.807525     0.923120 
H       0.778493     4.702175    -1.326506 
H       2.088598     4.970621    -0.165216 
H       2.583376     3.812417    -2.646861 
H       3.495984     3.341839    -1.218146 
N       0.682320     2.050732    -0.806408 
C       2.941761     0.926675    -1.172240 
O       3.721799     0.517824    -2.039653 
O       2.866151     0.657891     0.053138 
C       0.033558     0.844777    -0.302879 
C       0.007280     0.654673     1.192013 
H       1.040453     0.481859     1.499083 
H      -0.389937     1.533231     1.700032 
H      -0.601771    -0.205358     1.460635 
C       0.347225    -0.412268    -1.114223 
H       1.223271    -0.861715    -0.644143 
H       0.646791    -0.128978    -2.125052 
H      -2.493585    -1.546810    -2.209953 
C      -1.875405    -3.492634     2.326554 
C      -2.779875    -2.620057     1.750677 
C      -2.418877    -1.963042     0.580395 
C      -1.172836    -2.183089    -0.001053 
C      -0.284033    -3.071052     0.606318 
C      -0.626069    -3.730091     1.775921 
H      -3.743698    -2.457687     2.215713 
H      -3.114278    -1.258924     0.136703 
H       0.692261    -3.246762     0.163303 
H       0.054481    -4.418555     2.259781 
N      -2.252986    -4.194516     3.574979 
O      -1.438561    -4.953094     4.056292 
O      -3.351404    -3.964858     4.034651 
C      -0.736972    -1.485845    -1.277745 
O      -1.833334    -0.883440    -1.985708 
H      -0.283774    -2.243721    -1.927757 
O      -1.397230     1.359619    -0.751916 
H      -0.714777     2.091628    -1.244610 
H      -1.809934     0.701892    -1.364219 
43
     -1145.132046     -1144.836172   5.42   4.98
C       3.058676    -0.193320     0.792499 
C       2.884792     0.677928    -1.430667 
C       4.362929     0.394439    -1.204570 
C       4.454614     0.280437     0.323105 
H       3.112292    -1.189703     1.233234 
H       2.553628     0.463333    -2.450752 
H       2.634808     1.710233    -1.166617 
H       4.638635    -0.551072    -1.686917 
H       5.000394     1.182029    -1.612443 
H       5.240534    -0.402470     0.650595 
H       4.666664     1.258895     0.761114 
N       2.251197    -0.253065    -0.469640 
C       2.478869     0.809280     1.837873 
O       1.820882     1.759490     1.344931 
O       2.748660     0.542065     3.014697 
C       0.790805    -0.280833    -0.421563 
C       0.053538     0.882769    -1.032687 
H       0.418535     1.099364    -2.036402 
H      -1.011790     0.669561    -1.093151 
H       0.223513     1.742699    -0.382299 
C       0.243377    -0.783097     0.913556 
H       0.163496     0.090879     1.560609 
H       0.981755    -1.442584     1.377075 
H      -0.877391    -3.495876     0.615482 
C      -4.517145     0.833451    -0.037014 
C      -4.259685    -0.286006    -0.805813 
C      -3.147384    -1.063023    -0.504191 
C      -2.311012    -0.717021     0.552558 
C      -2.601936     0.416328     1.314938 
C      -3.704368     1.202015     1.023565 
H      -4.919585    -0.540626    -1.625073 
H      -2.932572    -1.942791    -1.097802 
H      -1.958368     0.697482     2.143203 
H      -3.939888     2.085948     1.601777 
N      -5.699472     1.665523    -0.354742 
O      -6.393940     1.319224    -1.286889 
O      -5.898132     2.641415     0.337803 
C      -1.091564    -1.543081     0.919239 
O      -1.005031    -2.712346     0.073939 
H      -1.227839    -1.877428     1.953538 
O       0.721885    -1.481964    -1.435336 
H       1.810064    -1.456354    -1.173411 
H       0.182560    -2.212134    -1.037348 
43
     -1145.126222     -1144.834815   9.07   5.84
C       2.426981     0.307843     1.609956 
C       2.887128    -1.421443     0.058266 
C       3.566488    -1.862768     1.352331 
C       3.428765    -0.647890     2.293964 
H       1.667933     0.648730     2.313903 
H       2.478022    -2.259274    -0.512498 
H       3.557927    -0.830870    -0.571876 
H       3.047202    -2.733957     1.766937 
H       4.605603    -2.148227     1.176862 
H       3.078151    -0.952470     3.283300 
H       4.377030    -0.127212     2.431244 
N       1.798027    -0.548773     0.557873 
C       3.156034     1.559682     1.017779 
O       3.254738     1.592965    -0.235352 
O       3.539786     2.361844     1.874418 
C       0.882632     0.019449    -0.407076 
C       1.243938    -0.048503    -1.865757 
H       2.046556     0.674294    -2.024966 
H       1.584228    -1.043051    -2.151028 
H       0.381714     0.205541    -2.482135 
C       0.239376     1.313163     0.053663 
H       1.045732     2.050350     0.007870 
H      -0.065957     1.228054     1.100807 
H      -0.574032     3.673697    -0.098983 
C      -4.327663    -0.752533    -0.635449 
C      -3.673477    -0.562091    -1.839558 
C      -2.588123     0.304501    -1.874100 
C      -2.164470     0.964647    -0.723588 
C      -2.856547     0.760434     0.474397 
C      -3.942327    -0.101563     0.526528 
H      -4.012198    -1.083280    -2.725542 
H      -2.070944     0.470532    -2.813915 
H      -2.554972     1.300389     1.365537 
H      -4.490007    -0.268410     1.445207 
N      -5.484040    -1.676636    -0.586290 
O      -5.816262    -2.210097    -1.623032 
O      -6.020470    -1.840904     0.488572 
C      -0.951427     1.871380    -0.746391 
O      -1.347333     3.100857    -0.152476 
H      -0.655964     2.037317    -1.789631 
O      -0.187449    -1.175049    -0.146244 
H       0.553100    -1.305244     0.679532 
H      -1.063433    -0.845428     0.126935 
43
     -1145.130187     -1144.833917   6.58   6.40
C       2.955616    -0.661103    -0.358129 
C       2.666613     0.366890     1.818011 
C       3.936262    -0.504107     1.847859 
C       4.291274    -0.753834     0.375240 
H       3.088220    -0.391679    -1.406883 
H       2.843179     1.377100     2.199552 
H       1.865242    -0.105308     2.383833 
H       4.749463    -0.011380     2.385599 
H       3.710452    -1.447249     2.343835 
H       4.975266     0.016982     0.000357 
H       4.759472    -1.726175     0.214823 
N       2.290723     0.456538     0.376366 
C       2.105997    -1.958490    -0.251617 
O       1.649299    -2.195228     0.883177 
O       1.938550    -2.570101    -1.328445 
C       0.974111     0.895415    -0.002352 
C       0.073129     1.340399     1.112088 
H      -0.243385     0.458272     1.671110 
H       0.578128     2.027940     1.790655 
H      -0.812846     1.823841     0.699216 
C       0.287305     0.241954    -1.181936 
H       1.023112    -0.136140    -1.892109 
H      -0.292285     1.021212    -1.687611 
H       0.190727    -2.310788    -1.897348 
C      -4.696444     0.405264    -0.294640 
C      -4.022385    -0.144536     0.780382 
C      -2.720061    -0.587621     0.586466 
C      -2.103207    -0.474319    -0.655140 
C      -2.819992     0.066804    -1.723726 
C      -4.119570     0.513404    -1.551432 
H      -4.513366    -0.223755     1.741881 
H      -2.181817    -1.039640     1.414058 
H      -2.359702     0.117619    -2.705180 
H      -4.688625     0.935449    -2.369873 
N      -6.082523     0.884213    -0.100166 
O      -6.564208     0.774493     1.008363 
O      -6.653128     1.358375    -1.060400 
C      -0.677967    -0.945350    -0.860820 
O      -0.666106    -1.836274    -1.951408 
H      -0.334781    -1.450334     0.047344 
O       1.591003     2.329312    -0.600070 
H       2.481804     1.702607    -0.234570 
H       1.527455     2.359324    -1.566361 
43
     -1145.129397     -1144.832760   7.08   7.13
C       2.520627    -0.605943    -0.446756 
C       3.256061     1.414884     0.584619 
C       4.515720     0.576055     0.295633 
C       4.040343    -0.592427    -0.592667 
H       2.009215    -1.018019    -1.317997 
H       3.411135     2.475981     0.387604 
H       2.912869     1.274148     1.611092 
H       5.277843     1.172627    -0.212820 
H       4.929690     0.208054     1.232268 
H       4.317212    -0.424825    -1.640049 
H       4.459607    -1.546906    -0.276112 
N       2.240909     0.868887    -0.357274 
C       2.046073    -1.336665     0.847652 
O       0.891371    -1.842782     0.767895 
O       2.813575    -1.294374     1.812388 
C       0.931995     1.455867    -0.480324 
C       0.728939     2.743940     0.266150 
H       1.546746     3.443537     0.101849 
H      -0.197919     3.214351    -0.065405 
H       0.650235     2.508192     1.330168 
C      -0.301741     0.580297    -0.602793 
H      -0.028531    -0.444086    -0.854989 
H      -0.922009     0.992895    -1.406848 
H      -0.004466    -0.631154     1.655837 
C      -4.585259    -1.928247    -0.086080 
C      -4.750018    -0.554872    -0.055880 
C      -3.637975     0.235127     0.202868 
C      -2.388136    -0.336882     0.424571 
C      -2.254570    -1.726135     0.388173 
C      -3.355502    -2.528699     0.133349 
H      -5.727600    -0.123538    -0.228968 
H      -3.752271     1.314976     0.241461 
H      -1.284252    -2.180819     0.553765 
H      -3.269792    -3.607139     0.101950 
N      -5.760410    -2.783258    -0.361056 
O      -5.589861    -3.984304    -0.382630 
O      -6.825199    -2.231123    -0.548997 
C      -1.181620     0.561014     0.673161 
O      -0.449331     0.232884     1.819567 
H      -1.565882     1.572443     0.840803 
O       1.289853     1.983185    -2.033626 
H       2.224354     1.429247    -1.620418 
H       0.817971     1.463605    -2.701136 
43
     -1145.129397     -1144.832756   7.08   7.13
C       2.177575     0.516062    -1.382684 
C       3.557282     0.131479     0.524381 
C       4.500136     0.311217    -0.680860 
C       3.605956     0.808714    -1.835565 
H       1.441586     1.193273    -1.818704 
H       3.938413     0.615583     1.423922 
H       3.365572    -0.924322     0.723793 
H       5.291826     1.031315    -0.457382 
H       4.958615    -0.643971    -0.928838 
H       3.737694     1.885132    -1.995949 
H       3.819143     0.294315    -2.772031 
N       2.295526     0.791694     0.090912 
C       1.757155    -0.965297    -1.634534 
O       2.660144    -1.804672    -1.594184 
O       0.515837    -1.135449    -1.795882 
C       1.173958     0.936038     0.982086 
C       1.427389     0.539175     2.408922 
H       2.355340     0.961467     2.790780 
H       0.606232     0.890319     3.035565 
H       1.470264    -0.551759     2.452892 
C      -0.242486     0.701748     0.489608 
H      -0.280685     0.700544    -0.599494 
H      -0.864328     1.521273     0.867983 
H       0.112875    -1.755956    -0.211086 
C      -4.870570    -0.875216    -0.511479 
C      -4.678337    -0.558296     0.821497 
C      -3.376721    -0.489376     1.299756 
C      -2.291336    -0.730436     0.461738 
C      -2.518327    -1.048649    -0.878562 
C      -3.811847    -1.123574    -1.370791 
H      -5.531265    -0.374276     1.462064 
H      -3.208564    -0.252951     2.346873 
H      -1.679428    -1.232355    -1.540511 
H      -4.005719    -1.369354    -2.406828 
N      -6.251371    -0.951892    -1.036022 
O      -6.393458    -1.231586    -2.208048 
O      -7.159628    -0.729834    -0.261614 
C      -0.874255    -0.614048     1.011308 
O      -0.067545    -1.728904     0.757414 
H      -0.959242    -0.545963     2.100755 
O       1.389021     2.600724     1.019324 
H       2.209982     2.149972     0.331098 
H       0.697595     3.058091     0.518373 
43
     -1145.129397     -1144.832755   7.08   7.13
C       1.949056    -1.517474     0.904923 
C       2.947314     0.329046     2.037253 
C       3.723201    -0.931118     2.466083 
C       3.231182    -2.057627     1.533723 
H       1.740155    -1.943324    -0.077637 
H       3.603594     1.185005     1.877821 
H       2.173656     0.584583     2.763470 
H       4.801782    -0.781681     2.368167 
H       3.496794    -1.160820     3.505339 
H       3.972163    -2.271713     0.754703 
H       3.027486    -2.980634     2.075562 
N       2.309891    -0.065721     0.751308 
C       0.706581    -1.681403     1.834448 
O       0.923842    -1.652335     3.048332 
O      -0.395182    -1.768929     1.222633 
C       1.564985     0.876274    -0.042854 
C       1.626552     2.303850     0.421722 
H       2.645562     2.617006     0.642617 
H       1.226890     2.956936    -0.355472 
H       1.008079     2.393698     1.318007 
C       0.262413     0.470316    -0.707850 
H       0.156312    -0.614122    -0.726344 
H       0.285850     0.844621    -1.737813 
H      -0.979871    -0.139235     1.469889 
C      -4.439532    -0.213710    -2.234948 
C      -4.004184     1.091921    -2.376437 
C      -2.893380     1.497050    -1.648655 
C      -2.231709     0.614174    -0.799439 
C      -2.696016    -0.696864    -0.677838 
C      -3.804947    -1.116094    -1.395902 
H      -4.528634     1.768020    -3.039398 
H      -2.545270     2.522331    -1.739467 
H      -2.184022    -1.393565    -0.023512 
H      -4.178392    -2.128545    -1.313156 
N      -5.621240    -0.660477    -3.004104 
O      -5.983217    -1.809832    -2.862616 
O      -6.157651     0.150388    -3.731228 
C      -0.995523     1.082236    -0.040194 
O      -1.040637     0.835333     1.336454 
H      -0.947287     2.170594    -0.149284 
O       2.739336     0.828451    -1.241766 
H       3.074784     0.118486    -0.384889 
H       2.429239     0.344904    -2.021657 
43
     -1145.126577     -1144.831569   8.85   7.87
C      -0.798525     2.812319     0.432486 
C      -2.815732     1.605531     0.085468 
C      -3.086167     3.078188    -0.284678 
C      -1.696910     3.733570    -0.386524 
H       0.247088     2.907536     0.138661 
H      -3.262727     0.899578    -0.621032 
H      -3.170229     1.392134     1.094478 
H      -3.649456     3.166863    -1.217096 
H      -3.676284     3.548098     0.504519 
H      -1.359144     3.766544    -1.429038 
H      -1.672362     4.742932     0.022038 
N      -1.331673     1.474761     0.050035 
C      -0.925079     3.080276     1.971591 
O      -0.545875     4.204097     2.314023 
O      -1.384721     2.126572     2.649088 
C      -0.748336     0.264738     0.570613 
C      -1.630164    -0.678596     1.340485 
H      -1.813467    -0.213996     2.311653 
H      -2.577114    -0.850770     0.830321 
H      -1.135288    -1.640212     1.473043 
C       0.664613     0.429834     1.096587 
H       0.560553     0.996099     2.024523 
H       1.254247     1.041426     0.408036 
H       3.228510    -1.089768     2.243968 
C       2.214500    -3.262709    -2.038732 
C       2.806671    -2.011837    -1.952574 
C       2.567458    -1.242025    -0.823344 
C       1.740099    -1.713342     0.201969 
C       1.173533    -2.980420     0.086446 
C       1.404701    -3.765932    -1.036096 
H       3.444340    -1.660343    -2.753693 
H       3.042472    -0.271308    -0.723515 
H       0.545250    -3.366635     0.883167 
H       0.968874    -4.751375    -1.138255 
N       2.465546    -4.090211    -3.241226 
O       3.155843    -3.608465    -4.113787 
O       1.962230    -5.192546    -3.273899 
C       1.470970    -0.837353     1.415380 
O       2.691943    -0.343618     1.956101 
H       0.941737    -1.431090     2.170124 
O      -0.639091    -0.366182    -0.942301 
H      -0.903751     0.707071    -1.110948 
H       0.270924    -0.609434    -1.188069 
43
     -1145.126687     -1144.831263   8.78   8.07
C       1.644433    -2.250425     0.771167 
C       2.777045    -1.260190    -1.075488 
C       3.260587    -2.719720    -0.954805 
C       2.250919    -3.405692    -0.018813 
H       0.666090    -2.515760     1.172991 
H       2.575642    -0.962746    -2.109186 
H       3.504030    -0.579580    -0.631719 
H       3.317196    -3.211862    -1.928877 
H       4.260285    -2.734927    -0.516249 
H       1.473439    -3.919708    -0.596275 
H       2.716343    -4.122623     0.656555 
N       1.511386    -1.212330    -0.289548 
C       2.570224    -1.786040     1.946849 
O       2.694598    -2.624402     2.844028 
O       3.049939    -0.628744     1.833387 
C       0.952718     0.082931     0.013205 
C       1.782928     1.301633    -0.281484 
H       2.570454     1.337841     0.474230 
H       2.227729     1.253403    -1.274644 
H       1.170288     2.200965    -0.225646 
C       0.155161     0.126972     1.301264 
H       0.911472     0.034667     2.087037 
H      -0.497080    -0.747906     1.372264 
H      -0.609772     1.019069     3.516553 
C      -3.838550     1.876298    -1.259836 
C      -2.816244     2.807783    -1.225668 
C      -1.806878     2.649720    -0.284147 
C      -1.820028     1.577370     0.603674 
C      -2.875678     0.661548     0.551912 
C      -3.891343     0.804041    -0.382289 
H      -2.817628     3.635588    -1.922867 
H      -1.003604     3.378456    -0.239932 
H      -2.912391    -0.154270     1.265888 
H      -4.716544     0.105335    -0.433511 
N      -4.918096     2.033014    -2.261527 
O      -5.785226     1.185794    -2.283125 
O      -4.862427     2.996158    -2.995766 
C      -0.696563     1.373900     1.599012 
O      -1.303661     1.201461     2.873121 
H      -0.063703     2.269670     1.604114 
O      -0.108390    -0.042627    -1.219928 
H       0.336950    -1.065165    -1.145410 
H      -1.036053     0.031098    -0.930517 
43
     -1145.122355     -1144.829933  11.50   8.90
C       1.982345     1.581306    -0.692696 
C       3.491877     1.085434     1.089604 
C       4.128999     2.175226     0.203643 
C       2.975539     2.735542    -0.642951 
H       0.975403     1.923464    -0.933653 
H       3.580024     1.300876     2.158058 
H       3.923705     0.109314     0.871580 
H       4.619865     2.948099     0.799638 
H       4.883356     1.720642    -0.441373 
H       2.524252     3.610335    -0.159578 
H       3.283473     3.011272    -1.650753 
N       2.046894     1.077575     0.709899 
C       2.418118     0.471771    -1.713892 
O       2.701171    -0.640000    -1.202741 
O       2.417591     0.848377    -2.888761 
C       1.236424    -0.029144     1.121463 
C       1.893879    -1.162350     1.843666 
H       1.149201    -1.792213     2.325350 
H       2.414005    -1.749900     1.083439 
H       2.605606    -0.804073     2.586165 
C       0.061710    -0.353836     0.226038 
H       0.490631    -0.793212    -0.677773 
H      -0.441156     0.570661    -0.068003 
H      -1.121344    -3.272596     0.931799 
C      -4.606255    -0.956802    -1.446358 
C      -3.495852    -1.523664    -2.052743 
C      -2.328566    -1.646254    -1.316520 
C      -2.276282    -1.207610     0.007922 
C      -3.409942    -0.647813     0.588398 
C      -4.588284    -0.515538    -0.135956 
H      -3.556343    -1.857181    -3.080699 
H      -1.447440    -2.086270    -1.771802 
H      -3.383753    -0.315437     1.622771 
H      -5.478810    -0.081937     0.300255 
N      -5.855952    -0.820354    -2.228938 
O      -5.844192    -1.216115    -3.375218 
O      -6.811765    -0.321054    -1.673474 
C      -0.980581    -1.327210     0.791222 
O      -0.438205    -2.636980     0.695530 
H      -1.189010    -1.085399     1.845566 
O       0.577949     0.944677     2.379196 
H       1.238939     1.609865     1.700829 
H      -0.367226     1.118509     2.271851 
43
     -1145.126672     -1144.828121   8.79  10.04
C       2.682214     1.306558     0.887150 
C       2.825875    -0.970700     1.294879 
C       4.154351    -0.618669     0.603626 
C       4.003222     0.875567     0.247611 
H       2.817738     1.487473     1.958646 
H       2.920750    -0.859188     2.380024 
H       2.461311    -1.981431     1.108687 
H       4.990785    -0.811455     1.280033 
H       4.317169    -1.228791    -0.288713 
H       4.824130     1.492983     0.616628 
H       3.944674     1.043390    -0.829454 
N       1.839836     0.059512     0.860787 
C       2.062890     2.611954     0.308303 
O       2.533290     3.028528    -0.754366 
O       1.135137     3.108419     1.004945 
C       0.987403    -0.335603    -0.281279 
C       1.581271    -1.228864    -1.351002 
H       0.779378    -1.615011    -1.984032 
H       2.248826    -0.627314    -1.973923 
H       2.137695    -2.072300    -0.944911 
C       0.128697     0.771959    -0.887667 
H      -0.283899     0.374978    -1.817752 
H       0.790655     1.587771    -1.181250 
H      -0.002036     2.101190     1.407865 
C      -4.553040    -1.122909    -0.461645 
C      -4.029209    -0.935812     0.802619 
C      -2.897077    -0.139561     0.945268 
C      -2.295795     0.454540    -0.166182 
C      -2.867538     0.256767    -1.427378 
C      -3.992824    -0.532372    -1.585283 
H      -4.502473    -1.399280     1.658779 
H      -2.485555     0.048133     1.930327 
H      -2.433571     0.735611    -2.300172 
H      -4.441047    -0.693454    -2.557269 
N      -5.757693    -1.967147    -0.622806 
O      -6.195539    -2.107384    -1.745396 
O      -6.229993    -2.465470     0.376897 
C      -1.042778     1.312504    -0.012467 
O      -0.715406     1.391280     1.346963 
H      -1.275863     2.308257    -0.412246 
O       0.102784    -1.178221     0.652241 
H       0.584364    -0.445411     1.393010 
H      -0.853115    -1.021029     0.519905 
