43
     -1145.198377     -1144.904845   0.00   0.00
C      -2.286415    -1.088448    -2.411705 
C      -0.263831    -1.988235    -1.398173 
C      -0.663246    -2.828338    -2.615214 
C      -1.485484    -1.856935    -3.466103 
H      -2.586575    -0.104712    -2.777932 
H       0.706072    -1.503709    -1.537560 
H      -0.248331    -2.572163    -0.474412 
H       0.209683    -3.225641    -3.136905 
H      -1.286428    -3.672276    -2.304996 
H      -0.827790    -1.169274    -4.008076 
H      -2.149063    -2.347292    -4.176832 
N      -1.308931    -0.946918    -1.317675 
C      -3.587590    -1.856589    -2.043530 
O      -4.361363    -2.043897    -2.967005 
O      -3.755982    -2.241825    -0.828887 
C      -1.476331    -0.168214    -0.269477 
C      -2.525470     0.909018    -0.343274 
H      -2.624970     1.406197     0.622784 
H      -2.220421     1.654334    -1.085825 
H      -3.494158     0.505013    -0.636561 
C      -0.304239     0.095829     0.647099 
H       0.324188    -0.789303     0.737874 
H      -0.692482     0.322097     1.640573 
H       1.539096     1.735255    -1.443231 
C       3.707337     1.898297     3.006106 
C       2.569345     2.680417     3.096069 
C       1.558802     2.485656     2.164427 
C       1.685650     1.522773     1.166242 
C       2.847237     0.753731     1.100935 
C       3.867887     0.936946     2.021573 
H       2.485762     3.422900     3.879121 
H       0.662332     3.097295     2.216887 
H       2.952820     0.005962     0.322227 
H       4.776041     0.348976     1.986635 
N       4.791401     2.096984     3.994785 
O       4.624038     2.945372     4.845401 
O       5.777825     1.398918     3.891899 
C       0.551010     1.285212     0.184302 
O       1.022194     0.989477    -1.123152 
H      -0.077415     2.186481     0.161534 
H      -3.044841    -1.861274     0.105669 
O      -2.393617    -1.420938     0.976045 
H      -2.993747    -0.997153     1.598338 
43
     -1145.198377     -1144.904844  -0.00   0.00
C      -2.877226    -1.232460    -1.559279 
C      -2.035706     0.968428    -0.946376 
C      -3.508476     1.061874    -1.357119 
C      -4.041502    -0.350230    -1.101077 
H      -2.898828    -2.207515    -1.068609 
H      -1.885348     1.248748     0.099434 
H      -1.385530     1.575146    -1.581759 
H      -4.038187     1.831493    -0.792221 
H      -3.590512     1.304612    -2.420683 
H      -4.226433    -0.503364    -0.032656 
H      -4.948828    -0.585583    -1.655416 
N      -1.704318    -0.462342    -1.108044 
C      -2.953039    -1.489012    -3.091297 
O      -3.961651    -2.056148    -3.475580 
O      -1.982359    -1.091194    -3.834026 
C      -0.472446    -0.926497    -1.094928 
C      -0.271810    -2.415631    -1.188693 
H      -0.661012    -2.886367    -0.279372 
H      -0.794658    -2.836774    -2.047101 
H       0.790847    -2.649248    -1.269552 
C       0.600996    -0.147268    -0.370940 
H       0.438393     0.924877    -0.474310 
H       1.560616    -0.376729    -0.835052 
H      -0.550038    -0.482296     2.632051 
C       3.874015     1.727215     2.897119 
C       4.111439     0.420623     2.508177 
C       3.066527    -0.302182     1.948895 
C       1.810844     0.275775     1.779092 
C       1.603553     1.593725     2.185312 
C       2.635249     2.329429     2.748528 
H       5.093650    -0.012863     2.645262 
H       3.234883    -1.331851     1.645663 
H       0.625908     2.046640     2.059740 
H       2.492882     3.353492     3.068993 
N       4.981327     2.507823     3.494338 
O       6.054795     1.955535     3.612506 
O       4.745240     3.649892     3.827285 
C       0.690342    -0.509846     1.119301 
O      -0.576203    -0.236094     1.702254 
H       0.921789    -1.580265     1.210724 
H      -0.901364    -0.701951    -3.382504 
O       0.134845    -0.408182    -2.918266 
H       0.797336    -0.993436    -3.299817 
43
     -1145.199492     -1144.904693  -0.70   0.10
C       0.153414     2.070850    -0.914996 
C      -1.403537     0.206881    -0.806156 
C      -1.280682     0.709044    -2.249217 
C       0.093849     1.383010    -2.280529 
H       1.182229     2.249780    -0.597672 
H      -1.083803    -0.833512    -0.721773 
H      -2.418820     0.303021    -0.412675 
H      -1.375074    -0.107022    -2.968389 
H      -2.061945     1.443990    -2.462117 
H       0.888970     0.634116    -2.356181 
H       0.208801     2.106758    -3.086077 
N      -0.482483     1.071309    -0.035562 
C      -0.561318     3.451946    -0.973490 
O      -0.063849     4.263141    -1.736153 
O      -1.607783     3.634487    -0.251670 
C      -0.488885     1.150847     1.284459 
C       0.470247     2.109895     1.938419 
H       0.297693     2.136297     3.013923 
H       1.494215     1.760841     1.783482 
H       0.367188     3.112904     1.524413 
C      -0.932573    -0.054231     2.087773 
H      -1.800869    -0.515413     1.616966 
H      -1.244800     0.299725     3.071216 
H       1.842358    -1.226370     3.272240 
C       1.320065    -2.994742    -1.356577 
C       2.020121    -1.882342    -0.919355 
C       1.653107    -1.296427     0.283164 
C       0.601551    -1.816163     1.035979 
C      -0.064837    -2.951998     0.579739 
C       0.284308    -3.549140    -0.623641 
H       2.829212    -1.485341    -1.518983 
H       2.185870    -0.420808     0.635991 
H      -0.874943    -3.376347     1.166875 
H      -0.232278    -4.424617    -0.995262 
N       1.692259    -3.611759    -2.649331 
O       2.587262    -3.090333    -3.280959 
O       1.076146    -4.596659    -2.997464 
C       0.141267    -1.138245     2.314140 
O       1.214222    -0.539589     3.027146 
H      -0.341426    -1.899552     2.942641 
H      -1.944975     2.866023     0.679085 
O      -2.171121     2.157937     1.566239 
H      -2.168355     2.687805     2.370343 
43
     -1145.196898     -1144.903460   0.93   0.87
C      -3.548462    -0.759897     0.515363 
C      -2.088810     1.135226     0.951931 
C      -3.552272     1.533098     1.177040 
C      -4.246114     0.202593     1.479413 
H      -3.612674    -1.791979     0.862578 
H      -1.496365     1.236159     1.866900 
H      -1.617916     1.720340     0.158405 
H      -3.653965     2.265467     1.980162 
H      -3.966698     1.970632     0.264682 
H      -4.059902    -0.104386     2.514074 
H      -5.320444     0.218450     1.302505 
N      -2.150686    -0.290223     0.561617 
C      -4.211084    -0.692381    -0.889718 
O      -5.384147    -1.020918    -0.929274 
O      -3.505016    -0.280761    -1.881592 
C      -1.121954    -0.955240     0.074451 
C      -1.299799    -2.419351    -0.214427 
H      -2.221105    -2.604566    -0.765459 
H      -0.456047    -2.812950    -0.775894 
H      -1.336914    -2.958663     0.738189 
C       0.250189    -0.422442     0.417066 
H       0.384010    -0.531293     1.500748 
H       0.277032     0.640239     0.185540 
H       2.411034    -2.781306    -0.012384 
C       4.743029     1.605564    -0.293375 
C       4.634849     0.704384     0.751740 
C       3.569674    -0.186153     0.755337 
C       2.634295    -0.171380    -0.276574 
C       2.771005     0.748987    -1.314985 
C       3.826762     1.647415    -1.331602 
H       5.372798     0.708579     1.543667 
H       3.462478    -0.895907     1.568184 
H       2.037562     0.766571    -2.116421 
H       3.947496     2.369470    -2.128699 
N       5.874942     2.558952    -0.301312 
O       5.943782     3.338583    -1.228256 
O       6.662995     2.501651     0.619092 
C       1.435220    -1.103969    -0.269376 
O       1.691599    -2.316130     0.427435 
H       1.167771    -1.311357    -1.312509 
H      -2.272841    -0.226883    -1.852551 
O      -1.097823    -0.280838    -1.834568 
H      -0.877484    -0.953392    -2.487139 
43
     -1145.196898     -1144.903458   0.93   0.87
C      -3.152543    -1.840169     0.331458 
C      -1.063688    -2.160392    -0.871373 
C      -1.918884    -3.430427    -0.951045 
C      -3.345729    -2.919397    -0.736457 
H      -3.960227    -1.107275     0.311712 
H      -0.873093    -1.737645    -1.862990 
H      -0.108274    -2.335167    -0.370951 
H      -1.784701    -3.950112    -1.901642 
H      -1.644553    -4.118507    -0.146762 
H      -3.737995    -2.470283    -1.655075 
H      -4.038726    -3.685869    -0.392934 
N      -1.882722    -1.213894    -0.083081 
C      -3.130027    -2.479868     1.748553 
O      -4.154034    -3.052824     2.078265 
O      -2.054606    -2.387303     2.446175 
C      -1.419872    -0.075385     0.393819 
C      -2.377657     0.829117     1.117162 
H      -1.850527     1.637877     1.617288 
H      -3.048280     1.284237     0.380382 
H      -2.970039     0.276399     1.845400 
C      -0.222879     0.516480    -0.313952 
H      -0.542753     0.791629    -1.326916 
H       0.540793    -0.252931    -0.405761 
H      -0.047393     3.658282     0.404527 
C       4.459996     2.073028    -0.985505 
C       3.481186     2.748928    -1.693449 
C       2.164904     2.659083    -1.261017 
C       1.842255     1.906141    -0.134532 
C       2.851206     1.236667     0.556761 
C       4.169965     1.313099     0.135923 
H       3.752815     3.329385    -2.565815 
H       1.381738     3.175309    -1.805189 
H       2.599543     0.642697     1.431068 
H       4.965441     0.798835     0.659425 
N       5.864514     2.163023    -1.443182 
O       6.091751     2.834620    -2.427445 
O       6.701081     1.559079    -0.805061 
C       0.403624     1.754962     0.329195 
O      -0.402651     2.871591    -0.022471 
H       0.416475     1.619734     1.417410 
H      -1.158832    -1.576940     2.195370 
O      -0.368002    -0.729239     1.995640 
H      -0.428595    -0.156572     2.767072 
43
     -1145.198845     -1144.903385  -0.29   0.92
C      -1.813166    -2.274897     0.794716 
C      -0.050045    -1.954143     2.444028 
C      -0.884176    -3.188827     2.796955 
C      -1.472181    -3.614868     1.450104 
H      -1.818873    -2.350939    -0.294208 
H       0.986985    -2.220073     2.215530 
H      -0.053183    -1.203535     3.237014 
H      -0.278983    -3.963763     3.270279 
H      -1.687941    -2.918453     3.488290 
H      -0.721146    -4.140788     0.851586 
H      -2.358887    -4.239663     1.535351 
N      -0.693714    -1.413026     1.226591 
C      -3.230222    -1.788540     1.214227 
O      -4.124663    -2.596962     1.068907 
O      -3.389828    -0.585484     1.658665 
C      -0.404579    -0.248461     0.704885 
C      -1.081234     0.162194    -0.566074 
H      -2.123433    -0.147454    -0.592051 
H      -1.036927     1.238584    -0.695641 
H      -0.545566    -0.302005    -1.403220 
C       0.896102     0.400481     1.115665 
H       1.694321    -0.278612     0.794937 
H       0.946123     0.439343     2.204440 
H      -0.583931     2.262880     1.279741 
C       2.132009     2.018789    -3.601014 
C       2.783569     1.083835    -2.813157 
C       2.471015     1.022239    -1.464097 
C       1.514457     1.872490    -0.906986 
C       0.889373     2.810704    -1.725026 
C       1.191551     2.888520    -3.077415 
H       3.521385     0.426463    -3.254782 
H       2.998110     0.303236    -0.843751 
H       0.161535     3.483895    -1.289339 
H       0.709094     3.611850    -3.722331 
N       2.457420     2.093151    -5.040720 
O       3.288015     1.318645    -5.469509 
O       1.874702     2.923078    -5.707119 
C       1.198493     1.816547     0.588866 
O       0.207276     2.743636     0.945319 
H       2.130178     2.110715     1.095690 
H      -2.551965     0.184655     1.753979 
O      -1.651259     1.074317     1.891199 
H      -1.495810     1.140251     2.839475 
43
     -1145.196599     -1144.902963   1.12   1.18
C      -2.808591    -1.128527    -1.671179 
C      -2.149027     0.976899    -0.634270 
C      -3.649441     0.987212    -0.949468 
C      -4.025359    -0.496638    -0.991247 
H      -2.712470    -2.187293    -1.423116 
H      -1.952201     1.093065     0.434670 
H      -1.601406     1.747224    -1.182197 
H      -4.214572     1.553445    -0.206685 
H      -3.824577     1.441866    -1.928261 
H      -4.140248    -0.896346     0.022649 
H      -4.934151    -0.702295    -1.554747 
N      -1.691145    -0.364298    -1.074556 
C      -2.937493    -1.027745    -3.219939 
O      -3.879666    -1.641758    -3.693539 
O      -2.085620    -0.319278    -3.862684 
C      -0.414010    -0.661304    -1.245981 
C      -0.068703    -2.039279    -1.745400 
H       1.004149    -2.116399    -1.926448 
H      -0.341413    -2.782227    -0.987468 
H      -0.605269    -2.276446    -2.663933 
C       0.610402     0.022441    -0.374778 
H       0.362984     1.074072    -0.233019 
H       1.576026    -0.025145    -0.879946 
H      -1.153687    -1.043195     1.282596 
C       3.891312     1.309729     3.124108 
C       4.203163     0.270223     2.264149 
C       3.166463    -0.370793     1.603028 
C       1.843883     0.023564     1.796194 
C       1.561763     1.069618     2.671845 
C       2.587171     1.719835     3.343244 
H       5.235573    -0.022709     2.124117 
H       3.392845    -1.193800     0.930610 
H       0.534203     1.370205     2.836208 
H       2.387478     2.533694     4.028242 
N       4.988725     2.002557     3.834515 
O       6.121336     1.621551     3.623711 
O       4.688948     2.908665     4.583305 
C       0.742156    -0.655134     1.009891 
O      -0.459061    -0.574955     1.758251 
H       1.026315    -1.707559     0.866803 
H      -0.982819     0.105592    -3.367612 
O       0.003987     0.389004    -2.887662 
H       0.702043     0.012655    -3.434001 
43
     -1145.200175     -1144.902820  -1.13   1.27
C      -3.192013     0.326200    -0.576354 
C      -2.403503    -1.971013    -0.316075 
C      -3.872752    -1.865800     0.088001 
C      -4.358796    -0.659961    -0.719656 
H      -3.144399     1.022399    -1.415397 
H      -2.299610    -2.566680    -1.229037 
H      -1.753073    -2.385022     0.455782 
H      -4.419492    -2.783791    -0.134045 
H      -3.961612    -1.666483     1.159981 
H      -4.489060    -0.932506    -1.772302 
H      -5.286281    -0.223234    -0.353661 
N      -2.014865    -0.568498    -0.603257 
C      -3.395952     1.184973     0.700213 
O      -4.378682     1.895941     0.695526 
O      -2.562492     1.090475     1.687065 
C      -0.775405    -0.170326    -0.732468 
C      -0.491603     1.266942    -1.049662 
H      -0.701015     1.434375    -2.113700 
H      -1.099389     1.949828    -0.459087 
H       0.560939     1.483681    -0.872584 
C       0.272944    -1.189873    -1.126296 
H       0.705023    -0.807118    -2.057571 
H      -0.217000    -2.129875    -1.377891 
H       0.346113    -1.432945     1.420005 
C       4.287731     1.561673     0.555790 
C       3.934120     1.253132    -0.748071 
C       3.002752     0.249350    -0.961317 
C       2.416496    -0.432432     0.107790 
C       2.811750    -0.109256     1.404503 
C       3.746781     0.890393     1.638053 
H       4.388912     1.789064    -1.571276 
H       2.742848    -0.007399    -1.984314 
H       2.391257    -0.656694     2.239166 
H       4.057763     1.148581     2.642520 
N       5.281022     2.629563     0.795842 
O       5.577212     2.873123     1.946925 
O       5.739005     3.197645    -0.174028 
C       1.415237    -1.558168    -0.148152 
O       0.909640    -2.140553     1.018329 
H       1.975597    -2.346094    -0.667690 
H      -1.595208     0.565896     1.556323 
O      -0.392146     0.055543     1.400833 
H       0.241201     0.734947     1.651241 
43
     -1145.196033     -1144.902796   1.47   1.29
C       0.873904     1.236783    -3.192915 
C      -1.199863     0.827513    -1.978908 
C      -1.418506     0.482836    -3.447411 
C      -0.331437     1.292770    -4.152278 
H       1.549797     0.426609    -3.476787 
H      -1.577848     0.055218    -1.312027 
H      -1.648511     1.793183    -1.715218 
H      -1.263955    -0.590864    -3.597725 
H      -2.426388     0.733636    -3.784036 
H      -0.064234     0.918070    -5.140224 
H      -0.654987     2.332229    -4.269424 
N       0.265653     0.921703    -1.878118 
C       1.660689     2.563254    -3.318606 
O       2.365361     2.656366    -4.309508 
O       1.468856     3.478857    -2.436320 
C       0.930354     0.932667    -0.739191 
C       2.431436     0.807496    -0.787589 
H       2.851247     0.913925     0.214015 
H       2.685763    -0.188811    -1.165453 
H       2.889440     1.547963    -1.440579 
C       0.270536     0.410297     0.517799 
H      -0.783603     0.683618     0.547268 
H       0.748648     0.893481     1.370504 
H      -0.036749    -2.688326    -0.364458 
C      -1.387805    -2.270515     4.387351 
C      -0.019411    -2.068154     4.349572 
C       0.561796    -1.708804     3.141263 
C      -0.214527    -1.551057     1.995700 
C      -1.590516    -1.766626     2.066824 
C      -2.187372    -2.128927     3.264958 
H       0.569298    -2.192849     5.249186 
H       1.636210    -1.554209     3.093525 
H      -2.199287    -1.651094     1.176405 
H      -3.253672    -2.299773     3.338979 
N      -2.018741    -2.653568     5.670861 
O      -3.219235    -2.825871     5.675111 
O      -1.294743    -2.770485     6.637010 
C       0.428203    -1.108157     0.692194 
O      -0.158714    -1.736853    -0.439278 
H       1.499548    -1.347923     0.739037 
H       1.049009     3.193435    -1.310671 
O       0.760793     2.842736    -0.230510 
H       1.453562     3.158224     0.359679 
43
     -1145.197275     -1144.902269   0.69   1.62
C      -1.330862     1.660687     0.696645 
C      -1.469308    -0.668333     0.012807 
C      -2.584863     0.144805    -0.653046 
C      -2.034192     1.573515    -0.659437 
H      -0.555574     2.428736     0.700621 
H      -0.805042    -1.108735    -0.732339 
H      -1.854087    -1.457555     0.663744 
H      -2.813515    -0.230847    -1.652404 
H      -3.497986     0.098362    -0.053108 
H      -1.305180     1.702135    -1.466016 
H      -2.803187     2.339425    -0.748868 
N      -0.720589     0.322971     0.817511 
C      -2.352057     2.023745     1.812456 
O      -2.890157     3.110927     1.693512 
O      -2.571110     1.171097     2.749321 
C       0.151222    -0.005066     1.753515 
C       0.796902     1.106276     2.537310 
H       0.050465     1.787266     2.945536 
H       1.387366     0.693113     3.355675 
H       1.476273     1.662690     1.886475 
C       0.915305    -1.305409     1.622746 
H       0.252240    -2.096494     1.270627 
H       1.247386    -1.593524     2.623130 
H       3.514194    -0.577888     1.948016 
C       1.019664    -0.503787    -3.343735 
C       1.372873     0.571147    -2.544478 
C       1.773310     0.327217    -1.239180 
C       1.819223    -0.973927    -0.743433 
C       1.487115    -2.035502    -1.582494 
C       1.078284    -1.810532    -2.889479 
H       1.325439     1.576461    -2.943006 
H       2.054707     1.156388    -0.601139 
H       1.538749    -3.055500    -1.211081 
H       0.803975    -2.624242    -3.548197 
N       0.566237    -0.247875    -4.728297 
O       0.516539     0.906899    -5.097451 
O       0.267194    -1.208099    -5.406708 
C       2.163113    -1.249969     0.704013 
O       3.101961    -0.274295     1.133811 
H       2.616313    -2.249056     0.753078 
H      -1.845489     0.186034     2.954924 
O      -1.092259    -0.685118     3.153001 
H      -0.770594    -0.588139     4.055423 
43
     -1145.195926     -1144.901947   1.54   1.82
C      -0.709574    -1.859386     1.471317 
C      -2.567005    -0.985213     0.164065 
C      -3.089410    -1.696779     1.418006 
C      -1.909474    -1.624832     2.391138 
H       0.209226    -1.446345     1.890917 
H      -2.855375     0.070058     0.158696 
H      -2.916819    -1.452789    -0.759510 
H      -3.996159    -1.226222     1.802965 
H      -3.319872    -2.740653     1.188692 
H      -1.844302    -0.630928     2.847401 
H      -1.946751    -2.373566     3.180816 
N      -1.095009    -1.105538     0.261128 
C      -0.480642    -3.384157     1.259456 
O      -0.196503    -4.007187     2.268785 
O      -0.621684    -3.869954     0.080451 
C      -0.285597    -0.887552    -0.760404 
C       1.189520    -1.112045    -0.556326 
H       1.385501    -2.117276    -0.183180 
H       1.725833    -0.962912    -1.493590 
H       1.572365    -0.389000     0.168479 
C      -0.718298     0.112147    -1.809600 
H      -1.700252    -0.171049    -2.195394 
H      -0.018304     0.066809    -2.645702 
H      -1.939915     2.174515    -2.776204 
C       2.912891     2.811344     0.424083 
C       2.799737     2.787284    -0.957118 
C       1.591302     2.403397    -1.518623 
C       0.514742     2.051479    -0.706467 
C       0.655991     2.099873     0.677382 
C       1.859597     2.476596     1.257253 
H       3.647170     3.065178    -1.570397 
H       1.478217     2.387180    -2.596954 
H      -0.182567     1.832930     1.313887 
H       1.987646     2.512409     2.331334 
N       4.202660     3.210770     1.029801 
O       5.103952     3.517940     0.278611 
O       4.277757     3.204105     2.240754 
C      -0.785304     1.575661    -1.314171 
O      -1.086667     2.427516    -2.409920 
H      -1.564126     1.661605    -0.546249 
H      -0.683332    -3.169703    -0.972929 
O      -0.670602    -2.482537    -1.889524 
H       0.069437    -2.753170    -2.443157 
43
     -1145.195817     -1144.901774   1.61   1.93
C      -2.627586     0.528813    -0.582899 
C      -1.442676     2.481281     0.250880 
C      -2.728563     2.330381     1.054189 
C      -3.606459     1.487781     0.128170 
H      -2.628771    -0.451019    -0.101213 
H      -0.579455     2.722383     0.870400 
H      -1.538141     3.249725    -0.525938 
H      -2.522247     1.796715     1.988424 
H      -3.173752     3.295003     1.304940 
H      -4.392540     0.936586     0.643887 
H      -4.089219     2.130240    -0.614615 
N      -1.299383     1.160754    -0.384962 
C      -3.107431     0.335396    -2.043435 
O      -4.058019    -0.417849    -2.177209 
O      -2.535458     1.016332    -2.968173 
C      -0.188030     0.740383    -0.966665 
C      -0.154380    -0.668943    -1.499626 
H      -0.242625    -1.367507    -0.663005 
H      -0.967363    -0.861494    -2.197478 
H       0.797140    -0.861269    -1.996033 
C       1.122743     1.342969    -0.513740 
H       1.065826     2.430763    -0.542168 
H       1.903270     1.046698    -1.215646 
H       3.024297     1.484432     2.060463 
C       2.466481    -3.235858     1.269814 
C       1.358800    -2.738546     1.932649 
C       1.072728    -1.384566     1.813623 
C       1.874795    -0.548929     1.041040 
C       2.991184    -1.081440     0.395539 
C       3.293916    -2.429929     0.503387 
H       0.741343    -3.400633     2.525821 
H       0.208723    -0.976215     2.330035 
H       3.633957    -0.432145    -0.190303 
H       4.154455    -2.860175     0.007575 
N       2.781748    -4.678070     1.386963 
O       2.039969    -5.359043     2.063194 
O       3.760632    -5.086466     0.799055 
C       1.544168     0.926679     0.906094 
O       2.672934     1.740963     1.201091 
H       0.726769     1.152328     1.604335 
H      -1.350016     1.458197    -2.839007 
O      -0.253701     1.731060    -2.675974 
H       0.249938     1.314237    -3.383480 
43
     -1145.195045     -1144.901461   2.09   2.12
C      -0.489971    -1.709265     2.045418 
C      -2.552041    -1.043892     0.935055 
C      -2.855992    -1.583885     2.337447 
C      -1.545651    -1.369274     3.099798 
H       0.465026    -1.227424     2.261977 
H      -2.867971    -0.001570     0.829450 
H      -3.023562    -1.636544     0.147639 
H      -3.707980    -1.074668     2.792055 
H      -3.086895    -2.651510     2.286817 
H      -1.444415    -0.322965     3.407477 
H      -1.439128    -2.007228     3.975790 
N      -1.079253    -1.135979     0.819413 
C      -0.236127    -3.244322     2.004194 
O       0.208310    -3.721056     3.035502 
O      -0.517166    -3.885476     0.929488 
C      -0.441112    -1.035831    -0.333060 
C       1.058023    -1.175323    -0.324632 
H       1.445359    -1.164105    -1.343651 
H       1.497177    -0.327688     0.208972 
H       1.366291    -2.096837     0.168906 
C      -1.072699    -0.188012    -1.412342 
H      -2.120164    -0.458465    -1.538289 
H      -0.570916    -0.396291    -2.359141 
H      -1.430176     2.215508    -2.800836 
C       2.929919     2.983699    -1.146825 
C       2.442640     2.388402    -2.298855 
C       1.165522     1.848474    -2.275025 
C       0.384616     1.902131    -1.119213 
C       0.908082     2.510055     0.018691 
C       2.185095     3.055074     0.016927 
H       3.058791     2.351296    -3.187851 
H       0.786373     1.372478    -3.175833 
H       0.309676     2.560505     0.923118 
H       2.601887     3.528921     0.896286 
N       4.293530     3.560524    -1.162103 
O       4.921930     3.481981    -2.196425 
O       4.694497     4.073894    -0.139203 
C      -1.018814     1.322439    -1.099503 
O      -1.889898     2.025620    -1.976859 
H      -1.434297     1.484805    -0.101579 
H      -0.758998    -3.331524    -0.186114 
O      -0.902935    -2.774710    -1.174857 
H      -0.236586    -3.101965    -1.788222 
43
     -1145.194400     -1144.900970   2.50   2.43
C      -2.464376     1.395028     2.342070 
C      -2.284633     1.257397    -0.083133 
C      -3.363370     2.277307     0.264144 
C      -3.773707     1.865338     1.677092 
H      -2.015647     2.202968     2.923595 
H      -1.602476     1.612307    -0.855635 
H      -2.719009     0.303143    -0.405146 
H      -2.936002     3.285648     0.261005 
H      -4.192116     2.256999    -0.446051 
H      -4.242982     2.661662     2.254353 
H      -4.479041     1.029419     1.632775 
N      -1.579003     1.070927     1.196378 
C      -2.805688     0.242553     3.316017 
O      -3.275575     0.587722     4.386596 
O      -2.652979    -0.965619     2.904048 
C      -0.393847     0.500175     1.309757 
C       0.307910     0.583947     2.636622 
H      -0.362911     0.384525     3.469781 
H       1.149680    -0.103148     2.680938 
H       0.710719     1.597341     2.739457 
C       0.430573     0.390416     0.045897 
H       0.658035     1.407493    -0.296930 
H      -0.178293    -0.094487    -0.715215 
H       3.533091     0.061521     0.871435 
C       2.887163    -1.744008    -3.723896 
C       3.379216    -0.526169    -3.287382 
C       3.025548    -0.080506    -2.020818 
C       2.195498    -0.849361    -1.208561 
C       1.715636    -2.071562    -1.677826 
C       2.056438    -2.529289    -2.941241 
H       4.023699     0.055978    -3.933517 
H       3.394777     0.873985    -1.662360 
H       1.061049    -2.668831    -1.048962 
H       1.692007    -3.474595    -3.321875 
N       3.258867    -2.223192    -5.073904 
O       2.811682    -3.292889    -5.431026 
O       3.987046    -1.516881    -5.738957 
C       1.758101    -0.360769     0.162086 
O       2.698986     0.527259     0.749708 
H       1.615769    -1.242080     0.799400 
H      -1.811673    -1.231628     2.045167 
O      -0.899897    -1.452518     1.335016 
H      -0.318262    -2.003531     1.869092 
43
     -1145.194036     -1144.900950   2.72   2.44
C      -2.973522    -1.553116    -0.999753 
C      -1.655298     0.350622    -1.766475 
C      -3.130999     0.686526    -1.943412 
C      -3.793491    -0.690288    -1.981371 
H      -3.462751    -1.599149    -0.024222 
H      -1.087386     1.166616    -1.322271 
H      -1.188534     0.056271    -2.713737 
H      -3.486587     1.268644    -1.085721 
H      -3.312412     1.273269    -2.845873 
H      -4.849107    -0.683575    -1.710291 
H      -3.714134    -1.114084    -2.987292 
N      -1.688579    -0.815814    -0.861408 
C      -2.914316    -2.997138    -1.559481 
O      -3.911880    -3.668712    -1.352138 
O      -1.886136    -3.341935    -2.243639 
C      -0.612975    -1.312588    -0.271067 
C      -0.795774    -2.446529     0.705383 
H       0.174741    -2.797326     1.059253 
H      -1.364892    -2.085487     1.569666 
H      -1.337340    -3.284865     0.271372 
C       0.572211    -0.411132    -0.017812 
H       0.764179     0.234688    -0.873848 
H       1.450950    -1.044361     0.112701 
H      -1.507771     0.843461     1.151378 
C       4.025412     2.654406     1.804038 
C       3.934336     1.370558     2.314603 
C       2.744643     0.678188     2.146967 
C       1.668484     1.258352     1.478087 
C       1.789256     2.553899     0.980355 
C       2.971821     3.261370     1.141828 
H       4.779786     0.933849     2.830149 
H       2.653809    -0.327326     2.548746 
H       0.950927     3.015299     0.472616 
H       3.083947     4.269061     0.763098 
N       5.290049     3.403067     1.975251 
O       6.196002     2.846498     2.559915 
O       5.343408     4.526392     1.520465 
C       0.406327     0.451609     1.255307 
O      -0.688212     1.348852     1.155766 
H       0.269632    -0.211936     2.120690 
H      -0.757824    -2.774557    -2.076265 
O       0.229781    -2.289164    -1.783755 
H       0.820222    -3.002421    -1.517804 
43
     -1145.196626     -1144.900936   1.10   2.45
C      -1.928891    -1.164662    -0.670788 
C      -1.318002     0.685953     0.783463 
C      -1.699224    -0.498070     1.663157 
C      -2.551502    -1.356957     0.728899 
H      -1.270690    -1.999417    -0.920234 
H      -0.414099     1.184256     1.126991 
H      -2.128664     1.422327     0.718028 
H      -0.797558    -1.033282     1.976214 
H      -2.237867    -0.183728     2.559313 
H      -2.583254    -2.411376     1.002999 
H      -3.582020    -0.988709     0.719861 
N      -1.114407     0.068771    -0.537322 
C      -3.080447    -1.148227    -1.706527 
O      -3.536329    -2.242298    -1.993630 
O      -3.515198    -0.010975    -2.117486 
C      -0.536532     0.678754    -1.560979 
C      -0.328606    -0.106495    -2.830563 
H       0.379924    -0.915882    -2.637101 
H      -1.258257    -0.533906    -3.201581 
H       0.110918     0.531591    -3.596373 
C       0.427373     1.817885    -1.294906 
H       0.038223     2.460421    -0.505386 
H       0.475377     2.421672    -2.202162 
H       3.340717     0.573992    -1.944692 
C       2.296761    -0.847284     2.649712 
C       2.072469    -1.522522     1.461197 
C       1.941067    -0.786111     0.292915 
C       2.038868     0.604423     0.312504 
C       2.281244     1.250837     1.523449 
C       2.406158     0.531892     2.704365 
H       1.997638    -2.602441     1.460842 
H       1.763637    -1.300080    -0.644660 
H       2.377385     2.333104     1.549469 
H       2.588010     1.022157     3.652020 
N       2.425408    -1.625939     3.902179 
O       2.323535    -2.832139     3.824042 
O       2.622466    -1.008284     4.927199 
C       1.878632     1.419513    -0.959548 
O       2.405949     0.746794    -2.095094 
H       2.411702     2.369532    -0.814021 
H      -2.780531     1.002330    -2.097870 
O      -2.007305     1.862859    -2.142560 
H      -1.934078     2.129723    -3.065330 
43
     -1145.193296     -1144.900021   3.19   3.03
C      -1.670335     0.775830     1.751890 
C      -0.406517     2.611692     0.793783 
C      -0.249186     2.681103     2.307325 
C      -1.455622     1.884102     2.807217 
H      -1.263030    -0.175288     2.099943 
H       0.523059     2.801362     0.258816 
H      -1.165464     3.316269     0.432393 
H       0.688679     2.199489     2.605485 
H      -0.234268     3.709021     2.674217 
H      -1.321848     1.460451     3.802413 
H      -2.339342     2.527952     2.842465 
N      -0.882544     1.235566     0.581106 
C      -3.193939     0.587015     1.542972 
O      -3.764156    -0.020362     2.433813 
O      -3.741219     1.129264     0.516178 
C      -0.890377     0.628672    -0.594188 
C      -1.376356    -0.796859    -0.653991 
H      -2.386394    -0.895593    -0.259618 
H      -1.356637    -1.157776    -1.682558 
H      -0.709397    -1.429046    -0.062259 
C       0.112658     1.071778    -1.638053 
H       0.003495     2.145562    -1.809512 
H      -0.125913     0.572770    -2.578877 
H       2.302409     2.061432    -2.578227 
C       2.180442    -3.375980    -0.435499 
C       2.076732    -2.977841    -1.759044 
C       1.902063    -1.630409    -2.036077 
C       1.834121    -0.698957    -1.001537 
C       1.956043    -1.129135     0.316477 
C       2.126349    -2.474453     0.613228 
H       2.133089    -3.716459    -2.548178 
H       1.829489    -1.296317    -3.065157 
H       1.912108    -0.406075     1.125693 
H       2.216232    -2.825839     1.632941 
N       2.358120    -4.813487    -0.132248 
O       2.426718    -5.134421     1.035818 
O       2.422407    -5.580710    -1.069390 
C       1.589357     0.763651    -1.297374 
O       2.408474     1.121344    -2.401450 
H       1.886659     1.336024    -0.409126 
H      -3.082525     1.398167    -0.530552 
O      -2.433298     1.521590    -1.467429 
H      -2.840343     0.994902    -2.163827 
43
     -1145.193489     -1144.899448   3.07   3.39
C      -3.567185    -0.379357     0.692908 
C      -2.175108    -0.390913    -1.301072 
C      -3.577734    -0.913514    -1.633029 
C      -4.460806    -0.294254    -0.546674 
H      -3.848910     0.360204     1.443566 
H      -1.936113     0.514292    -1.868623 
H      -1.400332    -1.139426    -1.482764 
H      -3.882560    -0.640592    -2.645077 
H      -3.599822    -2.003866    -1.554603 
H      -4.681438     0.753293    -0.777718 
H      -5.397250    -0.826481    -0.387206 
N      -2.235398    -0.065653     0.140762 
C      -3.684330    -1.784575     1.348672 
O      -4.795030    -2.077879     1.755239 
O      -2.638852    -2.530686     1.392915 
C      -1.173867     0.212472     0.869469 
C      -1.383837     0.588086     2.309618 
H      -1.851154     1.578694     2.345099 
H      -2.037300    -0.125418     2.810540 
H      -0.439214     0.654308     2.843831 
C       0.043561     0.721590     0.133559 
H      -0.219162     1.700005    -0.294763 
H       0.241165     0.059358    -0.705807 
H       1.082989     2.815306     1.161178 
C       4.767092     0.361936    -1.511329 
C       3.906447    -0.705063    -1.302309 
C       2.803237    -0.511778    -0.488498 
C       2.558329     0.730038     0.103260 
C       3.447887     1.775971    -0.115253 
C       4.560931     1.598537    -0.928481 
H       4.108192    -1.660044    -1.769856 
H       2.120764    -1.337015    -0.302411 
H       3.290213     2.735286     0.363645 
H       5.262946     2.402288    -1.109575 
N       5.948154     0.167623    -2.380562 
O       6.686859     1.115992    -2.544253 
O       6.104597    -0.928566    -2.876418 
C       1.319444     0.880578     0.975152 
O       1.304438     2.075927     1.736980 
H       1.357396     0.075629     1.712768 
H      -1.495816    -2.103356     1.220528 
O      -0.409891    -1.653858     1.148932 
H      -0.023534    -1.805114     2.017659 
43
     -1145.194310     -1144.899418   2.55   3.41
C       0.252412     2.311692     0.139036 
C      -1.529743     0.659575     0.128615 
C      -1.566903     1.398536    -1.202778 
C      -0.831199     2.701590    -0.889692 
H       1.222381     2.187959    -0.346577 
H      -1.644844    -0.415018     0.010516 
H      -2.296072     1.028328     0.821593 
H      -1.033759     0.818686    -1.962318 
H      -2.588701     1.561222    -1.551204 
H      -0.388857     3.180683    -1.763028 
H      -1.520414     3.419727    -0.434897 
N      -0.197509     0.995850     0.657471 
C       0.380492     3.468944     1.159488 
O       1.006899     4.439540     0.770406 
O      -0.231854     3.362106     2.285585 
C       0.379527     0.373491     1.671323 
C       1.774624     0.789483     2.058827 
H       2.467529     0.491695     1.267654 
H       1.853754     1.863565     2.214429 
H       2.077245     0.277652     2.972823 
C      -0.024896    -1.049573     1.997045 
H      -1.106061    -1.163304     1.913660 
H       0.221532    -1.221542     3.047742 
H       2.289330    -2.407179     2.254086 
C      -0.186297    -1.987993    -3.010452 
C       0.946701    -1.345984    -2.538226 
C       1.230242    -1.406497    -1.181620 
C       0.394560    -2.104852    -0.312496 
C      -0.728412    -2.753778    -0.822429 
C      -1.033459    -2.696317    -2.175146 
H       1.587610    -0.809481    -3.226058 
H       2.118383    -0.918694    -0.798672 
H      -1.375983    -3.318723    -0.156957 
H      -1.905497    -3.190546    -2.583397 
N      -0.499615    -1.918840    -4.455007 
O       0.260174    -1.292862    -5.163962 
O      -1.497927    -2.490783    -4.839805 
C       0.677347    -2.159174     1.174502 
O       2.086985    -2.139714     1.352576 
H       0.270510    -3.107740     1.550293 
H      -0.506939     2.249526     2.754059 
O      -0.634248     1.169532     3.184866 
H      -0.169048     1.149207     4.028124 
43
     -1145.192601     -1144.899118   3.62   3.59
C      -2.002600    -0.357107    -1.916364 
C      -1.973297     1.894617    -0.994347 
C      -3.408102     1.383032    -0.954423 
C      -3.403451     0.282836    -2.015880 
H      -2.035822    -1.266869    -1.313450 
H      -1.678471     2.402818    -0.076658 
H      -1.809751     2.576367    -1.837803 
H      -3.627839     0.968790     0.035610 
H      -4.132654     2.173115    -1.160288 
H      -4.186772    -0.463366    -1.884496 
H      -3.531704     0.722729    -3.009770 
N      -1.192557     0.663091    -1.205005 
C      -1.546264    -0.754397    -3.342530 
O      -2.050803    -1.775978    -3.778978 
O      -0.752844     0.034841    -3.970298 
C       0.118657     0.587252    -1.048765 
C       0.774363    -0.761862    -1.192027 
H       1.857342    -0.666704    -1.108161 
H       0.431663    -1.409135    -0.379611 
H       0.530297    -1.237733    -2.139968 
C       0.780982     1.588712    -0.129804 
H       0.465316     2.598972    -0.387072 
H       1.859593     1.542244    -0.290939 
H       1.741762     2.478945     2.335107 
C       2.232477    -2.185776     2.999622 
C       3.059440    -1.210123     2.467467 
C       2.478495    -0.069410     1.934248 
C       1.092544     0.096868     1.932155 
C       0.294138    -0.904884     2.477560 
C       0.855188    -2.055604     3.014945 
H       4.132370    -1.351917     2.472915 
H       3.126811     0.692306     1.508499 
H      -0.785045    -0.786482     2.484652 
H       0.243553    -2.840751     3.440340 
N       2.843717    -3.408342     3.568795 
O       2.095664    -4.245834     4.026753 
O       4.053175    -3.493885     3.539949 
C       0.458346     1.353316     1.361066 
O       0.804647     2.507487     2.117213 
H      -0.624892     1.260136     1.475372 
H       0.020312     0.829786    -3.354154 
O       0.752331     1.438330    -2.720045 
H       1.639686     1.169569    -2.981435 
43
     -1145.193440     -1144.898627   3.10   3.90
C      -0.361248     1.479467     3.295242 
C      -0.892600     2.261539     1.056332 
C      -0.686576     3.477195     1.951014 
C      -0.934943     2.911145     3.347322 
H       0.657393     1.460077     3.688364 
H      -0.404647     2.366426     0.089594 
H      -1.958453     2.061683     0.893380 
H       0.342087     3.839094     1.852212 
H      -1.361315     4.295203     1.693041 
H      -0.475916     3.486504     4.150280 
H      -2.009905     2.866993     3.548803 
N      -0.309132     1.161534     1.844335 
C      -1.215712     0.591970     4.229490 
O      -1.072610     0.815013     5.414157 
O      -2.058368    -0.255768     3.733274 
C       0.046593    -0.009219     1.365097 
C       0.717659    -0.996525     2.279620 
H       0.187377    -1.154587     3.214623 
H       0.828360    -1.950385     1.767035 
H       1.719458    -0.607753     2.504436 
C       0.398560    -0.167505    -0.101505 
H       1.447330    -0.486408    -0.100398 
H       0.363618     0.786879    -0.623952 
H      -1.045270    -2.313953     0.454348 
C       1.579070    -1.508038    -4.718028 
C       0.676954    -0.477075    -4.513866 
C       0.027725    -0.402434    -3.290971 
C       0.278183    -1.338822    -2.289041 
C       1.185941    -2.368500    -2.528272 
C       1.843092    -2.459222    -3.746760 
H       0.493600     0.242881    -5.300999 
H      -0.690885     0.394594    -3.119850 
H       1.367589    -3.107882    -1.757541 
H       2.550352    -3.253037    -3.950086 
N       2.278763    -1.597618    -6.017579 
O       3.062542    -2.510773    -6.172811 
O       2.026716    -0.751444    -6.850501 
C      -0.395419    -1.202837    -0.938545 
O      -0.463059    -2.458957    -0.318857 
H      -1.404276    -0.799091    -1.103322 
H      -1.967180    -0.596784     2.662929 
O      -1.824020    -1.045177     1.463428 
H      -2.547430    -0.678408     0.944523 
43
     -1145.190870     -1144.897008   4.71   4.92
C      -2.537665     1.950817     1.779398 
C      -2.310934     1.115067    -0.497284 
C      -3.451142     2.126771    -0.466043 
C      -3.859927     2.129160     1.006231 
H      -2.142872     2.917640     2.098164 
H      -1.638512     1.266101    -1.341962 
H      -2.684410     0.084252    -0.521338 
H      -3.081702     3.112107    -0.769333 
H      -4.266035     1.848027    -1.136693 
H      -4.380132     3.033161     1.321893 
H      -4.518531     1.279680     1.212878 
N      -1.616778     1.356306     0.779439 
C      -2.830899     1.115978     3.048550 
O      -3.338358     1.731908     3.969789 
O      -2.603118    -0.148566     3.009557 
C      -0.404388     0.916367     1.057525 
C       0.263616     1.423314     2.305596 
H       1.176014     0.872415     2.520538 
H       0.544690     2.468924     2.135656 
H      -0.397131     1.378720     3.169064 
C       0.448725     0.479599    -0.112730 
H       0.625287     1.361729    -0.745297 
H      -0.129684    -0.224639    -0.706765 
H       2.783511     1.515063    -0.124577 
C       2.993722    -2.866798    -2.848214 
C       3.774296    -1.747477    -2.626806 
C       3.400411    -0.860693    -1.624048 
C       2.260923    -1.094074    -0.862150 
C       1.501796    -2.242503    -1.101454 
C       1.859545    -3.135517    -2.097116 
H       4.657909    -1.580049    -3.229154 
H       4.018709     0.007484    -1.428256 
H       0.621569    -2.439740    -0.495112 
H       1.280097    -4.027684    -2.296025 
N       3.384408    -3.813046    -3.916062 
O       4.382683    -3.556368    -4.555896 
O       2.681596    -4.787290    -4.085975 
C       1.808461    -0.143488     0.238443 
O       2.772988     0.842585     0.564621 
H       1.702069    -0.743468     1.145375 
H      -1.737254    -0.610530     2.264912 
O      -0.807375    -0.981312     1.647001 
H      -0.206177    -1.329932     2.313660 
43
     -1145.192175     -1144.896948   3.89   4.96
C      -2.938659    -0.048520     0.692412 
C      -1.012539     0.958375    -0.410121 
C      -2.243388     1.037498    -1.314922 
C      -3.410106     0.993244    -0.326222 
H      -3.414801     0.096504     1.663501 
H      -0.671594     1.957998    -0.122427 
H      -0.181890     0.421710    -0.866446 
H      -2.233512     1.937343    -1.932781 
H      -2.280424     0.169019    -1.978983 
H      -3.536852     1.964907     0.163074 
H      -4.357106     0.696567    -0.773786 
N      -1.491318     0.235384     0.790610 
C      -3.308625    -1.478679     0.207186 
O      -4.498679    -1.682947     0.052129 
O      -2.363992    -2.324125    -0.013156 
C      -0.707276    -0.234108     1.735138 
C      -1.346449    -0.852383     2.951298 
H      -2.132080    -1.561046     2.692346 
H      -0.588910    -1.358093     3.550518 
H      -1.778815    -0.050841     3.562211 
C       0.646195     0.420080     1.963805 
H       0.762030     0.509600     3.047142 
H       0.611305     1.440689     1.575971 
H       3.815364     0.039343     1.976695 
C       2.664922     0.482009    -2.689510 
C       2.819990     1.521765    -1.786212 
C       2.598203     1.266520    -0.441956 
C       2.218575    -0.005704    -0.009143 
C       2.087156    -1.031969    -0.940777 
C       2.305168    -0.793651    -2.291384 
H       3.111137     2.502846    -2.138911 
H       2.720684     2.064622     0.283273 
H       1.779186    -2.016013    -0.610049 
H       2.194396    -1.578264    -3.028786 
N       2.895012     0.745220    -4.127537 
O       2.747292    -0.180375    -4.897592 
O       3.215854     1.870694    -4.447476 
C       1.946195    -0.240761     1.465647 
O       2.958124     0.368201     2.267753 
H       1.905515    -1.314633     1.656822 
H      -1.241618    -2.162143     0.400713 
O      -0.161477    -2.039929     0.899062 
H      -0.102191    -2.745957     1.550871 
43
     -1145.189933     -1144.896382   5.30   5.31
C      -1.941073    -0.994503     2.528624 
C      -3.058218    -0.067317     0.570434 
C      -4.113685    -0.399427     1.619060 
C      -3.412760    -1.449134     2.479777 
H      -1.753515    -0.398381     3.424317 
H      -3.202040     0.916407     0.123466 
H      -3.032359    -0.818426    -0.228561 
H      -4.347318     0.494094     2.207768 
H      -5.039865    -0.762279     1.169406 
H      -3.824923    -1.549765     3.483550 
H      -3.473464    -2.429790     1.997033 
N      -1.799772    -0.122979     1.333698 
C      -1.045379    -2.256108     2.606838 
O      -0.954634    -2.753518     3.717916 
O      -0.545877    -2.713566     1.518724 
C      -0.649870     0.343918     0.878213 
C       0.521588     0.390021     1.821325 
H       1.457215     0.482543     1.272953 
H       0.408554     1.273824     2.460306 
H       0.579030    -0.490106     2.456762 
C      -0.727939     1.392102    -0.213844 
H      -1.378357     2.188222     0.165993 
H      -1.223964     0.964834    -1.086369 
H       0.162466     2.987719    -2.341104 
C       3.523096    -0.138283    -2.773980 
C       3.908672     0.609952    -1.676503 
C       2.933277     1.311168    -0.979383 
C       1.596027     1.263097    -1.367046 
C       1.244016     0.496137    -2.479864 
C       2.202931    -0.209967    -3.190460 
H       4.950175     0.642092    -1.383820 
H       3.223013     1.913478    -0.123343 
H       0.206966     0.423395    -2.791456 
H       1.941411    -0.812140    -4.050985 
N       4.553164    -0.889150    -3.528095 
O       5.700889    -0.799018    -3.147234 
O       4.182204    -1.546157    -4.477452 
C       0.566626     2.104578    -0.631633 
O       0.214406     3.244931    -1.414661 
H       1.041883     2.522571     0.260021 
H      -0.341992    -1.951307     0.524522 
O      -0.097838    -1.177888    -0.281711 
H       0.847231    -1.235878    -0.453200 
43
     -1145.192640     -1144.895292   3.60   5.99
C       1.737557     2.753614    -1.608307 
C      -0.302121     1.460902    -1.890233 
C      -0.248608     2.601446    -2.908531 
C       1.250422     2.860194    -3.054236 
H       2.796231     2.496789    -1.558899 
H      -0.257363     0.493647    -2.403055 
H      -1.193953     1.497107    -1.263930 
H      -0.739341     2.328699    -3.845282 
H      -0.743192     3.489449    -2.505284 
H       1.717487     2.086271    -3.673542 
H       1.489240     3.838489    -3.468194 
N       0.918477     1.637638    -1.073238 
C       1.540793     4.118138    -0.874678 
O       2.201572     5.036840    -1.342201 
O       0.716689     4.166683     0.094501 
C       1.132936     1.092481     0.110992 
C       2.483808     1.338209     0.740558 
H       2.494994     0.954447     1.758842 
H       3.245774     0.814282     0.152480 
H       2.727846     2.398975     0.767770 
C       0.536867    -0.247978     0.520881 
H       0.691944    -0.328245     1.597521 
H       1.186560    -1.001358     0.056154 
H      -2.697268    -0.014867     0.711771 
C      -1.516448    -4.572050     1.856732 
C      -1.287711    -4.442891     0.498498 
C      -1.108679    -3.168323    -0.022158 
C      -1.152389    -2.048600     0.804347 
C      -1.388511    -2.213099     2.169502 
C      -1.573264    -3.478691     2.705285 
H      -1.254637    -5.323999    -0.129171 
H      -0.936129    -3.048961    -1.088144 
H      -1.427467    -1.345189     2.819295 
H      -1.757014    -3.626319     3.761663 
N      -1.709120    -5.927081     2.423332 
O      -1.909305    -6.010858     3.616290 
O      -1.653923    -6.865594     1.657303 
C      -0.909568    -0.663988     0.225467 
O      -1.791511     0.301199     0.795338 
H      -1.073682    -0.724190    -0.853777 
H       0.350099     3.104203     0.889700 
O       0.175126     2.200238     1.441936 
H      -0.763216     1.982336     1.386705 
43
     -1145.185190     -1144.890582   8.27   8.95
C      -0.672450     0.025937    -3.318626 
C      -1.905486     1.650755    -1.986127 
C      -1.981899     2.015907    -3.469007 
C      -1.782794     0.664799    -4.158506 
H      -0.707975    -1.064260    -3.367244 
H      -2.894517     1.371624    -1.606347 
H      -1.507940     2.454820    -1.361439 
H      -2.928616     2.498018    -3.719534 
H      -1.169551     2.698264    -3.736855 
H      -2.696601     0.064394    -4.094939 
H      -1.481534     0.741341    -5.201384 
N      -1.011123     0.474729    -1.949321 
C       0.726334     0.450936    -3.857567 
O       0.921922     0.189947    -5.030919 
O       1.562375     1.024720    -3.068080 
C      -0.427804     0.037198    -0.850675 
C       0.403761    -1.211101    -0.951473 
H       1.104862    -1.157103    -1.781952 
H       0.966217    -1.379054    -0.036978 
H      -0.266852    -2.063554    -1.114104 
C      -1.093606     0.385477     0.474376 
H      -2.146337     0.581826     0.259119 
H      -0.687882     1.311605     0.883151 
H      -3.012678    -0.723999     1.976586 
C       2.301013    -1.041851     4.157886 
C       2.409205    -0.221895     3.052141 
C       1.314597    -0.089237     2.203981 
C       0.132709    -0.775221     2.464699 
C       0.057312    -1.598444     3.591994 
C       1.136457    -1.737639     4.446415 
H       3.335637     0.302851     2.857673 
H       1.411503     0.543222     1.329701 
H      -0.864719    -2.127393     3.804720 
H       1.088044    -2.369505     5.323674 
N       3.463655    -1.184291     5.061340 
O       3.339788    -1.910987     6.025356 
O       4.470266    -0.566442     4.783762 
C      -1.093715    -0.700218     1.566518 
O      -2.204290    -0.472281     2.434048 
H      -1.213680    -1.683162     1.088121 
H       1.391282     1.155735    -1.874878 
O       1.215381     1.253772    -0.702252 
H       0.999733     2.179760    -0.547046 
43
     -1145.183727     -1144.889800   9.19   9.44
C       0.942123     1.587394     2.857953 
C       0.032396     3.056180     1.157170 
C       0.823805     3.912704     2.137623 
C       0.860900     3.035578     3.388986 
H       1.971433     1.224450     2.890149 
H       0.192085     3.336931     0.117790 
H      -1.043125     3.106549     1.372617 
H       1.832239     4.083590     1.746705 
H       0.354969     4.883523     2.308174 
H       1.691807     3.255035     4.058593 
H      -0.061402     3.162089     3.963723 
N       0.524453     1.698481     1.436651 
C       0.106595     0.676034     3.792175 
O       0.582631     0.519909     4.902527 
O      -1.017905     0.210440     3.378806 
C       0.388119     0.667974     0.621638 
C       1.019971    -0.635427     1.023755 
H       0.670649    -1.444792     0.387567 
H       2.105693    -0.538002     0.903187 
H       0.809442    -0.896899     2.057316 
C       0.227022     0.958373    -0.865307 
H       0.773766     1.879737    -1.072618 
H      -0.820511     1.151728    -1.107097 
H       0.298081     0.681890    -3.609662 
C      -1.215056    -3.663440    -2.889934 
C      -0.022633    -3.336597    -3.518701 
C       0.610682    -2.161210    -3.155668 
C       0.066106    -1.318433    -2.180273 
C      -1.131115    -1.676056    -1.569109 
C      -1.778120    -2.856482    -1.921049 
H       0.388794    -3.994771    -4.272891 
H       1.542823    -1.883470    -3.637060 
H      -1.561543    -1.058562    -0.790307 
H      -2.706784    -3.148718    -1.447990 
N      -1.902749    -4.918800    -3.266589 
O      -1.384034    -5.607540    -4.120230 
O      -2.941943    -5.181577    -2.698926 
C       0.835406    -0.040928    -1.866219 
O       1.102674     0.664718    -3.079842 
H       1.828730    -0.324273    -1.502406 
H      -1.302656     0.143254     2.195826 
O      -1.519878     0.054841     1.034614 
H      -2.173942     0.734574     0.838330 
43
     -1145.181614     -1144.887540  10.52  10.86
C      -1.526392    -1.698769    -2.508281 
C      -2.883122     0.021896    -1.475656 
C      -3.823108    -0.943224    -2.186831 
C      -2.901639    -1.611704    -3.207378 
H      -1.359003    -2.702668    -2.113215 
H      -3.250661     0.337458    -0.500855 
H      -2.702550     0.915789    -2.086975 
H      -4.212568    -1.673535    -1.469937 
H      -4.670237    -0.430182    -2.645661 
H      -3.240782    -2.595418    -3.530314 
H      -2.816816    -0.987972    -4.102009 
N      -1.638321    -0.754061    -1.367222 
C      -0.423288    -1.430846    -3.563402 
O      -0.291851    -2.314388    -4.391712 
O       0.214019    -0.315253    -3.537645 
C      -0.650453    -0.479841    -0.534242 
C       0.529887    -1.411321    -0.512888 
H       0.895437    -1.636511    -1.511226 
H       1.347467    -0.984428     0.062820 
H       0.217003    -2.349085    -0.037762 
C      -0.990681     0.278525     0.743438 
H      -2.024369     0.024741     0.987874 
H      -0.970180     1.356941     0.578233 
H      -1.712956    -0.358456     3.239604 
C       3.605182     1.757847     2.746345 
C       2.978363     1.037094     3.752158 
C       1.746625     0.467462     3.484255 
C       1.141983     0.614088     2.231969 
C       1.795546     1.344063     1.245333 
C       3.036466     1.919878     1.498739 
H       3.453758     0.932808     4.718746 
H       1.237127    -0.092783     4.259929 
H       1.361872     1.460561     0.259969 
H       3.557172     2.486290     0.737450 
N       4.924334     2.369386     3.018188 
O       5.451293     2.992000     2.119995 
O       5.399601     2.210823     4.123562 
C      -0.200980    -0.069352     2.020172 
O      -1.002670     0.284440     3.148219 
H      -0.024544    -1.154362     2.038624 
H       0.272647     0.386733    -2.537298 
O       0.344453     1.003055    -1.533722 
H      -0.193071     1.792282    -1.661387 
43
     -1145.183963     -1144.887282   9.04  11.02
C      -1.940285    -1.903234     0.761483 
C      -1.614715    -2.982184    -1.299579 
C      -1.336797    -4.018061    -0.178218 
C      -1.245753    -3.201739     1.130713 
H      -3.026049    -2.085051     0.698553 
H      -2.625966    -3.111890    -1.710809 
H      -0.901165    -3.063560    -2.119961 
H      -2.147786    -4.749004    -0.136240 
H      -0.413794    -4.568368    -0.368906 
H      -1.731998    -3.690907     1.976001 
H      -0.209050    -3.000546     1.399292 
N      -1.476142    -1.688865    -0.623615 
C      -1.792856    -0.673090     1.671587 
O      -0.886257    -0.621563     2.495905 
O      -2.666967     0.241998     1.447365 
C      -1.309403    -0.501614    -1.226301 
C      -1.225062    -0.536040    -2.731168 
H      -1.985512    -1.183183    -3.171819 
H      -1.336576     0.471171    -3.130036 
H      -0.239401    -0.913120    -3.023464 
C      -0.440208     0.577184    -0.593531 
H      -0.851257     0.934105     0.345917 
H      -0.446404     1.433329    -1.272052 
H       0.692143    -0.813327     1.319409 
C       3.151397     3.570025     1.101175 
C       3.400578     3.130375    -0.186576 
C       2.713514     2.014624    -0.647023 
C       1.796582     1.354479     0.163974 
C       1.566952     1.823784     1.459470 
C       2.244733     2.934141     1.935956 
H       4.117619     3.653387    -0.806328 
H       2.903701     1.650863    -1.652688 
H       0.850792     1.324631     2.105620 
H       2.079820     3.311323     2.937027 
N       3.875446     4.756919     1.604174 
O       3.638815     5.122147     2.736946 
O       4.663080     5.294768     0.853181 
C       1.027470     0.149550    -0.359995 
O       1.162892    -0.970437     0.483795 
H       1.478376    -0.150427    -1.311978 
H      -2.936687     0.348680     0.200251 
O      -2.924666     0.423052    -0.957540 
H      -3.653154    -0.094331    -1.319969 
43
     -1145.184205     -1144.886563   8.89  11.47
C      -1.673195     0.659933    -1.100929 
C      -1.829130     0.499164     1.228691 
C      -1.474447     1.970725     0.918740 
C      -1.211424     2.020090    -0.604755 
H      -2.775046     0.656090    -1.154582 
H      -2.914650     0.371460     1.347639 
H      -1.337899     0.132296     2.129357 
H      -2.295891     2.626066     1.216705 
H      -0.588988     2.279672     1.477885 
H      -1.756855     2.818689    -1.109567 
H      -0.153856     2.149136    -0.829293 
N      -1.349803    -0.227997     0.046718 
C      -1.212515     0.199921    -2.501496 
O      -0.342605     0.833859    -3.078995 
O      -1.841748    -0.828385    -2.944320 
C      -1.135535    -1.546911     0.010892 
C      -1.405599    -2.311763     1.277473 
H      -0.626078    -2.087531     2.009040 
H      -2.378293    -2.050405     1.698670 
H      -1.366284    -3.380245     1.075582 
C      -0.051073    -2.122502    -0.877161 
H      -0.037041    -1.643760    -1.850585 
H      -0.267240    -3.180235    -1.033039 
H       2.382014    -3.038663     1.043235 
C       2.579461     1.994793     0.584023 
C       2.342140     1.134546     1.642637 
C       1.951894    -0.168858     1.364440 
C       1.800750    -0.600744     0.048024 
C       2.060704     0.287311    -0.995768 
C       2.448605     1.591529    -0.735843 
H       2.460054     1.485408     2.660140 
H       1.761114    -0.853583     2.183504 
H       1.929674    -0.022027    -2.027299 
H       2.630584     2.293823    -1.538955 
N       2.972202     3.390090     0.872462 
O       3.154303     4.129698    -0.072377 
O       3.084965     3.713743     2.037382 
C       1.369730    -2.021269    -0.282090 
O       1.453297    -2.895808     0.837101 
H       2.031796    -2.387554    -1.078074 
H      -2.352390    -1.616024    -2.006234 
O      -2.584387    -2.251690    -1.113807 
H      -3.451312    -2.002091    -0.775179 
43
     -1145.179925     -1144.884437  11.58  12.81
C      -1.722017    -2.369806     0.681431 
C       0.314797    -1.324395    -0.109844 
C       0.479768    -2.831617    -0.242576 
C      -0.551148    -3.375241     0.743708 
H      -2.530465    -2.759363     0.060490 
H       0.693460    -0.797132    -0.973458 
H       0.797518    -0.938825     0.794192 
H       0.244485    -3.136324    -1.268006 
H       1.498816    -3.151810    -0.017022 
H      -0.891263    -4.386572     0.521028 
H      -0.132792    -3.385914     1.754620 
N      -1.145556    -1.166276     0.021857 
C      -2.275899    -2.204116     2.115530 
O      -2.941558    -3.135176     2.528799 
O      -1.941178    -1.158777     2.794119 
C      -1.844747    -0.066821    -0.166600 
C      -3.347835    -0.168251    -0.032351 
H      -3.662920    -0.658536     0.885221 
H      -3.792445     0.827231    -0.064709 
H      -3.733895    -0.738840    -0.885090 
C      -1.469096     1.091651    -1.087494 
H      -1.690398     2.004017    -0.531681 
H      -2.239851     1.042482    -1.869731 
H      -0.583501     0.239787    -3.452916 
C       3.475621     2.192699     0.223627 
C       2.282442     2.282133     0.915998 
C       1.098456     1.972456     0.258017 
C       1.117264     1.573979    -1.075242 
C       2.338855     1.490731    -1.748099 
C       3.525885     1.796763    -1.103721 
H       2.283254     2.584833     1.955216 
H       0.169288     2.005938     0.813916 
H       2.358533     1.176814    -2.785111 
H       4.479000     1.733889    -1.612529 
N       4.736805     2.523265     0.920856 
O       4.663826     2.864576     2.082946 
O       5.768617     2.433224     0.288157 
C      -0.157560     1.297316    -1.856591 
O       0.092973     0.230115    -2.769564 
H      -0.345978     2.212995    -2.438225 
H      -1.657221    -0.157650     2.228021 
O      -1.514732     0.887316     1.612556 
H      -2.247606     1.447235     1.890256 
43
     -1145.176769     -1144.880945  13.56  15.00
C      -1.059292     2.397169    -0.929950 
C       0.472302     2.761168    -2.661323 
C      -0.938242     3.056084    -3.233357 
C      -1.933319     2.555611    -2.159377 
H      -0.798594     3.397599    -0.545075 
H       0.964538     3.685584    -2.329069 
H       1.121908     2.266616    -3.383180 
H      -1.049603     4.126802    -3.418371 
H      -1.089842     2.544721    -4.185838 
H      -2.756300     3.246978    -1.975896 
H      -2.363996     1.587319    -2.421159 
N       0.200666     1.877994    -1.520729 
C      -1.622345     1.644464     0.291741 
O      -2.696118     1.074219     0.195501 
O      -0.879507     1.719767     1.340795 
C       1.090389     1.076792    -0.936548 
C       2.485817     1.073133    -1.496504 
H       2.843482     2.085949    -1.687234 
H       3.156516     0.566222    -0.807096 
H       2.487580     0.520001    -2.442738 
C       0.594113    -0.242427    -0.374321 
H       0.673504    -0.925028    -1.236072 
H      -0.465660    -0.195311    -0.152446 
H       2.487875    -2.015271    -0.326160 
C      -1.143773    -3.837819     2.653264 
C      -1.555094    -2.514351     2.626539 
C      -0.732821    -1.572210     2.031516 
C       0.484568    -1.952450     1.458644 
C       0.876976    -3.286730     1.516556 
C       0.063514    -4.241698     2.113251 
H      -2.503481    -2.233568     3.065612 
H      -1.040747    -0.531073     2.014152 
H       1.836070    -3.592917     1.115629 
H       0.356542    -5.282489     2.164487 
N      -2.018244    -4.848072     3.286255 
O      -3.070920    -4.467442     3.754345 
O      -1.630364    -5.998558     3.299327 
C       1.354476    -0.888221     0.799678 
O       2.621697    -1.384797     0.390113 
H       1.578426    -0.126304     1.546241 
H       0.404687     1.967991     1.123704 
O       1.468968     1.994537     0.794798 
H       1.723652     2.910019     0.640297 
43
     -1145.170116     -1144.875997  17.73  18.10
C      -2.088011    -1.180711     2.286987 
C      -2.580897    -2.353107     0.322843 
C      -2.860497    -3.311143     1.511357 
C      -2.265705    -2.611809     2.756952 
H      -3.082176    -0.711139     2.199314 
H      -3.502039    -1.858238    -0.012433 
H      -2.135485    -2.865414    -0.529236 
H      -3.935937    -3.470961     1.616060 
H      -2.402347    -4.287755     1.344302 
H      -2.911424    -2.665319     3.633672 
H      -1.294191    -3.026141     3.033700 
N      -1.643679    -1.374842     0.886652 
C      -1.279842    -0.197054     3.155616 
O      -0.728170    -0.610616     4.158827 
O      -1.326455     1.023671     2.742295 
C      -0.789448    -0.626677     0.201994 
C      -0.817870    -0.782102    -1.293779 
H      -0.275543     0.027869    -1.774047 
H      -0.336730    -1.727053    -1.568714 
H      -1.841627    -0.795323    -1.669864 
C       0.530637    -0.238244     0.862389 
H       0.699420    -0.955013     1.668344 
H       0.463583     0.739845     1.335543 
H       3.066382     0.360346     1.303245 
C       2.643242     2.910620    -2.719869 
C       1.583239     3.065292    -1.847762 
C       1.278228     2.029506    -0.970209 
C       2.027083     0.855755    -0.975151 
C       3.094693     0.735292    -1.869700 
C       3.411675     1.755882    -2.748198 
H       1.005984     3.980846    -1.857075 
H       0.434176     2.148831    -0.301838 
H       3.690466    -0.172220    -1.864060 
H       4.236940     1.673280    -3.443591 
N       2.968974     4.010922    -3.653737 
O       2.280343     5.008665    -3.608185 
O       3.905122     3.847642    -4.408293 
C       1.787662    -0.307846    -0.018659 
O       2.928883    -0.464024     0.823239 
H       1.771771    -1.232902    -0.604291 
H      -1.577943     1.195122     1.498904 
O      -1.608470     1.220714     0.346535 
H      -2.524014     1.235555     0.049919 
