40
     -1068.717904     -1068.442971   0.00   0.00
C      -1.306739    -1.388216     2.002582 
C      -3.115193    -2.285650     0.672794 
C      -2.970891    -3.089480     1.970526 
C      -2.275416    -2.114929     2.925387 
H      -1.002608    -0.412047     2.380520 
H      -4.067713    -1.747916     0.634439 
H      -3.028257    -2.907340    -0.217232 
H      -3.937590    -3.441223     2.335697 
H      -2.332226    -3.960274     1.798321 
H      -2.994361    -1.413027     3.361315 
H      -1.732726    -2.610778     3.729396 
N      -2.023558    -1.289416     0.726623 
C      -0.003500    -2.245433     1.688142 
O       0.655945    -2.595563     2.654920 
O       0.190890    -2.448680     0.449676 
C      -1.322389    -0.915357    -0.312782 
C      -1.712286    -1.362910    -1.687208 
H      -1.612601    -2.446821    -1.770315 
H      -2.756277    -1.094024    -1.882046 
H      -1.069482    -0.898721    -2.431863 
C      -0.392690     0.270373    -0.219565 
H      -0.538218     0.799036     0.723636 
H      -0.735350     0.942915    -1.015561 
H       1.178354    -1.791997    -1.024705 
C       2.934884     3.761118    -1.377895 
C       2.653086     3.463829    -0.054230 
C       2.084604     2.233755     0.237891 
C       1.799488     1.318240    -0.774630 
C       2.101289     1.643571    -2.094772 
C       2.672272     2.870027    -2.404800 
H       2.879567     4.184958     0.720620 
H       1.867225     1.978996     1.271550 
H       1.898413     0.925690    -2.880352 
H       2.914597     3.138902    -3.424999 
N       3.540138     5.070206    -1.702653 
O       3.779660     5.306057    -2.868714 
O       3.760824     5.831014    -0.782899 
C       1.124688     0.008320    -0.429220 
O       1.359442    -0.934403    -1.446968 
H       1.534712    -0.352798     0.519375 
40
     -1068.717247     -1068.442843   0.41   0.08
C       0.783662     2.628783    -0.152816 
C       0.190941     3.309431     2.054606 
C       0.233670     4.581620     1.213001 
C       0.990662     4.152031    -0.056790 
H       0.270317     2.330815    -1.066688 
H      -0.621941     3.283177     2.781584 
H       1.144770     3.137260     2.566970 
H      -0.786829     4.894040     0.970092 
H       0.721044     5.401105     1.743910 
H       0.624152     4.665893    -0.946566 
H       2.058461     4.362944     0.025391 
N       0.007234     2.266054     1.037556 
C       2.140698     1.810172    -0.042606 
O       2.977054     2.046467    -0.901243 
O       2.176728     1.001300     0.935371 
C      -0.118579     0.997796     1.318421 
C      -0.297391     0.559824     2.735811 
H      -0.178555    -0.520695     2.801249 
H       0.427741     1.043351     3.390962 
H      -1.306731     0.828192     3.071075 
C      -0.467274    -0.000439     0.243542 
H      -0.810555     0.514685    -0.655459 
H      -1.328213    -0.547263     0.646730 
H       1.939543    -0.827371     1.194229 
C      -1.379615    -4.205504    -2.214711 
C      -1.046472    -4.386505    -0.882768 
C      -0.381009    -3.366838    -0.216740 
C      -0.055948    -2.185341    -0.878596 
C      -0.396977    -2.037332    -2.222469 
C      -1.063353    -3.045006    -2.902447 
H      -1.305858    -5.311963    -0.384703 
H      -0.099173    -3.490448     0.822024 
H      -0.130484    -1.124694    -2.748472 
H      -1.335351    -2.944832    -3.945375 
N      -2.091329    -5.287121    -2.928395 
O      -2.369633    -5.102230    -4.095361 
O      -2.355047    -6.294466    -2.305187 
C       0.617874    -1.044004    -0.147526 
O       1.303514    -1.533520     0.977915 
H       1.318248    -0.559360    -0.835520 
40
     -1068.717771     -1068.441764   0.08   0.76
C      -0.169549     0.244627     3.238679 
C       2.129150    -0.017896     2.578493 
C       2.030817    -0.409017     4.048835 
C       0.718589     0.249051     4.495751 
H      -0.989917    -0.468934     3.323041 
H       2.761845    -0.683242     1.989219 
H       2.482016     1.014128     2.467248 
H       1.970643    -1.498597     4.137123 
H       2.896753    -0.069069     4.619543 
H       0.243184    -0.274175     5.325834 
H       0.890534     1.279682     4.815315 
N       0.730253    -0.112059     2.130807 
C      -0.751620     1.673712     2.898294 
O      -1.449808     2.194762     3.751122 
O      -0.401759     2.110028     1.752079 
C       0.324970     0.159278     0.912861 
C       1.314281     0.411821    -0.173355 
H       0.949767     1.243804    -0.776572 
H       2.304343     0.652708     0.205242 
H       1.368086    -0.465143    -0.826590 
C      -1.085905    -0.185265     0.509691 
H      -1.761235    -0.061465     1.353529 
H      -1.057116    -1.261884     0.293275 
H      -1.239035     2.206820     0.235946 
C      -0.457052    -1.066497    -4.489298 
C      -1.058905    -1.900791    -3.560542 
C      -1.447956    -1.362657    -2.344483 
C      -1.231623    -0.014892    -2.050464 
C      -0.638568     0.798864    -3.012534 
C      -0.245078     0.277406    -4.237696 
H      -1.219470    -2.944714    -3.797135 
H      -1.940579    -2.006997    -1.621616 
H      -0.492014     1.849303    -2.795455 
H       0.218726     0.899728    -4.992326 
N      -0.037511    -1.628899    -5.790163 
O       0.483461    -0.876310    -6.586761 
O      -0.239163    -2.810357    -5.982453 
C      -1.683882     0.555010    -0.711241 
O      -1.452858     1.938768    -0.682515 
H      -2.766819     0.359362    -0.650728 
40
     -1068.717771     -1068.441760   0.08   0.76
C      -1.877557    -1.087433    -2.422788 
C      -0.769454     0.931874    -3.117977 
C      -1.977036     0.739248    -4.028577 
C      -2.301339    -0.751530    -3.863835 
H      -2.738222    -1.261148    -1.775974 
H      -0.624896     1.963518    -2.793869 
H       0.147569     0.567943    -3.596085 
H      -2.807014     1.360262    -3.676329 
H      -1.757677     1.018558    -5.060557 
H      -3.353791    -0.978023    -4.036629 
H      -1.718529    -1.355064    -4.563811 
N      -1.099590     0.075241    -1.967589 
C      -0.906232    -2.331522    -2.347146 
O      -1.336943    -3.386067    -2.781540 
O       0.231198    -2.063521    -1.836253 
C      -0.323195    -0.089607    -0.922932 
C       0.896923     0.749146    -0.749193 
H       1.700316     0.107146    -0.386795 
H       1.213184     1.230102    -1.671281 
H       0.711375     1.504918     0.020910 
C      -0.858166    -0.808225     0.289181 
H      -1.549028    -1.593162    -0.010890 
H      -1.458516    -0.053954     0.815896 
H       0.902980    -2.361222    -0.264904 
C       1.833385     1.457687     4.001744 
C       2.689631     0.702928     3.219763 
C       2.148815    -0.220962     2.335613 
C       0.769568    -0.383588     2.232071 
C      -0.065077     0.380994     3.049691 
C       0.456938     1.309868     3.935377 
H       3.759920     0.839553     3.307391 
H       2.798224    -0.830060     1.719746 
H      -1.142251     0.245014     3.009774 
H      -0.181428     1.909435     4.571412 
N       2.402260     2.445443     4.942638 
O       3.610250     2.552380     4.983828 
O       1.625940     3.090513     5.616948 
C       0.169805    -1.409691     1.278005 
O       1.197268    -2.119947     0.638602 
H      -0.419607    -2.097043     1.906362 
40
     -1068.716958     -1068.441393   0.59   0.99
C       2.234446     0.126527    -2.335009 
C       1.810691    -2.195339    -1.833854 
C       2.492871    -2.074469    -3.202210 
C       3.202981    -0.721498    -3.144437 
H       2.725299     0.969436    -1.848081 
H       2.433487    -2.729678    -1.110643 
H       0.851604    -2.702710    -1.914714 
H       3.167588    -2.911758    -3.390039 
H       1.737419    -2.063187    -3.992989 
H       4.163582    -0.803954    -2.625432 
H       3.368239    -0.277198    -4.125469 
N       1.640413    -0.800308    -1.362893 
C       1.009612     0.664562    -3.186566 
O       1.260989     1.242897    -4.228486 
O      -0.124365     0.418055    -2.649375 
C       0.572974    -0.350899    -0.730687 
C      -0.441859    -1.278929    -0.150575 
H      -0.343213    -2.306859    -0.483855 
H      -0.366864    -1.242322     0.940253 
H      -1.432111    -0.906792    -0.416679 
C       0.598067     1.046063    -0.152605 
H       1.149034     1.718433    -0.804814 
H       1.185289     0.958103     0.771092 
H      -1.244867     1.339958    -1.677682 
C      -2.447875     0.497983     3.930078 
C      -3.201330     0.350865     2.778891 
C      -2.651364     0.739834     1.564873 
C      -1.362915     1.264459     1.503578 
C      -0.636835     1.416306     2.686583 
C      -1.168464     1.030383     3.906478 
H      -4.201093    -0.059925     2.838971 
H      -3.223975     0.642686     0.651301 
H       0.357012     1.854744     2.664243 
H      -0.613074     1.141197     4.828864 
N      -3.026434     0.083392     5.225435 
O      -2.342218     0.227216     6.217749 
O      -4.149518    -0.375987     5.218779 
C      -0.759761     1.714130     0.178522 
O      -1.707637     1.573570    -0.847544 
H      -0.515826     2.781010     0.308946 
40
     -1068.716006     -1068.441271   1.19   1.07
C       0.539493     1.937322    -1.321690 
C       0.596599     3.833825     0.167208 
C       0.695820     4.367558    -1.257741 
C       1.161771     3.140294    -2.052453 
H      -0.281916     1.498147    -1.887839 
H      -0.068509     4.411654     0.810463 
H       1.585634     3.766486     0.635018 
H      -0.290815     4.699855    -1.597024 
H       1.383362     5.212110    -1.330321 
H       0.862736     3.172992    -3.100380 
H       2.251360     3.056152    -2.026375 
N       0.067581     2.475896    -0.036964 
C       1.609544     0.822164    -0.977325 
O       2.100678     0.246283    -1.942599 
O       1.818980     0.668319     0.258588 
C      -0.175051     1.640544     0.935587 
C      -0.093269     2.119934     2.349537 
H      -0.784379     2.957048     2.493854 
H      -0.358759     1.324966     3.042804 
H       0.918182     2.473430     2.560891 
C      -0.850496     0.326943     0.670862 
H      -0.810082     0.077795    -0.386152 
H      -1.908982     0.476349     0.931899 
H      -0.687423    -1.534117     3.307248 
C      -0.716711    -4.417273    -0.819273 
C      -1.726665    -4.100695     0.073507 
C      -1.595742    -2.952045     0.841882 
C      -0.468016    -2.143863     0.717595 
C       0.535087    -2.488608    -0.188795 
C       0.413602    -3.629306    -0.967210 
H      -2.594256    -4.742853     0.155792 
H      -2.377075    -2.678743     1.542330 
H       1.406577    -1.850837    -0.297985 
H       1.177658    -3.907192    -1.681499 
N      -0.851608    -5.636872    -1.645792 
O       0.044187    -5.891749    -2.423299 
O      -1.851011    -6.309653    -1.496444 
C      -0.329777    -0.855670     1.509308 
O      -1.080131    -0.878094     2.722092 
H       0.731819    -0.688502     1.710689 
40
     -1068.716006     -1068.441267   1.19   1.07
C       0.708913     1.649620    -1.602284 
C       3.046783     2.086745    -1.202072 
C       2.555106     3.116963    -2.213065 
C       1.281849     2.468440    -2.772611 
H      -0.185774     2.110217    -1.183356 
H       3.699886     2.499683    -0.432020 
H       3.555437     1.253532    -1.700669 
H       2.321112     4.055442    -1.699757 
H       3.303114     3.325435    -2.980056 
H       0.561129     3.196996    -3.144648 
H       1.524138     1.796889    -3.600429 
N       1.791950     1.598346    -0.608457 
C       0.399600     0.151147    -2.009788 
O      -0.502620     0.002249    -2.827368 
O       1.128278    -0.704151    -1.433149 
C       1.739523     0.684289     0.321229 
C       3.007389     0.221057     0.964366 
H       3.525514     1.075670     1.412021 
H       2.800712    -0.508927     1.743789 
H       3.664041    -0.218003     0.210227 
C       0.439881     0.337228     0.986325 
H      -0.401887     0.698698     0.401729 
H       0.435661     0.885658     1.940296 
H       0.806603    -2.331400     2.770853 
C      -3.916369    -2.063780     1.048994 
C      -3.141026    -2.098111    -0.099073 
C      -1.786284    -1.823101     0.005411 
C      -1.223858    -1.511812     1.243715 
C      -2.028221    -1.479872     2.380527 
C      -3.384843    -1.760053     2.290973 
H      -3.595712    -2.332848    -1.052682 
H      -1.163443    -1.832364    -0.883499 
H      -1.590201    -1.231407     3.340843 
H      -4.026947    -1.741915     3.162308 
N      -5.362489    -2.358015     0.944531 
O      -6.018832    -2.321877     1.965146 
O      -5.806043    -2.617667    -0.154454 
C       0.250837    -1.156661     1.310757 
O       0.807798    -1.383138     2.604151 
H       0.779294    -1.739200     0.551243 
40
     -1068.716940     -1068.441171   0.60   1.13
C      -0.626587     2.125056     0.930423 
C      -0.943273     1.826847     3.313241 
C      -0.335667     3.204899     3.036825 
C      -0.749394     3.492533     1.591800 
H      -1.267552     2.024786     0.054763 
H      -1.967243     1.906367     3.692202 
H      -0.352847     1.241685     4.016658 
H      -0.689811     3.952866     3.748807 
H       0.754214     3.149240     3.108767 
H      -1.782876     3.852626     1.547425 
H      -0.104181     4.213825     1.091113 
N      -0.985282     1.169613     1.987673 
C       0.870325     1.772860     0.524064 
O       1.394404     2.531828    -0.283116 
O       1.327610     0.731925     1.077355 
C      -0.672264    -0.085204     1.790315 
C      -0.472228    -1.002106     2.957297 
H      -1.263895    -0.854088     3.696904 
H      -0.472705    -2.040699     2.632845 
H       0.487263    -0.774806     3.429466 
C      -0.860212    -0.718912     0.441216 
H      -0.932274     0.033980    -0.338070 
H      -1.828473    -1.238985     0.486421 
H       0.445289    -3.674800     0.393896 
C       0.857917    -1.541967    -4.155387 
C      -0.034045    -2.485538    -3.674464 
C      -0.235030    -2.569842    -2.303425 
C       0.453671    -1.725443    -1.435897 
C       1.348371    -0.785448    -1.948582 
C       1.553182    -0.686053    -3.316041 
H      -0.558191    -3.133027    -4.365762 
H      -0.934722    -3.295176    -1.903337 
H       1.873120    -0.118212    -1.272290 
H       2.236662     0.043093    -3.731261 
N       1.072868    -1.442466    -5.615717 
O       0.452108    -2.204150    -6.328581 
O       1.856316    -0.605815    -6.013391 
C       0.208302    -1.762541     0.062162 
O      -0.263570    -3.033022     0.506270 
H       1.140699    -1.495725     0.567414 
40
     -1068.712705     -1068.439511   3.26   2.17
C       0.473287    -0.858409    -1.418502 
C      -1.856495    -0.376768    -1.972980 
C      -1.703158    -1.872405    -1.721798 
C      -0.214351    -2.099664    -1.989807 
H       0.756084    -1.003734    -0.377970 
H      -2.707667     0.077122    -1.464721 
H      -1.905878    -0.156368    -3.043746 
H      -1.954121    -2.106480    -0.681159 
H      -2.355619    -2.459710    -2.370822 
H       0.177471    -3.007327    -1.529826 
H      -0.024796    -2.152061    -3.065762 
N      -0.587484     0.185582    -1.459533 
C       1.714858    -0.403914    -2.271817 
O       2.810235    -0.650470    -1.741737 
O       1.411793     0.158742    -3.337016 
C      -0.409936     1.428261    -1.191555 
C      -1.540014     2.395355    -1.383269 
H      -2.249838     2.304883    -0.555029 
H      -1.163937     3.416773    -1.382639 
H      -2.067804     2.201649    -2.319451 
C       0.892205     1.956787    -0.664157 
H       1.085179     2.906856    -1.171802 
H       1.724057     1.288612    -0.874336 
H       0.131669     3.972106     1.317227 
C       0.497773    -1.557092     2.855438 
C       1.704852    -1.210261     2.267955 
C       1.808517     0.025663     1.650007 
C       0.718591     0.897467     1.616712 
C      -0.477614     0.525535     2.223134 
C      -0.595989    -0.709247     2.848802 
H       2.534949    -1.904314     2.287215 
H       2.736866     0.290970     1.153153 
H      -1.319033     1.208340     2.216254 
H      -1.518878    -1.015548     3.324432 
N       0.373264    -2.878911     3.508238 
O      -0.701029    -3.166195     3.994569 
O       1.351702    -3.596263     3.514860 
C       0.849650     2.206443     0.864444 
O      -0.213677     3.082069     1.219582 
H       1.814316     2.655925     1.127410 
40
     -1068.713041     -1068.439459   3.05   2.20
C       0.795578     0.462132     1.487304 
C      -1.571726     0.665772     1.865086 
C      -1.032389     2.072486     1.624152 
C       0.475936     1.915796     1.872784 
H       1.382702     0.404701     0.572241 
H      -2.525347     0.462593     1.376019 
H      -1.658141     0.445369     2.935237 
H      -1.227480     2.367622     0.587725 
H      -1.502967     2.806690     2.281021 
H       1.070500     2.623628     1.293524 
H       0.717567     2.069684     2.926747 
N      -0.509786    -0.177602     1.296635 
C       1.541297    -0.352870     2.639447 
O       2.612889     0.139932     2.984179 
O       0.934699    -1.381186     3.027327 
C      -0.592501    -1.459495     1.140019 
C      -1.877227    -2.157450     1.454986 
H      -1.764459    -3.233750     1.344192 
H      -2.179862    -1.922406     2.478316 
H      -2.665296    -1.828921     0.770405 
C       0.486818    -2.230712     0.431592 
H       0.490411    -3.249376     0.821157 
H       1.468489    -1.801885     0.612227 
H      -1.120240    -3.039955    -2.260300 
C       0.682583     1.690165    -2.648142 
C      -0.594176     1.201363    -2.429194 
C      -0.737686    -0.095414    -1.954547 
C       0.379582    -0.889839    -1.708011 
C       1.650533    -0.374884    -1.962067 
C       1.814187     0.921011    -2.428463 
H      -1.452812     1.832711    -2.619959 
H      -1.729365    -0.489708    -1.762873 
H       2.528883    -0.987635    -1.776875 
H       2.795397     1.338057    -2.614840 
N       0.844550     3.081048    -3.125433 
O      -0.163317     3.730193    -3.313759 
O       1.975116     3.487650    -3.293351 
C       0.247517    -2.273035    -1.093885 
O      -1.026361    -2.858219    -1.320060 
H       1.035909    -2.914259    -1.510568 
40
     -1068.712282     -1068.439005   3.53   2.49
C       2.230103     0.078146    -1.479202 
C       1.155055     0.397543    -3.623961 
C       2.678632     0.414937    -3.793981 
C       3.187262    -0.362891    -2.576688 
H       2.139549    -0.646059    -0.669936 
H       0.702177    -0.469047    -4.116309 
H       0.680057     1.304871    -3.997416 
H       2.982180    -0.019763    -4.748649 
H       3.043496     1.445088    -3.754360 
H       3.116863    -1.443031    -2.745406 
H       4.211268    -0.111356    -2.303095 
N       0.951198     0.265529    -2.165931 
C       2.594657     1.517416    -0.877510 
O       3.749563     1.635429    -0.481803 
O       1.638044     2.337553    -0.889306 
C      -0.010710     0.835152    -1.506043 
C      -1.121875     1.522318    -2.238388 
H      -0.752392     2.489301    -2.592661 
H      -1.455776     0.941094    -3.101396 
H      -1.968966     1.706463    -1.577905 
C      -0.220992     0.596481    -0.036022 
H      -0.629859     1.511414     0.395055 
H       0.705794     0.375345     0.485630 
H      -1.161327    -2.480554    -0.220671 
C      -1.998750    -0.900665     4.384763 
C      -2.915388    -0.247774     3.579099 
C      -2.654710    -0.160923     2.218488 
C      -1.496452    -0.713938     1.677853 
C      -0.594310    -1.368246     2.516672 
C      -0.840242    -1.466849     3.877700 
H      -3.809729     0.178306     4.015076 
H      -3.368454     0.341988     1.572041 
H       0.307010    -1.803734     2.099203 
H      -0.151183    -1.970405     4.543534 
N      -2.265960    -0.998824     5.837101 
O      -1.447092    -1.577365     6.519862 
O      -3.287425    -0.494091     6.253920 
C      -1.199077    -0.568358     0.195869 
O      -0.578376    -1.725290    -0.346746 
H      -2.143867    -0.365218    -0.328485 
40
     -1068.712173     -1068.438826   3.60   2.60
C      -0.707682    -1.305503    -0.858951 
C       1.697756    -1.566732    -0.769431 
C       1.167977    -2.050111    -2.123306 
C      -0.161666    -1.306316    -2.277924 
H      -1.402460    -0.487945    -0.675879 
H       2.320946    -0.672136    -0.871853 
H       2.260111    -2.332480    -0.235681 
H       1.878541    -1.850035    -2.927988 
H       0.986533    -3.127940    -2.085792 
H      -0.000924    -0.280945    -2.630621 
H      -0.859824    -1.808837    -2.945979 
N       0.482630    -1.192519    -0.013499 
C      -1.407400    -2.683987    -0.434381 
O      -2.255510    -3.086502    -1.225746 
O      -1.000348    -3.153827     0.657458 
C       0.360980    -1.283626     1.273114 
C       1.534912    -1.697030     2.104200 
H       1.334059    -1.547127     3.162139 
H       1.722699    -2.760568     1.928002 
H       2.430899    -1.133635     1.830777 
C      -0.853547    -0.752397     1.982836 
H      -0.994462    -1.337238     2.894840 
H      -1.753567    -0.868081     1.385158 
H       0.223801     0.720024     4.077895 
C      -0.351398     2.987912    -1.275331 
C      -1.605540     2.599400    -0.833007 
C      -1.696010     1.906077     0.364721 
C      -0.553328     1.597933     1.101949 
C       0.690684     2.021014     0.640340 
C       0.799969     2.719491    -0.554085 
H      -2.482703     2.833839    -1.422073 
H      -2.672335     1.590487     0.723237 
H       1.579476     1.804989     1.221368 
H       1.759676     3.050760    -0.929457 
N      -0.239783     3.713390    -2.559131 
O      -1.263887     3.922813    -3.175723 
O       0.868864     4.050807    -2.918855 
C      -0.684074     0.747336     2.347807 
O       0.446943     0.972116     3.177502 
H      -1.601010     1.047131     2.871350 
40
     -1068.711198     -1068.438417   4.21   2.86
C       1.562621     1.396629     1.724987 
C      -0.149176     1.780131     3.379030 
C       0.686685     3.053178     3.285712 
C       1.987113     2.564581     2.631243 
H       1.601708     1.661174     0.668057 
H      -1.224070     1.955958     3.444733 
H       0.169800     1.155191     4.221381 
H       0.176782     3.780746     2.645398 
H       0.842462     3.511467     4.264286 
H       2.497232     3.347136     2.068704 
H       2.687234     2.197775     3.385776 
N       0.184562     1.091949     2.123965 
C       2.413646     0.072556     1.981789 
O       3.617924     0.199619     1.780181 
O       1.733916    -0.914828     2.361687 
C      -0.369013    -0.006022     1.719744 
C      -1.526674    -0.575424     2.476527 
H      -2.418437     0.040662     2.314652 
H      -1.738090    -1.589552     2.136929 
H      -1.312392    -0.600627     3.545916 
C      -0.074100    -0.604513     0.374377 
H       0.096130    -1.673422     0.510395 
H       0.823895    -0.180898    -0.068913 
H      -2.230559     1.188706    -1.218376 
C      -0.242087    -1.967665    -4.427607 
C       0.203904    -0.701017    -4.086409 
C      -0.140309    -0.188902    -2.844680 
C      -0.920515    -0.934378    -1.960867 
C      -1.357474    -2.202323    -2.336775 
C      -1.019689    -2.731596    -3.574675 
H       0.808839    -0.137067    -4.784738 
H       0.199825     0.799866    -2.556288 
H      -1.972807    -2.786504    -1.658303 
H      -1.349266    -3.715854    -3.881423 
N       0.124527    -2.522297    -5.749921 
O       0.805750    -1.831614    -6.478136 
O      -0.279135    -3.633397    -6.022606 
C      -1.255339    -0.386852    -0.585818 
O      -1.510361     1.012016    -0.604607 
H      -2.135068    -0.924586    -0.205336 
40
     -1068.711403     -1068.438062   4.08   3.08
C       1.919030    -1.040124     1.859442 
C       0.858155    -2.581254     0.328572 
C       1.649461    -3.355455     1.390396 
C       1.750539    -2.376489     2.564089 
H       1.630888    -0.184855     2.471165 
H      -0.215105    -2.787807     0.386187 
H       1.206419    -2.787467    -0.683522 
H       1.160094    -4.296667     1.649110 
H       2.649763    -3.582877     1.012766 
H       0.836386    -2.390300     3.168124 
H       2.606744    -2.568734     3.209089 
N       1.079817    -1.155125     0.663229 
C       3.412616    -0.812843     1.312019 
O       4.285642    -0.948939     2.164113 
O       3.476216    -0.523828     0.092235 
C       1.114707    -0.201778    -0.216382 
C       0.734879    -0.470553    -1.637080 
H       1.611423    -0.901605    -2.133348 
H      -0.093258    -1.177677    -1.710820 
H       0.465565     0.452393    -2.147227 
C       1.296640     1.229214     0.208426 
H       1.576316     1.821898    -0.663926 
H       2.086578     1.337754     0.945836 
H      -0.471145     3.523410     1.596360 
C      -3.293192     1.455525    -1.900231 
C      -2.390214     2.493447    -2.067979 
C      -1.334448     2.605513    -1.175528 
C      -1.186605     1.691217    -0.132789 
C      -2.116375     0.664511     0.012092 
C      -3.178084     0.535332    -0.872694 
H      -2.520568     3.193190    -2.883393 
H      -0.617160     3.412096    -1.284894 
H      -2.014337    -0.043867     0.829410 
H      -3.908325    -0.257354    -0.773608 
N      -4.422126     1.328642    -2.849669 
O      -5.196831     0.411335    -2.677289 
O      -4.500457     2.148774    -3.739513 
C      -0.004491     1.793046     0.813749 
O       0.293116     3.136425     1.156204 
H      -0.238275     1.211878     1.717284 
40
     -1068.709981     -1068.437437   4.97   3.47
C       1.721282    -0.128659    -1.983437 
C       0.130612    -0.022972    -3.805666 
C       1.559868    -0.104271    -4.356755 
C       2.359588    -0.744084    -3.218149 
H       1.857305    -0.719975    -1.078313 
H      -0.467013    -0.895752    -4.086884 
H      -0.387827     0.881944    -4.123325 
H       1.597791    -0.670859    -5.289469 
H       1.937423     0.902765    -4.552149 
H       2.244538    -1.833894    -3.219961 
H       3.419925    -0.497520    -3.249851 
N       0.300542    -0.018681    -2.332198 
C       2.215769     1.378453    -1.715829 
O       3.436016     1.499623    -1.660331 
O       1.287426     2.213743    -1.598399 
C      -0.507754     0.577729    -1.513476 
C      -1.809589     1.129790    -1.999317 
H      -1.613877     2.143190    -2.367736 
H      -2.239463     0.542248    -2.812139 
H      -2.528094     1.204185    -1.182280 
C      -0.296484     0.558915    -0.028737 
H      -0.718620     1.480442     0.377168 
H       0.754303     0.530675     0.243528 
H      -0.579027    -2.052525    -0.709772 
C      -0.748728    -0.245728     4.854627 
C       0.194740    -1.025994     4.208038 
C       0.104841    -1.179413     2.831926 
C      -0.918727    -0.559254     2.118813 
C      -1.856822     0.214778     2.799497 
C      -1.779908     0.379967     4.173844 
H       0.982193    -1.500988     4.778801 
H       0.829037    -1.791946     2.309339 
H      -2.663420     0.694041     2.251372 
H      -2.499695     0.978820     4.716632 
N      -0.654705    -0.076216     6.320854 
O      -1.495261     0.612730     6.860951 
O       0.256661    -0.635546     6.894041 
C      -0.997389    -0.666755     0.610873 
O      -0.369480    -1.874513     0.211977 
H      -2.057974    -0.678496     0.321895 
40
     -1068.711583     -1068.437121   3.97   3.67
C       2.061842    -0.456287    -1.231317 
C       2.514259     1.505253    -2.563282 
C       3.481504     0.413624    -3.008295 
C       3.482654    -0.549513    -1.813974 
H       1.469803    -1.342349    -1.461123 
H       2.075949     2.072511    -3.385543 
H       2.993236     2.196160    -1.860188 
H       3.095043    -0.079454    -3.906398 
H       4.470484     0.814008    -3.238050 
H       3.736997    -1.572780    -2.090903 
H       4.205456    -0.225774    -1.060340 
N       1.476579     0.741761    -1.851276 
C       2.065009    -0.205884     0.332550 
O       2.493131    -1.138074     1.007494 
O       1.614516     0.918438     0.682369 
C       0.420178     1.281180    -1.314873 
C       0.139300     2.729855    -1.557104 
H       0.995072     3.329841    -1.241251 
H      -0.017478     2.898107    -2.628340 
H      -0.750389     3.049219    -1.019270 
C      -0.666000     0.427328    -0.724656 
H      -0.301011    -0.575189    -0.519133 
H      -1.425337     0.326937    -1.517896 
H      -2.988492     1.534871    -0.406681 
C      -2.672272    -2.218582     3.008649 
C      -3.626043    -1.467929     2.345422 
C      -3.203031    -0.409195     1.552110 
C      -1.849574    -0.110206     1.425692 
C      -0.911636    -0.876322     2.122560 
C      -1.318091    -1.937951     2.913923 
H      -4.675277    -1.711457     2.452935 
H      -3.950150     0.193784     1.048318 
H       0.145015    -0.640789     2.047434 
H      -0.600518    -2.542913     3.452784 
N      -3.112922    -3.351548     3.850829 
O      -2.257318    -3.994071     4.422469 
O      -4.305103    -3.570815     3.919045 
C      -1.348448     1.015460     0.532745 
O      -2.359413     1.952986     0.190418 
H      -0.597523     1.575763     1.092145 
40
     -1068.709533     -1068.437016   5.25   3.74
C       2.673165    -1.013216     0.331936 
C       1.489862    -1.574047    -1.676525 
C       2.015781    -2.885529    -1.101645 
C       3.087642    -2.432204    -0.096428 
H       2.409175    -0.952151     1.387535 
H       0.483924    -1.640571    -2.091417 
H       2.169369    -1.160580    -2.429936 
H       1.202827    -3.415915    -0.594198 
H       2.409140    -3.539580    -1.882070 
H       3.165161    -3.106180     0.757960 
H       4.073039    -2.387461    -0.564013 
N       1.516336    -0.680366    -0.508269 
C       3.803330     0.078109     0.015950 
O       4.863019    -0.139871     0.599748 
O       3.450105     0.983080    -0.772775 
C       0.994657     0.500899    -0.479331 
C       0.182497     0.979350    -1.640952 
H      -0.665889     0.313795    -1.824990 
H      -0.199767     1.981871    -1.457989 
H       0.814764     0.992440    -2.533476 
C       1.041181     1.332955     0.770841 
H       0.852527     2.374933     0.508587 
H       2.014834     1.283283     1.250815 
H      -0.528455     1.496291     3.568346 
C      -3.914282     0.762853     0.017440 
C      -3.233875    -0.427730     0.205814 
C      -1.980077    -0.382915     0.800050 
C      -1.417967     0.829766     1.191332 
C      -2.133721     2.010459     0.995726 
C      -3.388658     1.985004     0.405878 
H      -3.682967    -1.361789    -0.106036 
H      -1.432235    -1.307164     0.960206 
H      -1.703563     2.955283     1.311032 
H      -3.958197     2.891093     0.244241 
N      -5.250952     0.728325    -0.618133 
O      -5.679271    -0.353885    -0.959684 
O      -5.831930     1.783389    -0.758269 
C      -0.022475     0.868684     1.786691 
O       0.073670     1.776770     2.870997 
H       0.238273    -0.147480     2.115014 
40
     -1068.710188     -1068.436978   4.84   3.76
C       1.367172    -2.154804    -1.239192 
C       2.680798    -0.449540    -0.138531 
C       3.598478    -1.397028    -0.921018 
C       2.681569    -2.002775    -1.987914 
H       0.496905    -2.199096    -1.895080 
H       2.716259     0.571478    -0.531049 
H       2.912216    -0.429385     0.926311 
H       4.460332    -0.870212    -1.335582 
H       3.965831    -2.185705    -0.259148 
H       2.570850    -1.325545    -2.842142 
H       3.022628    -2.973477    -2.345085 
N       1.317102    -0.987139    -0.354938 
C       1.352396    -3.430317    -0.262704 
O       1.633265    -4.490066    -0.813638 
O       1.046442    -3.165252     0.926406 
C       0.363084    -0.914613     0.523157 
C       0.532943    -0.088828     1.757787 
H      -0.433386     0.162471     2.191037 
H       1.096334    -0.689806     2.479965 
H       1.086165     0.830381     1.557562 
C      -1.010722    -1.442730     0.212011 
H      -1.567365    -1.539617     1.145649 
H      -0.958036    -2.431207    -0.240511 
H      -3.034589    -1.886556    -1.296085 
C      -2.006619     3.448988     0.869468 
C      -2.924304     2.500254     1.292146 
C      -2.859300     1.225033     0.751384 
C      -1.889158     0.908127    -0.198408 
C      -0.989323     1.887176    -0.610745 
C      -1.037371     3.167773    -0.077526 
H      -3.671048     2.765727     2.029198 
H      -3.574306     0.470424     1.058799 
H      -0.243129     1.651241    -1.364036 
H      -0.344914     3.939966    -0.386594 
N      -2.068791     4.811202     1.444701 
O      -1.253090     5.620743     1.055784 
O      -2.930075     5.033191     2.269267 
C      -1.779353    -0.498010    -0.743281 
O      -3.092559    -0.989717    -0.950804 
H      -1.233333    -0.452752    -1.696621 
40
     -1068.707871     -1068.436301   6.30   4.19
C      -1.315669    -1.930433    -1.213345 
C       0.119046    -2.186376    -3.133601 
C      -1.316433    -2.355179    -3.621453 
C      -2.100503    -2.636656    -2.331561 
H      -1.842191    -1.066728    -0.808792 
H       0.743045    -1.601157    -3.808659 
H       0.598230    -3.150640    -2.933014 
H      -1.655658    -1.425789    -4.091757 
H      -1.399381    -3.155766    -4.359043 
H      -3.131517    -2.284863    -2.383496 
H      -2.133959    -3.708128    -2.122522 
N      -0.057582    -1.495852    -1.843611 
C      -0.932873    -2.929535    -0.022402 
O      -1.917810    -3.378593     0.560855 
O       0.293942    -3.112271     0.136150 
C       0.892317    -0.980768    -1.139305 
C       2.298870    -0.957740    -1.641057 
H       2.374725    -0.862510    -2.723862 
H       2.868998    -0.159197    -1.164256 
H       2.749985    -1.913056    -1.346696 
C       0.626870    -0.281868     0.159045 
H       1.476543    -0.468187     0.819595 
H      -0.266336    -0.648740     0.655570 
H      -0.539941     1.290327    -1.754358 
C       0.147040     3.107309     3.760784 
C       1.403045     2.851116     3.236325 
C       1.485909     2.264706     1.982757 
C       0.334269     1.938647     1.268705 
C      -0.915048     2.212183     1.821199 
C      -1.015272     2.800673     3.073741 
H       2.287707     3.109036     3.803945 
H       2.464005     2.062566     1.554772 
H      -1.812778     1.971514     1.265334 
H      -1.977015     3.021514     3.518427 
N       0.045157     3.731227     5.097874 
O      -1.066164     3.946604     5.534402 
O       1.080086     3.989262     5.676852 
C       0.460892     1.242379    -0.069342 
O      -0.703907     1.513004    -0.833119 
H       1.349356     1.637966    -0.581082 
40
     -1068.708912     -1068.435839   5.64   4.48
C       2.277071     0.411294    -1.438427 
C       1.280520     0.035250    -3.613658 
C       2.753952     0.421851    -3.773359 
C       3.372320     0.034647    -2.427424 
H       2.327791    -0.163395    -0.513153 
H       1.100265    -1.003712    -3.908014 
H       0.609210     0.683299    -4.176110 
H       3.212597    -0.081973    -4.626655 
H       2.838463     1.501736    -3.924148 
H       3.581934    -1.040122    -2.389936 
H       4.285901     0.581983    -2.198444 
N       1.028113     0.157267    -2.161840 
C       2.265394     1.974591    -1.087232 
O       3.327353     2.404080    -0.647312 
O       1.164508     2.543560    -1.301505 
C      -0.084512     0.579973    -1.647026 
C      -1.274666     0.822194    -2.522347 
H      -2.165982     1.010011    -1.924742 
H      -1.085042     1.707369    -3.135691 
H      -1.458475    -0.028151    -3.184568 
C      -0.321063     0.607218    -0.162731 
H      -0.856063     1.532480     0.058909 
H       0.614754     0.628178     0.391456 
H       0.190532    -2.023042     0.445390 
C      -2.078095    -0.830405     4.449994 
C      -2.459141    -1.860102     3.603016 
C      -2.144037    -1.758200     2.259036 
C      -1.457611    -0.646679     1.761165 
C      -1.086502     0.366847     2.641166 
C      -1.396983     0.281656     3.993896 
H      -2.989717    -2.716167     3.999365 
H      -2.430151    -2.552774     1.577575 
H      -0.547160     1.238088     2.288579 
H      -1.114867     1.063160     4.687741 
N      -2.409886    -0.926328     5.889271 
O      -2.063756    -0.011218     6.606384 
O      -3.007289    -1.914170     6.261723 
C      -1.152885    -0.610169     0.268113 
O      -0.536230    -1.823606    -0.154633 
H      -2.110568    -0.596522    -0.263818 
40
     -1068.708483     -1068.434950   5.91   5.03
C       1.855960     1.074461    -1.730306 
C       0.612279     3.102863    -2.145259 
C       1.221562     2.657020    -3.470732 
C       2.359948     1.728155    -3.027758 
H       1.566920     0.034457    -1.887513 
H      -0.422423     3.441276    -2.219826 
H       1.218688     3.884282    -1.673163 
H       0.474437     2.108636    -4.054407 
H       1.564336     3.504463    -4.067447 
H       2.619230     0.982651    -3.779887 
H       3.264848     2.302609    -2.813393 
N       0.695143     1.880479    -1.330698 
C       2.916323     1.162226    -0.544771 
O       3.959051     0.549597    -0.758116 
O       2.538379     1.847853     0.437965 
C       0.211512     1.765623    -0.134877 
C      -0.606844     2.871293     0.448005 
H      -1.613792     2.848516     0.015557 
H      -0.691722     2.745419     1.527798 
H      -0.158040     3.842999     0.240687 
C       0.221486     0.459717     0.607382 
H       0.635125     0.650175     1.599004 
H       0.867346    -0.265264     0.113970 
H      -1.494168    -0.712727    -1.122208 
C      -1.511086    -4.019822     2.420301 
C      -2.606064    -3.462561     1.778789 
C      -2.477253    -2.197356     1.230469 
C      -1.272476    -1.494239     1.317404 
C      -0.191183    -2.085717     1.967780 
C      -0.304714    -3.353776     2.525076 
H      -3.534092    -4.016119     1.716845 
H      -3.322313    -1.741840     0.725727 
H       0.758340    -1.569545     2.048087 
H       0.528087    -3.823245     3.032800 
N      -1.636851    -5.370856     3.011018 
O      -0.662064    -5.832928     3.565945 
O      -2.706884    -5.932143     2.903536 
C      -1.207205    -0.095322     0.715158 
O      -1.871788    -0.039593    -0.545041 
H      -1.798040     0.568284     1.356101 
40
     -1068.706088     -1068.433580   7.41   5.89
C       0.962612    -1.356991    -2.513559 
C      -0.943793     0.088325    -2.761818 
C      -1.263701    -1.199704    -3.513855 
C       0.115421    -1.851617    -3.699110 
H       1.204748    -2.154800    -1.811482 
H      -1.782088     0.495108    -2.195226 
H      -0.547076     0.858707    -3.432218 
H      -1.915915    -1.830847    -2.900677 
H      -1.775165    -1.001138    -4.457579 
H       0.062016    -2.940550    -3.730168 
H       0.580617    -1.523660    -4.631137 
N       0.139758    -0.331221    -1.859289 
C       2.315807    -0.642641    -2.984997 
O       3.067948    -1.393727    -3.602992 
O       2.410294     0.563280    -2.664540 
C       0.614750     0.391673    -0.901015 
C      -0.028577     1.704011    -0.579623 
H      -0.074643     2.318033    -1.482540 
H      -1.047621     1.553765    -0.209614 
H       0.536566     2.233371     0.185281 
C       1.680901    -0.143953     0.011497 
H       2.241092     0.698867     0.422239 
H       2.384961    -0.776182    -0.520857 
H       2.521076    -1.039146     2.456403 
C      -1.537149     1.221093     3.734127 
C      -0.204446     1.590988     3.648313 
C       0.628364     0.870655     2.806051 
C       0.140449    -0.203610     2.059430 
C      -1.203447    -0.547817     2.174568 
C      -2.055166     0.161493     3.011303 
H       0.161180     2.426779     4.230601 
H       1.672278     1.164926     2.732280 
H      -1.593593    -1.387449     1.607689 
H      -3.101612    -0.097523     3.108171 
N      -2.434890     1.985945     4.628747 
O      -1.951836     2.909724     5.248653 
O      -3.596071     1.640520     4.684012 
C       1.060807    -0.994427     1.146088 
O       2.078808    -1.664238     1.872721 
H       0.476339    -1.796019     0.684121 
40
     -1068.707650     -1068.432602   6.43   6.51
C      -2.594754     0.073987     0.309491 
C      -3.103100    -1.936866    -0.918991 
C      -4.400836    -1.261545    -0.458906 
C      -4.001955     0.199211    -0.244010 
H      -2.001677     0.977626     0.199816 
H      -3.030296    -1.978158    -2.010101 
H      -3.003843    -2.946506    -0.522731 
H      -5.199819    -1.391271    -1.191297 
H      -4.731808    -1.693805     0.488835 
H      -3.999667     0.753371    -1.188760 
H      -4.640787     0.712331     0.473271 
N      -2.010417    -1.061938    -0.418546 
C      -2.540834    -0.378107     1.832704 
O      -3.444179    -0.009265     2.563901 
O      -1.506471    -1.075299     2.095425 
C      -0.833351    -1.518626    -0.078214 
C      -0.551841    -2.983390    -0.271787 
H       0.504685    -3.200139    -0.121736 
H      -1.130005    -3.557693     0.456580 
H      -0.839595    -3.306086    -1.276157 
C       0.431868    -0.720660     0.131607 
H       0.974536    -0.910571    -0.806973 
H       0.999026    -1.232016     0.914089 
H      -0.382958     0.343205     2.101001 
C       4.472481     2.094945    -0.428481 
C       4.119554     1.839568     0.885934 
C       2.822321     1.430269     1.161611 
C       1.896252     1.280526     0.132657 
C       2.279563     1.555117    -1.179226 
C       3.571677     1.962611    -1.472830 
H       4.852839     1.962784     1.672693 
H       2.515977     1.236984     2.182185 
H       1.557243     1.455728    -1.985388 
H       3.884815     2.178445    -2.486189 
N       5.854147     2.528079    -0.728200 
O       6.135241     2.745636    -1.888769 
O       6.623611     2.639553     0.203308 
C       0.484697     0.787755     0.416651 
O       0.141838     1.087193     1.742789 
H      -0.174178     1.317016    -0.287254 
40
     -1068.705914     -1068.432558   7.52   6.53
C       1.249838     0.334774     2.749141 
C       2.707918     1.639500     1.395336 
C       3.311224     1.651062     2.797780 
C       2.177730     1.117096     3.694113 
H       1.123147    -0.707867     3.039823 
H       3.447663     1.571010     0.596722 
H       2.067683     2.513230     1.225569 
H       4.177586     0.982814     2.827520 
H       3.646504     2.649917     3.082409 
H       2.559759     0.486647     4.498631 
H       1.610635     1.927083     4.155140 
N       1.861657     0.439583     1.423726 
C      -0.196774     0.998848     2.593620 
O      -0.790494     1.208365     3.643655 
O      -0.537788     1.215892     1.396701 
C       1.199090    -0.014486     0.397117 
C       1.485231     0.555442    -0.955192 
H       0.709421     0.287298    -1.667854 
H       1.549713     1.642675    -0.905409 
H       2.442902     0.166044    -1.322150 
C       0.434341    -1.309621     0.548786 
H      -0.393083    -1.182330     1.244929 
H       1.123731    -2.027490     1.008864 
H      -1.079615    -3.661908    -0.947232 
C      -3.234987    -0.146010    -2.953059 
C      -2.436598    -1.105284    -3.553844 
C      -1.410442    -1.660966    -2.806072 
C      -1.188065    -1.274292    -1.482142 
C      -2.004580    -0.302015    -0.909876 
C      -3.032926     0.269076    -1.649232 
H      -2.619423    -1.398542    -4.579369 
H      -0.764555    -2.404784    -3.266907 
H      -1.829715     0.050099     0.100948 
H      -3.672515     1.030437    -1.221836 
N      -4.333980     0.461573    -3.738096 
O      -4.484211     0.078265    -4.879516 
O      -5.014767     1.303416    -3.192511 
C      -0.080464    -1.986015    -0.718834 
O      -0.541540    -3.257187    -0.259246 
H       0.760747    -2.141350    -1.412160 
40
     -1068.706284     -1068.432019   7.29   6.87
C       1.516131    -2.072995     0.632101 
C       0.063975    -3.031655     2.235888 
C       1.461540    -3.115923     2.842155 
C       2.400373    -2.773554     1.670186 
H       1.907294    -1.111897     0.312674 
H      -0.717033    -2.814455     2.964179 
H      -0.191460    -3.949449     1.693187 
H       1.554722    -2.378874     3.645728 
H       1.651396    -4.102785     3.267418 
H       3.226679    -2.136094     1.990366 
H       2.822396    -3.666143     1.207321 
N       0.195546    -1.928193     1.265433 
C       1.214280    -2.930618    -0.679774 
O       2.041721    -3.760849    -1.016171 
O       0.111740    -2.603342    -1.223470 
C      -0.823643    -1.421371     0.631709 
C      -2.195835    -1.911961     0.996856 
H      -2.238526    -3.001021     0.944063 
H      -2.446945    -1.604473     2.017956 
H      -2.941924    -1.495526     0.321239 
C      -0.860166    -0.164817    -0.199768 
H      -1.422670     0.524589     0.448138 
H      -1.511922    -0.370124    -1.053260 
H       0.655764    -1.012297    -1.824180 
C      -0.792576     4.552262    -1.732804 
C      -0.513961     4.249801    -0.409716 
C      -0.116097     2.958451    -0.099948 
C      -0.003402     1.986708    -1.093084 
C      -0.282860     2.323378    -2.414916 
C      -0.680224     3.612080    -2.743165 
H      -0.607239     5.015124     0.349967 
H       0.116359     2.706621     0.931600 
H      -0.173774     1.571997    -3.187112 
H      -0.900485     3.892817    -3.765195 
N      -1.218778     5.925923    -2.076451 
O      -1.307306     6.729520    -1.171129 
O      -1.454660     6.167020    -3.241947 
C       0.388318     0.565948    -0.714731 
O       0.953012    -0.077716    -1.824189 
H       1.120234     0.653892     0.102842 
