40
     -1068.705926     -1068.433461   0.00   0.00
C      -2.869270     0.438494     0.291009 
C      -1.048592    -1.119884     0.696667 
C      -1.730158    -0.746153     2.015820 
C      -3.139467    -0.327922     1.586561 
H      -3.744350     0.478687    -0.357705 
H      -1.165948    -2.185579     0.477181 
H       0.010243    -0.865291     0.679949 
H      -1.723315    -1.578674     2.721282 
H      -1.213273     0.097050     2.482801 
H      -3.757829    -1.206343     1.375309 
H      -3.652371     0.300679     2.312289 
N      -1.789954    -0.345873    -0.332391 
C      -2.440491     1.897877     0.613681 
O      -3.224641     2.560312     1.256871 
O      -1.271522     2.315347     0.226427 
C      -1.415406    -0.203579    -1.573918 
C      -2.357268     0.389795    -2.577497 
H      -2.792308     1.322304    -2.218827 
H      -1.820646     0.600228    -3.499680 
H      -3.160814    -0.329906    -2.778169 
C      -0.141748    -0.860245    -2.045225 
H      -0.240046    -1.128273    -3.097933 
H       0.121344    -1.754814    -1.480777 
H      -0.693303     1.820073    -0.573531 
C       3.738970    -0.233434     1.224519 
C       2.901721     0.865546     1.303432 
C       1.953655     1.058455     0.306895 
C       1.842703     0.157844    -0.749733 
C       2.711213    -0.934874    -0.804647 
C       3.662666    -1.142663     0.180077 
H       2.996964     1.556244     2.131735 
H       1.295845     1.917146     0.349905 
H       2.646614    -1.633427    -1.635055 
H       4.340434    -1.986191     0.149112 
N       4.750428    -0.442663     2.282202 
O       5.471762    -1.414114     2.184508 
O       4.798225     0.368253     3.183504 
C       0.812875     0.361115    -1.854982 
O      -0.052192     1.430187    -1.667530 
H       1.389254     0.504270    -2.784139 
40
     -1068.702402     -1068.429887   2.21   2.24
C      -3.200610     0.358683     1.161109 
C      -0.898316     0.345463     1.953155 
C      -1.694277     1.444258     2.663634 
C      -3.144947     0.961572     2.566607 
H      -3.987641    -0.391286     1.067022 
H      -0.544103    -0.416743     2.652870 
H      -0.061877     0.731214     1.368350 
H      -1.357356     1.586726     3.691430 
H      -1.578118     2.395134     2.135475 
H      -3.343164     0.180460     3.307238 
H      -3.883266     1.752936     2.684510 
N      -1.877072    -0.270527     1.026470 
C      -3.498916     1.455928     0.106358 
O      -4.539826     2.055808     0.228061 
O      -2.644657     1.691401    -0.857610 
C      -1.535088    -1.025784     0.026649 
C      -2.569209    -1.565524    -0.911639 
H      -2.085190    -1.899822    -1.828638 
H      -3.046644    -2.431989    -0.438499 
H      -3.334226    -0.835598    -1.169766 
C      -0.145630    -1.551602    -0.138886 
H      -0.163168    -2.624331    -0.349480 
H       0.479598    -1.369262     0.733736 
H      -1.786122     1.132849    -0.953015 
C       4.500406     0.084317    -1.188107 
C       3.624523     1.134449    -0.971210 
C       2.260018     0.886978    -1.032894 
C       1.783365    -0.391219    -1.307039 
C       2.692434    -1.427006    -1.528766 
C       4.057289    -1.199623    -1.470236 
H       4.012427     2.123279    -0.760970 
H       1.540046     1.682635    -0.883731 
H       2.327916    -2.425591    -1.756916 
H       4.775654    -1.991825    -1.639162 
N       5.953954     0.339171    -1.122194 
O       6.699260    -0.599311    -1.318236 
O       6.317584     1.470786    -0.875751 
C       0.284953    -0.652655    -1.344949 
O      -0.481422     0.478739    -1.247532 
H       0.091420    -1.223090    -2.277444 
40
     -1068.700054     -1068.426679   3.68   4.26
C      -3.394360    -0.093309    -0.048650 
C      -1.550007    -1.487848    -0.822301 
C      -2.799127    -2.349908    -0.686928 
C      -3.644256    -1.568725     0.318068 
H      -4.148288     0.259924    -0.754348 
H      -1.043081    -1.624522    -1.777930 
H      -0.839099    -1.650576    -0.005656 
H      -3.312885    -2.423034    -1.650937 
H      -2.562555    -3.360638    -0.351166 
H      -4.707880    -1.802809     0.286552 
H      -3.288683    -1.758003     1.336306 
N      -2.069713    -0.110185    -0.712371 
C      -3.551051     0.756752     1.227840 
O      -4.681497     1.019339     1.562559 
O      -2.500059     1.093087     1.936683 
C      -1.307379     0.944580    -0.825063 
C      -1.899628     2.321544    -0.814742 
H      -1.926915     2.662810    -1.855851 
H      -2.906922     2.378016    -0.409725 
H      -1.252811     2.996257    -0.253850 
C       0.126648     0.874454    -1.277954 
H       0.317623     1.563265    -2.105119 
H       0.429714    -0.129506    -1.567942 
H      -1.567825     0.970812     1.530379 
C       4.600217    -0.574424     0.567787 
C       4.464366     0.464504    -0.341003 
C       3.220789     1.058087    -0.481534 
C       2.129632     0.620510     0.270526 
C       2.300045    -0.420351     1.178224 
C       3.539117    -1.026409     1.333734 
H       5.320852     0.791131    -0.917004 
H       3.097966     1.878766    -1.183784 
H       1.447718    -0.736615     1.767302 
H       3.689425    -1.836349     2.036357 
N       5.921688    -1.215951     0.725916 
O       6.016314    -2.121567     1.528585 
O       6.834861    -0.798953     0.042752 
C       0.763655     1.257175     0.087921 
O      -0.182342     0.824164     0.992601 
H       0.915741     2.354514     0.113768 
