40
     -1068.712540     -1068.441315   0.00   0.00
C       1.756517    -1.081054    -2.392102 
C      -0.484974    -1.973467    -2.698667 
C       0.296849    -2.048737    -4.014297 
C       1.758667    -2.066979    -3.562209 
H       2.585361    -1.276401    -1.710634 
H      -0.779498    -2.965675    -2.343591 
H      -1.375878    -1.346919    -2.776029 
H       0.016121    -2.923941    -4.602854 
H       0.103624    -1.158798    -4.619946 
H       2.040688    -3.063294    -3.206271 
H       2.460275    -1.752089    -4.332059 
N       0.469634    -1.378084    -1.734273 
C       1.914671     0.380130    -2.903955 
O       2.858497     0.581232    -3.641875 
O       1.056548     1.275200    -2.538010 
C       0.111975    -0.989559    -0.533555 
C      -1.170321    -1.514273     0.040551 
H      -1.394775    -1.006574     0.977220 
H      -2.007780    -1.373389    -0.640906 
H      -1.050075    -2.585143     0.240998 
C       1.100957    -0.383599     0.443202 
H       2.124860    -0.396003     0.074507 
H       1.067613    -0.909865     1.399730 
H       0.325645     1.111102    -1.661759 
C      -1.453751     2.073402     4.119302 
C      -0.101925     1.764419     4.142562 
C       0.518934     1.433370     2.949627 
C      -0.198944     1.406997     1.752337 
C      -1.552844     1.728748     1.761293 
C      -2.190940     2.063866     2.948472 
H       0.440032     1.788218     5.079264 
H       1.579470     1.195280     2.948930 
H      -2.099371     1.717194     0.825848 
H      -3.243437     2.316083     2.973083 
N      -2.127378     2.427378     5.387159 
O      -1.456003     2.428380     6.398416 
O      -3.309988     2.694929     5.340067 
C       0.501856     1.044456     0.459021 
O      -0.383546     0.974490    -0.633851 
H       1.292632     1.788969     0.285255 
