60
     -1546.703394     -1546.268553   0.00   0.00
C      -1.829254    -1.598407     1.513095 
C      -1.734643    -2.430748    -0.765327 
C      -1.665237    -3.609046     0.202551 
C      -2.339749    -3.048111     1.456737 
H      -2.547665    -0.895063     1.926872 
H      -2.719230    -2.366032    -1.230597 
H      -0.971319    -2.443675    -1.543831 
H      -2.164910    -4.494366    -0.195719 
H      -0.623071    -3.864723     0.411658 
H      -3.427895    -3.047372     1.340741 
H      -2.098295    -3.597369     2.368764 
N      -1.523485    -1.227968     0.095362 
C      -0.539915    -1.481667     2.320779 
O       0.549386    -1.628127     1.805513 
O      -0.749004    -1.211149     3.586073 
C      -2.207424     0.174290    -0.343774 
C      -3.716971    -0.065952    -0.462923 
H      -3.998654    -0.682027    -1.321393 
H      -4.124894    -0.506197     0.450173 
H      -4.176654     0.916707    -0.581895 
C      -1.612168     0.507167    -1.727488 
H      -2.213781     1.332958    -2.118383 
H      -1.725344    -0.327506    -2.428766 
H       1.240631     0.277704    -0.507966 
C       1.052416     2.200164    -5.593008 
C       0.344869     3.081994    -4.791770 
C      -0.021930     2.668684    -3.520681 
C       0.308799     1.395062    -3.058154 
C       1.026665     0.535158    -3.885555 
C       1.403713     0.932379    -5.160648 
H       0.094029     4.066773    -5.164561 
H      -0.570399     3.349563    -2.875551 
H       1.299765    -0.447762    -3.520028 
H       1.962554     0.276485    -5.816050 
N       1.448514     2.628676    -6.950734 
O       2.068983     1.838705    -7.632033 
O       1.129010     3.745569    -7.303218 
C      -0.151629     0.954410    -1.680467 
O       0.646431    -0.112340    -1.182156 
H      -0.082978     1.805450    -0.996845 
O      -1.933634     1.059264     0.604376 
H       0.075162    -0.690664     3.931378 
H      -0.883144     1.197575     1.317316 
C       1.969433     1.045676     3.247014 
C       2.307531    -0.548744     5.024633 
C       3.661137    -0.127602     4.447457 
C       3.285779     0.299517     3.027613 
H       2.187273     2.073707     3.572730 
H       2.241714    -0.438102     6.109975 
H       2.103279    -1.598144     4.783035 
H       4.069709     0.722042     5.007081 
H       4.395521    -0.935625     4.476536 
H       4.030292     0.924537     2.533947 
H       3.104919    -0.575265     2.396274 
N       1.292709     0.302931     4.344742 
H       0.866766     0.955024     4.990529 
C       1.131708     1.193372     1.972035 
O      -0.134617     1.300649     2.175523 
O       1.707574     1.241645     0.888615 
H      -0.518380    -1.004084     0.030389 
60
     -1546.700869     -1546.264674   1.58   2.44
C      -0.935520     1.470660     2.571466 
C      -1.495244    -0.861988     2.860979 
C      -1.937763    -0.093706     4.102350 
C      -1.026827     1.133105     4.071521 
H      -1.698319     2.186116     2.270355 
H      -2.252697    -1.542707     2.474856 
H      -0.585251    -1.436839     3.056010 
H      -2.987625     0.200885     4.016776 
H      -1.827034    -0.689309     5.010646 
H      -1.399633     1.981798     4.646035 
H      -0.035552     0.872870     4.458649 
N      -1.177003     0.186719     1.848544 
C       0.405214     2.110426     2.244511 
O       0.604377     3.288834     2.396126 
O       1.317711     1.229484     1.851742 
C      -2.239624     0.405270     0.535802 
C      -3.629984     0.567440     1.158772 
H      -3.666161     1.439228     1.814985 
H      -4.322395     0.755174     0.335075 
H      -3.975663    -0.316620     1.703208 
C      -2.146118    -0.924682    -0.243680 
H      -2.981761    -0.907184    -0.950502 
H      -2.297590    -1.798081     0.399287 
H       0.935430    -0.559082    -0.510271 
C      -1.136299    -4.623725    -3.436480 
C      -1.693679    -3.444659    -3.904103 
C      -1.577161    -2.305185    -3.123298 
C      -0.918172    -2.342974    -1.894902 
C      -0.363218    -3.542660    -1.456235 
C      -0.468781    -4.692909    -2.225098 
H      -2.203315    -3.430567    -4.858944 
H      -2.001888    -1.369903    -3.477534 
H       0.163648    -3.569368    -0.509585 
H      -0.042459    -5.633130    -1.899148 
N      -1.254642    -5.845815    -4.259295 
O      -0.756806    -6.865258    -3.828066 
O      -1.843220    -5.756107    -5.317181 
C      -0.853376    -1.091266    -1.038154 
O       0.244979    -1.138214    -0.134606 
H      -0.746175    -0.221478    -1.692148 
O      -1.826745     1.462732    -0.098910 
H       2.112693     1.735748     1.463791 
H      -0.582779     1.968012    -0.565761 
C       2.558827     3.044366    -0.756382 
C       4.509501     2.136710     0.278870 
C       4.973537     2.858892    -0.984941 
C       3.681025     2.927342    -1.809518 
H       2.141438     4.049380    -0.692878 
H       5.164221     2.272478     1.142280 
H       4.410960     1.062446     0.090428 
H       5.327992     3.864877    -0.731508 
H       5.781757     2.337431    -1.503091 
H       3.663178     3.762733    -2.512367 
H       3.547536     2.003930    -2.377923 
N       3.169436     2.687379     0.561264 
H       3.242196     3.529663     1.120628 
C       1.402168     2.068459    -0.986973 
O       0.244644     2.602360    -0.753284 
O       1.620320     0.901170    -1.285615 
H      -0.336307    -0.100707     1.333426 
60
     -1546.699889     -1546.264005   2.20   2.86
C      -1.172016     2.663363    -0.510530 
C       0.794320     2.379965    -1.885859 
C      -0.231285     3.235690    -2.633135 
C      -1.056818     3.838211    -1.493281 
H      -1.306355     2.977990     0.525674 
H       1.668508     2.977343    -1.615605 
H       1.135912     1.507638    -2.445692 
H       0.241905     3.987109    -3.268582 
H      -0.862273     2.604377    -3.265957 
H      -0.513162     4.660421    -1.018028 
H      -2.036559     4.208102    -1.798540 
N       0.110609     1.932785    -0.640248 
C      -2.395655     1.807096    -0.841306 
O      -3.515102     2.174299    -0.597012 
O      -2.092713     0.646212    -1.426202 
C       1.033273     1.912520     0.932495 
C       1.495806     3.358983     1.086990 
H       2.015040     3.417865     2.047319 
H       2.184800     3.689845     0.305718 
H       0.640266     4.035103     1.138674 
C       2.189181     0.957392     0.586824 
H       2.941000     1.115043     1.368109 
H       2.665303     1.213188    -0.365286 
H       0.125234    -1.266999    -0.094875 
C       5.307906    -2.930295     0.274521 
C       4.551428    -2.701063    -0.862376 
C       3.401399    -1.932021    -0.753775 
C       3.016576    -1.401262     0.475036 
C       3.796867    -1.656870     1.602337 
C       4.949443    -2.421743     1.512445 
H       4.863830    -3.121366    -1.809866 
H       2.787987    -1.747701    -1.627752 
H       3.497822    -1.255614     2.566909 
H       5.565014    -2.627192     2.378758 
N       6.535201    -3.746701     0.165275 
O       7.178216    -3.932667     1.177925 
O       6.826313    -4.181616    -0.929726 
C       1.787751    -0.516996     0.596734 
O       0.870693    -0.760609    -0.463272 
H       1.297627    -0.717907     1.554428 
O       0.198310     1.515205     1.819494 
H      -2.878096     0.025111    -1.386826 
H      -1.002763     0.680777     1.806779 
C      -3.676365    -0.984960     0.802152 
C      -5.116406    -1.901350    -0.775564 
C      -5.466262    -2.602964     0.563871 
C      -4.375758    -2.129598     1.553728 
H      -4.206054    -0.039449     0.941149 
H      -5.800019    -1.068411    -0.967278 
H      -5.161183    -2.568744    -1.638194 
H      -6.468409    -2.323263     0.897324 
H      -5.451392    -3.690530     0.459641 
H      -4.775198    -1.799295     2.514598 
H      -3.652902    -2.927813     1.746819 
N      -3.757100    -1.355383    -0.624882 
H      -3.076946    -2.101034    -0.764502 
C      -2.213976    -0.778822     1.171194 
O      -1.990736     0.353460     1.771447 
O      -1.371023    -1.611422     0.867459 
H      -0.051016     0.926565    -0.707677 
60
     -1546.697618     -1546.261586   3.62   4.38
C      -1.495800     0.491181     2.548286 
C      -0.277904    -1.556000     2.895413 
C      -1.168560    -1.336002     4.113505 
C      -1.447636     0.167157     4.059213 
H      -2.515635     0.560037     2.170211 
H      -0.279692    -2.583156     2.531399 
H       0.756472    -1.269390     3.108807 
H      -2.094300    -1.909223     4.022720 
H      -0.674537    -1.642144     5.037705 
H      -2.371790     0.463017     4.556734 
H      -0.626312     0.715828     4.531721 
N      -0.816737    -0.638942     1.855326 
C      -0.857259     1.851540     2.300325 
O      -1.441416     2.879543     2.521725 
O       0.406265     1.770447     1.882801 
C      -1.827636    -1.315378     0.576991 
C      -2.886126    -2.128726     1.321552 
H      -3.475738    -1.488332     1.980764 
H      -3.564786    -2.526830     0.563309 
H      -2.474937    -2.967902     1.889952 
C      -0.850688    -2.231092    -0.186870 
H      -1.484326    -2.855477    -0.825577 
H      -0.307355    -2.912070     0.475785 
H       1.084745     0.161587    -0.681648 
C       2.250685    -4.308991    -3.499455 
C       2.849026    -3.846141    -2.339505 
C       2.169434    -2.917229    -1.564416 
C       0.910419    -2.460254    -1.946418 
C       0.338896    -2.940720    -3.124170 
C       1.002505    -3.870031    -3.910208 
H       3.828448    -4.210999    -2.057352 
H       2.621932    -2.533118    -0.657675 
H      -0.637934    -2.580099    -3.434666 
H       0.570742    -4.252548    -4.826122 
N       2.968121    -5.300470    -4.328447 
O       2.421015    -5.687661    -5.340491 
O       4.060304    -5.667808    -3.947479 
C       0.135711    -1.483387    -1.079663 
O       1.008378    -0.712724    -0.260379 
H      -0.438536    -0.813873    -1.726365 
O      -2.301161    -0.311946    -0.083929 
H       0.719567     2.667362     1.557140 
H      -1.801896     0.951489    -0.524675 
C      -0.168898     3.834119    -0.517502 
C       1.445266     5.299645     0.290259 
C       0.988954     5.887962    -1.072318 
C       0.079661     4.798113    -1.687752 
H      -0.991599     4.179140     0.113038 
H       0.918974     5.784423     1.118335 
H       2.516093     5.409240     0.471813 
H       0.453481     6.829254    -0.926964 
H       1.841632     6.097705    -1.722599 
H      -0.853167     5.191269    -2.096772 
H       0.599397     4.264261    -2.489073 
N       1.074285     3.874319     0.280130 
H       1.767018     3.351830    -0.254301 
C      -0.436064     2.387513    -0.912034 
O      -1.635911     1.988338    -0.624634 
O       0.458407     1.707172    -1.399921 
H      -0.041494    -0.304821     1.274413 
60
     -1546.694984     -1546.261506   5.27   4.43
C      -0.004972     2.679545     0.590831 
C      -2.247482     2.091314    -0.114525 
C      -2.305630     3.279131     0.848126 
C      -0.918288     3.909504     0.702296 
H       0.932898     2.855509     0.063829 
H      -2.549796     2.389650    -1.117972 
H      -2.851696     1.238064     0.194452 
H      -3.116127     3.965288     0.596049 
H      -2.461449     2.931594     1.872889 
H      -0.851896     4.496030    -0.217492 
H      -0.633504     4.552799     1.535830 
N      -0.807880     1.670941    -0.150615 
C       0.313388     2.137089     1.974678 
O      -0.200135     1.168043     2.468137 
O       1.201153     2.912998     2.608194 
C      -0.153941     1.299622    -1.599186 
C      -0.315007     2.517098    -2.514420 
H       0.219396     2.280099    -3.436371 
H      -1.351321     2.752972    -2.772044 
H       0.166577     3.397040    -2.082090 
C      -0.991745     0.110575    -2.112547 
H      -0.723572    -0.015286    -3.165418 
H      -2.066229     0.322759    -2.080816 
H      -0.206994    -1.370560     0.500029 
C      -2.964728    -4.349384    -3.173803 
C      -1.789947    -3.933368    -3.779823 
C      -1.058079    -2.923512    -3.175357 
C      -1.493368    -2.335910    -1.987415 
C      -2.674592    -2.781730    -1.400009 
C      -3.419583    -3.792969    -1.990266 
H      -1.465420    -4.397644    -4.702231 
H      -0.130350    -2.590164    -3.632490 
H      -3.003068    -2.338727    -0.467321 
H      -4.339454    -4.151590    -1.546130 
N      -3.754574    -5.424777    -3.809115 
O      -4.778433    -5.772404    -3.257700 
O      -3.331619    -5.895715    -4.845027 
C      -0.696110    -1.198022    -1.377344 
O      -0.992055    -1.038253     0.003660 
H       0.370634    -1.411284    -1.495273 
O       1.122270     1.023301    -1.385653 
H       1.348143     2.529760     3.486283 
H       1.658072     0.547447    -0.314114 
C       3.324539    -1.048186     2.241660 
C       4.370981     0.850826     3.208479 
C       3.772357     0.058653     4.366771 
C       2.734125    -0.828703     3.664320 
H       3.623510    -2.092896     2.109701 
H       5.350649     1.277863     3.442818 
H       3.700366     1.676004     2.919558 
H       4.550658    -0.555981     4.830191 
H       3.333774     0.691210     5.144106 
H       2.560401    -1.774997     4.179224 
H       1.769792    -0.313832     3.600273 
N       4.494910    -0.168574     2.163905 
H       4.566539     0.248191     1.244625 
C       2.236699    -0.799087     1.199409 
O       2.301691     0.344650     0.592105 
O       1.373528    -1.657922     1.025537 
H      -0.748004     0.755912     0.324597 
60
     -1546.692426     -1546.259591   6.88   5.63
C       1.352371     2.131013    -0.945936 
C       0.457887     2.898319     1.132041 
C       0.932029     4.150760     0.398561 
C       1.752696     3.620451    -0.791321 
H       0.928399     1.897370    -1.923230 
H      -0.485746     3.029326     1.659022 
H       1.205833     2.546138     1.847115 
H       0.082298     4.739940     0.050951 
H       1.524615     4.786951     1.057898 
H       1.545178     4.169243    -1.710537 
H       2.824309     3.705993    -0.599405 
N       0.321271     1.846596     0.083915 
C       2.546559     1.222938    -0.719014 
O       2.705450     0.519360     0.243111 
O       3.441111     1.342136    -1.709039 
C      -1.154946     1.569548    -0.580282 
C      -1.715684     2.919028    -1.030878 
H      -1.929099     3.600702    -0.202182 
H      -1.043339     3.401345    -1.744716 
H      -2.649977     2.709719    -1.555363 
C      -2.006283     0.980333     0.562834 
H      -3.037115     0.987774     0.196672 
H      -1.986777     1.605737     1.461486 
H       0.149518    -1.232830     0.866011 
C      -4.332043    -1.875597     3.925968 
C      -3.081458    -1.425227     4.314326 
C      -2.200910    -0.980888     3.338164 
C      -2.568959    -0.988127     1.995129 
C      -3.832870    -1.456065     1.636151 
C      -4.726018    -1.902099     2.597735 
H      -2.810968    -1.427246     5.362583 
H      -1.212215    -0.634546     3.615301 
H      -4.121656    -1.476936     0.588820 
H      -5.710631    -2.266796     2.334608 
N      -5.275810    -2.347681     4.960751 
O      -4.906266    -2.316097     6.116416 
O      -6.364440    -2.738482     4.592153 
C      -1.632954    -0.457184     0.925514 
O      -0.278928    -0.492168     1.355458 
H      -1.742434    -1.069265     0.025341 
O      -0.969787     0.748671    -1.600349 
H       4.182927     0.752687    -1.504107 
H      -0.073717    -0.175025    -1.719962 
C       2.011580    -2.876781    -2.206383 
C       3.507314    -1.856785    -3.739163 
C       4.378438    -2.575984    -2.713594 
C       3.412883    -2.780653    -1.536352 
H       1.602376    -3.885713    -2.092512 
H       3.895626    -1.933511    -4.759104 
H       3.418490    -0.788185    -3.487224 
H       4.698166    -3.541463    -3.118290 
H       5.274529    -2.013620    -2.434999 
H       3.639992    -3.670471    -0.946935 
H       3.449952    -1.924539    -0.854360 
N       2.234627    -2.573183    -3.622719 
H       1.467000    -2.028871    -3.994846 
C       1.037209    -1.956127    -1.474185 
O       0.755990    -0.847780    -2.085803 
O       0.614769    -2.296320    -0.370590 
H       0.499644     0.930171     0.529344 
60
     -1546.691717     -1546.257333   7.32   7.04
C       2.060180    -0.288500     1.758439 
C       1.390456    -2.559917     1.393773 
C       2.285670    -2.571782     2.628590 
C       2.991764    -1.208361     2.589597 
H       1.613795     0.516979     2.342027 
H       0.520281    -3.209200     1.473883 
H       1.948010    -2.838407     0.495512 
H       1.690727    -2.677490     3.537050 
H       2.990332    -3.404520     2.596491 
H       3.162298    -0.792823     3.583160 
H       3.965668    -1.296633     2.101106 
N       0.962438    -1.140274     1.228827 
C       2.826222     0.323969     0.602098 
O       2.723494    -0.014745    -0.547087 
O       3.692953     1.249315     1.032711 
C      -0.506069    -0.687191     1.811928 
C      -0.595092    -1.172598     3.259491 
H       0.214316    -0.752346     3.861683 
H      -1.533341    -0.784869     3.660915 
H      -0.601767    -2.262413     3.355258 
C      -1.533782    -1.422566     0.927970 
H      -2.496952    -1.301606     1.432382 
H      -1.339984    -2.498954     0.873162 
H      -0.214439    -0.068897    -1.533234 
C      -4.748478    -2.930542    -2.574495 
C      -3.431224    -3.291288    -2.803301 
C      -2.427034    -2.603608    -2.136677 
C      -2.739222    -1.571632    -1.255308 
C      -4.075555    -1.226989    -1.053481 
C      -5.091811    -1.903983    -1.709369 
H      -3.205960    -4.095239    -3.492458 
H      -1.387888    -2.859060    -2.307553 
H      -4.325557    -0.413834    -0.377464 
H      -6.133384    -1.648835    -1.561961 
N      -5.823109    -3.660620    -3.279066 
O      -6.968505    -3.322634    -3.061017 
O      -5.496345    -4.554060    -4.032806 
C      -1.652084    -0.847488    -0.483363 
O      -0.393526    -0.951876    -1.134873 
H      -1.926462     0.207775    -0.394270 
O      -0.562139     0.631588     1.734646 
H       4.160933     1.594059     0.256702 
H      -0.025853     1.400464     0.852886 
C       0.982136     3.712919    -1.489167 
C       2.167159     5.503553    -0.511150 
C       3.203679     4.400033    -0.748659 
C       2.503844     3.525752    -1.797273 
H       0.441441     3.932272    -2.413108 
H       2.211857     6.246217    -1.318485 
H       2.298528     6.036604     0.433766 
H       4.174035     4.778232    -1.083809 
H       3.353127     3.846140     0.184993 
H       2.715544     3.897180    -2.803911 
H       2.806171     2.475264    -1.771532 
N       0.865917     4.828453    -0.539102 
H       0.682416     4.432466     0.375587 
C       0.392299     2.411584    -0.960317 
O       0.534102     2.226649     0.317134 
O      -0.122120     1.620391    -1.746381 
H       0.825891    -0.962075     0.218914 
60
     -1546.693006     -1546.257102   6.51   7.19
C       2.264947    -0.747175    -1.424830 
C       1.591322     1.325000    -2.424157 
C       2.660428     0.734325    -3.337571 
C       3.334046    -0.339345    -2.471175 
H       1.894672    -1.763942    -1.557597 
H       0.753875     1.771710    -2.957691 
H       2.014075     2.076993    -1.752380 
H       2.208248     0.291658    -4.226520 
H       3.363211     1.500089    -3.670481 
H       3.663954    -1.203707    -3.048119 
H       4.212888     0.073795    -1.968822 
N       1.119680     0.187532    -1.583025 
C       2.831003    -0.620121    -0.024059 
O       2.575722     0.273178     0.739856 
O       3.709761    -1.596413     0.236129 
C      -0.267642    -0.603333    -2.021350 
C      -0.136074    -0.955794    -3.503917 
H      -0.105195    -0.081700    -4.161246 
H       0.742459    -1.582054    -3.678005 
H      -1.014597    -1.550584    -3.761592 
C      -1.393848     0.427838    -1.802338 
H      -2.276585     0.011365    -2.296587 
H      -1.182755     1.385968    -2.288895 
H      -0.476996     0.628906     1.156107 
C      -5.059898     3.331297    -0.065436 
C      -5.291836     1.986179    -0.304006 
C      -4.203055     1.130769    -0.368496 
C      -2.904337     1.610920    -0.201117 
C      -2.705470     2.967259     0.044083 
C      -3.783667     3.838084     0.113593 
H      -6.305259     1.628415    -0.433142 
H      -4.366365     0.071420    -0.546864 
H      -1.697853     3.337511     0.192212 
H      -3.646765     4.894914     0.304335 
N      -6.212522     4.253670     0.004640 
O      -5.983070     5.426532     0.216503 
O      -7.319894     3.782326    -0.154340 
C      -1.729657     0.659254    -0.329504 
O      -0.578256     1.161487     0.335320 
H      -2.006364    -0.305254     0.106174 
O      -0.352915    -1.677763    -1.263330 
H       4.039570    -1.459193     1.137783 
H       0.056555    -1.850413    -0.023370 
C       0.718613    -2.538833     3.266851 
C       3.059935    -2.973545     3.519729 
C       2.770692    -1.536241     3.970053 
C       1.292122    -1.627661     4.360569 
H      -0.175800    -3.067081     3.625541 
H       3.358016    -3.578920     4.385828 
H       3.873244    -3.055108     2.789802 
H       3.415463    -1.210229     4.790192 
H       2.886755    -0.823330     3.145103 
H       1.188916    -2.119398     5.333267 
H       0.782808    -0.665237     4.401866 
N       1.794659    -3.487893     2.964567 
H       1.848608    -3.641159     1.967251 
C       0.222911    -1.726820     2.061204 
O       0.530022    -2.235221     0.906366 
O      -0.436576    -0.706360     2.237542 
H       0.834070     0.561425    -0.662502 
60
     -1546.688370     -1546.255455   9.42   8.22
C      -1.698385    -2.107078    -0.579039 
C      -3.208151    -0.269561    -0.735507 
C      -4.091150    -1.508788    -0.574643 
C      -3.123491    -2.709552    -0.626306 
H      -1.062799    -2.563983     0.179641 
H      -3.564348     0.595271    -0.178523 
H      -3.104430     0.015305    -1.784942 
H      -4.624000    -1.484794     0.377153 
H      -4.840075    -1.550109    -1.366883 
H      -3.274371    -3.383944     0.217372 
H      -3.256661    -3.299345    -1.534941 
N      -1.852391    -0.666256    -0.256835 
C      -1.006184    -2.234986    -1.924404 
O      -0.806700    -1.327141    -2.686508 
O      -0.680196    -3.509451    -2.186205 
C      -1.424030    -0.316625     1.278956 
C      -2.542500    -0.804948     2.199092 
H      -2.701394    -1.879139     2.080793 
H      -2.202099    -0.638452     3.222915 
H      -3.486551    -0.270895     2.057261 
C      -1.310571     1.220775     1.327278 
H      -1.227152     1.477807     2.387178 
H      -2.212904     1.715489     0.952718 
H       0.734356     1.014959    -1.004450 
C       0.066098     6.010790     1.119662 
C      -0.426926     5.503081    -0.070523 
C      -0.459406     4.126682    -0.244831 
C      -0.005175     3.274282     0.758191 
C       0.493671     3.817777     1.942010 
C       0.532141     5.189881     2.134167 
H      -0.775204     6.179843    -0.840402 
H      -0.829426     3.704636    -1.171695 
H       0.862327     3.159037     2.723640 
H       0.915076     5.626236     3.047764 
N       0.101003     7.475665     1.312979 
O       0.539708     7.893308     2.365030 
O      -0.311070     8.172898     0.409017 
C      -0.082356     1.767308     0.597214 
O      -0.150147     1.392744    -0.770766 
H       0.806572     1.319593     1.052506 
O      -0.284006    -0.951028     1.521014 
H      -0.253459    -3.524068    -3.056399 
H       0.621058    -1.187101     0.684569 
C       3.465076    -1.830802    -1.194235 
C       4.211029    -3.570274     0.221845 
C       3.988377    -4.213538    -1.150206 
C       3.074493    -3.189108    -1.838417 
H       3.991109    -1.180190    -1.895071 
H       5.093228    -3.942089     0.749104 
H       3.338681    -3.734984     0.864145 
H       4.944094    -4.300307    -1.681077 
H       3.543323    -5.210954    -1.095144 
H       3.191861    -3.171697    -2.925062 
H       2.030233    -3.416300    -1.613130 
N       4.340256    -2.130924    -0.040198 
H       5.295681    -1.918762    -0.297694 
C       2.261751    -1.025834    -0.701397 
O       1.425756    -1.691830     0.025217 
O       2.168469     0.164891    -1.003697 
H      -1.157721    -0.103417    -0.779298 
60
     -1546.689103     -1546.254165   8.96   9.03
C      -2.044980     0.895451     1.461436 
C      -2.413428    -1.459299     1.299220 
C      -3.724894    -0.872031     1.815971 
C      -3.389693     0.588808     2.169161 
H      -2.102135     1.737767     0.772343 
H      -2.547346    -2.256004     0.569623 
H      -1.796181    -1.839424     2.116924 
H      -4.498301    -0.916817     1.047870 
H      -4.087377    -1.432615     2.679054 
H      -4.163567     1.279722     1.832973 
H      -3.286977     0.720055     3.248511 
N      -1.672935    -0.317869     0.687359 
C      -0.959313     1.183451     2.480790 
O      -0.083883     0.417724     2.788029 
O      -1.136574     2.381068     3.052368 
C      -1.778638    -0.077843    -0.925085 
C      -3.261566    -0.054441    -1.295800 
H      -3.759237    -1.018286    -1.153827 
H      -3.791533     0.722380    -0.739231 
H      -3.315578     0.209735    -2.353654 
C      -1.077251    -1.292300    -1.566632 
H      -1.331292    -1.253096    -2.629934 
H      -1.462494    -2.244183    -1.186741 
H       1.459894    -0.505838     0.044034 
C       2.089541    -4.650335    -3.455416 
C       1.947244    -4.699956    -2.078857 
C       1.429155    -3.592442    -1.422595 
C       1.059913    -2.454433    -2.135291 
C       1.224093    -2.433259    -3.520196 
C       1.738315    -3.530841    -4.192658 
H       2.240147    -5.592009    -1.539900 
H       1.319027    -3.601849    -0.344594 
H       0.950934    -1.543576    -4.081050 
H       1.870263    -3.529636    -5.267045 
N       2.638077    -5.827399    -4.161047 
O       2.939752    -6.794534    -3.492637 
O       2.753587    -5.755980    -5.367389 
C       0.445528    -1.257952    -1.432800 
O       0.792654    -1.228037    -0.055609 
H       0.803936    -0.343545    -1.914872 
O      -1.190819     1.083444    -1.180862 
H      -0.420827     2.506818     3.693694 
H      -0.240665     1.577944    -0.508338 
C       2.548392     3.137112     0.834121 
C       1.269701     4.885545     1.735745 
C       2.041429     4.305691     2.930324 
C       2.574777     2.965787     2.391720 
H       3.546810     3.021026     0.409960 
H       1.168750     5.973227     1.768421 
H       0.264738     4.455190     1.677385 
H       2.873497     4.969651     3.190635 
H       1.427525     4.196920     3.830731 
H       3.582791     2.746061     2.749994 
H       1.942622     2.127112     2.696272 
N       2.023468     4.475127     0.547845 
H       2.804308     5.105011     0.412477 
C       1.709300     2.014258     0.225359 
O       0.442092     2.241381     0.138843 
O       2.275959     0.962282    -0.079558 
H      -0.660732    -0.509917     0.782423 
60
     -1546.681783     -1546.247679  13.56  13.10
C      -2.481934    -0.382754    -1.200699 
C      -1.522328     1.747804    -0.644440 
C      -3.029590     1.950795    -0.740441 
C      -3.504381     0.728937    -1.535601 
H      -2.880616    -1.150437    -0.539558 
H      -1.061472     2.262149     0.194179 
H      -1.020226     2.073727    -1.558757 
H      -3.481294     1.970348     0.253516 
H      -3.277796     2.892218    -1.234566 
H      -4.517323     0.417547    -1.276821 
H      -3.486827     0.950044    -2.605892 
N      -1.344448     0.280204    -0.502606 
C      -2.015634    -1.086520    -2.464446 
O      -2.261778    -2.223574    -2.754268 
O      -1.310445    -0.256410    -3.263158 
C      -1.125365    -0.460777     1.165111 
C      -2.067644     0.359931     2.031134 
H      -1.838152     1.425379     2.058008 
H      -3.096461     0.200697     1.703861 
H      -1.985426    -0.032265     3.048835 
C       0.378889    -0.325360     1.505251 
H       0.867932    -1.175896     1.030577 
H       0.418253    -0.534998     2.579815 
H       1.655513     0.271543    -0.603938 
C       0.402086     4.599881     3.166758 
C       0.300479     3.419384     3.884817 
C       0.565511     2.223971     3.236314 
C       0.917011     2.199596     1.884853 
C       1.022535     3.407722     1.196098 
C       0.762473     4.614322     1.831309 
H       0.022701     3.446606     4.930548 
H       0.494750     1.300180     3.800605 
H       1.312735     3.400588     0.152769 
H       0.839092     5.556458     1.303835 
N       0.123732     5.880224     3.850395 
O       0.223034     6.898503     3.197946 
O      -0.187478     5.834026     5.022662 
C       1.271048     0.887346     1.206917 
O       1.402559     1.109810    -0.191872 
H       2.259125     0.610088     1.608221 
O      -1.484962    -1.690020     1.020948 
H      -1.011666    -0.776930    -4.022881 
H      -0.680898    -2.515237     0.259902 
C       1.237015    -3.779760    -2.191646 
C       3.512118    -3.686881    -2.914888 
C       3.485513    -4.263023    -1.496811 
C       2.066231    -4.831369    -1.423937 
H       0.376724    -4.252615    -2.682354 
H       3.751192    -4.479818    -3.635596 
H       4.249250    -2.890546    -3.049896 
H       4.260580    -5.013895    -1.321843 
H       3.613357    -3.463583    -0.757235 
H       2.016897    -5.785840    -1.957797 
H       1.697797    -4.992152    -0.409909 
N       2.150686    -3.181482    -3.170798 
H       2.120337    -2.176059    -3.055711 
C       0.633577    -2.735744    -1.253355 
O      -0.135150    -3.235039    -0.342921 
O       0.864555    -1.529811    -1.394037 
H      -0.465994    -0.011235    -0.926509 
60
     -1546.680569     -1546.244621  14.32  15.02
C      -1.765744     1.162065    -1.392142 
C      -1.740856     0.745294     0.972657 
C      -3.180301     1.078277     0.599131 
C      -3.052517     1.756184    -0.770873 
H      -1.956290     0.480141    -2.219247 
H      -1.647663    -0.076546     1.676708 
H      -1.229311     1.612896     1.395649 
H      -3.781926     0.169842     0.530874 
H      -3.646824     1.727511     1.342629 
H      -3.913259     1.576253    -1.416267 
H      -2.950244     2.837154    -0.647021 
N      -1.084700     0.391647    -0.312863 
C      -0.863602     2.262950    -1.921472 
O      -0.611526     2.454443    -3.079883 
O      -0.396907     3.045803    -0.928196 
C      -0.929310    -1.346632    -0.797544 
C      -2.236044    -1.968537    -0.327978 
H      -2.197646    -3.027678    -0.597364 
H      -2.407752    -1.896903     0.746423 
H      -3.068978    -1.524797    -0.876230 
C       0.345442    -1.881583    -0.097306 
H       1.177582    -1.600660    -0.742706 
H       0.259520    -2.968778    -0.198379 
H       1.692705     0.089191     0.764192 
C      -1.639232    -2.851143     4.608701 
C      -1.064422    -1.593774     4.656840 
C      -0.292549    -1.170221     3.583664 
C      -0.102459    -1.990285     2.471583 
C      -0.685717    -3.259238     2.463689 
C      -1.460717    -3.696620     3.525813 
H      -1.219691    -0.962953     5.522687 
H       0.170455    -0.191488     3.607184 
H      -0.538830    -3.924300     1.619390 
H      -1.920180    -4.676597     3.525446 
N      -2.462210    -3.309720     5.747354 
O      -2.599956    -2.549381     6.682971 
O      -2.949953    -4.418881     5.676074 
C       0.800227    -1.552288     1.331240 
O       1.095114    -0.168254     1.480670 
H       1.733936    -2.122007     1.464020 
O      -0.801706    -1.320182    -2.083621 
H       0.202794     3.692730    -1.328136 
H       0.378927    -0.817889    -2.598076 
C       3.068186     1.092004    -3.230863 
C       3.113636     3.411735    -2.766676 
C       4.525969     2.910512    -2.480417 
C       4.334506     1.384353    -2.394193 
H       3.273529     0.444826    -4.086222 
H       3.092196     4.408517    -3.217149 
H       2.537270     3.440989    -1.826123 
H       5.178873     3.168114    -3.319912 
H       4.955532     3.333118    -1.569007 
H       5.198218     0.836543    -2.775852 
H       4.175335     1.078480    -1.357981 
N       2.625300     2.413361    -3.713779 
H       1.625360     2.458983    -3.870561 
C       1.952423     0.434677    -2.420017 
O       1.260519    -0.424478    -3.097535 
O       1.723146     0.750454    -1.246891 
H      -0.097678     0.642765    -0.287105 
