43
     -1145.176057     -1144.880599   0.00   0.00
C      -2.036141     1.629836    -0.342608 
C      -3.270792     1.061162     1.620807 
C      -3.904333     2.333537     1.019639 
C      -3.353010     2.420614    -0.413107 
H      -1.729297     1.265973    -1.322931 
H      -4.004244     0.294555     1.877001 
H      -2.683349     1.297751     2.506399 
H      -4.994362     2.288813     1.027917 
H      -3.603201     3.206891     1.601695 
H      -4.017444     1.918300    -1.121222 
H      -3.200341     3.443228    -0.762012 
N      -2.385054     0.523083     0.552488 
C      -0.934866     2.499408     0.237819 
O      -0.605738     2.527033     1.394314 
O      -0.390718     3.290459    -0.704102 
C      -1.402027    -0.661274     0.904974 
C      -1.184955    -0.785327     2.405653 
H      -0.546410    -1.653588     2.582060 
H      -0.695358     0.098548     2.824434 
H      -2.132216    -0.971673     2.913385 
C      -0.066643    -0.520995     0.156115 
H       0.597103     0.172298     0.680474 
H      -0.225866    -0.148591    -0.860084 
H      -1.061013    -2.601357    -0.558765 
C       4.516209    -1.258658    -1.664872 
C       3.496424    -1.681444    -2.500929 
C       2.236699    -1.899749    -1.961437 
C       2.004440    -1.696803    -0.603109 
C       3.054873    -1.277859     0.213523 
C       4.318392    -1.053127    -0.308573 
H       3.694351    -1.836221    -3.553919 
H       1.423767    -2.241843    -2.589969 
H       2.882927    -1.129535     1.276193 
H       5.142165    -0.727144     0.313381 
N       5.858683    -1.022875    -2.234341 
O       6.008118    -1.211608    -3.424115 
O       6.734052    -0.653670    -1.477998 
C       0.624376    -1.893346    -0.009064 
O      -0.129521    -2.736526    -0.841184 
H       0.757834    -2.351064     0.983641 
O      -2.220988    -1.634586     0.370048 
H       0.270021     3.847507    -0.265612 
H      -2.842544    -0.470123     0.057992 
43
     -1145.175559     -1144.880133   0.31   0.29
C      -1.230336     1.714208     1.589821 
C      -3.067247     0.362586     2.240874 
C      -3.414013     1.768820     2.724791 
C      -2.107462     2.569905     2.551959 
H      -0.877662     2.300327     0.741923 
H      -3.924559    -0.186634     1.851817 
H      -2.575803    -0.228180     3.017469 
H      -4.205100     2.192723     2.099595 
H      -3.769496     1.766438     3.756257 
H      -2.286177     3.559069     2.128794 
H      -1.595649     2.711330     3.506907 
N      -2.116946     0.631628     1.139817 
C      -0.032161     1.188060     2.358481 
O       0.010453     0.149776     2.963473 
O       0.981324     2.073252     2.341158 
C      -1.666446    -0.581403     0.237163 
C      -1.776466    -1.911389     0.966604 
H      -2.809514    -2.103580     1.258171 
H      -1.483534    -2.702747     0.272924 
H      -1.122473    -1.952912     1.841328 
C      -0.248320    -0.348324    -0.309909 
H       0.504745    -0.642282     0.426712 
H      -0.100890     0.707675    -0.558553 
H      -1.719415    -0.487023    -2.219077 
C       4.093377    -0.762047    -2.728482 
C       3.158387     0.034628    -3.367887 
C       1.821278    -0.092619    -3.019268 
C       1.428891    -1.005990    -2.043572 
C       2.394515    -1.799106    -1.423654 
C       3.734160    -1.683855    -1.757882 
H       3.480024     0.738083    -4.125261 
H       1.067487     0.509526    -3.511389 
H       2.093253    -2.522280    -0.670593 
H       4.493893    -2.292299    -1.284290 
N       5.518396    -0.629254    -3.094393 
O       5.808409     0.183144    -3.948444 
O       6.316104    -1.341076    -2.518546 
C      -0.022734    -1.126455    -1.625900 
O      -0.848159    -0.633584    -2.649203 
H      -0.224927    -2.194575    -1.448968 
O      -2.644577    -0.363107    -0.710512 
H       1.691594     1.709537     2.891250 
H      -2.726224     0.720013     0.108493 
43
     -1145.173099     -1144.877733   1.86   1.80
C      -2.263364     0.662643    -1.206366 
C      -3.252867     1.841260     0.642583 
C      -4.039240     2.206740    -0.632870 
C      -3.654638     1.133887    -1.663134 
H      -2.048087    -0.346047    -1.557436 
H      -3.895539     1.525354     1.466870 
H      -2.640564     2.675973     0.979672 
H      -5.115277     2.227862    -0.454478 
H      -3.741370     3.197749    -0.981119 
H      -4.337841     0.281566    -1.612538 
H      -3.644561     1.497879    -2.691989 
N      -2.389394     0.690237     0.258540 
C      -1.184636     1.566458    -1.778027 
O      -0.659514     1.385679    -2.842233 
O      -0.915788     2.634547    -0.996532 
C      -1.243236     0.220802     1.241317 
C      -0.907123     1.295264     2.265787 
H      -1.788085     1.543632     2.859239 
H      -0.161043     0.884389     2.949256 
H      -0.494090     2.196963     1.803858 
C       0.005529    -0.231185     0.466895 
H       0.616947     0.630092     0.180407 
H      -0.272810    -0.774109    -0.440638 
H      -0.769313    -2.139524     1.727901 
C       4.503743    -1.983447    -0.782488 
C       4.389773    -0.830519    -0.022111 
C       3.204426    -0.606583     0.659781 
C       2.148693    -1.514598     0.581758 
C       2.296546    -2.667298    -0.186295 
C       3.477259    -2.908641    -0.873986 
H       5.216813    -0.134039     0.028897 
H       3.100432     0.287506     1.268606 
H       1.482096    -3.379856    -0.230584 
H       3.609473    -3.800092    -1.473769 
N       5.762237    -2.234429    -1.514392 
O       6.645602    -1.407150    -1.415089 
O       5.839322    -3.251946    -2.171776 
C       0.849557    -1.219742     1.303668 
O       0.148800    -2.417593     1.517107 
H       1.108788    -0.748529     2.264702 
O      -1.971058    -0.830495     1.755505 
H      -0.256978     3.167078    -1.466656 
H      -2.759618    -0.327736     0.772156 
43
     -1145.173076     -1144.876890   1.87   2.33
C      -2.119509    -0.375211     1.584052 
C      -3.423699     1.469717     0.799123 
C      -4.127746     0.959241     2.051527 
C      -3.518415    -0.435170     2.267589 
H      -1.313910    -0.516667     2.303657 
H      -3.410729     2.556680     0.714797 
H      -3.849286     1.038506    -0.110582 
H      -3.900881     1.614851     2.897801 
H      -5.211909     0.928914     1.931588 
H      -3.422983    -0.697852     3.321527 
H      -4.136481    -1.201899     1.792747 
N      -2.041901     0.979848     0.998790 
C      -2.017636    -1.513407     0.587642 
O      -1.498842    -2.570036     0.821862 
O      -2.656416    -1.247792    -0.572615 
C      -0.929130     1.477827    -0.003416 
C      -1.502450     1.841736    -1.365039 
H      -1.958617     0.983484    -1.865331 
H      -2.228866     2.649482    -1.270580 
H      -0.684787     2.211607    -1.987707 
C       0.198105     0.438146    -0.113360 
H      -0.060271    -0.345871    -0.831714 
H       0.383973    -0.030277     0.858475 
H       1.195826     2.452305     0.774328 
C       4.405198    -1.973932    -1.281494 
C       4.426853    -1.323822    -0.058732 
C       3.502733    -0.316652     0.179210 
C       2.570922     0.032743    -0.795651 
C       2.580962    -0.635470    -2.019656 
C       3.495332    -1.645364    -2.273629 
H       5.158822    -1.606508     0.687064 
H       3.504996     0.216378     1.122060 
H       1.866446    -0.357467    -2.789738 
H       3.513869    -2.172714    -3.218743 
N       5.385574    -3.048626    -1.539340 
O       5.344507    -3.600436    -2.620270 
O       6.173899    -3.317010    -0.656191 
C       1.530607     1.102130    -0.531061 
O       1.995191     1.969386     0.470595 
H       1.376490     1.650174    -1.473980 
O      -0.578408     2.561505     0.772457 
H      -2.595123    -2.046489    -1.117393 
H      -1.422303     1.844015     1.559330 
43
     -1145.173076     -1144.876889   1.87   2.33
C      -1.205156    -1.975169    -1.337395 
C      -3.418913    -1.070437    -1.298296 
C      -3.559226    -2.504892    -1.795720 
C      -2.126757    -2.891815    -2.196562 
H      -0.582544    -2.555183    -0.657124 
H      -4.209656    -0.763896    -0.613078 
H      -3.356271    -0.358029    -2.124845 
H      -3.919239    -3.145161    -0.984597 
H      -4.263195    -2.586497    -2.625469 
H      -1.904558    -3.943605    -2.014192 
H      -1.960980    -2.700821    -3.260232 
N      -2.133140    -1.119951    -0.567857 
C      -0.262305    -1.231525    -2.262989 
O       0.859203    -1.582540    -2.506873 
O      -0.849122    -0.172423    -2.861936 
C      -1.716771     0.143014     0.281975 
C      -2.325160     1.427678    -0.260837 
H      -2.026019     2.247000     0.396671 
H      -1.981876     1.652896    -1.273956 
H      -3.414063     1.374631    -0.237750 
C      -0.186080     0.233929     0.393345 
H       0.243114     0.719142    -0.488605 
H       0.251728    -0.765120     0.486374 
H      -1.030978    -0.031701     2.641868 
C       4.468870     1.604146     1.549292 
C       3.647197     2.466582     0.841337 
C       2.276993     2.268360     0.902229 
C       1.735166     1.225316     1.652748 
C       2.587589     0.379098     2.358435 
C       3.961803     0.564161     2.310591 
H       4.081242     3.271529     0.262245 
H       1.616678     2.941028     0.361537 
H       2.163442    -0.418842     2.955497 
H       4.638164    -0.083013     2.854285 
N       5.931512     1.804417     1.493090 
O       6.348093     2.724608     0.819071 
O       6.630593     1.037864     2.123264 
C       0.235827     1.006909     1.664330 
O      -0.125556     0.302330     2.823751 
H      -0.240351     2.000050     1.653012 
O      -2.306915    -0.319820     1.438201 
H      -0.199645     0.198941    -3.477343 
H      -2.372736    -1.373190     0.582515 
43
     -1145.172146     -1144.875882   2.45   2.96
C       0.339785     1.280345    -1.670253 
C      -1.129571     0.712305    -3.465230 
C      -0.431935     2.041302    -3.829569 
C       0.764307     2.147885    -2.866157 
H       1.180980     0.920697    -1.077851 
H      -1.118903    -0.009741    -4.283766 
H      -2.159424     0.878374    -3.152282 
H      -0.109432     2.058850    -4.871791 
H      -1.122038     2.873962    -3.680581 
H       1.665450     1.711859    -3.305558 
H       0.995815     3.173323    -2.572263 
N      -0.332878     0.159980    -2.337465 
C      -0.604420     2.073760    -0.785170 
O      -1.801834     2.117021    -0.896414 
O       0.076187     2.779198     0.137196 
C      -0.815826    -1.135833    -1.572666 
C      -2.257396    -1.466115    -1.931424 
H      -2.383131    -1.547024    -3.011761 
H      -2.477922    -2.445023    -1.498343 
H      -2.961789    -0.733601    -1.524219 
C      -0.653903    -1.023684    -0.036075 
H      -1.486273    -1.563200     0.425947 
H      -0.757324     0.005395     0.311056 
H       1.604834    -1.595668    -1.115430 
C       1.050546    -0.474406     4.603396 
C       1.622027     0.322644     3.624638 
C       1.509468    -0.066631     2.298750 
C       0.833411    -1.237622     1.957021 
C       0.274916    -2.019423     2.966047 
C       0.377014    -1.645069     4.297859 
H       2.144597     1.228099     3.905429 
H       1.958456     0.540660     1.521625 
H      -0.243004    -2.939118     2.709066 
H      -0.052379    -2.243033     5.091403 
N       1.166616    -0.064279     6.018122 
O       0.656776    -0.780750     6.855143 
O       1.764422     0.964210     6.259153 
C       0.654770    -1.631321     0.507052 
O       1.784432    -1.210790    -0.235287 
H       0.566777    -2.723538     0.448479 
O       0.103890    -1.968277    -2.178870 
H      -0.570102     3.289060     0.648516 
H       0.374006    -0.754783    -2.687473 
43
     -1145.172146     -1144.875877   2.45   2.96
C      -0.444290     2.024211    -0.499609 
C      -2.735482     2.511386    -0.034072 
C      -2.027212     3.844274    -0.361842 
C      -0.700257     3.443416    -1.031933 
H       0.215490     1.436461    -1.137681 
H      -3.681906     2.393152    -0.564890 
H      -2.913785     2.410177     1.035544 
H      -2.631112     4.475620    -1.015487 
H      -1.841282     4.400241     0.559077 
H      -0.806894     3.389844    -2.118676 
H       0.122970     4.124326    -0.807989 
N      -1.797103     1.456090    -0.500369 
C       0.142636     2.110916     0.897675 
O      -0.486305     2.144113     1.923042 
O       1.485306     2.194028     0.853440 
C      -2.093271    -0.068097    -0.206383 
C      -3.201106    -0.211032     0.827148 
H      -3.462619    -1.271315     0.870286 
H      -2.880918     0.113949     1.822352 
H      -4.093477     0.337100     0.522664 
C      -0.833477    -0.851042     0.240635 
H      -1.150911    -1.603052     0.969400 
H      -0.128337    -0.216252     0.779171 
H      -0.831815    -0.572736    -2.312128 
C       3.649330    -2.975871     0.588518 
C       2.537352    -3.793073     0.703135 
C       1.329130    -3.338629     0.195229 
C       1.232375    -2.089456    -0.414253 
C       2.372292    -1.292654    -0.517935 
C       3.588366    -1.730934    -0.016679 
H       2.626300    -4.761156     1.179113 
H       0.448419    -3.970276     0.269308 
H       2.309229    -0.325315    -1.002283 
H       4.481862    -1.124344    -0.090720 
N       4.942433    -3.448010     1.125261 
O       5.902123    -2.713969     1.009342 
O       4.967642    -4.542272     1.650453 
C      -0.108337    -1.587094    -0.903583 
O       0.086564    -0.754649    -2.031899 
H      -0.723011    -2.449902    -1.189680 
O      -2.505911    -0.348360    -1.493824 
H       1.801524     2.280595     1.765366 
H      -2.162529     0.949585    -1.534245 
43
     -1145.169604     -1144.873378   4.05   4.53
C      -2.507818     1.071025    -0.375893 
C      -3.170039     1.079582     1.923365 
C      -4.434044     1.357286     1.117503 
C      -3.898640     1.762571    -0.264724 
H      -2.487426     0.334094    -1.178002 
H      -3.327043     0.415338     2.773611 
H      -2.695967     2.003302     2.265039 
H      -5.036612     0.446582     1.046394 
H      -5.051202     2.133848     1.572260 
H      -4.551373     1.452707    -1.081301 
H      -3.785135     2.848124    -0.327646 
N      -2.310042     0.401941     0.928056 
C      -1.464390     2.116195    -0.719382 
O      -1.035769     2.308180    -1.824232 
O      -1.120660     2.873444     0.344415 
C      -0.952547    -0.230222     1.431502 
C      -0.411274     0.478736     2.664313 
H      -0.174367     1.528222     2.469749 
H      -1.119302     0.401626     3.489995 
H       0.504116    -0.031265     2.972320 
C       0.070853    -0.251564     0.282810 
H       0.567363     0.720263     0.207287 
H      -0.430307    -0.469940    -0.665588 
H      -0.291723    -2.548257     0.963318 
C       4.347474    -1.430462    -2.335838 
C       4.267744    -2.393564    -1.339870 
C       3.211301    -2.334209    -0.449833 
C       2.241570    -1.331408    -0.542181 
C       2.346830    -0.387212    -1.558824 
C       3.403789    -0.429713    -2.461924 
H       5.021410    -3.167839    -1.276051 
H       3.120611    -3.082746     0.329898 
H       1.603176     0.392965    -1.673836 
H       3.495746     0.300367    -3.255904 
N       5.472003    -1.479065    -3.292785 
O       5.516511    -0.625183    -4.154720 
O       6.285771    -2.370198    -3.160570 
C       1.124833    -1.346863     0.491696 
O       0.542294    -2.631415     0.452678 
H       1.608384    -1.185494     1.469871 
O      -1.507759    -1.463619     1.685541 
H      -0.501050     3.546034     0.024777 
H      -2.487285    -0.782193     1.032707 
43
     -1145.168637     -1144.873165   4.66   4.66
C      -0.943562    -0.187964    -2.008720 
C      -2.352027    -2.127849    -1.956174 
C      -2.578371    -1.405917    -3.302938 
C      -1.375666    -0.458574    -3.458839 
H       0.096284     0.131566    -1.928881 
H      -2.180477    -3.199819    -2.072221 
H      -3.191011    -1.980428    -1.277280 
H      -2.649935    -2.109149    -4.133984 
H      -3.511965    -0.839731    -3.269759 
H      -0.551004    -0.955263    -3.977654 
H      -1.609944     0.462115    -3.995306 
N      -1.117252    -1.513202    -1.397303 
C      -1.802746     0.920980    -1.421888 
O      -1.608827     2.086991    -1.633366 
O      -2.837558     0.473926    -0.677513 
C      -0.634361    -1.885966     0.060473 
C      -1.754617    -2.531958     0.862967 
H      -2.559294    -1.827690     1.096898 
H      -2.156005    -3.401282     0.340571 
H      -1.312978    -2.883542     1.798987 
C      -0.048848    -0.663814     0.816762 
H      -0.372272    -0.723794     1.860282 
H      -0.441334     0.284799     0.444993 
H       1.741548    -1.614441    -0.777787 
C       2.759845     3.035744     2.623328 
C       2.423528     1.958923     3.427787 
C       2.031158     0.777837     2.817829 
C       1.972134     0.672752     1.428532 
C       2.321034     1.772635     0.647510 
C       2.717846     2.962169     1.241127 
H       2.473320     2.054043     4.504875 
H       1.772352    -0.079366     3.433260 
H       2.290527     1.691925    -0.432332 
H       2.993790     3.824647     0.647997 
N       3.179842     4.300638     3.261037 
O       3.471189     5.228462     2.534738 
O       3.208288     4.336592     4.474327 
C       1.489680    -0.613213     0.793788 
O       1.991871    -0.705918    -0.525888 
H       1.862994    -1.457137     1.387893 
O       0.313197    -2.792009    -0.369019 
H      -3.327081     1.256463    -0.382538 
H      -0.193294    -2.275177    -1.506575 
43
     -1145.170013     -1144.871616   3.79   5.64
C      -0.876922    -0.911273     0.157271 
C      -1.222737    -0.480901     2.477672 
C      -0.812531    -1.945733     2.385233 
C      -0.981372    -2.279334     0.893942 
H      -0.043924    -0.901619    -0.538694 
H      -0.797444     0.040757     3.335356 
H      -2.309121    -0.363881     2.480863 
H       0.232415    -2.059233     2.689676 
H      -1.419829    -2.583669     3.029646 
H      -0.219019    -2.968488     0.528007 
H      -1.956170    -2.737402     0.706359 
N      -0.652796     0.083076     1.229366 
C      -2.133131    -0.702573    -0.663074 
O      -2.228396    -0.972196    -1.829983 
O      -3.174452    -0.250934     0.069091 
C      -0.677635     1.654222     1.087698 
C      -1.858405     2.278046     1.819193 
H      -1.884568     1.968072     2.863761 
H      -1.709641     3.360478     1.802571 
H      -2.812959     2.046467     1.339249 
C      -0.649249     2.131308    -0.385635 
H      -1.092489     3.131490    -0.382585 
H      -1.292735     1.526895    -1.030937 
H       1.427609     2.857710     0.652396 
C       2.489813    -1.500948    -1.995890 
C       2.944682    -0.826994    -0.874453 
C       2.398873     0.413740    -0.573669 
C       1.406618     0.968098    -1.379164 
C       0.990752     0.274142    -2.516431 
C       1.522048    -0.966543    -2.832218 
H       3.711758    -1.271992    -0.253423 
H       2.745688     0.958236     0.295679 
H       0.226986     0.701025    -3.160138 
H       1.195515    -1.518882    -3.703839 
N       3.054796    -2.829818    -2.310799 
O       3.896312    -3.276838    -1.559023 
O       2.639848    -3.396837    -3.300598 
C       0.745273     2.296872    -1.035675 
O       1.570551     3.141532    -0.276921 
H       0.568718     2.808096    -1.989617 
O       0.527673     1.819440     1.742644 
H      -3.937488    -0.204674    -0.526065 
H       0.447080     0.491057     1.533165 
43
     -1145.166340     -1144.870697   6.10   6.21
C      -2.736236     0.032417     1.571939 
C      -2.242285    -2.171949     0.854010 
C      -3.714651    -2.200093     1.254799 
C      -3.924893    -0.874686     2.011764 
H      -3.088190     0.978399     1.160965 
H      -2.019389    -2.769481    -0.029746 
H      -1.589916    -2.478139     1.675659 
H      -4.342761    -2.231491     0.359582 
H      -3.956122    -3.072850     1.863670 
H      -4.878844    -0.405559     1.768123 
H      -3.903308    -1.029356     3.093511 
N      -2.023880    -0.743178     0.546775 
C      -1.863750     0.313940     2.781256 
O      -0.926996    -0.349270     3.137931 
O      -2.316642     1.379913     3.468857 
C      -0.629382    -0.329971    -0.130956 
C       0.460882    -1.333190     0.221880 
H       1.391758    -1.001727    -0.239743 
H       0.616757    -1.400195     1.301628 
H       0.220570    -2.315022    -0.188379 
C      -0.247414     1.105674     0.288899 
H       0.432183     1.107428     1.146702 
H      -1.132381     1.683290     0.567884 
H       0.821500     3.791524    -1.087037 
C       4.086065     0.288268    -2.258449 
C       2.922649    -0.013831    -2.946792 
C       1.725052     0.519821    -2.493434 
C       1.695135     1.336684    -1.364835 
C       2.883115     1.621035    -0.692103 
C       4.089482     1.098493    -1.134473 
H       2.961211    -0.657431    -3.816134 
H       0.793694     0.276529    -2.993038 
H       2.859047     2.261171     0.183318 
H       5.021125     1.310203    -0.625540 
N       5.367515    -0.273057    -2.737719 
O       6.372222     0.009001    -2.117482 
O       5.338496    -0.982088    -3.722229 
C       0.375712     1.898668    -0.865819 
O       0.539752     3.225116    -0.361580 
H      -0.336999     1.883580    -1.695844 
O      -1.116238    -0.406862    -1.400732 
H      -1.756045     1.474636     4.253661 
H      -2.227606    -0.556362    -0.610752 
43
     -1145.164499     -1144.869388   7.25   7.04
C      -2.912596    -1.085930     0.401919 
C      -1.375744    -2.887173     0.301354 
C      -2.752386    -3.523299     0.131159 
C      -3.735283    -2.404258     0.524501 
H      -3.400591    -0.375500    -0.265560 
H      -0.605826    -3.339957    -0.323005 
H      -1.049876    -2.892795     1.344531 
H      -2.901557    -3.812068    -0.913486 
H      -2.868591    -4.417594     0.745499 
H      -4.611076    -2.374368    -0.124748 
H      -4.092033    -2.533908     1.549428 
N      -1.611031    -1.497236    -0.142599 
C      -2.784550    -0.461886     1.779043 
O      -1.892866    -0.663153     2.559099 
O      -3.852183     0.309340     2.062621 
C      -0.327451    -0.548217    -0.324527 
C       0.811799    -1.009822     0.574742 
H       1.648688    -0.322633     0.448171 
H       0.521718    -1.007562     1.628478 
H       1.151289    -2.002747     0.276902 
C      -0.713416     0.921832    -0.053764 
H      -0.508958     1.212056     0.981384 
H      -1.784275     1.069438    -0.231749 
H      -1.400763     3.272032    -1.038259 
C       4.239906     1.947933    -0.555090 
C       3.679301     1.161305    -1.547475 
C       2.299897     1.161864    -1.694808 
C       1.498091     1.932135    -0.855638 
C       2.091227     2.714298     0.134433 
C       3.468823     2.728160     0.291604 
H       4.315752     0.561493    -2.185112 
H       1.829664     0.535272    -2.444736 
H       1.468284     3.326479     0.776617 
H       3.946736     3.332384     1.051926 
N       5.709136     1.956764    -0.393902 
O       6.363029     1.262835    -1.145219 
O       6.175721     2.657646     0.480911 
C      -0.006550     1.900125    -1.011907 
O      -0.478426     3.226517    -0.769706 
H      -0.234842     1.585804    -2.034528 
O      -0.193799    -0.828355    -1.650349 
H      -3.741023     0.631293     2.969916 
H      -1.383373    -1.418546    -1.308077 
43
     -1145.164144     -1144.868155   7.48   7.81
C      -2.583833     1.076636    -1.564183 
C      -3.012698    -1.044739    -0.551729 
C      -4.160891    -0.800236    -1.524220 
C      -4.079946     0.709178    -1.796566 
H      -2.107626     1.413679    -2.484649 
H      -2.658724    -2.075767    -0.536797 
H      -3.270919    -0.734289     0.464300 
H      -3.995704    -1.368713    -2.444726 
H      -5.125133    -1.101262    -1.111046 
H      -4.395134     0.979983    -2.804816 
H      -4.715005     1.257458    -1.095051 
N      -1.949513    -0.173605    -1.096646 
C      -2.517058     2.237693    -0.591265 
O      -2.441762     3.389528    -0.921629 
O      -2.645612     1.848066     0.694850 
C      -0.481797    -0.312118    -0.461888 
C      -0.559816    -0.769435     0.989472 
H      -1.129709    -0.073415     1.610207 
H      -0.995909    -1.767641     1.047686 
H       0.454462    -0.828242     1.385298 
C       0.274981     1.023324    -0.617912 
H       0.181041     1.652744     0.273487 
H      -0.111817     1.592685    -1.466841 
H       3.183253     2.032675    -1.499126 
C       3.931677    -1.207144     2.142091 
C       3.483102    -1.933345     1.051267 
C       2.786907    -1.268924     0.051923 
C       2.539698     0.098948     0.149523 
C       3.003474     0.802438     1.260749 
C       3.704008     0.153877     2.267072 
H       3.675377    -2.996989     0.994774 
H       2.397335    -1.816173    -0.799604 
H       2.815894     1.868516     1.332185 
H       4.072582     0.684423     3.135679 
N       4.678001    -1.907168     3.209923 
O       5.062498    -1.246698     4.153049 
O       4.861283    -3.099703     3.079586 
C       1.759651     0.812089    -0.940521 
O       2.282041     2.120504    -1.172681 
H       1.811473     0.205272    -1.849455 
O      -0.081590    -1.258654    -1.354084 
H      -2.650056     2.653384     1.233249 
H      -1.288485    -0.828841    -1.840934 
43
     -1145.164782     -1144.867659   7.07   8.12
C      -0.872447     1.850010     1.560175 
C      -1.973382     2.982255    -0.218988 
C      -1.823200     3.988705     0.942079 
C      -0.809658     3.346101     1.907621 
H       0.025528     1.314054     1.865098 
H      -1.704792     3.397683    -1.191495 
H      -2.988273     2.589507    -0.269719 
H      -1.478769     4.963919     0.594010 
H      -2.787809     4.135600     1.432665 
H       0.204084     3.701925     1.706069 
H      -1.029036     3.532689     2.959863 
N      -1.024680     1.881815     0.100715 
C      -2.062402     1.199832     2.242541 
O      -3.110180     0.917797     1.722549 
O      -1.817415     1.000270     3.550940 
C      -1.012639     0.613515    -0.851916 
C      -2.337345     0.433701    -1.580773 
H      -2.569517     1.318960    -2.173940 
H      -2.211965    -0.400282    -2.275812 
H      -3.162664     0.208279    -0.899598 
C      -0.661503    -0.666720    -0.068524 
H      -0.807971    -1.485365    -0.777605 
H      -1.381218    -0.836367     0.738271 
H       0.255136    -1.687796     2.113377 
C       3.187952    -3.530174    -1.670370 
C       3.065575    -3.686372    -0.301988 
C       2.287004    -2.778009     0.405071 
C       1.641325    -1.735984    -0.253053 
C       1.794675    -1.595053    -1.635505 
C       2.567110    -2.493102    -2.351488 
H       3.574001    -4.502531     0.195204 
H       2.201705    -2.876672     1.480733 
H       1.306790    -0.761674    -2.134130 
H       2.694926    -2.398370    -3.422067 
N       4.012346    -4.493372    -2.429162 
O       4.105939    -4.332779    -3.628538 
O       4.547282    -5.389050    -1.807864 
C       0.780229    -0.722371     0.489425 
O       0.796039    -0.919588     1.902005 
H       1.253745     0.250285     0.334484 
O       0.008651     1.072640    -1.632358 
H      -2.619087     0.617068     3.936516 
H      -0.064084     1.975017    -0.604524 
43
     -1145.162166     -1144.867303   8.72   8.34
C      -3.017651    -0.843188     0.300422 
C      -1.593729    -2.701653     0.662660 
C      -2.986009    -3.296017     0.466830 
C      -3.931320    -2.081708     0.546998 
H      -3.393110    -0.229787    -0.518704 
H      -0.800349    -3.292299     0.205191 
H      -1.363910    -2.538224     1.718607 
H      -3.053511    -3.766882    -0.518306 
H      -3.215029    -4.055088     1.216523 
H      -4.726965    -2.127519    -0.197522 
H      -4.406603    -2.012704     1.528665 
N      -1.700644    -1.402529    -0.033401 
C      -2.978795    -0.005428     1.564889 
O      -2.158805    -0.092016     2.439394 
O      -4.040336     0.821514     1.629655 
C      -0.350136    -0.558515    -0.249724 
C       0.682368    -0.912709     0.812632 
H       1.573922    -0.309985     0.635715 
H       0.317206    -0.702883     1.821287 
H       0.971773    -1.960666     0.725108 
C      -0.669558     0.953113    -0.261549 
H      -0.528899     1.390687     0.734527 
H      -1.706449     1.131027    -0.559054 
H      -0.335039     3.463138    -0.554232 
C       4.386179     1.543207    -0.587010 
C       3.821829     0.692992    -1.523103 
C       2.455403     0.766316    -1.750029 
C       1.662733     1.672642    -1.048534 
C       2.263415     2.511357    -0.110112 
C       3.628338     2.455640     0.128652 
H       4.445403    -0.012664    -2.056713 
H       1.983973     0.092565    -2.456438 
H       1.669648     3.227362     0.450212 
H       4.105629     3.103308     0.852778 
N       5.842163     1.475106    -0.340938 
O       6.483880     0.665959    -0.978171 
O       6.308843     2.233258     0.484598 
C       0.165493     1.716439    -1.304660 
O      -0.311700     3.054180    -1.424831 
H      -0.018751     1.251734    -2.273034 
O      -0.121055    -1.066788    -1.490685 
H      -3.991332     1.285642     2.478929 
H      -1.368513    -1.537926    -1.167522 
43
     -1145.159766     -1144.866519  10.22   8.84
C      -2.233486     0.043646     1.114228 
C      -3.138002    -0.885260    -0.889094 
C      -4.305141    -0.283640    -0.077763 
C      -3.638600     0.647159     0.947538 
H      -1.519894     0.775797     1.493167 
H      -3.143516    -0.575850    -1.935893 
H      -3.148787    -1.973212    -0.844953 
H      -5.009405     0.255377    -0.713492 
H      -4.854825    -1.080260     0.428032 
H      -3.532399     1.659750     0.548842 
H      -4.176097     0.712131     1.895385 
N      -1.900802    -0.362244    -0.252401 
C      -2.296245    -1.140935     2.062244 
O      -2.452550    -2.287809     1.736724 
O      -2.211265    -0.744420     3.346467 
C      -0.449513    -0.950809    -0.699706 
C      -0.644439    -2.235917    -1.492841 
H       0.340067    -2.557129    -1.831264 
H      -1.082028    -3.035880    -0.887237 
H      -1.262835    -2.043867    -2.371166 
C       0.427957    -1.167805     0.548987 
H       0.169431    -2.116692     1.029084 
H       0.252609    -0.366891     1.271968 
H       3.229458    -2.154469    -0.775259 
C       3.611538     2.677247    -0.598413 
C       3.433962     2.311921     0.724505 
C       2.893888     1.061862     0.992520 
C       2.529208     0.199104    -0.038584 
C       2.720663     0.598834    -1.359365 
C       3.264158     1.840229    -1.647265 
H       3.718565     2.991485     1.517366 
H       2.760282     0.753451     2.026439 
H       2.404712    -0.051278    -2.163999 
H       3.407763     2.168783    -2.668486 
N       4.188687     4.003914    -0.901099 
O       4.336104     4.302089    -2.068348 
O       4.481765     4.717383     0.036866 
C       1.948928    -1.163372     0.311051 
O       2.275291    -2.156785    -0.649307 
H       2.387861    -1.447015     1.279572 
O      -0.130121     0.138473    -1.436674 
H      -2.304850    -1.536166     3.897220 
H      -1.348095     0.459068    -0.905594 
43
     -1145.162209     -1144.866213   8.69   9.03
C      -1.676847    -1.822695    -0.839960 
C      -3.469203    -0.724633     0.256368 
C      -3.785529    -2.214254     0.362475 
C      -2.786256    -2.889179    -0.598704 
H      -0.687161    -2.223860    -0.625822 
H      -3.723278    -0.159831     1.153179 
H      -3.945407    -0.267666    -0.613847 
H      -3.618149    -2.558736     1.387097 
H      -4.823427    -2.429160     0.103560 
H      -2.357489    -3.797480    -0.173628 
H      -3.263485    -3.161369    -1.543324 
N      -1.998639    -0.722771     0.080688 
C      -1.736087    -1.371788    -2.287481 
O      -2.525706    -0.595243    -2.749207 
O      -0.799852    -1.999343    -3.036575 
C      -1.242701     0.685564     0.143914 
C      -2.155671     1.826206    -0.287205 
H      -1.606246     2.756878    -0.125612 
H      -2.438669     1.760769    -1.341840 
H      -3.048801     1.863189     0.336977 
C       0.033537     0.680048    -0.721250 
H       0.402629     1.708438    -0.685182 
H      -0.201271     0.500758    -1.775477 
H       1.024255    -1.365320    -1.896910 
C       4.317147     1.893113     1.663390 
C       3.069396     1.827291     2.264396 
C       2.061228     1.119952     1.630813 
C       2.301228     0.487798     0.408502 
C       3.563176     0.572801    -0.174425 
C       4.581969     1.277523     0.452904 
H       2.899178     2.324876     3.210398 
H       1.068201     1.058234     2.065827 
H       3.747988     0.081633    -1.120942 
H       5.568931     1.351757     0.014646 
N       5.396343     2.645139     2.334751 
O       6.479836     2.687610     1.787523 
O       5.138626     3.177726     3.394983 
C       1.169658    -0.269712    -0.264955 
O       1.728126    -0.996850    -1.354674 
H       0.769842    -0.967005     0.483349 
O      -1.006349     0.607183     1.480494 
H      -0.925538    -1.720348    -3.956653 
H      -1.499533    -0.637242     1.157432 
43
     -1145.162177     -1144.865654   8.71   9.38
C       2.150319     0.916839     0.477529 
C       2.878347     0.345649    -1.731994 
C       3.371623     1.777888    -1.428503 
C       3.238149     1.935464     0.097575 
H       2.211573     0.589652     1.515346 
H       3.662074    -0.289585    -2.146834 
H       2.032999     0.352651    -2.420289 
H       4.401722     1.929575    -1.755439 
H       2.743695     2.504082    -1.946351 
H       4.165337     1.657038     0.605486 
H       2.978362     2.950318     0.405747 
N       2.463222    -0.205952    -0.420351 
C       0.786895     1.523652     0.205959 
O       0.315817     1.685567    -0.891725 
O       0.176592     1.912151     1.335543 
C       1.731031    -1.626608    -0.210427 
C       1.755244    -2.369485    -1.542653 
H       2.788812    -2.474620    -1.878315 
H       1.357119    -3.368743    -1.358795 
H       1.150984    -1.906559    -2.327755 
C       0.329358    -1.514882     0.403292 
H       0.351333    -0.795038     1.223443 
H       0.178784    -2.490573     0.874791 
H      -1.984012    -2.383767    -1.669616 
C      -4.144840     0.612489     1.490412 
C      -3.662456     1.188597     0.329225 
C      -2.595622     0.577850    -0.320475 
C      -2.020350    -0.584511     0.188319 
C      -2.542385    -1.145074     1.355105 
C      -3.604826    -0.551394     2.016435 
H      -4.118800     2.092535    -0.054328 
H      -2.200872     1.019451    -1.229277 
H      -2.111503    -2.059578     1.749152 
H      -4.017011    -0.973798     2.923921 
N      -5.277110     1.257967     2.191073 
O      -5.700932     2.297253     1.730329 
O      -5.709331     0.709173     3.182562 
C      -0.857989    -1.253227    -0.529029 
O      -1.266547    -2.523542    -1.043649 
H      -0.551278    -0.600083    -1.353640 
O       2.643360    -2.081459     0.680680 
H      -0.692010     2.271640     1.095671 
H       3.195118    -0.909003     0.181846 
43
     -1145.162296     -1144.865392   8.63   9.54
C      -1.684899     0.433302     1.965211 
C      -2.535557     2.315813     0.770419 
C      -2.610267     2.688232     2.247005 
C      -2.450920     1.341420     2.971938 
H      -0.721054     0.119324     2.363257 
H      -2.222978     3.136517     0.124542 
H      -3.481193     1.905462     0.407745 
H      -1.787156     3.362333     2.502645 
H      -3.545669     3.190734     2.498751 
H      -1.898994     1.429023     3.908335 
H      -3.427829     0.909562     3.203717 
N      -1.488263     1.267905     0.762624 
C      -2.482281    -0.829090     1.710246 
O      -2.181495    -1.917172     2.132110 
O      -3.602466    -0.610997     1.002207 
C      -0.952345     0.770179    -0.665292 
C      -2.031477     0.885752    -1.735392 
H      -2.873188     0.208188    -1.563528 
H      -2.390532     1.912135    -1.814074 
H      -1.565378     0.628568    -2.689655 
C      -0.424976    -0.675869    -0.600168 
H      -0.159080    -0.919235    -1.632473 
H      -1.217588    -1.382786    -0.336505 
H      -0.204496    -2.076290     1.536865 
C       4.360789    -1.383932    -2.047717 
C       3.710230    -0.159569    -2.034726 
C       2.565796    -0.021446    -1.266915 
C       2.078590    -1.098350    -0.522589 
C       2.750464    -2.317827    -0.556225 
C       3.899834    -2.467360    -1.320781 
H       4.099194     0.664368    -2.619009 
H       2.024204     0.919349    -1.243238 
H       2.372014    -3.150156     0.022833 
H       4.435034    -3.407609    -1.356357 
N       5.581913    -1.537065    -2.863621 
O       5.965322    -0.572398    -3.493546 
O       6.133040    -2.619475    -2.857953 
C       0.814075    -0.917868     0.301576 
O       0.666643    -2.066441     1.122262 
H       0.974467    -0.028174     0.926009 
O       0.022801     1.712753    -0.732788 
H      -4.061036    -1.460745     0.919214 
H      -0.453297     1.818934     0.553040 
43
     -1145.162296     -1144.865391   8.63   9.54
C      -1.669054    -1.806592     0.915858 
C      -3.456327    -0.643767    -0.155829 
C      -4.041076    -1.216676     1.130421 
C      -3.006980    -2.268624     1.565033 
H      -0.916811    -1.578216     1.669512 
H      -3.809365     0.360462    -0.391002 
H      -3.633112    -1.302328    -1.009756 
H      -4.126916    -0.427672     1.883665 
H      -5.033585    -1.643853     0.977752 
H      -2.905379    -2.337826     2.648557 
H      -3.284802    -3.259035     1.195607 
N      -2.008636    -0.587655     0.154072 
C      -1.104897    -2.923992     0.062864 
O      -0.140066    -3.582106     0.360102 
O      -1.822489    -3.151883    -1.049262 
C      -1.059905     0.180478    -0.886963 
C      -1.611790     0.101107    -2.305456 
H      -0.973171     0.727195    -2.933301 
H      -1.605970    -0.916960    -2.706224 
H      -2.619963     0.513360    -2.352425 
C       0.380899    -0.363621    -0.848952 
H       0.902972     0.182683    -1.639253 
H       0.423609    -1.413863    -1.153324 
H       1.257214    -2.119230     0.802540 
C       4.018089     2.992485     0.154945 
C       2.665754     3.288882     0.078762 
C       1.750058     2.255707     0.190070 
C       2.185062     0.941113     0.373762 
C       3.549635     0.671514     0.443924 
C       4.476696     1.699519     0.335627 
H       2.345022     4.312425    -0.066294 
H       0.683909     2.450046     0.122597 
H       3.884106    -0.347621     0.588132 
H       5.540608     1.507417     0.390033 
N       4.999113     4.089840     0.037919 
O       6.177557     3.803910     0.107922 
O       4.571863     5.215183    -0.121612 
C       1.155363    -0.171950     0.481615 
O       1.835484    -1.351148     0.883355 
H       0.445214     0.136185     1.261325 
O      -1.212816     1.385926    -0.280783 
H      -1.411201    -3.898967    -1.509646 
H      -1.793918     0.498149     0.594117 
43
     -1145.160141     -1144.865042   9.99   9.76
C      -2.485165    -1.442692     1.390712 
C      -2.987797     0.835203     0.869426 
C      -4.102694     0.354377     1.791097 
C      -3.982821    -1.175374     1.723934 
H      -1.978762    -1.953824     2.209259 
H      -2.656451     1.854179     1.070624 
H      -3.268121     0.745025    -0.183436 
H      -3.923235     0.711973     2.809779 
H      -5.084255     0.712877     1.476313 
H      -4.268666    -1.668567     2.653624 
H      -4.621574    -1.572540     0.930125 
N      -1.890966    -0.104175     1.187911 
C      -2.407630    -2.364425     0.189289 
O      -2.239891    -3.551567     0.256238 
O      -2.634096    -1.718692    -0.974785 
C      -0.445656     0.206284     0.558923 
C      -0.579809     0.952289    -0.762794 
H       0.419259     1.122265    -1.164812 
H      -1.154913     0.385583    -1.499732 
H      -1.040211     1.927391    -0.598638 
C       0.342291    -1.113587     0.415776 
H       0.206325    -1.550301    -0.582897 
H      -0.003364    -1.845687     1.150300 
H       2.167144    -2.754052     0.019696 
C       3.848481     1.761572    -1.928833 
C       3.661511     0.451002    -2.336761 
C       3.016019    -0.423474    -1.475292 
C       2.564596     0.002158    -0.226691 
C       2.771947     1.326992     0.153383 
C       3.412667     2.217144    -0.695732 
H       4.019030     0.132040    -3.307399 
H       2.875647    -1.453354    -1.787863 
H       2.396921     1.663751     1.113500 
H       3.572074     3.250232    -0.414853 
N       4.535147     2.702139    -2.839368 
O       4.683659     3.845467    -2.460674 
O       4.909315     2.274163    -3.912140 
C       1.842182    -0.944668     0.716805 
O       2.472353    -2.222386     0.761188 
H       1.925958    -0.535701     1.723870 
O      -0.038811     0.953145     1.618780 
H      -2.627910    -2.388241    -1.674837 
H      -1.219727     0.396057     2.036979 
43
     -1145.159290     -1144.864471  10.52  10.12
C      -1.919788     0.152368    -2.192494 
C       0.191157     0.818683    -3.065936 
C      -0.886124     1.225568    -4.094985 
C      -2.223250     1.133623    -3.337987 
H      -2.612810     0.270212    -1.358896 
H       0.912227     1.610946    -2.858511 
H       0.728325    -0.071598    -3.390623 
H      -0.717565     2.229994    -4.486486 
H      -0.872161     0.534142    -4.940272 
H      -2.493247     2.098309    -2.900426 
H      -3.056309     0.799464    -3.958594 
N      -0.556617     0.528524    -1.814676 
C      -2.000447    -1.276994    -2.699056 
O      -1.067619    -1.962718    -3.024315 
O      -3.280026    -1.688055    -2.784754 
C       0.264427    -0.053507    -0.543147 
C       1.540856    -0.743154    -0.996292 
H       1.345197    -1.629475    -1.607521 
H       2.165197    -0.036387    -1.544349 
H       2.088202    -1.049691    -0.105552 
C      -0.690208    -0.969350     0.244443 
H      -1.048586    -1.803059    -0.371771 
H      -1.556735    -0.363845     0.525969 
H       0.328170    -3.301753     0.698909 
C       1.729800     1.155244     4.231039 
C       0.387541     1.311880     3.916806 
C      -0.193262     0.413117     3.041869 
C       0.551373    -0.622377     2.477113 
C       1.893644    -0.756116     2.814498 
C       2.493195     0.135016     3.695563 
H      -0.177144     2.126453     4.351332 
H      -1.240503     0.532392     2.783287 
H       2.474501    -1.564157     2.388490 
H       3.537448     0.043554     3.965656 
N       2.361399     2.107257     5.166452 
O       3.536737     1.947791     5.426887 
O       1.668301     2.994621     5.621560 
C      -0.129851    -1.599073     1.537651 
O       0.768420    -2.668272     1.273412 
H      -1.002481    -1.995789     2.078931 
O       0.433625     1.161698     0.027425 
H      -3.268951    -2.584797    -3.151635 
H      -0.406055     1.409313    -1.039019 
43
     -1145.159290     -1144.864469  10.52  10.12
C      -2.703101    -0.852477    -0.695070 
C      -2.907016     0.786720     1.017925 
C      -4.273099     0.078058     0.888897 
C      -3.991930    -1.195820     0.071830 
H      -2.163362    -1.746651    -1.008418 
H      -2.569192     0.890027     2.050325 
H      -2.930009     1.771840     0.553617 
H      -4.702955    -0.159673     1.863199 
H      -4.979257     0.725543     0.364608 
H      -3.784246    -2.044849     0.728330 
H      -4.807715    -1.477228    -0.596081 
N      -1.945729    -0.088359     0.297393 
C      -3.035781    -0.024587    -1.923937 
O      -2.953225     1.172014    -2.010592 
O      -3.488030    -0.804492    -2.924365 
C      -0.415919     0.422173     0.128153 
C      -0.340244     1.937286     0.222612 
H      -0.872820     2.436123    -0.592847 
H      -0.732242     2.264973     1.186275 
H       0.710377     2.221943     0.176401 
C       0.116847    -0.144554    -1.200525 
H      -0.480014     0.200230    -2.053818 
H       0.024875    -1.233240    -1.145110 
H       1.152042     1.681483    -2.709751 
C       4.396963    -0.651425     1.571996 
C       3.643439    -1.688947     1.042199 
C       2.738765    -1.399785     0.037922 
C       2.575950    -0.095082    -0.427824 
C       3.348476     0.923039     0.119939 
C       4.265946     0.650510     1.126829 
H       3.769309    -2.695224     1.420054 
H       2.138633    -2.203214    -0.376986 
H       3.235125     1.935968    -0.244660 
H       4.872608     1.433655     1.563207 
N       5.368709    -0.947656     2.643537 
O       5.463127    -2.099533     3.016612 
O       6.017374    -0.022921     3.089381 
C       1.587024     0.175526    -1.545582 
O       1.760283     1.516594    -1.983096 
H       1.854651    -0.502928    -2.370159 
O       0.031019    -0.249142     1.214659 
H      -3.722445    -0.219365    -3.660264 
H      -1.273216    -0.676553     1.073189 
43
     -1145.162256     -1144.864215   8.66  10.28
C      -0.479253    -0.553959    -3.121366 
C      -1.700032    -1.858377    -1.512442 
C      -2.476789    -1.880821    -2.846719 
C      -1.448327    -1.457461    -3.909109 
H       0.508852    -0.478586    -3.575780 
H      -1.552210    -2.857569    -1.099746 
H      -2.191544    -1.244458    -0.757193 
H      -2.894298    -2.866515    -3.058802 
H      -3.303300    -1.168502    -2.811667 
H      -0.888670    -2.318695    -4.283858 
H      -1.892344    -0.946579    -4.765913 
N      -0.376038    -1.283052    -1.846947 
C      -1.090593     0.829488    -3.046774 
O      -1.920893     1.212372    -2.256106 
O      -0.659723     1.596949    -4.056475 
C       0.752464    -0.867855    -0.784452 
C       0.445737    -1.625840     0.504282 
H       0.425153    -2.695969     0.285245 
H       1.279052    -1.450151     1.188866 
H      -0.480107    -1.320587     0.992071 
C       0.932649     0.640496    -0.598380 
H       0.861365     1.134528    -1.571700 
H       1.985674     0.735212    -0.320541 
H      -1.670350     1.154640    -0.431655 
C       1.588397     1.178973     4.439403 
C       2.398246     1.671983     3.428400 
C       1.889053     1.726453     2.141611 
C       0.593686     1.288124     1.858522 
C      -0.196856     0.809287     2.900258 
C       0.296131     0.749127     4.196588 
H       3.402329     2.006242     3.655878 
H       2.513054     2.123250     1.346448 
H      -1.207477     0.482713     2.691812 
H      -0.309626     0.375445     5.012296 
N       2.119992     1.115544     5.816114 
O       1.389307     0.681435     6.682661 
O       3.256630     1.501416     5.998278 
C       0.059804     1.385346     0.436155 
O      -1.290542     0.962465     0.436646 
H       0.104455     2.452708     0.170704 
O       1.763933    -1.436020    -1.488948 
H      -1.128699     2.443741    -4.000596 
H       0.591708    -1.946949    -2.037070 
43
     -1145.157517     -1144.864209  11.63  10.28
C      -2.064021     0.541949    -1.499561 
C      -0.392765     0.883653    -3.190619 
C      -1.711827     1.504612    -3.694211 
C      -2.594178     1.635790    -2.443381 
H      -2.279589     0.776116    -0.457269 
H       0.455974     1.566627    -3.265312 
H      -0.152668    -0.026758    -3.737784 
H      -1.549297     2.469973    -4.176140 
H      -2.179007     0.842574    -4.426039 
H      -2.443761     2.605244    -1.960318 
H      -3.660974     1.521234    -2.645419 
N      -0.617420     0.575752    -1.753128 
C      -2.741642    -0.783980    -1.798040 
O      -3.740028    -1.163307    -1.248365 
O      -2.145210    -1.473772    -2.793994 
C       0.478801    -0.318622    -0.940164 
C       1.377902    -1.052791    -1.925608 
H       1.881664    -0.335411    -2.575387 
H       2.134625    -1.577884    -1.344044 
H       0.833171    -1.790481    -2.523881 
C      -0.268883    -1.272494     0.010711 
H      -0.683932    -2.120951    -0.544190 
H      -1.096709    -0.736192     0.481699 
H       2.117071    -2.992701     1.393622 
C       1.757846     1.024079     4.110676 
C       0.502314     0.449489     4.202412 
C       0.134773    -0.480967     3.240589 
C       0.999247    -0.822948     2.203644 
C       2.255438    -0.224673     2.140458 
C       2.643279     0.702043     3.093968 
H      -0.161966     0.725392     5.011172 
H      -0.843648    -0.950383     3.304090 
H       2.918991    -0.459441     1.318539 
H       3.611618     1.183558     3.050672 
N       2.165795     2.014488     5.129116 
O       3.271767     2.504277     5.028390 
O       1.369830     2.279307     6.007160 
C       0.550718    -1.851732     1.177289 
O       1.633547    -2.608644     0.655259 
H      -0.140266    -2.531517     1.697900 
O       1.044664     0.749769    -0.335712 
H      -2.674574    -2.272301    -2.937665 
H       0.003335     1.292022    -1.041136 
43
     -1145.160581     -1144.863942   9.71  10.45
C      -0.014789     1.922844     1.347872 
C      -2.411055     1.941879     1.299497 
C      -1.965089     2.218657     2.752374 
C      -0.475024     2.593818     2.652488 
H       0.859230     2.399716     0.904655 
H      -3.170007     2.645114     0.953689 
H      -2.793842     0.927171     1.187475 
H      -2.547864     3.020500     3.208786 
H      -2.095639     1.320642     3.357469 
H      -0.346088     3.674641     2.550282 
H       0.111273     2.265516     3.513126 
N      -1.187766     2.119386     0.479830 
C       0.272517     0.457452     1.616602 
O      -0.574305    -0.380044     1.800843 
O       1.588041     0.206614     1.675548 
C      -1.081186     1.788682    -1.085610 
C      -2.487200     1.483759    -1.602509 
H      -2.922076     0.553626    -1.221161 
H      -3.154096     2.313867    -1.365441 
H      -2.421121     1.439755    -2.693739 
C      -0.057363     0.698103    -1.428844 
H       0.851226     0.867414    -0.847409 
H       0.218137     0.923681    -2.463630 
H      -1.858048    -0.709336    -2.763796 
C       2.819404    -3.390762    -0.632721 
C       1.705318    -3.483088     0.182545 
C       0.632911    -2.633675    -0.061543 
C       0.680644    -1.704952    -1.097876 
C       1.814305    -1.648509    -1.908366 
C       2.892546    -2.488479    -1.682572 
H       1.682961    -4.210972     0.983882 
H      -0.249690    -2.692727     0.565500 
H       1.852757    -0.941582    -2.730316 
H       3.779154    -2.454291    -2.302528 
N       3.967367    -4.287671    -0.377080 
O       4.911412    -4.222146    -1.136088 
O       3.894727    -5.032496     0.578274 
C      -0.491632    -0.778680    -1.360207 
O      -1.060768    -1.220767    -2.594733 
H      -1.213734    -0.920364    -0.548407 
O      -0.651924     3.026368    -1.429130 
H       1.704364    -0.746347     1.817555 
H      -1.007987     3.137679    -0.094587 
43
     -1145.161049     -1144.863824   9.42  10.53
C      -1.103318     2.069375     0.105962 
C       0.234032     2.908422    -1.696095 
C      -1.229233     3.328252    -1.958590 
C      -1.952510     3.130756    -0.613628 
H      -1.205745     2.102262     1.190592 
H       0.935847     3.734680    -1.816798 
H       0.538905     2.091906    -2.350806 
H      -1.299147     4.362448    -2.299968 
H      -1.666186     2.689506    -2.727246 
H      -1.936965     4.047934    -0.018823 
H      -2.993400     2.819950    -0.724587 
N       0.260442     2.464672    -0.281620 
C      -1.490624     0.695662    -0.409590 
O      -1.194952     0.261550    -1.494128 
O      -2.254241     0.027269     0.468262 
C       1.531049     1.788941     0.436927 
C       2.719641     1.877279    -0.514595 
H       2.624091     1.264490    -1.414550 
H       2.889977     2.921178    -0.784979 
H       3.595968     1.528824     0.035653 
C       1.261855     0.367797     0.947304 
H       0.294877     0.353455     1.455144 
H       2.003519     0.242963     1.744727 
H       3.069794    -1.565797     0.600190 
C      -1.001181    -4.196424     1.024535 
C      -0.966746    -3.784964    -0.297481 
C      -0.196396    -2.679114    -0.628353 
C       0.525841    -1.990403     0.345434 
C       0.465240    -2.433209     1.666914 
C      -0.295648    -3.539048     2.017904 
H      -1.532837    -4.325928    -1.045048 
H      -0.162074    -2.340305    -1.658018 
H       1.008848    -1.904452     2.444237 
H      -0.350291    -3.889502     3.040570 
N      -1.820665    -5.373776     1.387225 
O      -2.460333    -5.904109     0.503454 
O      -1.802727    -5.733649     2.545482 
C       1.385554    -0.796692    -0.046403 
O       2.741040    -1.204800    -0.230151 
H       1.066078    -0.472732    -1.038082 
O       1.574407     2.691960     1.446399 
H      -2.454446    -0.840859     0.083795 
H       0.642666     3.204225     0.558828 
43
     -1145.161049     -1144.863824   9.42  10.53
C      -0.057913     1.139833    -2.051410 
C      -1.081050    -0.751647    -3.107540 
C      -1.829016     0.514825    -3.579663 
C      -0.903834     1.689613    -3.212283 
H       0.898159     1.650931    -1.938707 
H      -0.813789    -1.413298    -3.932528 
H      -1.668470    -1.315646    -2.382877 
H      -2.033147     0.489097    -4.651417 
H      -2.782710     0.598844    -3.057010 
H      -0.234811     1.938865    -4.040252 
H      -1.446051     2.595691    -2.934097 
N       0.163903    -0.251816    -2.476183 
C      -0.856968     1.246192    -0.765687 
O      -1.790906     0.541080    -0.478150 
O      -0.435514     2.260952     0.004457 
C       1.221187    -1.175870    -1.691555 
C       0.820290    -2.633764    -1.890989 
H       0.774707    -2.853676    -2.959356 
H       1.614773    -3.245544    -1.458943 
H      -0.118708    -2.914105    -1.406994 
C       1.398915    -0.787579    -0.218381 
H       1.489230     0.298792    -0.149143 
H       2.396617    -1.171687     0.023660 
H       1.525137    -2.664779     1.675852 
C       0.004508     1.152214     4.281868 
C       1.269283     0.907061     3.774968 
C       1.385238     0.113645     2.642683 
C       0.258607    -0.430921     2.026071 
C      -0.998779    -0.164079     2.566428 
C      -1.136759     0.630367     3.695869 
H       2.137167     1.335334     4.259745 
H       2.373548    -0.069802     2.231688 
H      -1.882392    -0.576732     2.091955 
H      -2.108114     0.845481     4.122665 
N      -0.132608     2.001397     5.485755 
O      -1.255344     2.232698     5.882545 
O       0.885873     2.414215     5.999240 
C       0.386690    -1.327752     0.802602 
O       0.686929    -2.665142     1.201225 
H      -0.600215    -1.399897     0.342977 
O       2.278005    -0.794076    -2.449003 
H      -0.976952     2.264582     0.809675 
H       1.175292    -0.253894    -3.089758 
43
     -1145.159013     -1144.863099  10.69  10.98
C       1.550355     0.391436    -1.413742 
C       1.862858    -1.506029    -2.808802 
C       2.720813    -0.360327    -3.390343 
C       2.788300     0.702893    -2.276433 
H       1.637256     0.788580    -0.401668 
H       2.389599    -2.459115    -2.750387 
H       0.942933    -1.641595    -3.375670 
H       3.718046    -0.700088    -3.674629 
H       2.242726     0.045586    -4.284352 
H       3.679574     0.568832    -1.658172 
H       2.786905     1.728422    -2.649281 
N       1.543185    -1.071191    -1.421684 
C       0.324115     0.988761    -2.079620 
O      -0.449773     0.411314    -2.794265 
O       0.222141     2.307082    -1.806833 
C       0.649392    -2.076917    -0.521529 
C      -0.343121    -2.847874    -1.374303 
H      -1.043186    -2.199459    -1.907640 
H       0.199889    -3.478476    -2.079385 
H      -0.917398    -3.494230    -0.708668 
C       0.018834    -1.308096     0.655489 
H       0.774712    -0.632467     1.065824 
H      -0.125900    -2.078452     1.419111 
H      -3.174343    -1.118676     0.232286 
C      -1.790242     2.160058     3.755071 
C      -2.164460     0.836489     3.924227 
C      -2.020350    -0.036025     2.856380 
C      -1.510631     0.409128     1.636719 
C      -1.147702     1.747392     1.498544 
C      -1.283221     2.634162     2.557905 
H      -2.558403     0.506213     4.876930 
H      -2.307169    -1.076095     2.964696 
H      -0.757137     2.110944     0.553206 
H      -1.004521     3.675854     2.464290 
N      -1.938484     3.096898     4.889288 
O      -2.386212     2.655929     5.927246 
O      -1.603032     4.249678     4.712576 
C      -1.312477    -0.569623     0.488072 
O      -2.346030    -1.549888     0.464709 
H      -1.326095    -0.008311    -0.452074 
O       1.720356    -2.781799    -0.088626 
H      -0.533488     2.645635    -2.310462 
H       2.271389    -1.666546    -0.713996 
43
     -1145.157636     -1144.863064  11.56  11.00
C      -2.544160     0.191611     0.836259 
C      -2.676296    -1.762504    -0.530395 
C      -3.951947    -0.972152    -0.799880 
C      -4.023250     0.004356     0.384055 
H      -2.209722     1.218880     0.692782 
H      -2.242581    -2.216542    -1.421633 
H      -2.831134    -2.532326     0.230347 
H      -3.858523    -0.427293    -1.744443 
H      -4.831637    -1.614678    -0.867569 
H      -4.473850     0.962136     0.121106 
H      -4.614129    -0.425198     1.197816 
N      -1.760147    -0.720239    -0.021795 
C      -2.450324    -0.088785     2.323238 
O      -2.440842     0.760257     3.172641 
O      -2.465361    -1.409294     2.604638 
C      -0.197370    -1.128626     0.162111 
C      -0.058332    -2.611459     0.473575 
H      -0.553416    -2.888215     1.408849 
H      -0.455118    -3.206097    -0.350226 
H       1.005839    -2.825260     0.569101 
C       0.395255    -0.224610     1.260969 
H       0.153072    -0.614939     2.255281 
H      -0.037955     0.776571     1.175895 
H       3.511051    -1.143581     1.300765 
C       3.317784     2.365724    -2.053364 
C       2.865865     2.989921    -0.903910 
C       2.418432     2.194635     0.141653 
C       2.412520     0.805686     0.037520 
C       2.872969     0.209714    -1.134274 
C       3.329600     0.986070    -2.186762 
H       2.872456     4.070077    -0.835539 
H       2.071571     2.668276     1.056612 
H       2.835740    -0.866773    -1.235440 
H       3.679227     0.537202    -3.107496 
N       3.801099     3.198287    -3.174820 
O       3.777406     4.403962    -3.031628 
O       4.193434     2.628623    -4.172189 
C       1.919624    -0.019264     1.216612 
O       2.558906    -1.284379     1.303176 
H       2.154512     0.561458     2.121247 
O       0.136805    -0.760127    -1.094772 
H      -2.460940    -1.492311     3.569702 
H      -1.146139    -0.298797    -0.949815 
43
     -1145.156325     -1144.862193  12.38  11.55
C      -1.996941     0.632599    -2.071567 
C      -1.841367    -1.756837    -1.923201 
C      -2.696046    -1.413396    -3.161388 
C      -2.418994     0.072719    -3.441661 
H      -1.387604     1.530274    -2.174544 
H      -1.045896    -2.473970    -2.134891 
H      -2.457435    -2.149985    -1.115781 
H      -2.440618    -2.038661    -4.018243 
H      -3.753441    -1.572538    -2.939410 
H      -1.578444     0.188966    -4.131340 
H      -3.274561     0.607983    -3.857620 
N      -1.211487    -0.474068    -1.509995 
C      -3.223849     1.031662    -1.270594 
O      -3.743212     2.112406    -1.343906 
O      -3.714219     0.034160    -0.504132 
C      -0.384935    -0.417405    -0.112744 
C      -0.831003    -1.532351     0.820222 
H      -0.190479    -1.503909     1.701103 
H      -1.869936    -1.423077     1.146622 
H      -0.685938    -2.497965     0.334130 
C      -0.560508     0.993546     0.477776 
H      -1.615314     1.226640     0.668410 
H      -0.192775     1.703349    -0.268365 
H      -1.350738     1.051018     2.985881 
C       4.319954     0.189587     1.831770 
C       3.868933     1.122112     0.908690 
C       2.527938     1.456894     0.911770 
C       1.642854     0.866301     1.813825 
C       2.124966    -0.062976     2.728797 
C       3.470636    -0.408623     2.743152 
H       4.562331     1.564552     0.205388 
H       2.163660     2.176571     0.185993 
H       1.445829    -0.517824     3.438613 
H       3.859081    -1.131273     3.449296 
N       5.751002    -0.174587     1.840276 
O       6.120882    -0.991853     2.658747 
O       6.474950     0.365042     1.028190 
C       0.183448     1.279567     1.800106 
O      -0.464309     0.684687     2.918148 
H       0.167971     2.372936     1.923025 
O       0.817389    -0.609892    -0.700389 
H      -4.515182     0.375578    -0.079275 
H      -0.056594    -0.487961    -1.760883 
43
     -1145.157434     -1144.861683  11.69  11.87
C       0.112741     0.809022     2.031719 
C       2.039842     2.227618     2.126456 
C       1.206585     2.483893     3.400575 
C       0.223794     1.302018     3.487811 
H      -0.206956    -0.231554     1.977375 
H       3.101216     2.071628     2.324684 
H       1.934170     3.041291     1.410698 
H       1.832989     2.547551     4.291657 
H       0.666723     3.428664     3.309036 
H       0.640666     0.491223     4.091141 
H      -0.747995     1.569960     3.906428 
N       1.491410     0.966050     1.555190 
C      -0.941281     1.624582     1.306415 
O      -2.108433     1.331934     1.293331 
O      -0.465963     2.741497     0.724499 
C       2.139662     0.437494     0.164103 
C       2.589747     1.596167    -0.709947 
H       1.772732     2.264294    -0.994899 
H       3.374913     2.152464    -0.196532 
H       3.011035     1.173134    -1.623308 
C       1.177328    -0.548210    -0.526593 
H       0.755740    -1.207412     0.237184 
H       1.844014    -1.180868    -1.120323 
H      -0.006207     0.712826    -3.255504 
C      -2.695119    -3.238403    -2.180134 
C      -1.496466    -3.214244    -2.876058 
C      -0.616411    -2.169805    -2.641331 
C      -0.931208    -1.164875    -1.725443 
C      -2.146199    -1.214149    -1.046196 
C      -3.037602    -2.255704    -1.268473 
H      -1.267629    -4.001641    -3.582721 
H       0.327150    -2.128483    -3.174779 
H      -2.408406    -0.433862    -0.338797 
H      -3.984720    -2.308695    -0.747474 
N      -3.639637    -4.350461    -2.422066 
O      -4.681606    -4.347943    -1.800358 
O      -3.314766    -5.197941    -3.227683 
C       0.066326    -0.048803    -1.454150 
O       0.680831     0.392452    -2.662734 
H      -0.473312     0.787293    -0.996242 
O       3.133224    -0.240688     0.781381 
H      -1.224735     3.205392     0.339429 
H       2.271819     0.125290     1.812634 
43
     -1145.156107     -1144.861363  12.52  12.07
C      -1.448410     1.850739     1.667665 
C       0.399114     3.040182     0.733462 
C       0.201787     3.607924     2.135105 
C      -1.205319     3.128280     2.526757 
H      -1.582572     0.967123     2.290987 
H       1.445426     2.916974     0.452990 
H      -0.112259     3.640689    -0.023343 
H       0.952915     3.190703     2.812768 
H       0.295562     4.695039     2.158151 
H      -1.295909     2.903364     3.590057 
H      -1.952061     3.890575     2.287886 
N      -0.233495     1.708483     0.840359 
C      -2.736901     2.029374     0.890256 
O      -3.800819     1.591030     1.234750 
O      -2.584710     2.811213    -0.200553 
C      -0.005697     0.669796    -0.389518 
C       0.172609     1.409296    -1.706397 
H       0.394636     0.665422    -2.471667 
H      -0.724313     1.960581    -2.005423 
H       1.022136     2.089717    -1.641589 
C      -1.194852    -0.307216    -0.384401 
H      -2.125968     0.185838    -0.690435 
H      -1.331796    -0.663052     0.641543 
H      -1.918347    -0.786135    -2.843661 
C       2.439090    -3.893603    -0.464508 
C       1.423896    -3.835533     0.477809 
C       0.303970    -3.075083     0.191452 
C       0.201648    -2.372679    -1.008082 
C       1.231933    -2.457820    -1.937612 
C       2.360464    -3.218774    -1.670030 
H       1.520288    -4.378134     1.409369 
H      -0.500687    -3.024984     0.919583 
H       1.152999    -1.923735    -2.875886 
H       3.173729    -3.289323    -2.380773 
N       3.638719    -4.703034    -0.173324 
O       3.681440    -5.285335     0.891860 
O       4.513229    -4.740580    -1.015038 
C      -1.046867    -1.557624    -1.277142 
O      -1.093963    -1.247845    -2.663633 
H      -1.902927    -2.202593    -1.028407 
O       1.120617     0.147879     0.140540 
H      -3.464083     2.924910    -0.590579 
H       0.615748     0.937947     1.148652 
43
     -1145.154784     -1144.860295  13.35  12.74
C      -0.539194    -0.969653    -1.887920 
C      -2.897879    -1.377834    -1.809764 
C      -2.426406    -1.626934    -3.258501 
C      -0.893974    -1.743634    -3.172413 
H       0.418255    -1.287238    -1.475186 
H      -3.528576    -2.175759    -1.414928 
H      -3.431589    -0.432957    -1.721911 
H      -2.871787    -2.527991    -3.682890 
H      -2.714318    -0.786430    -3.893402 
H      -0.588444    -2.784813    -3.038549 
H      -0.374261    -1.348001    -4.046802 
N      -1.647697    -1.338871    -0.999728 
C      -0.406272     0.507081    -2.211846 
O       0.621487     1.006955    -2.587414 
O      -1.554235     1.199130    -2.094655 
C      -1.793713    -1.046953     0.581665 
C      -2.990747    -0.155930     0.871846 
H      -3.900286    -0.642729     0.518575 
H      -3.075429    -0.066065     1.957796 
H      -2.901697     0.847071     0.448644 
C      -0.457130    -0.535650     1.159130 
H       0.349794    -1.134466     0.727904 
H      -0.498711    -0.854988     2.208794 
H      -1.123322     1.221138     2.759683 
C       4.094986     1.314604     2.032101 
C       3.702413     1.133402     0.716886 
C       2.347663     1.037214     0.435245 
C       1.398587     1.117533     1.453776 
C       1.827400     1.311215     2.765591 
C       3.178100     1.410349     3.065395 
H       4.447474     1.072931    -0.065771 
H       2.031322     0.913814    -0.595591 
H       1.104997     1.401553     3.569006 
H       3.523567     1.561031     4.080134 
N       5.536587     1.416196     2.342261 
O       5.851572     1.577808     3.503233 
O       6.317849     1.331466     1.417647 
C      -0.080848     0.953988     1.123848 
O      -0.896920     1.740644     1.982212 
H      -0.243171     1.370783     0.127819 
O      -1.964489    -2.350752     0.903433 
H      -1.364949     2.111863    -2.360440 
H      -1.586011    -2.370121    -0.434916 
43
     -1145.154582     -1144.856804  13.48  14.93
C      -1.438493     2.811329     0.771590 
C      -1.065837     2.258954    -1.549940 
C      -2.193529     3.311388    -1.482388 
C      -2.080779     3.926977    -0.076485 
H      -0.887688     3.194285     1.630441 
H      -0.284746     2.531360    -2.261278 
H      -1.438103     1.269473    -1.819560 
H      -2.087550     4.068796    -2.260789 
H      -3.164667     2.832359    -1.616146 
H      -1.404782     4.786330    -0.079215 
H      -3.038518     4.257579     0.331198 
N      -0.479045     2.229992    -0.190492 
C      -2.533843     1.931559     1.342740 
O      -2.945761     2.025410     2.464459 
O      -3.105361     1.083271     0.442103 
C       0.650801     1.194107     0.318392 
C       1.308176     0.614640    -0.931212 
H       0.650565    -0.009629    -1.536437 
H       1.709815     1.436221    -1.528678 
H       2.156424     0.011989    -0.598029 
C       0.144558     0.146328     1.314183 
H      -0.573944     0.612069     1.994420 
H       1.020360    -0.053728     1.936650 
H      -1.984841    -0.411745    -0.090995 
C       2.567199    -4.106491    -0.174112 
C       2.545407    -3.549458     1.094747 
C       1.575421    -2.604415     1.384788 
C       0.642822    -2.209275     0.423461 
C       0.686249    -2.797394    -0.838070 
C       1.650349    -3.747786    -1.145671 
H       3.274535    -3.858921     1.832458 
H       1.544724    -2.172780     2.380640 
H      -0.042155    -2.508392    -1.584637 
H       1.694429    -4.208239    -2.124397 
N       3.597221    -5.115704    -0.495683 
O       4.386689    -5.410970     0.377997 
O       3.592451    -5.588546    -1.613459 
C      -0.423709    -1.187537     0.788586 
O      -1.281278    -1.023582    -0.330907 
H      -0.995827    -1.632139     1.617048 
O       1.407002     2.153186     0.901158 
H      -3.859926     0.677012     0.896778 
H       0.505187     2.832109     0.084745 
