43
     -1145.172107     -1144.876394   0.00   0.00
C       3.162709     0.815094     0.307662 
C       1.773863    -0.400282    -1.232845 
C       3.215565    -0.849484    -1.431170 
C       3.840548    -0.521524    -0.074774 
H       2.967992     0.859259     1.378667 
H       1.219162    -1.137221    -0.642589 
H       1.236551    -0.211542    -2.162239 
H       3.286588    -1.906901    -1.692081 
H       3.687566    -0.264523    -2.226054 
H       3.572441    -1.284099     0.661753 
H       4.928813    -0.440284    -0.094398 
N       1.914562     0.868728    -0.478067 
C       4.069008     1.977881    -0.063609 
O       4.019089     2.611530    -1.081002 
O       4.996009     2.185287     0.892151 
C       0.616418     1.573678     0.053141 
C       0.969444     2.435948     1.263661 
H       1.830604     3.073858     1.050068 
H       0.114970     3.094611     1.434192 
H       1.144814     1.855875     2.176566 
C      -0.531998     0.610070     0.404158 
H      -1.175337     1.132103     1.119926 
H      -0.147788    -0.272990     0.927552 
H      -1.249089     1.946246    -1.521684 
C      -4.506389    -2.368981     0.723964 
C      -3.268734    -2.908313     0.413120 
C      -2.290624    -2.064117    -0.088600 
C      -2.540447    -0.704873    -0.273498 
C      -3.797590    -0.194589     0.042978 
C      -4.789392    -1.025146     0.544245 
H      -3.087497    -3.964985     0.562080 
H      -1.317821    -2.473837    -0.347310 
H      -3.996117     0.858015    -0.117748 
H      -5.771796    -0.644966     0.793576 
N      -5.557953    -3.257782     1.259934 
O      -6.634514    -2.762833     1.522810 
O      -5.282024    -4.431185     1.405797 
C      -1.436805     0.204087    -0.777537 
O      -2.006844     1.338352    -1.380995 
H      -0.855760    -0.364865    -1.515860 
H       5.570504     2.902166     0.584076 
O       0.434330     2.327968    -1.081369 
H       1.672968     1.784563    -1.238646 
43
     -1145.171560     -1144.875455   0.34   0.59
C       2.811662     0.683709     0.832589 
C       2.945165    -0.395224    -1.303915 
C       4.341156     0.092564    -0.940646 
C       4.253929     0.173475     0.584822 
H       2.360298     0.177972     1.685157 
H       2.844463    -1.460012    -1.068911 
H       2.664074    -0.230268    -2.345154 
H       5.121090    -0.587175    -1.288447 
H       4.523214     1.081328    -1.371493 
H       4.365553    -0.820910     1.025458 
H       5.003867     0.826471     1.035489 
N       2.076222     0.415646    -0.419617 
C       2.851982     2.176435     1.114234 
O       2.813690     3.045062     0.287513 
O       3.006300     2.414588     2.431134 
C       0.513837     0.195233    -0.452053 
C      -0.065534     0.505701     0.924853 
H       0.274400     1.485549     1.268012 
H      -1.148489     0.564146     0.824044 
H       0.166526    -0.258648     1.673611 
C       0.119316    -1.199780    -0.962862 
H       0.140080    -1.927153    -0.144144 
H       0.826536    -1.532728    -1.723539 
H      -0.720770     0.397602    -2.545468 
C      -4.568007    -0.498192     0.944565 
C      -3.802720    -1.640443     1.123553 
C      -2.739140    -1.861846     0.264166 
C      -2.435951    -0.956376    -0.753728 
C      -3.228737     0.176045    -0.911704 
C      -4.300294     0.414172    -0.061409 
H      -4.047009    -2.334271     1.917738 
H      -2.139118    -2.759710     0.386400 
H      -2.999745     0.873236    -1.707779 
H      -4.924266     1.292044    -0.171442 
N      -5.707394    -0.251779     1.852441 
O      -5.919436    -1.070772     2.723363 
O      -6.363020     0.753864     1.674127 
C      -1.253366    -1.226858    -1.677281 
O      -1.241828    -0.394287    -2.807327 
H      -1.381261    -2.254225    -2.042860 
H       3.076936     3.374748     2.541815 
O       0.287257     1.205358    -1.361059 
H       1.598535     1.335703    -1.054248 
43
     -1145.171350     -1144.874797   0.47   1.00
C       2.824857     0.634832     0.926574 
C       2.953679    -1.005152    -0.818032 
C       4.376933    -0.566087    -0.501275 
C       4.232564    -0.013734     0.919077 
H       2.282418     0.386265     1.836771 
H       2.717139    -1.940244    -0.299170 
H       2.749587    -1.126108    -1.883014 
H       5.087721    -1.391897    -0.566519 
H       4.694006     0.219109    -1.192693 
H       4.255102    -0.827748     1.648337 
H       5.013841     0.698734     1.191410 
N       2.136863     0.104035    -0.275809 
C       2.941900     2.149868     0.897267 
O       2.746107     2.861020     1.844283 
O       3.351347     2.608020    -0.301268 
C       0.555176     0.043031    -0.375029 
C      -0.064927     0.678029     0.864032 
H      -1.129274     0.806595     0.671011 
H       0.045567     0.059838     1.760910 
H       0.350462     1.671556     1.040514 
C       0.041010    -1.384365    -0.626884 
H      -0.065409    -1.924120     0.320212 
H       0.749449    -1.934920    -1.247044 
H      -0.529678    -0.078802    -2.559289 
C      -4.647309     0.132377     0.725637 
C      -4.021183    -1.014512     1.189360 
C      -2.939413    -1.507442     0.478374 
C      -2.481596    -0.864573    -0.672679 
C      -3.137297     0.279600    -1.116136 
C      -4.224772     0.787617    -0.418091 
H      -4.384500    -1.502953     2.084468 
H      -2.447473    -2.412457     0.824835 
H      -2.788836     0.772311    -2.015057 
H      -4.743189     1.678054    -0.750477 
N      -5.804538     0.666761     1.472885 
O      -6.153780     0.069390     2.470595 
O      -6.336751     1.670353     1.045634 
C      -1.283314    -1.429795    -1.426948 
O      -1.117036    -0.855127    -2.696689 
H      -1.499478    -2.494151    -1.587751 
H       3.396600     3.574000    -0.242113 
O       0.495030     0.858601    -1.486191 
H       1.802389     0.864197    -1.154030 
43
     -1145.166464     -1144.871360   3.54   3.16
C       1.042895    -2.326841    -1.609979 
C      -0.915010    -2.237440    -0.222772 
C      -0.340844    -3.645090    -0.135400 
C       1.126413    -3.402299    -0.499059 
H       1.839960    -1.594254    -1.496247 
H      -0.601532    -1.648754     0.642312 
H      -1.999660    -2.187555    -0.327976 
H      -0.467049    -4.082915     0.856833 
H      -0.819645    -4.302607    -0.867860 
H       1.662377    -2.983552     0.356640 
H       1.657228    -4.297604    -0.829223 
N      -0.281813    -1.701868    -1.453061 
C       1.164926    -2.981793    -2.973408 
O       0.256517    -3.332530    -3.675279 
O       2.459970    -3.183968    -3.295423 
C      -0.588023    -0.206540    -1.844305 
C       0.526149     0.312350    -2.756629 
H       0.627499    -0.351509    -3.618070 
H       0.196859     1.283068    -3.137081 
H       1.497711     0.438166    -2.269646 
C      -0.835209     0.712012    -0.641960 
H      -1.550341     0.242282     0.036712 
H      -1.350682     1.581179    -1.062882 
H       1.915566     0.380300     1.028821 
C      -0.828826     3.599687     3.455080 
C      -0.860018     2.219386     3.574409 
C      -0.452371     1.451306     2.495060 
C      -0.018873     2.054342     1.313771 
C       0.005771     3.444285     1.230105 
C      -0.401592     4.229926     2.299687 
H      -1.199494     1.766346     4.497007 
H      -0.470865     0.369283     2.569793 
H       0.350236     3.924224     0.318470 
H      -0.389611     5.311009     2.247780 
N      -1.265191     4.426409     4.601712 
O      -1.227384     5.631880     4.469725 
O      -1.633686     3.847500     5.602133 
C       0.389892     1.207436     0.122042 
O       1.157090     0.067656     0.526119 
H       0.995681     1.831868    -0.546721 
H       2.470748    -3.644787    -4.147489 
O      -1.725913    -0.494635    -2.524669 
H      -1.119849    -1.725351    -2.309074 
43
     -1145.166464     -1144.871359   3.54   3.16
C      -2.510491     0.262553     1.649957 
C      -0.479646    -0.891467     2.206409 
C      -1.640763    -1.658579     2.824572 
C      -2.804635    -1.232487     1.925747 
H      -2.742187     0.515515     0.616875 
H      -0.175016    -1.361278     1.268502 
H       0.388820    -0.768053     2.854914 
H      -1.472766    -2.737427     2.821339 
H      -1.808656    -1.337011     3.857278 
H      -2.769424    -1.778532     0.979480 
H      -3.789923    -1.384837     2.371103 
N      -1.075709     0.439471     1.933098 
C      -3.346483     1.132060     2.570754 
O      -3.001469     1.579520     3.629806 
O      -4.588345     1.305798     2.071450 
C      -0.174635     1.512802     1.212774 
C      -1.073276     2.554868     0.542323 
H      -0.420369     3.362893     0.201330 
H      -1.648037     2.184753    -0.311831 
H      -1.749673     2.982035     1.286016 
C       0.850472     0.913378     0.243074 
H       1.384299     0.096565     0.733484 
H       1.589211     1.708404     0.099760 
H      -1.044999    -0.725131    -1.804065 
C       3.535241    -1.253129    -3.393233 
C       3.175797     0.060016    -3.640445 
C       2.129069     0.607365    -2.911096 
C       1.458346    -0.143866    -1.949155 
C       1.844443    -1.466294    -1.727501 
C       2.885235    -2.030737    -2.448108 
H       3.707138     0.632871    -4.389507 
H       1.830605     1.634960    -3.098296 
H       1.324573    -2.059486    -0.982814 
H       3.196742    -3.054805    -2.287100 
N       4.649113    -1.847484    -4.164389 
O       4.942103    -3.000713    -3.927777 
O       5.200118    -1.144199    -4.985238 
C       0.343066     0.480181    -1.129841 
O      -0.742634    -0.433901    -0.938327 
H      -0.020170     1.364580    -1.668393 
H      -5.084546     1.824488     2.722013 
O       0.393777     1.973608     2.355250 
H      -0.664309     1.180723     2.779802 
43
     -1145.166464     -1144.871359   3.54   3.16
C       2.330607    -0.002905    -1.913668 
C       0.139560     0.923421    -2.240718 
C       0.637561     0.408359    -3.584402 
C       1.657896    -0.647430    -3.150508 
H       2.510312    -0.748946    -1.141617 
H      -0.529703     0.192125    -1.781934 
H      -0.347972     1.898773    -2.272701 
H      -0.168714    -0.003737    -4.194519 
H       1.123661     1.210674    -4.148381 
H       1.145166    -1.560330    -2.836583 
H       2.381652    -0.911512    -3.924319 
N       1.389169     1.029981    -1.447932 
C       3.653950     0.623342    -2.312880 
O       3.831551     1.770012    -2.620209 
O       4.635671    -0.302554    -2.338380 
C       1.266561     1.477280     0.057967 
C       2.505756     1.007735     0.824051 
H       3.402712     1.386094     0.328697 
H       2.463274     1.475749     1.811283 
H       2.583081    -0.075911     0.953078 
C      -0.038919     1.039006     0.731846 
H      -0.885345     1.292916     0.090169 
H      -0.125229     1.687732     1.609368 
H       0.069885    -2.174605     0.372440 
C      -3.998304    -1.171385     2.867698 
C      -2.936570    -0.930905     3.721837 
C      -1.683590    -0.700514     3.170345 
C      -1.498050    -0.705754     1.790093 
C      -2.589822    -0.954972     0.957661 
C      -3.847684    -1.190061     1.490234 
H      -3.095575    -0.927698     4.792484 
H      -0.838673    -0.516795     3.827945 
H      -2.453006    -0.964716    -0.118390 
H      -4.704299    -1.384163     0.857612 
N      -5.338376    -1.418463     3.443727 
O      -6.250552    -1.627470     2.671706 
O      -5.441323    -1.396427     4.652415 
C      -0.130983    -0.411135     1.199427 
O       0.152710    -1.261016     0.082203 
H       0.620387    -0.579526     1.981237 
H       5.438481     0.145053    -2.644371 
O       1.294584     2.806472    -0.212492 
H       1.668509     2.194209    -1.401514 
43
     -1145.166068     -1144.871163   3.79   3.28
C       2.612721    -0.810766     1.335754 
C       2.092761    -0.624645    -0.999230 
C       3.171488    -1.689877    -0.858159 
C       3.003134    -2.120261     0.602766 
H       1.786615    -0.980944     2.022281 
H       1.104248    -1.086228    -1.054731 
H       2.228810     0.057516    -1.839735 
H       3.033755    -2.513981    -1.560969 
H       4.161917    -1.255914    -1.023845 
H       2.179653    -2.833042     0.694443 
H       3.896726    -2.581396     1.029433 
N       2.219700     0.134288     0.267772 
C       3.777309    -0.298261     2.161372 
O       3.880542    -0.439358     3.349871 
O       4.729645     0.284403     1.405013 
C       1.241175     1.353147     0.501784 
C       1.110466     1.616535     2.002850 
H       0.610597     0.822967     2.565511 
H       2.098741     1.800914     2.428755 
H       0.536580     2.540698     2.114779 
C      -0.120991     1.191709    -0.183388 
H       0.022030     0.872283    -1.217975 
H      -0.519883     2.209627    -0.237844 
H      -1.225083    -1.540570     1.150542 
C      -4.732483     0.120589    -1.825503 
C      -3.667813    -0.699677    -2.163029 
C      -2.516386    -0.642055    -1.393414 
C      -2.431037     0.222439    -0.301591 
C      -3.522226     1.028557     0.013477 
C      -4.682454     0.986747    -0.747489 
H      -3.748997    -1.364519    -3.013377 
H      -1.672235    -1.275953    -1.643029 
H      -3.469791     1.698520     0.867017 
H      -5.537101     1.609048    -0.515342 
N      -5.963711     0.067043    -2.643880 
O      -5.980274    -0.701931    -3.582079 
O      -6.880055     0.795813    -2.325632 
C      -1.153543     0.310177     0.514093 
O      -0.571036    -0.980763     0.720868 
H      -1.400720     0.755805     1.485857 
H       5.433038     0.575837     2.003710 
O       2.037090     2.259374    -0.122431 
H       2.827076     1.126102     0.014722 
43
     -1145.163600     -1144.869743   5.34   4.17
C      -2.348192     1.872674     1.815184 
C       0.005463     1.425379     1.950277 
C      -0.339303     2.394718     3.073345 
C      -1.841995     2.159555     3.252165 
H      -3.042279     1.034030     1.801736 
H       0.052536     0.397781     2.326437 
H       0.934727     1.655569     1.427034 
H       0.233345     2.196669     3.981376 
H      -0.143285     3.423198     2.758177 
H      -2.017869     1.278593     3.875231 
H      -2.364147     3.001582     3.711411 
N      -1.134523     1.576775     1.018588 
C      -3.112416     3.068278     1.273071 
O      -4.309295     3.127234     1.197371 
O      -2.299680     4.089712     0.940173 
C      -1.172175     0.682407    -0.299822 
C      -2.618380     0.357970    -0.662865 
H      -3.083327    -0.368867     0.011103 
H      -3.216557     1.270169    -0.710244 
H      -2.609773    -0.077717    -1.662768 
C      -0.308020    -0.574857    -0.152590 
H      -0.721736    -1.293742     0.564096 
H       0.682842    -0.269740     0.184068 
H      -1.215198    -2.566668    -2.525053 
C       3.797551    -2.881936    -1.840182 
C       3.572071    -1.556167    -2.176466 
C       2.281428    -1.061014    -2.079038 
C       1.235133    -1.877438    -1.649179 
C       1.493311    -3.204587    -1.315812 
C       2.780170    -3.717063    -1.411219 
H       4.395980    -0.936571    -2.506455 
H       2.077238    -0.024477    -2.332271 
H       0.680788    -3.838134    -0.978246 
H       3.000525    -4.746085    -1.157227 
N       5.170362    -3.421054    -1.941723 
O       5.341548    -4.584559    -1.641893 
O       6.043482    -2.667064    -2.318888 
C      -0.151890    -1.277087    -1.510878 
O      -1.176066    -2.260790    -1.613283 
H      -0.268862    -0.514035    -2.290139 
H      -2.858777     4.805096     0.602326 
O      -0.603510     1.627299    -1.095554 
H      -0.821238     2.274961     0.108629 
43
     -1145.163600     -1144.869738   5.34   4.18
C       3.482039     0.070911     0.431488 
C       1.920070    -1.116012    -0.950350 
C       3.318109    -1.569301    -1.350074 
C       4.136527    -1.229690    -0.100988 
H       3.358803     0.036251     1.512632 
H       1.461299    -1.835339    -0.263497 
H       1.245077    -0.946065    -1.790473 
H       3.352031    -2.630087    -1.605520 
H       3.669767    -0.994687    -2.211282 
H       4.029108    -2.016858     0.650054 
H       5.202844    -1.101940    -0.299002 
N       2.172248     0.165680    -0.254501 
C       4.369413     1.269064     0.140988 
O       5.056132     1.815628     0.960384 
O       4.351200     1.618651    -1.159837 
C       0.936503     0.959028     0.364407 
C       1.376969     1.700932     1.623032 
H       1.558670     1.039610     2.476460 
H       2.258953     2.311766     1.420168 
H       0.567793     2.378911     1.897406 
C      -0.258135     0.032693     0.617186 
H      -0.078222    -0.681434     1.429128 
H      -0.461775    -0.518900    -0.300702 
H      -2.232863     1.640602     2.600603 
C      -4.953992    -0.984505    -0.775841 
C      -4.187146    -0.118834    -1.540139 
C      -3.084774     0.480566    -0.951986 
C      -2.753461     0.215586     0.376952 
C      -3.541597    -0.660723     1.118598 
C      -4.651375    -1.266841     0.545227 
H      -4.457838     0.073947    -2.570275 
H      -2.463926     1.159943    -1.529243 
H      -3.282013    -0.869491     2.150372 
H      -5.276518    -1.950274     1.105647 
N      -6.133091    -1.628475    -1.392764 
O      -6.374665    -1.364633    -2.552559 
O      -6.788149    -2.381891    -0.702683 
C      -1.508732     0.856863     0.962439 
O      -1.578450     0.970168     2.379970 
H      -1.388596     1.844552     0.500685 
H       4.933721     2.386126    -1.260617 
O       0.764037     1.764629    -0.717561 
H       1.934002     1.073866    -0.983935 
43
     -1145.165307     -1144.868990   4.27   4.65
C       2.975523    -0.517925     1.911832 
C       2.609686    -0.583747    -0.474192 
C       3.860930    -1.395967    -0.119362 
C       4.307469    -0.793918     1.211171 
H       2.569757    -1.435653     2.340578 
H       1.845611    -1.202408    -0.945886 
H       2.843057     0.245696    -1.147296 
H       3.602520    -2.451351     0.011293 
H       4.622928    -1.331715    -0.898218 
H       4.942684    -1.455746     1.802377 
H       4.835719     0.151530     1.059325 
N       2.101965    -0.026846     0.811078 
C       3.140172     0.532914     3.005617 
O       3.646819     1.606995     2.837166 
O       2.727927     0.082816     4.203635 
C       0.574165     0.074983     1.143611 
C       0.088467    -1.017750     2.088601 
H      -0.991992    -0.906253     2.197281 
H       0.287340    -2.019257     1.689448 
H       0.542366    -0.910431     3.074647 
C      -0.251226     0.090606    -0.164057 
H      -0.658991    -0.903681    -0.377330 
H       0.368984     0.383569    -1.015241 
H      -1.316022     1.486607     1.787283 
C      -4.284323     0.210770    -3.091466 
C      -3.153221     0.930038    -3.441200 
C      -2.235316     1.239173    -2.449368 
C      -2.440479     0.834501    -1.130763 
C      -3.591789     0.117271    -0.810645 
C      -4.521835    -0.199114    -1.790045 
H      -3.005970     1.237335    -4.468612 
H      -1.348490     1.812178    -2.705493 
H      -3.761732    -0.183784     0.216128 
H      -5.421564    -0.754069    -1.556973 
N      -5.269813    -0.125444    -4.139688 
O      -5.036768     0.247466    -5.271372 
O      -6.253290    -0.754465    -3.807511 
C      -1.395060     1.133992    -0.078987 
O      -2.012514     1.163847     1.190363 
H      -0.954726     2.115814    -0.292061 
H       2.868424     0.799543     4.841034 
O       0.675269     1.329788     1.697275 
H       1.867330     1.142091     1.056021 
43
     -1145.162306     -1144.867793   6.15   5.40
C      -0.076624    -3.467735     0.726979 
C      -0.543180    -1.500144     2.040746 
C      -0.508787    -2.736765     2.947624 
C      -0.832044    -3.885115     1.991880 
H       0.985280    -3.696261     0.831081 
H       0.206370    -0.762126     2.324988 
H      -1.522913    -1.014724     2.061012 
H       0.492664    -2.870073     3.368296 
H      -1.213375    -2.654486     3.777377 
H      -0.503879    -4.862373     2.349966 
H      -1.905356    -3.932134     1.787254 
N      -0.287651    -1.999437     0.660811 
C      -0.557769    -4.186530    -0.524620 
O       0.129915    -4.914035    -1.186789 
O      -1.862998    -3.971654    -0.763804 
C       0.586071    -1.212365    -0.408060 
C       1.940000    -1.857521    -0.661267 
H       2.553175    -1.899591     0.246282 
H       1.821995    -2.854341    -1.087582 
H       2.470683    -1.239101    -1.386640 
C       0.706092     0.251774     0.051060 
H       1.431330     0.394047     0.860398 
H      -0.277934     0.575954     0.398656 
H       2.825660     1.635276    -1.949881 
C      -0.837203     4.937167    -0.783437 
C      -1.487782     3.890653    -1.417902 
C      -0.828579     2.676921    -1.533658 
C       0.457713     2.512048    -1.019966 
C       1.084949     3.582235    -0.386335 
C       0.439939     4.805455    -0.265127 
H      -2.486526     4.035358    -1.809274 
H      -1.316779     1.839783    -2.024488 
H       2.084299     3.454132     0.014251 
H       0.911326     5.648730     0.223389 
N      -1.530295     6.236661    -0.655454 
O      -0.939009     7.137061    -0.096291 
O      -2.649212     6.324490    -1.117426 
C       1.120668     1.151147    -1.123854 
O       2.542512     1.247693    -1.115631 
H       0.770835     0.667948    -2.043303 
H      -2.070622    -4.385065    -1.614258 
O      -0.328055    -1.343508    -1.410923 
H      -0.994907    -1.759445    -0.276076 
43
     -1145.162512     -1144.867449   6.02   5.61
C       2.370974    -1.668760     1.080235 
C       0.847099    -2.249605    -0.698080 
C       0.658683    -3.211627     0.476286 
C       2.002860    -3.155399     1.197223 
H       1.843825    -1.094383     1.842632 
H      -0.076301    -1.735333    -0.946834 
H       1.205503    -2.765101    -1.593328 
H      -0.135933    -2.847560     1.132461 
H       0.395049    -4.216063     0.139148 
H       1.966355    -3.476370     2.239753 
H       2.747689    -3.764154     0.673413 
N       1.900044    -1.277052    -0.264875 
C       3.855904    -1.477713     1.313473 
O       4.331600    -1.149475     2.366954 
O       4.597164    -1.787801     0.233770 
C       1.765972     0.244265    -0.708860 
C       2.528986     1.124826     0.285197 
H       3.584273     0.848500     0.282887 
H       2.471097     2.151163    -0.087776 
H       2.142628     1.104090     1.308485 
C       0.330702     0.744085    -0.910284 
H      -0.203570     0.083178    -1.594809 
H       0.454892     1.685296    -1.455725 
H      -1.062279     0.011715     1.915036 
C      -4.415547     2.335286    -0.786372 
C      -4.141509     0.976970    -0.773295 
C      -2.874821     0.559745    -0.395356 
C      -1.896818     1.487286    -0.034918 
C      -2.207939     2.844660    -0.052824 
C      -3.470065     3.281315    -0.431339 
H      -4.910746     0.269900    -1.056196 
H      -2.641162    -0.499439    -0.378637 
H      -1.456591     3.574558     0.235048 
H      -3.725133     4.333029    -0.451968 
N      -5.764192     2.788573    -1.191507 
O      -6.573519     1.937759    -1.496337 
O      -5.976517     3.983141    -1.193766 
C      -0.499477     1.025883     0.338760 
O      -0.533849    -0.165292     1.130595 
H      -0.017366     1.828135     0.911570 
H       5.526366    -1.661102     0.475323 
O       2.424311     0.077803    -1.883647 
H       2.631353    -1.098931    -1.191513 
43
     -1145.162373     -1144.867273   6.11   5.72
C       2.669990     0.013476    -1.545501 
C       2.236989    -1.071714     0.563348 
C       3.201015     0.095677     0.777853 
C       3.849713     0.270371    -0.592553 
H       2.072205     0.920513    -1.646489 
H       1.349298    -0.980383     1.181966 
H       2.709961    -2.033021     0.782283 
H       2.643657     0.995585     1.049287 
H       3.923847    -0.115800     1.568273 
H       4.291995     1.254533    -0.756267 
H       4.622862    -0.488878    -0.753284 
N       1.882849    -1.044687    -0.890300 
C       3.195512    -0.412448    -2.900354 
O       3.487653    -1.531125    -3.220648 
O       3.370475     0.654193    -3.707614 
C       0.389469    -1.379423    -1.320201 
C       0.106499    -0.736500    -2.682530 
H       0.143694     0.357204    -2.690956 
H       0.795634    -1.140467    -3.425055 
H      -0.898078    -1.050566    -2.979238 
C      -0.689290    -1.010781    -0.294452 
H      -0.449388    -1.447849     0.676129 
H      -1.576380    -1.550189    -0.642316 
H      -0.099440     2.120538     0.255218 
C      -4.055971     0.938633     2.861183 
C      -4.439698     0.926614     1.531722 
C      -3.456870     0.787513     0.561316 
C      -2.116164     0.657822     0.915246 
C      -1.763462     0.677486     2.265103 
C      -2.730682     0.818504     3.247886 
H      -5.485555     1.026190     1.271228 
H      -3.741322     0.782915    -0.487100 
H      -0.720654     0.581829     2.548212 
H      -2.473056     0.834929     4.299102 
N      -5.094445     1.086435     3.904377 
O      -6.246314     1.189670     3.537530 
O      -4.729577     1.095005     5.061345 
C      -1.056324     0.463429    -0.154341 
O       0.136349     1.193620     0.149365 
H      -1.466103     0.819712    -1.107934 
H       3.760721     0.324581    -4.530919 
O       0.590552    -2.716961    -1.397641 
H       1.857826    -2.176186    -1.282286 
43
     -1145.161504     -1144.866826   6.65   6.00
C       2.749749    -1.933820     1.063818 
C       0.453671    -2.491669     0.552416 
C       1.117661    -3.654965     1.294206 
C       2.600627    -3.455964     0.988769 
H       2.835975    -1.610161     2.102120 
H      -0.433581    -2.126495     1.067682 
H       0.164733    -2.779499    -0.462597 
H       0.937863    -3.570973     2.370820 
H       0.734146    -4.622121     0.963487 
H       3.267837    -3.960051     1.690158 
H       2.840816    -3.792562    -0.023862 
N       1.487805    -1.422554     0.465416 
C       3.967274    -1.460476     0.276391 
O       4.175954    -1.734762    -0.872595 
O       4.823400    -0.760291     1.041514 
C       1.172653     0.114547     0.700019 
C       1.696498     0.640904     2.028261 
H       2.785813     0.600582     2.055528 
H       1.393114     1.685168     2.115402 
H       1.271855     0.102453     2.883376 
C      -0.344249     0.325950     0.541428 
H      -0.921487     0.003083     1.415472 
H      -0.672455    -0.247426    -0.329016 
H      -0.913283     3.378524     1.421182 
C      -3.938347     2.122728    -2.438737 
C      -2.651635     1.993226    -2.937388 
C      -1.600371     1.910867    -2.037893 
C      -1.832935     1.953380    -0.663170 
C      -3.137583     2.082537    -0.192556 
C      -4.201322     2.169781    -1.080175 
H      -2.489236     1.960202    -4.007031 
H      -0.582294     1.806517    -2.402214 
H      -3.319106     2.113973     0.875923 
H      -5.221857     2.271103    -0.733464 
N      -5.067137     2.212816    -3.389039 
O      -4.808822     2.167839    -4.574097 
O      -6.183782     2.326192    -2.927230 
C      -0.657054     1.808138     0.284612 
O      -0.908029     2.424076     1.545378 
H       0.225526     2.249307    -0.192513 
H       5.562998    -0.496964     0.472959 
O       1.847178     0.533552    -0.407123 
H       1.771413    -0.836693    -0.545636 
43
     -1145.160639     -1144.866606   7.20   6.14
C      -2.188582     1.365438     2.268294 
C      -2.164744     0.949462    -0.094425 
C      -3.554237     1.449546     0.277539 
C      -3.273703     2.222589     1.568515 
H      -1.433659     1.997229     2.734913 
H      -1.563973     1.765240    -0.510632 
H      -2.155678     0.108932    -0.789847 
H      -3.995577     2.069982    -0.504672 
H      -4.222526     0.605035     0.469870 
H      -2.861021     3.208837     1.339038 
H      -4.154352     2.365408     2.197845 
N      -1.611260     0.515060     1.209221 
C      -2.834650     0.508435     3.343407 
O      -3.276831    -0.596074     3.189413 
O      -2.911980     1.179096     4.510066 
C      -0.125254    -0.029105     1.254401 
C       0.485616     0.273260     2.622361 
H      -0.151211    -0.121479     3.417543 
H       1.439845    -0.252730     2.684012 
H       0.682749     1.338214     2.785540 
C       0.735653     0.523114     0.114531 
H       0.934524     1.593869     0.248839 
H       0.201435     0.394118    -0.826308 
H       3.136149     1.407390     0.065236 
C       2.611865    -1.997472    -3.821526 
C       3.545815    -1.072401    -3.392570 
C       3.386404    -0.496743    -2.137583 
C       2.306438    -0.843981    -1.333950 
C       1.386047    -1.793323    -1.788467 
C       1.530928    -2.373350    -3.036224 
H       4.380310    -0.813954    -4.031813 
H       4.122006     0.213896    -1.779154 
H       0.557242    -2.071315    -1.141957 
H       0.826885    -3.107903    -3.405365 
N       2.773659    -2.610987    -5.155819 
O       3.729390    -2.268151    -5.821458 
O       1.941171    -3.421221    -5.507621 
C       2.082648    -0.241024     0.043760 
O       3.172627     0.547631     0.496875 
H       2.032798    -1.084424     0.736687 
H      -3.376535     0.606247     5.138565 
O      -0.471619    -1.332169     1.081631 
H      -1.674816    -0.680219     1.281288 
43
     -1145.160474     -1144.865937   7.30   6.56
C       3.484922     0.069399    -0.020496 
C       1.734549     0.400359     1.587257 
C       3.047663     0.321451     2.354704 
C       4.074239     0.681053     1.276422 
H       3.564054     0.764014    -0.854831 
H       1.439089     1.443683     1.431956 
H       0.908594    -0.138029     2.054420 
H       3.070361     1.002329     3.207652 
H       3.210614    -0.696151     2.719944 
H       4.141396     1.766111     1.161111 
H       5.077814     0.306293     1.488106 
N       2.068431    -0.235032     0.292858 
C       4.259785    -1.173217    -0.424313 
O       5.051215    -1.212748    -1.326208 
O       4.005839    -2.220659     0.383730 
C       0.946038    -0.332502    -0.830445 
C       1.579066    -0.197360    -2.213193 
H       1.955614     0.810572    -2.417897 
H       2.375647    -0.931535    -2.347546 
H       0.806786    -0.417053    -2.952570 
C      -0.168956     0.696734    -0.619544 
H       0.186126     1.715279    -0.820895 
H      -0.501063     0.654213     0.417259 
H      -1.389234     2.191959    -2.288161 
C      -4.952143    -0.105133     0.733966 
C      -4.911591     0.906211    -0.208146 
C      -3.753661     1.072282    -0.958735 
C      -2.659010     0.238475    -0.761074 
C      -2.734574    -0.784736     0.188676 
C      -3.879957    -0.960943     0.944572 
H      -5.773450     1.546028    -0.348312 
H      -3.714380     1.847047    -1.715537 
H      -1.879187    -1.442958     0.319543 
H      -3.955343    -1.745961     1.685915 
N      -6.178900    -0.285248     1.537446 
O      -6.189099    -1.181318     2.356144 
O      -7.103783     0.473810     1.331495 
C      -1.367480     0.380214    -1.550356 
O      -1.466575     1.295673    -2.630654 
H      -1.189407    -0.592888    -2.014497 
H       4.528789    -2.969051     0.059694 
O       0.571080    -1.600227    -0.508059 
H       1.680081    -1.360442     0.278602 
43
     -1145.158431     -1144.864104   8.58   7.71
C       1.938932    -1.591138     0.435350 
C       3.023640     0.389916    -0.393892 
C       3.904613    -0.808998    -0.722386 
C       2.888442    -1.953674    -0.732535 
H       0.905736    -1.840868     0.192735 
H       2.459010     0.703519    -1.277299 
H       3.557990     1.252644     0.005721 
H       4.425734    -0.692402    -1.674447 
H       4.650332    -0.961058     0.063740 
H       2.323675    -1.950501    -1.669292 
H       3.331924    -2.943776    -0.611385 
N       2.114487    -0.144059     0.651494 
C       2.334097    -2.365672     1.681509 
O       3.062450    -1.976633     2.551551 
O       1.797481    -3.602730     1.666461 
C       0.968121     0.811326     1.198636 
C      -0.162562    -0.046055     1.770193 
H       0.242317    -0.723360     2.526160 
H      -0.846865     0.635812     2.281027 
H      -0.737745    -0.609772     1.030733 
C       0.495225     1.810385     0.139897 
H       1.363756     2.372663    -0.206089 
H      -0.124174     2.526912     0.687092 
H      -0.495700     2.903004    -2.093012 
C      -4.432654     0.471036    -0.649296 
C      -3.630050    -0.471657    -1.268402 
C      -2.273271    -0.209258    -1.383193 
C      -1.719476     0.969967    -0.887696 
C      -2.560803     1.898252    -0.274504 
C      -3.920948     1.656198    -0.148828 
H      -4.066521    -1.385726    -1.649892 
H      -1.632357    -0.937121    -1.871728 
H      -2.160826     2.826337     0.121001 
H      -4.581000     2.368741     0.328844 
N      -5.881414     0.203814    -0.517021 
O      -6.559046     1.047858     0.030763 
O      -6.300821    -0.842967    -0.964377 
C      -0.233731     1.241310    -1.082596 
O      -0.037975     2.066941    -2.232425 
H       0.234069     0.292073    -1.365526 
H       2.118945    -4.062750     2.456247 
O       1.732680     1.376944     2.158299 
H       2.484284     0.294520     1.698361 
43
     -1145.158921     -1144.863641   8.27   8.00
C       3.440260    -0.399902     0.073972 
C       1.991089     0.868305     1.527460 
C       3.456762     1.122782     1.900742 
C       4.173929    -0.126797     1.390048 
H       3.805734     0.269239    -0.706588 
H       1.478034     1.784574     1.236659 
H       1.437751     0.417619     2.356005 
H       3.831562     2.009192     1.379760 
H       3.582859     1.284837     2.972879 
H       5.244151     0.013927     1.229679 
H       4.032661    -0.965839     2.077100 
N       2.021450    -0.098270     0.394051 
C       3.636121    -1.818636    -0.440013 
O       4.163759    -2.086730    -1.484164 
O       3.213582    -2.741187     0.441384 
C       1.022277    -0.036635    -0.836121 
C       1.691919     0.421432    -2.124566 
H       2.144180     1.414710    -2.022090 
H       2.439021    -0.301509    -2.453620 
H       0.924705     0.489460    -2.898864 
C      -0.169864     0.860327    -0.467479 
H       0.096900     1.924484    -0.490016 
H      -0.488888     0.613191     0.547437 
H      -1.470615     2.520871    -1.901695 
C      -4.908994    -0.415009     0.669139 
C      -4.912783     0.742496    -0.087453 
C      -3.761033     1.087099    -0.784602 
C      -2.628122     0.283736    -0.717705 
C      -2.659148    -0.888008     0.043914 
C      -3.798133    -1.243421     0.744721 
H      -5.803686     1.356053    -0.127923 
H      -3.756758     1.979979    -1.398796 
H      -1.774094    -1.518544     0.070788 
H      -3.839265    -2.145725     1.341127 
N      -6.129251    -0.785702     1.415024 
O      -6.100394    -1.807525     2.069520 
O      -7.088326    -0.046187     1.329416 
C      -1.341249     0.619612    -1.453349 
O      -1.489035     1.685830    -2.380103 
H      -1.096125    -0.255944    -2.059268 
H       3.294482    -3.605862     0.013283 
O       0.690820    -1.358196    -0.773800 
H       1.401760    -1.124128     0.384108 
43
     -1145.157924     -1144.863335   8.90   8.19
C       1.204885    -0.369572    -1.971538 
C       1.780394    -2.342750    -0.719513 
C       2.923143    -2.038588    -1.680322 
C       2.743399    -0.537555    -1.922332 
H       0.893532     0.557445    -1.488692 
H       2.031983    -2.000279     0.288727 
H       1.487617    -3.392172    -0.672214 
H       3.898235    -2.289472    -1.258676 
H       2.794826    -2.598343    -2.611454 
H       3.142623     0.033037    -1.078733 
H       3.227320    -0.173540    -2.830545 
N       0.657916    -1.550172    -1.279991 
C       0.736512    -0.338264    -3.416843 
O       0.356147    -1.281406    -4.053162 
O       0.857338     0.900994    -3.933297 
C      -0.720377    -1.554750    -0.492824 
C      -1.541665    -0.342469    -0.934146 
H      -1.659166    -0.367844    -2.020240 
H      -2.536540    -0.462836    -0.498667 
H      -1.151196     0.627208    -0.620622 
C      -0.543845    -1.670456     1.024687 
H      -0.042544    -2.628008     1.203546 
H      -1.554880    -1.789283     1.425846 
H       0.786793    -1.912477     3.104895 
C      -1.916886     3.124835     2.199908 
C      -2.488413     1.967734     2.707171 
C      -1.799351     0.773719     2.573684 
C      -0.559658     0.734414     1.936801 
C      -0.008631     1.916398     1.452392 
C      -0.683042     3.124016     1.574843 
H      -3.452175     2.014824     3.197488 
H      -2.224470    -0.137177     2.980567 
H       0.967025     1.899250     0.975169 
H      -0.266404     4.049771     1.199579 
N      -2.647623     4.403651     2.336963 
O      -3.726473     4.377013     2.891124 
O      -2.122695     5.400456     1.885930 
C       0.193667    -0.573890     1.804078 
O       0.442307    -1.014084     3.138973 
H       1.152901    -0.350427     1.313947 
H       0.590052     0.850454    -4.863242 
O      -1.165570    -2.705179    -1.048086 
H      -0.057012    -2.334222    -1.821177 
43
     -1145.159824     -1144.863185   7.71   8.29
C       0.969660    -1.428925     0.420208 
C       0.095623     0.124091     2.036978 
C       1.581373    -0.050272     2.320815 
C       2.112553    -0.538135     0.969354 
H       0.804134    -1.245061    -0.639357 
H      -0.075165     1.034384     1.461011 
H      -0.541989     0.130960     2.922175 
H       2.049296     0.880056     2.648225 
H       1.735478    -0.806735     3.095509 
H       2.260193     0.306405     0.291695 
H       3.057622    -1.081152     1.041522 
N      -0.225104    -1.069455     1.217091 
C       1.335754    -2.896097     0.554643 
O       1.769272    -3.569169    -0.340594 
O       1.183145    -3.353454     1.813364 
C      -1.719360    -1.253281     0.708002 
C      -1.711669    -2.212251    -0.480732 
H      -1.216529    -3.140625    -0.187345 
H      -2.753785    -2.464561    -0.692161 
H      -1.266363    -1.817293    -1.394687 
C      -2.480455     0.059766     0.463820 
H      -2.307045     0.724180     1.314672 
H      -3.529270    -0.247888     0.566691 
H      -3.670671    -0.230966    -1.787144 
C       1.504786     2.491530    -1.684689 
C       1.082607     1.378630    -2.391364 
C      -0.172070     0.849149    -2.118389 
C      -0.990571     1.423241    -1.148060 
C      -0.542360     2.558710    -0.471897 
C       0.708890     3.098054    -0.725762 
H       1.727028     0.943273    -3.144544 
H      -0.529676    -0.003847    -2.681176 
H      -1.186018     3.035615     0.262529 
H       1.067938     3.974338    -0.201551 
N       2.841270     3.057437    -1.968091 
O       3.174634     4.045153    -1.347249 
O       3.522294     2.497164    -2.801271 
C      -2.369941     0.872147    -0.839532 
O      -2.810641     0.153587    -1.983340 
H      -3.025786     1.744020    -0.695049 
H       1.440768    -4.287163     1.814316 
O      -2.146012    -1.854670     1.849317 
H      -0.753838    -1.830895     1.952047 
43
     -1145.159244     -1144.863081   8.07   8.35
C      -0.370176    -1.782268     0.131695 
C      -1.146004    -0.416943    -1.690087 
C      -2.353626    -1.100834    -1.062610 
C      -1.851866    -1.391421     0.354361 
H       0.263429    -1.384421     0.922793 
H      -1.068096     0.612149    -1.335714 
H      -1.131341    -0.424074    -2.780813 
H      -3.241473    -0.465842    -1.077506 
H      -2.582972    -2.031180    -1.591011 
H      -1.895944    -0.487236     0.966139 
H      -2.411254    -2.175872     0.868468 
N      -0.009462    -1.224514    -1.184191 
C      -0.239559    -3.295210     0.117745 
O      -0.299266    -3.998516    -0.852885 
O      -0.104815    -3.778795     1.369601 
C       1.467276    -0.795569    -1.601215 
C       2.447052    -1.409216    -0.602180 
H       2.405390    -0.992768     0.405502 
H       2.292145    -2.490676    -0.576206 
H       3.450861    -1.228738    -0.990425 
C       1.655215     0.711372    -1.839119 
H       0.828053     1.063968    -2.460662 
H       2.539061     0.747428    -2.483898 
H       3.425625     2.180057     0.420228 
C      -1.296889     2.215251     2.108229 
C      -0.216117     1.425303     2.460424 
C       0.815690     1.259552     1.545204 
C       0.766944     1.872396     0.294773 
C      -0.329884     2.676779    -0.018249 
C      -1.373057     2.849615     0.878340 
H      -0.188295     0.955253     3.435456 
H       1.677792     0.659868     1.811501 
H      -0.368291     3.182986    -0.979303 
H      -2.230231     3.466510     0.641063 
N      -2.401727     2.392226     3.076015 
O      -2.324380     1.794491     4.128839 
O      -3.316171     3.121121     2.754177 
C       1.900004     1.722076    -0.711828 
O       3.133639     1.408925    -0.074836 
H       1.998394     2.693693    -1.217146 
H      -0.075853    -4.744682     1.299875 
O       1.441744    -1.465274    -2.779224 
H       0.318435    -1.926967    -2.081316 
43
     -1145.157585     -1144.863007   9.11   8.40
C       2.333745    -1.376192    -0.284698 
C       1.991499     0.055189    -2.190469 
C       2.834962    -1.129675    -2.643999 
C       2.492755    -2.190091    -1.593425 
H       1.484173    -1.729422     0.299139 
H       0.943670    -0.085004    -2.470052 
H       2.332241     1.021509    -2.565344 
H       2.589090    -1.445272    -3.659621 
H       3.898467    -0.877683    -2.608065 
H       1.538953    -2.667788    -1.833925 
H       3.245214    -2.976163    -1.499849 
N       2.148403     0.027845    -0.713794 
C       3.554392    -1.552258     0.602290 
O       3.593504    -2.279105     1.557577 
O       4.615800    -0.846393     0.167268 
C       1.351759     1.106055     0.144781 
C       1.099316     0.551373     1.547014 
H       0.326906    -0.222517     1.605345 
H       2.029273     0.177259     1.979827 
H       0.787482     1.399117     2.161792 
C       0.066549     1.553476    -0.560476 
H       0.348884     1.943886    -1.539280 
H      -0.294847     2.417776     0.001510 
H      -1.947018     1.271383    -2.286916 
C      -4.414399     0.402954     1.866995 
C      -3.365277     1.241695     2.190537 
C      -2.260466     1.286547     1.348655 
C      -2.203937     0.503449     0.198438 
C      -3.284849    -0.334666    -0.094976 
C      -4.393973    -0.391497     0.731321 
H      -3.414903     1.847594     3.086072 
H      -1.441712     1.943601     1.611443 
H      -3.249783    -0.947269    -0.988989 
H      -5.233972    -1.036973     0.508923 
N      -5.592680     0.351133     2.759436 
O      -6.498077    -0.394789     2.449910 
O      -5.580624     1.057712     3.745753 
C      -1.012130     0.475490    -0.758571 
O      -1.475018     0.449716    -2.112306 
H      -0.541068    -0.508564    -0.640094 
H       5.346059    -1.014152     0.781456 
O       2.336462     2.032745     0.113464 
H       2.915176     0.887968    -0.414100 
43
     -1145.158885     -1144.862817   8.30   8.52
C       1.112789     0.795646    -1.230420 
C       0.382101     1.755535     0.851401 
C       0.081894     2.761675    -0.251630 
C       0.028546     1.870319    -1.496320 
H       0.764883    -0.194032    -1.517939 
H      -0.515894     1.191062     1.106309 
H       0.806827     2.187052     1.759007 
H      -0.852145     3.298577    -0.075596 
H       0.891667     3.492431    -0.331555 
H      -0.945713     1.381020    -1.571319 
H       0.206267     2.410655    -2.428877 
N       1.386598     0.864927     0.222467 
C       2.348907     1.074468    -2.066621 
O       2.608335     0.513133    -3.096275 
O       3.100047     2.073312    -1.562124 
C       1.972329    -0.348119     1.083016 
C       2.528700    -1.399013     0.125335 
H       3.034455    -2.149391     0.735419 
H       1.782934    -1.916719    -0.479526 
H       3.280519    -0.932849    -0.515664 
C       1.010386    -0.898444     2.148505 
H       0.582122    -0.051596     2.691136 
H       1.688291    -1.385152     2.856925 
H      -0.164122    -3.819041     1.436492 
C      -3.235789    -0.499669    -0.722897 
C      -2.229296    -1.278463    -1.267675 
C      -1.213685    -1.733462    -0.436568 
C      -1.203065    -1.412814     0.919139 
C      -2.246024    -0.644222     1.437885 
C      -3.265160    -0.174136     0.623884 
H      -2.248595    -1.521840    -2.322618 
H      -0.427121    -2.357740    -0.843130 
H      -2.264490    -0.409005     2.498887 
H      -4.073385     0.429620     1.016090 
N      -4.315932    -0.004140    -1.603869 
O      -4.249437    -0.283783    -2.782497 
O      -5.197715     0.653257    -1.092517 
C      -0.102718    -1.909882     1.846589 
O       0.486596    -3.113942     1.369430 
H      -0.577980    -2.107342     2.818290 
H       3.860988     2.187440    -2.150424 
O       2.947492     0.398443     1.660151 
H       2.434588     1.206220     0.639708 
43
     -1145.154918     -1144.862408  10.79   8.78
C       2.260704     1.566509    -0.288699 
C       2.957217    -0.725911    -0.010530 
C       3.280253     0.058099     1.260512 
C       3.393022     1.493204     0.752704 
H       1.324523     1.834119     0.206036 
H       2.398926    -1.635864     0.193978 
H       3.870581    -1.000394    -0.546623 
H       2.466198    -0.034081     1.986855 
H       4.194992    -0.300165     1.736341 
H       3.278603     2.255587     1.524751 
H       4.358112     1.645494     0.257690 
N       2.176322     0.215114    -0.872225 
C       2.580947     2.620742    -1.330008 
O       3.190335     2.442899    -2.346634 
O       2.145680     3.833637    -0.930365 
C       0.842789    -0.302032    -1.599753 
C      -0.150885     0.854805    -1.733823 
H      -0.959574     0.491032    -2.372489 
H      -0.591460     1.193616    -0.790704 
H       0.312588     1.694616    -2.255317 
C       0.208977    -1.505759    -0.895302 
H       0.915257    -2.335823    -0.936605 
H      -0.624779    -1.788619    -1.543565 
H      -0.315800    -3.134026     1.197578 
C      -4.455267    -0.622015     1.064308 
C      -3.562687     0.271521     1.628914 
C      -2.204388     0.053649     1.444913 
C      -1.742074    -1.033962     0.708259 
C      -2.672828    -1.914880     0.155035 
C      -4.033952    -1.717176     0.327653 
H      -3.930648     1.114361     2.199690 
H      -1.492624     0.742702     1.889338 
H      -2.338810    -2.769060    -0.427163 
H      -4.764281    -2.392805    -0.098587 
N      -5.906069    -0.400656     1.251428 
O      -6.664476    -1.199990     0.744041 
O      -6.245723     0.566473     1.900173 
C      -0.248441    -1.277706     0.556782 
O       0.174727    -2.336006     1.421053 
H       0.267645    -0.401304     0.959581 
H       2.424553     4.471371    -1.604359 
O       1.453033    -0.624027    -2.757307 
H       2.428777     0.032712    -2.027553 
43
     -1145.157643     -1144.862177   9.08   8.92
C       1.364008    -1.870932    -0.421948 
C       2.856285    -0.052417    -0.915727 
C       3.367141    -1.279160    -1.660365 
C       2.109752    -2.149958    -1.752732 
H       0.296052    -1.731768    -0.589052 
H       2.277509     0.588734    -1.587726 
H       3.629915     0.546464    -0.433800 
H       3.782546    -1.028118    -2.638076 
H       4.142732    -1.779972    -1.074516 
H       1.483882    -1.826269    -2.588932 
H       2.322906    -3.212021    -1.890014 
N       1.981367    -0.643277     0.125140 
C       1.494546    -3.055972     0.518184 
O       0.641394    -3.885370     0.678233 
O       2.704286    -3.113937     1.107532 
C       1.244298     0.346936     1.130031 
C       0.051430    -0.379385     1.750894 
H      -0.359822     0.283583     2.516073 
H      -0.752374    -0.635427     1.058890 
H       0.405822    -1.278627     2.259808 
C       0.890499     1.690895     0.486664 
H       1.837631     2.142496     0.171936 
H       0.525419     2.316715     1.306512 
H       0.846829     3.309276    -1.395830 
C      -4.190175     1.047191     0.339532 
C      -3.577764     0.207434    -0.573079 
C      -2.248479     0.444793    -0.896708 
C      -1.544923     1.494042    -0.314214 
C      -2.196921     2.329239     0.591998 
C      -3.522701     2.110579     0.928058 
H      -4.135235    -0.607303    -1.016759 
H      -1.754895    -0.198789    -1.619157 
H      -1.665704     3.167395     1.029511 
H      -4.042651     2.748881     1.630678 
N      -5.605645     0.805831     0.694774 
O      -6.119430     1.558164     1.495941 
O      -6.165464    -0.130426     0.163089 
C      -0.097700     1.747776    -0.685827 
O      -0.071782     3.046733    -1.276909 
H       0.181312     1.001062    -1.443981 
H       2.710527    -3.894346     1.681466 
O       2.292023     0.440906     1.982421 
H       2.611553    -0.621650     1.127980 
43
     -1145.155215     -1144.858426  10.60  11.28
C       0.934889     1.526534    -0.761314 
C       0.448699     1.171398     1.578657 
C      -0.668656     2.000569     0.942264 
C       0.009707     2.647209    -0.262634 
H       0.374088     0.825126    -1.379609 
H       0.069587     0.258633     2.029744 
H       0.982494     1.732964     2.350054 
H      -1.481620     1.352022     0.610251 
H      -1.080426     2.729336     1.642909 
H      -0.681865     2.970232    -1.042676 
H       0.608998     3.509042     0.049004 
N       1.409277     0.864487     0.473005 
C       2.030068     2.105708    -1.635832 
O       1.988934     2.117657    -2.836387 
O       3.016884     2.676197    -0.922332 
C       2.182147    -0.548756     0.475212 
C       2.603290    -0.870570    -0.958119 
H       3.282005    -0.092732    -1.312007 
H       3.166367    -1.804633    -0.925541 
H       1.779902    -1.010146    -1.661185 
C       1.459094    -1.708105     1.178917 
H       1.159122    -1.375663     2.175039 
H       2.275256    -2.417067     1.353188 
H       0.199288    -3.875819    -0.851130 
C      -3.354061    -0.460715    -0.282567 
C      -2.449593    -0.649336    -1.313465 
C      -1.252792    -1.299195    -1.040176 
C      -0.961057    -1.748938     0.246230 
C      -1.898900    -1.545479     1.259719 
C      -3.100044    -0.899808     1.007186 
H      -2.687241    -0.296834    -2.309316 
H      -0.544031    -1.477168    -1.840393 
H      -1.696498    -1.913153     2.262338 
H      -3.833721    -0.738587     1.786620 
N      -4.628964     0.234732    -0.564971 
O      -5.407664     0.370546     0.355092 
O      -4.813109     0.628307    -1.697543 
C       0.319793    -2.516320     0.547231 
O       0.817057    -3.178896    -0.610458 
H       0.057496    -3.271341     1.302432 
H       3.660715     3.034593    -1.550732 
O       3.206592    -0.101318     1.241738 
H       2.498494     1.045286     0.891559 
