72
     -1725.769281     -1725.239514   0.00   0.00
C      -1.621942    -0.513135    -2.945041
C      -0.711167    -1.571327    -3.120754
C       0.425348    -1.353718    -3.914719
C       0.627501    -0.116499    -4.480111
C      -0.300796     0.932958    -4.286781
C      -1.441635     0.751008    -3.526771
C      -2.349735    -2.253305    -1.756314
C      -1.201000    -2.684929    -2.352023
H       1.147757    -2.147557    -4.081199
H       1.494602     0.086238    -5.098814
H      -2.163919     1.541406    -3.371468
H      -3.001525    -2.756500    -1.056307
N      -2.615404    -0.945724    -2.105840
C      -3.763894    -0.177029    -1.674395
H      -4.221944    -0.681737    -0.825166
H      -3.447022     0.812395    -1.333495
H      -4.492182    -0.063055    -2.484529
O       0.032302     2.104801    -4.901616
C      -0.879853     3.181313    -4.809790
H      -1.018055     3.503115    -3.769953
H      -0.443240     3.999708    -5.382926
H      -1.853509     2.917021    -5.240360
N       1.088447    -2.824013    -0.607996
C       2.331966    -2.675921    -1.280768
O       2.688163    -3.538609    -2.039027
C       3.137528    -1.429132    -0.985833
H       2.971652    -0.753696    -1.833146
H       4.185770    -1.730285    -1.030343
C       2.789143    -0.756078     0.342203
H       3.090427    -1.391375     1.177203
H       3.330209     0.185454     0.448130
C       1.280685    -0.526797     0.411380
C       0.650415    -0.179173     1.783355
H       0.517396     0.898442     1.910949
C      -0.489841    -3.991765    -2.153648
H       0.194624    -4.169362    -2.986679
H      -1.196648    -4.827186    -2.139206
C       0.300733    -4.049529    -0.837497
H      -0.370200    -4.152156     0.014647
H       0.999547    -4.885828    -0.838691
C       0.755204     0.468248    -0.659803
H       0.887910     0.042478    -1.655423
H      -0.324415     0.568088    -0.513744
C       1.412273     1.847034    -0.614168
H       1.324690     2.316632     0.370267
H       2.474181     1.804672    -0.874538
H       0.926150     2.503509    -1.341940
O       1.537697    -0.673647     2.799198
C       1.080498    -0.381642     4.110515
H       0.047460    -0.728189     4.234324
H       1.722429    -0.966913     4.776269
C       1.180416     1.090376     4.451704
C       2.359698     1.788854     4.193328
C       0.108276     1.765317     5.024488
C       2.465313     3.136324     4.508449
H       3.196181     1.267145     3.737364
C       0.211682     3.115017     5.345992
H      -0.820887     1.233031     5.204287
C       1.390189     3.803074     5.089393
H       3.388686     3.669114     4.302315
H      -0.633263     3.629627     5.793293
H       1.472210     4.856649     5.337732
C       0.604254    -1.845546     0.160469
O      -0.473635    -2.005856     0.802574
C      -0.655687    -0.877954     1.712563
C      -1.972789    -0.424745     1.802154
O      -2.989495    -0.930119     1.327260
O      -2.032533     0.728389     2.557029
C      -3.339321     1.249697     2.751872
H      -3.218799     2.134040     3.380608
H      -3.801181     1.528812     1.800206
H      -3.984087     0.520048     3.249301
72
     -1725.768399     -1725.238572   0.55   0.59
C      -1.777012     0.229863    -2.884516
C      -1.091022    -0.962098    -3.208777
C       0.060126    -0.877543    -3.992990
C       0.516604     0.359522    -4.415849
C      -0.182357     1.534223    -4.069669
C      -1.340931     1.482249    -3.310656
C      -2.835667    -1.468272    -1.899342
C      -1.794734    -2.042920    -2.566202
H       0.610227    -1.772189    -4.270148
H       1.412316     0.412534    -5.020989
H      -1.858884     2.402086    -3.065635
H      -3.575062    -1.915567    -1.249985
N      -2.838988    -0.100824    -2.082850
C      -3.815067     0.821368    -1.542334
H      -4.365197     0.321108    -0.746692
H      -3.309740     1.684164    -1.099863
H      -4.504470     1.169082    -2.319253
O       0.222399     2.785962    -4.438366
C       1.364562     2.905081    -5.264407
H       1.487867     3.971591    -5.455933
H       2.263331     2.522078    -4.765686
H       1.226321     2.380562    -6.217550
N       0.418302    -2.821260    -0.896877
C       1.668233    -2.828394    -1.573151
O       1.854852    -3.640534    -2.440289
C       2.697133    -1.804900    -1.143437
H       2.671397    -1.013410    -1.901255
H       3.667799    -2.294743    -1.240624
C       2.476367    -1.241487     0.260785
H       2.647174    -2.017331     1.009428
H       3.186131    -0.438975     0.467414
C       1.038655    -0.740426     0.383561
C       0.480043    -0.445089     1.798129
H       0.551188     0.615848     2.052218
C      -1.352788    -3.476706    -2.535474
H      -0.717294    -3.685099    -3.399592
H      -2.209092    -4.155216    -2.599537
C      -0.586674    -3.840061    -1.253676
H      -1.264940    -3.917953    -0.404727
H      -0.058264    -4.786042    -1.370331
C       0.716759     0.455534    -0.554267
H       0.772522     0.132490    -1.594674
H      -0.325396     0.739107    -0.380577
C       1.622013     1.671304    -0.359751
H       2.658817     1.459248    -0.638240
H       1.274032     2.487512    -0.999615
H       1.617703     2.030707     0.673785
O       1.255553    -1.212191     2.733138
C       0.856854    -0.995845     4.077701
H      -0.223304    -1.155285     4.179872
H       1.375133    -1.764797     4.659052
C       1.230302     0.381135     4.585379
C       2.520376     0.872677     4.386835
C       0.302397     1.172127     5.253531
C       2.876174     2.130118     4.854146
H       3.245249     0.261347     3.857103
C       0.656423     2.431404     5.727481
H      -0.710602     0.805229     5.388478
C       1.943776     2.912726     5.529498
H       3.883658     2.501684     4.693236
H      -0.078094     3.038390     6.247951
H       2.221415     3.895784     5.896832
C       0.126052    -1.868927    -0.007740
O      -0.964211    -1.900426     0.632496
C      -0.933655    -0.874612     1.671615
C      -2.143542    -0.199701     1.840841
O      -3.235683    -0.448996     1.331132
O      -1.989291     0.846797     2.726259
C      -3.176475     1.574873     3.005322
H      -2.894983     2.341256     3.730105
H      -3.575293     2.044901     2.101491
H      -3.947514     0.924142     3.426716
72
     -1725.767035     -1725.237326   1.41   1.37
C       1.769968     0.802989     3.123574
C       2.801568     0.647620     2.179221
C       3.542704    -0.544070     2.184452
C       3.232218    -1.528419     3.093243
C       2.189488    -1.350071     4.032092
C       1.449207    -0.182698     4.069445
C       1.802798     2.621092     1.833318
C       2.810501     1.831887     1.361740
H       4.351416    -0.699145     1.476120
H       3.784008    -2.461300     3.125216
H       0.650567    -0.028277     4.782798
H       1.435924     3.571024     1.471131
N       1.167332     2.012707     2.895775
C       0.064254     2.573229     3.647672
H      -0.720987     1.823434     3.777490
H       0.392475     2.925236     4.631571
H      -0.363694     3.396320     3.077229
O       1.990748    -2.411143     4.866950
C       1.012379    -2.280670     5.879505
H       1.033109    -3.213051     6.444407
H       1.243032    -1.445027     6.551613
H       0.010737    -2.138975     5.454613
N       2.212279     0.454980    -1.098081
C       2.934926    -0.756952    -1.272332
O       4.125482    -0.704955    -1.432729
C       2.143277    -2.046548    -1.253232
H       2.298279    -2.482912    -0.259663
H       2.635403    -2.712603    -1.964342
C       0.655653    -1.874881    -1.562325
H       0.518829    -1.570133    -2.601641
H       0.126349    -2.820563    -1.436542
C       0.072399    -0.798664    -0.648844
C      -1.317448    -0.208922    -1.000257
H      -2.120917    -0.693177    -0.435067
C       3.670822     2.053436     0.152000
H       4.570364     1.436965     0.221031
H       4.002668     3.094420     0.089108
C       2.946023     1.732776    -1.164055
H       2.211035     2.501453    -1.400218
H       3.652854     1.655311    -1.989943
C       0.105125    -1.176108     0.857403
H       1.139581    -1.235811     1.198581
H      -0.350052    -0.350066     1.411684
C      -0.608478    -2.483042     1.198932
H      -0.591918    -2.630400     2.282866
H      -1.654664    -2.481717     0.878373
H      -0.117642    -3.349728     0.746100
O      -1.530757    -0.424595    -2.400835
C      -2.729622     0.171092    -2.868263
H      -3.576375    -0.169298    -2.251432
H      -2.670276     1.261447    -2.767661
C      -2.946177    -0.222525    -4.306759
C      -2.851888    -1.558769    -4.694193
C      -3.267748     0.735301    -5.262080
C      -3.079101    -1.927951    -6.012068
H      -2.593246    -2.309615    -3.954087
C      -3.500643     0.368382    -6.584080
H      -3.332918     1.780119    -4.970831
C      -3.407202    -0.964214    -6.961479
H      -3.000950    -2.971454    -6.301621
H      -3.752196     1.126892    -7.319002
H      -3.586537    -1.253365    -7.992260
C       0.909187     0.440212    -0.809489
O       0.259635     1.520971    -0.711285
C      -1.162099     1.209857    -0.602004
C      -1.867057     2.029293     0.280380
O      -1.472393     3.032526     0.873346
O      -3.164642     1.578370     0.419632
C      -3.981719     2.372323     1.269054
H      -3.587597     2.394646     2.289398
H      -4.049161     3.399752     0.901113
H      -4.968502     1.905753     1.260534
72
     -1725.768226     -1725.236750   0.66   1.73
C      -0.236495     1.782721    -2.527602
C      -1.520684     1.507187    -2.021725
C      -2.365931     0.661529    -2.756553
C      -1.916683     0.117869    -3.937020
C      -0.621660     0.409506    -4.425997
C       0.233552     1.250692    -3.737978
C      -0.445817     2.827477    -0.569372
C      -1.637625     2.193483    -0.762697
H      -3.365545     0.428653    -2.400727
H      -2.542647    -0.539401    -4.530215
H       1.225184     1.486985    -4.100304
H      -0.093824     3.402440     0.275764
N       0.410315     2.584614    -1.623174
C       1.764522     3.086421    -1.731990
H       2.432425     2.290343    -2.071731
H       1.823814     3.927387    -2.431152
H       2.102771     3.396530    -0.743151
O      -0.308565    -0.205928    -5.602944
C       0.944489     0.087905    -6.188678
H       1.773493    -0.225167    -5.541689
H       0.984450    -0.476591    -7.120687
H       1.040422     1.158112    -6.409297
N      -1.957809    -0.241824     0.748501
C      -2.868145    -1.209183     0.244718
O      -4.041157    -0.946541     0.217305
C      -2.288365    -2.525885    -0.228216
H      -2.231380    -2.457349    -1.321053
H      -3.040172    -3.284765    -0.003971
C      -0.926260    -2.868135     0.379215
H      -1.028027    -3.059161     1.448312
H      -0.524872    -3.778770    -0.068165
C       0.025184    -1.693141     0.174077
C       1.337942    -1.636113     1.009902
H       2.180851    -2.070926     0.468556
C      -2.775594     2.056787     0.205822
H      -3.686510     1.770275    -0.326014
H      -2.984543     3.006544     0.707895
C      -2.486714     1.019958     1.300970
H      -1.740772     1.387225     2.004453
H      -3.391098     0.770017     1.854528
C       0.361360    -1.423331    -1.318643
H      -0.537983    -1.096734    -1.843557
H       1.052253    -0.576074    -1.348573
C       0.968426    -2.614137    -2.057890
H       1.235063    -2.310880    -3.074817
H       1.875791    -2.985291    -1.572305
H       0.265024    -3.448010    -2.141597
O       1.149944    -2.429233     2.208354
C       1.467314    -1.803887     3.442781
H       1.616564    -2.630951     4.144685
H       2.405198    -1.244573     3.373212
C       0.358075    -0.905317     3.950866
C      -0.943038    -1.398140     4.050214
C       0.604247     0.413126     4.319947
C      -1.975116    -0.596040     4.519590
H      -1.142416    -2.429008     3.771781
C      -0.425036     1.220818     4.792215
H       1.604714     0.820977     4.215244
C      -1.716758     0.718307     4.897088
H      -2.980409    -0.999189     4.597777
H      -0.214825     2.247517     5.076506
H      -2.518333     1.347076     5.272869
C      -0.643083    -0.454635     0.698615
O       0.166070     0.401434     1.158408
C       1.492838    -0.180544     1.181131
C       2.542064     0.725424     1.282716
O       2.481437     1.954942     1.327939
O       3.749070     0.060165     1.335537
C       4.887993     0.903523     1.448892
H       4.968394     1.574295     0.588689
H       4.840643     1.508929     2.358412
H       5.751997     0.237665     1.486002
72
     -1725.768226     -1725.236719   0.66   1.75
C       0.836276     2.509949     1.620308
C       0.152309     2.905555     0.455550
C       0.874726     3.542902    -0.564968
C       2.224679     3.751846    -0.407271
C       2.890830     3.345644     0.772757
C       2.209718     2.729115     1.806362
C      -1.292257     1.878469     1.821621
C      -1.218026     2.494443     0.607209
H       0.381142     3.866539    -1.476946
H       2.813774     4.240888    -1.175075
H       2.703471     2.416167     2.716708
H      -2.122833     1.373629     2.294924
N      -0.060090     1.876222     2.441455
C       0.224280     1.285904     3.733024
H      -0.574576     0.586932     3.981241
H       1.155824     0.715480     3.686984
H       0.310240     2.051330     4.511676
O       4.229601     3.609237     0.786942
C       4.952503     3.292151     1.960159
H       4.931865     2.214556     2.165636
H       5.981580     3.602252     1.776492
H       4.560497     3.834924     2.829036
N      -1.124220     0.695136    -1.644861
C      -0.532183     1.177012    -2.843019
O      -1.072398     2.068630    -3.442086
C       0.757802     0.521898    -3.290552
H       1.564352     1.197402    -2.981680
H       0.741448     0.537254    -4.381836
C       0.971892    -0.888917    -2.738108
H       0.235250    -1.574127    -3.159607
H       1.955029    -1.266991    -3.022751
C       0.814272    -0.863964    -1.220729
C       0.617768    -2.211224    -0.464768
H       1.565197    -2.609013    -0.094958
C      -2.275933     2.566963    -0.454513
H      -2.039316     3.364071    -1.163978
H      -3.253806     2.803223    -0.023559
C      -2.425977     1.243444    -1.218451
H      -2.895236     0.481251    -0.597911
H      -3.025642     1.374517    -2.118466
C       1.909954    -0.031658    -0.499051
H       1.806479     1.021153    -0.767234
H       1.708953    -0.090415     0.574365
C       3.340970    -0.483108    -0.784382
H       4.034701     0.111615    -0.182518
H       3.501545    -1.536029    -0.534521
H       3.615848    -0.339340    -1.833619
O       0.085614    -3.184025    -1.398124
C      -1.078431    -3.887488    -0.991004
H      -1.097806    -4.783376    -1.620280
H      -1.002434    -4.207558     0.052585
C      -2.351623    -3.094053    -1.204145
C      -2.615863    -2.528711    -2.451626
C      -3.271121    -2.908261    -0.176955
C      -3.779261    -1.803334    -2.673421
H      -1.906991    -2.675804    -3.261463
C      -4.438756    -2.183982    -0.393458
H      -3.062571    -3.312651     0.808546
C      -4.698524    -1.632481    -1.642630
H      -3.972174    -1.377239    -3.653465
H      -5.145851    -2.049317     0.419562
H      -5.613767    -1.073577    -1.813040
C      -0.502870    -0.218048    -0.899000
O      -1.036005    -0.655463     0.160918
C      -0.260994    -1.782934     0.638101
C      -0.467503    -2.131318     1.967751
O      -1.203323    -1.584049     2.790233
O       0.287988    -3.236773     2.298595
C       0.138847    -3.678252     3.641762
H       0.783605    -4.553001     3.743499
H       0.446602    -2.901718     4.347914
H      -0.899072    -3.949512     3.854114
72
     -1725.763722     -1725.234779   3.49   2.97
C      -1.088090     0.260546    -3.494078
C      -0.991136    -1.139589    -3.381232
C      -0.142002    -1.821519    -4.266122
C       0.570188    -1.112693    -5.203518
C       0.456660     0.292687    -5.296550
C      -0.373552     1.001735    -4.446477
C      -2.411370    -0.385976    -1.814948
C      -1.853873    -1.532788    -2.296041
H      -0.032790    -2.899571    -4.213395
H       1.236313    -1.612011    -5.897937
H      -0.477722     2.077104    -4.505762
H      -3.077424    -0.256805    -0.970514
N      -1.959528     0.705239    -2.531470
C      -2.344991     2.077811    -2.297896
H      -1.465118     2.705669    -2.122876
H      -2.906471     2.483858    -3.145684
H      -2.976632     2.114558    -1.409265
O       1.218684     0.861479    -6.274225
C       1.154592     2.265402    -6.428419
H       1.828315     2.512400    -7.249429
H       0.139235     2.593715    -6.683222
H       1.487167     2.783054    -5.520038
N       0.224830    -2.693677    -0.740466
C       1.520438    -2.747243    -1.342420
O       1.745058    -3.557812    -2.198735
C       2.558622    -1.765907    -0.841584
H       2.574042    -0.943447    -1.566196
H       3.519176    -2.275776    -0.932727
C       2.310592    -1.256514     0.576800
H       2.432176    -2.068877     1.295614
H       3.036812    -0.486752     0.842257
C       0.885681    -0.718420     0.675298
C       0.293534    -0.472880     2.084768
H       0.393063     0.571822     2.391966
C      -2.092139    -2.900567    -1.729408
H      -2.539467    -3.561177    -2.480299
H      -2.816015    -2.807651    -0.917893
C      -0.827799    -3.618248    -1.204018
H      -1.086895    -4.274687    -0.370085
H      -0.356115    -4.219419    -1.976680
C       0.628482     0.529616    -0.217963
H       0.663029     0.245937    -1.274417
H      -0.396044     0.860110    -0.027000
C       1.599297     1.681758     0.041223
H       1.282655     2.569207    -0.514488
H       1.636628     1.952943     1.100513
H       2.617189     1.442604    -0.281109
O       1.008950    -1.311678     3.002254
C       0.578086    -1.141199     4.343735
H      -0.510265    -1.260027     4.405301
H       1.047196    -1.956696     4.902772
C       0.990883     0.194911     4.924309
C       0.070272     1.003812     5.580865
C       2.310114     0.631479     4.803172
C       0.459350     2.226343     6.119424
H      -0.963932     0.681356     5.655713
C       2.701258     1.851989     5.335396
H       3.030122     0.006766     4.282406
C       1.775281     2.652504     5.998642
H      -0.270061     2.847880     6.629771
H       3.731179     2.180748     5.234724
H       2.080474     3.606748     6.416607
C      -0.050076    -1.791959     0.200295
O      -1.161972    -1.819994     0.804863
C      -1.134611    -0.840612     1.900265
C      -2.277169    -0.030689     1.951760
O      -3.322470    -0.135502     1.311437
O      -2.113485     0.966476     2.888196
C      -3.234732     1.824836     3.051809
H      -4.116984     1.261636     3.367685
H      -2.952279     2.543421     3.823393
H      -3.472408     2.348198     2.121358
72
     -1725.764150     -1725.234173   3.22   3.35
C      -3.165683     0.862575    -1.426575
C      -3.449608    -0.410015    -0.883034
C      -3.521736    -1.503828    -1.747093
C      -3.318458    -1.323794    -3.104138
C      -3.052582    -0.039588    -3.622481
C      -2.976966     1.066613    -2.791544
C      -3.354227     1.080633     0.786022
C      -3.587676    -0.240090     0.540999
H      -3.731667    -2.499044    -1.365783
H      -3.376817    -2.179738    -3.763876
H      -2.773153     2.041208    -3.219518
H      -3.312117     1.615813     1.724504
N      -3.098634     1.757331    -0.389053
C      -2.786165     3.167194    -0.495259
H      -2.476509     3.531388     0.484148
H      -1.946784     3.310938    -1.181241
H      -3.645367     3.741834    -0.857037
O      -2.851146     0.208373    -4.950790
C      -2.957491    -0.871903    -5.857661
H      -2.203356    -1.642431    -5.655902
H      -3.956184    -1.324246    -5.827058
H      -2.783845    -0.451337    -6.848842
N      -1.483862    -2.030850     1.466716
C      -1.416431    -3.265577     0.766152
O      -2.355848    -4.014277     0.817906
C      -0.140453    -3.573152     0.012851
H      -0.369622    -3.436153    -1.048792
H       0.036587    -4.641816     0.150990
C       1.064992    -2.739666     0.448858
H       1.388075    -3.042160     1.445978
H       1.907970    -2.904853    -0.226340
C       0.692789    -1.254223     0.469064
C       1.652593    -0.294272     1.221731
H       2.337847     0.215148     0.538192
C      -3.879865    -1.327460     1.533692
H      -4.301304    -2.191980     1.015939
H      -4.628182    -1.000575     2.262888
C      -2.651225    -1.776742     2.331477
H      -2.348505    -1.012965     3.046783
H      -2.857873    -2.701266     2.871208
C       0.395542    -0.750018    -0.972913
H       1.243869    -1.077365    -1.586092
H      -0.486951    -1.271760    -1.356847
C       0.185341     0.750822    -1.154188
H       1.084548     1.322849    -0.917301
H      -0.076598     0.949554    -2.197331
H      -0.629244     1.123882    -0.532662
O       2.416719    -1.091173     2.141053
C       3.343292    -0.320730     2.890704
H       2.829352     0.520560     3.370626
H       3.708704    -0.993381     3.672964
C       4.501402     0.183413     2.055734
C       4.900633     1.513778     2.118436
C       5.188470    -0.690484     1.213439
C       5.976806     1.966168     1.361618
H       4.353252     2.204368     2.752739
C       6.259750    -0.242079     0.453598
H       4.873600    -1.728451     1.154884
C       6.659077     1.089370     0.528605
H       6.278668     3.007442     1.420816
H       6.786472    -0.932089    -0.198595
H       7.497924     1.440882    -0.064031
C      -0.527607    -1.108321     1.332142
O      -0.554887    -0.053019     2.027447
C       0.715724     0.657535     1.873034
C       0.559824     2.039691     1.729444
O      -0.464204     2.709167     1.856121
O       1.766041     2.628920     1.417229
C       1.721128     4.041080     1.264887
H       1.381953     4.524199     2.185059
H       2.741943     4.350204     1.032885
H       1.047945     4.329945     0.452414
72
     -1725.765149     -1725.234033   2.59   3.44
C      -2.150585    -0.299253    -2.841802
C      -1.467756    -1.525145    -2.939434
C      -0.459917    -1.656692    -3.907713
C      -0.171185    -0.593672    -4.729669
C      -0.883876     0.623525    -4.624757
C      -1.884458     0.789744    -3.685464
C      -2.945629    -1.658602    -1.262625
C      -2.009047    -2.394038    -1.928287
H       0.093957    -2.585426    -4.010290
H       0.599742    -0.661359    -5.489236
H      -2.440734     1.712865    -3.590964
H      -3.551071    -1.915220    -0.404675
N      -3.041069    -0.393211    -1.803549
C      -3.912078     0.659194    -1.323325
H      -4.757805     0.818378    -2.000475
H      -4.273882     0.387489    -0.332217
H      -3.351661     1.592984    -1.222680
O      -0.498128     1.585019    -5.512851
C      -1.181373     2.822428    -5.482565
H      -0.732611     3.437259    -6.263315
H      -2.250351     2.693898    -5.692886
H      -1.059185     3.323343    -4.514049
N       0.420836    -2.954048    -0.416619
C       1.566934    -3.214252    -1.216106
O       1.562678    -4.172844    -1.941835
C       2.741721    -2.270108    -1.081703
H       2.735709    -1.642813    -1.978918
H       3.635056    -2.894145    -1.151620
C       2.734337    -1.434963     0.199108
H       2.933952    -2.071982     1.061945
H       3.523359    -0.679816     0.167287
C       1.370513    -0.761055     0.375380
C       1.044359    -0.177549     1.776350
H       1.227658     0.899870     1.821538
C      -1.575116    -3.804692    -1.653302
H      -1.046311    -4.201472    -2.522825
H      -2.440520    -4.454089    -1.486488
C      -0.675882    -3.940183    -0.420318
H      -1.242226    -3.780050     0.496349
H      -0.218132    -4.929024    -0.382484
C       1.135748     0.289356    -0.748429
H       2.035121     0.916729    -0.765208
H       1.095857    -0.225110    -1.713831
C      -0.100567     1.175570    -0.622911
H      -0.171946     1.812218    -1.509564
H      -1.017089     0.587682    -0.564218
H      -0.054237     1.823726     0.254294
O       1.901468    -0.837368     2.721833
C       1.698326    -0.384074     4.051280
H       0.635081    -0.449466     4.310974
H       2.251307    -1.087564     4.681544
C       2.204585     1.024922     4.277087
C       1.416232     1.971676     4.921627
C       3.479570     1.387710     3.843558
C       1.894631     3.259308     5.142160
H       0.413227     1.702394     5.238422
C       3.958731     2.672500     4.057746
H       4.094903     0.653420     3.331592
C       3.166814     3.612159     4.711710
H       1.268915     3.988559     5.647687
H       4.952972     2.942852     3.715251
H       3.541183     4.616912     4.881294
C       0.324043    -1.836350     0.307811
O      -0.659086    -1.659843     1.082634
C      -0.398128    -0.497682     1.933747
C      -1.512192     0.332930     2.090610
O      -2.670026     0.133991     1.726635
O      -1.159300     1.486869     2.756873
C      -2.226747     2.395784     2.988973
H      -1.791509     3.236752     3.531910
H      -2.662895     2.742799     2.047687
H      -3.015218     1.930349     3.586316
72
     -1725.763345     -1725.233856   3.73   3.55
C      -0.841671     1.971373     1.923584
C       0.044183     2.825219     1.239770
C      -0.413664     3.476152     0.083689
C      -1.706254     3.274672    -0.339553
C      -2.583213     2.431725     0.380522
C      -2.168691     1.769457     1.519681
C       1.100003     1.959833     3.012666
C       1.286818     2.811715     1.963900
H       0.239661     4.141074    -0.475379
H      -2.093947     3.766580    -1.225038
H      -2.822454     1.110097     2.075333
H       1.800140     1.622404     3.764405
N      -0.174391     1.439087     2.994353
C      -0.707903     0.481029     3.937369
H      -1.218635    -0.324016     3.401908
H       0.118494     0.031083     4.486422
H      -1.407824     0.953692     4.635060
O      -3.839597     2.333078    -0.147980
C      -4.825706     1.668300     0.616563
H      -4.597252     0.601820     0.735852
H      -4.935856     2.126596     1.606987
H      -5.760473     1.772258     0.064459
N       2.775139     1.887074    -0.425560
C       2.735215     2.640309    -1.630413
O       3.323713     3.687628    -1.682153
C       1.951448     2.072000    -2.796513
H       2.699649     1.697288    -3.503110
H       1.484636     2.930853    -3.283007
C       0.912593     1.005787    -2.439546
H       0.048635     1.476175    -1.971308
H       0.558178     0.504546    -3.344121
C       1.505599    -0.022545    -1.470047
C       0.498244    -0.936394    -0.714271
H       0.453283    -1.938670    -1.154236
C       2.575855     3.442381     1.528248
H       3.158531     3.778955     2.391532
H       2.384355     4.325170     0.911585
C       3.462287     2.464774     0.746456
H       4.356162     2.962010     0.370536
H       3.759150     1.628492     1.380612
C       2.610176    -0.869052    -2.160208
H       2.111903    -1.412369    -2.971600
H       3.327440    -0.192356    -2.636245
C       3.371646    -1.852083    -1.270944
H       4.120823    -2.379349    -1.868971
H       3.898340    -1.343248    -0.457248
H       2.711815    -2.596592    -0.821950
O      -0.793727    -0.325560    -0.855239
C      -1.866915    -1.132258    -0.407075
H      -1.708940    -1.448786     0.629424
H      -2.738245    -0.472435    -0.434530
C      -2.107379    -2.338280    -1.290609
C      -2.322447    -3.596673    -0.739744
C      -2.130934    -2.194238    -2.677711
C      -2.565928    -4.696098    -1.557249
H      -2.286366    -3.718186     0.338547
C      -2.368326    -3.289431    -3.496902
H      -1.959975    -1.213848    -3.112962
C      -2.589701    -4.544738    -2.937343
H      -2.733289    -5.672688    -1.113394
H      -2.384073    -3.164824    -4.575423
H      -2.777614    -5.401196    -3.577143
C       2.111226     0.730261    -0.324621
O       1.942976     0.183136     0.797384
C       1.063136    -0.955884     0.659335
C       0.984215    -1.757072     1.793442
O       1.528813    -1.583125     2.882966
O       0.175330    -2.856803     1.564293
C       0.083869    -3.758652     2.658906
H      -0.555169    -4.577953     2.322679
H       1.069134    -4.143632     2.934901
H      -0.356258    -3.275039     3.535977
72
     -1725.765022     -1725.233789   2.67   3.59
C      -0.945214    -1.155338     2.371259
C      -1.274810    -2.328314     1.657700
C      -0.339751    -3.363940     1.607014
C       0.885000    -3.216063     2.233907
C       1.191833    -2.028275     2.930420
C       0.279886    -0.989237     3.010085
C      -2.988197    -0.893585     1.516245
C      -2.594896    -2.133258     1.110554
H      -0.560586    -4.286991     1.079081
H       1.602635    -4.025006     2.187471
H       0.544632    -0.085067     3.544537
H      -3.888528    -0.343739     1.278103
N      -2.007255    -0.292414     2.275919
C      -2.056608     1.051132     2.807959
H      -1.273995     1.672873     2.366963
H      -3.022976     1.489622     2.556975
H      -1.946850     1.044567     3.897321
O       2.385505    -1.814673     3.560609
C       3.323038    -2.872959     3.598599
H       4.169283    -2.504566     4.179617
H       2.905803    -3.760085     4.090331
H       3.667636    -3.143551     2.593013
N      -1.618556    -2.085761    -1.547130
C      -0.621891    -3.090802    -1.700017
O      -0.970388    -4.236436    -1.806588
C       0.827832    -2.650991    -1.723612
H       1.139339    -2.684973    -2.774188
H       1.381292    -3.440864    -1.212941
C       1.098304    -1.282151    -1.099219
H       0.980724    -1.336168    -0.016569
H       2.124839    -0.967441    -1.291906
C       0.107909    -0.261004    -1.656753
C       0.007650     1.108757    -0.937550
H       0.553978     1.878530    -1.485666
C      -3.257536    -3.015545     0.094555
H      -4.339985    -3.060738     0.247142
H      -2.878973    -4.036717     0.180873
C      -3.016052    -2.508477    -1.339499
H      -3.230643    -3.284127    -2.074275
H      -3.637525    -1.639066    -1.551971
C       0.246134    -0.019759    -3.186270
H      -0.041478    -0.924606    -3.733469
H      -0.481984     0.753302    -3.454067
C       1.649390     0.414071    -3.612616
H       2.009376     1.267144    -3.030107
H       2.375938    -0.396164    -3.500712
H       1.645805     0.707726    -4.666320
O       0.591994     0.978014     0.366774
C       1.070738     2.207493     0.905314
H       0.250729     2.925181     1.008959
H       1.448543     1.947331     1.898662
C       2.169875     2.814404     0.062926
C       3.358116     2.117407    -0.153114
C       1.986822     4.051139    -0.547804
C       4.352231     2.652764    -0.960446
H       3.497093     1.146340     0.314963
C       2.983770     4.592423    -1.354717
H       1.047253     4.577269    -0.403753
C       4.166878     3.895185    -1.561458
H       5.274849     2.103284    -1.121151
H       2.831577     5.558486    -1.826228
H       4.944447     4.316136    -2.191212
C      -1.273023    -0.800543    -1.429080
O      -2.125190     0.076115    -1.119217
C      -1.452321     1.362971    -0.972884
C      -2.180265     2.435965    -0.468936
O      -1.704342     3.533453    -0.169057
O      -3.528781     2.182414    -0.336602
C      -4.299148     3.313316     0.048812
H      -4.200155     4.120912    -0.681398
H      -5.334376     2.970528     0.089971
H      -3.986393     3.693142     1.025863
72
     -1725.764297     -1725.233348   3.13   3.87
C       1.606799     0.193920    -2.310407
C       2.584313     0.645208    -1.404829
C       3.391022    -0.306782    -0.762023
C       3.206622    -1.641631    -1.033764
C       2.226388    -2.067810    -1.959650
C       1.413798    -1.160909    -2.612192
C       1.499419     2.418537    -2.232962
C       2.503013     2.081754    -1.374006
H       4.162538    -0.000566    -0.060502
H       3.815522    -2.403429    -0.559227
H       0.647248    -1.469628    -3.310704
H       1.087416     3.390554    -2.467346
N       0.946408     1.290644    -2.800833
C      -0.178731     1.262964    -3.708401
H      -1.018988     0.715270    -3.270065
H      -0.501113     2.287338    -3.896936
H       0.097055     0.801928    -4.662280
O       2.162806    -3.420058    -2.135499
C       1.337240    -3.913805    -3.171887
H       0.277222    -3.708094    -2.978981
H       1.618325    -3.485537    -4.141740
H       1.491474    -4.993101    -3.195516
N       2.004184     2.051086     1.523614
C       2.938371     1.360148     2.344571
O       4.024607     1.844491     2.520074
C       2.505086     0.047319     2.964060
H       2.314348     0.267085     4.019962
H       3.390432    -0.591469     2.947010
C       1.312205    -0.640543     2.295491
H       1.626215    -1.091186     1.354968
H       0.934579    -1.446271     2.930198
C       0.194616     0.368188     2.014266
C      -0.904712    -0.069528     1.007483
H      -1.822862    -0.374964     1.521421
C       3.244251     2.990023    -0.438714
H       3.452997     3.954535    -0.911834
H       4.209244     2.554376    -0.165970
C       2.445313     3.281415     0.838566
H       3.044916     3.842795     1.554995
H       1.545182     3.850883     0.605364
C      -0.438265     0.881743     3.336958
H      -0.877860     0.002159     3.821190
H       0.361836     1.231212     3.998017
C      -1.492224     1.981681     3.209671
H      -2.347291     1.663923     2.610239
H      -1.856900     2.252795     4.204887
H      -1.083836     2.888013     2.751132
O      -0.392065    -1.192269     0.282137
C      -1.371052    -1.823254    -0.534830
H      -1.860360    -1.087768    -1.182325
H      -0.803454    -2.520199    -1.155753
C      -2.405679    -2.569511     0.276981
C      -3.735446    -2.160534     0.284869
C      -2.025626    -3.667165     1.049135
C      -4.676389    -2.847317     1.047040
H      -4.021586    -1.286197    -0.291636
C      -2.961736    -4.352508     1.810435
H      -0.985333    -3.982351     1.051561
C      -4.292885    -3.943584     1.808031
H      -5.711024    -2.518486     1.047572
H      -2.655625    -5.206623     2.406890
H      -5.027155    -4.478290     2.402686
C       0.796896     1.530201     1.283015
O       0.060838     2.010314     0.378737
C      -1.108294     1.167452     0.211167
C      -2.140810     1.614863    -0.597631
O      -3.189688     1.006396    -0.827365
O      -1.898269     2.852272    -1.164654
C      -2.972443     3.353909    -1.946985
H      -2.647278     4.330243    -2.311133
H      -3.195741     2.691721    -2.788999
H      -3.880026     3.462008    -1.346813
72
     -1725.762108     -1725.233278   4.50   3.91
C      -2.255297    -2.805034     1.412220
C      -2.600282    -2.547776     0.066786
C      -3.804056    -1.893597    -0.200035
C      -4.628615    -1.515889     0.845357
C      -4.267559    -1.799526     2.178726
C      -3.080563    -2.449282     2.476556
C      -0.596694    -3.547798     0.117614
C      -1.526392    -3.054499    -0.749156
H      -4.100610    -1.672232    -1.221285
H      -5.559470    -1.009299     0.625787
H      -2.830272    -2.654633     3.510853
H       0.377413    -3.974408    -0.077629
N      -1.021660    -3.404608     1.422582
C      -0.271566    -3.792746     2.598522
H      -0.682689    -4.700139     3.053345
H       0.767320    -3.955270     2.312719
H      -0.288142    -2.984600     3.335223
O      -5.038807    -1.461815     3.254706
C      -6.282541    -0.831891     3.016125
H      -6.944030    -1.465873     2.413252
H      -6.732822    -0.673115     3.996693
H      -6.153983     0.136585     2.517436
N      -0.717924    -0.610410    -2.128290
C      -1.795164     0.198753    -2.581870
O      -2.559126    -0.253665    -3.392505
C      -1.894615     1.604659    -2.030522
H      -2.731636     1.600723    -1.325234
H      -2.206560     2.231076    -2.868933
C      -0.608327     2.123380    -1.387140
H       0.145502     2.309641    -2.153518
H      -0.791537     3.072973    -0.878856
C      -0.068778     1.091344    -0.392454
C       1.396862     1.272566     0.086890
H       1.445102     1.756303     1.068874
C      -1.454151    -2.995113    -2.247302
H      -2.451459    -2.815624    -2.654960
H      -1.111660    -3.949491    -2.660263
C      -0.501091    -1.918205    -2.774955
H       0.537426    -2.189182    -2.588478
H      -0.638899    -1.772250    -3.846646
C      -1.045659     0.925617     0.806561
H      -1.253469     1.939681     1.168896
H      -1.995255     0.525557     0.436878
C      -0.574828     0.053420     1.967248
H       0.293397     0.478043     2.474962
H      -1.384110    -0.034137     2.697632
H      -0.317394    -0.953823     1.638208
O       2.058442     2.108117    -0.870766
C       3.440754     2.263658    -0.594329
H       3.572987     2.619427     0.439762
H       3.949277     1.295652    -0.674893
C       4.024563     3.258965    -1.563431
C       3.417913     4.500966    -1.748287
C       5.185333     2.963961    -2.269675
C       3.965767     5.429970    -2.620763
H       2.507039     4.733536    -1.205248
C       5.740512     3.894839    -3.142630
H       5.658515     1.994551    -2.139260
C       5.131885     5.129777    -3.319453
H       3.483091     6.392888    -2.757359
H       6.648028     3.651339    -3.686550
H       5.561460     5.857273    -4.000993
C       0.070770    -0.210670    -1.127976
O       1.077115    -0.897796    -0.792319
C       1.896923    -0.124409     0.141809
C       2.390072    -0.881897     1.208717
O       2.330226    -2.098809     1.373076
O       3.010142    -0.063683     2.130746
C       3.561782    -0.742243     3.251678
H       4.314440    -1.469993     2.937104
H       4.021838     0.027444     3.873901
H       2.785800    -1.267262     3.816513
72
     -1725.765411     -1725.232635   2.43   4.32
C      -1.706995     1.282884    -1.595720
C      -1.157387     0.543683    -2.659169
C      -1.720543    -0.704760    -2.966286
C      -2.769723    -1.177595    -2.212043
C      -3.298073    -0.417202    -1.143690
C      -2.783568     0.823964    -0.824859
C      -0.008144     2.453857    -2.436748
C      -0.062954     1.316942    -3.189040
H      -1.336853    -1.301048    -3.788998
H      -3.228285    -2.137419    -2.423503
H      -3.163929     1.415306    -0.002695
H       0.702982     3.268123    -2.458567
N      -0.992443     2.444164    -1.472616
C      -1.203449     3.465175    -0.469395
H      -2.181119     3.942868    -0.595202
H      -1.134324     3.030365     0.531941
H      -0.417133     4.213476    -0.567796
O      -4.326875    -1.016546    -0.468828
C      -5.031227    -0.239336     0.480434
H      -4.395522     0.036295     1.331518
H      -5.439175     0.670602     0.024074
H      -5.851102    -0.863561     0.836900
N       1.904885    -0.588073    -2.411688
C       1.384525    -1.884117    -2.677159
O       1.405182    -2.294973    -3.807358
C       0.827664    -2.675403    -1.512443
H       1.563878    -3.457816    -1.299313
H      -0.052335    -3.189217    -1.903740
C       0.474844    -1.861676    -0.265704
H      -0.448148    -1.308248    -0.436638
H       0.298241    -2.529932     0.579363
C       1.596270    -0.875987     0.071887
C       1.251965     0.287983     1.052318
H       1.597496     0.053220     2.062794
C       0.933828     0.846633    -4.208368
H       1.237657     1.661214    -4.872794
H       0.487284     0.072528    -4.837118
C       2.213038     0.287273    -3.557708
H       2.790495    -0.302292    -4.269310
H       2.837535     1.094184    -3.176021
C       2.860392    -1.640509     0.552962
H       2.564977    -2.142882     1.481933
H       3.082259    -2.433625    -0.168329
C       4.126267    -0.817261     0.785482
H       3.983727    -0.051140     1.548432
H       4.936176    -1.478973     1.106643
H       4.454524    -0.311599    -0.128210
O      -0.170068     0.505161     1.097693
C      -0.754561     0.386681     2.385687
H      -0.183512     0.974398     3.114651
H      -1.745087     0.842085     2.291946
C      -0.887490    -1.047628     2.847585
C      -0.067961    -1.557000     3.849920
C      -1.818957    -1.893270     2.244318
C      -0.170669    -2.887739     4.245776
H       0.656183    -0.905407     4.332139
C      -1.925738    -3.220133     2.635514
H      -2.452227    -1.514848     1.446530
C      -1.099397    -3.721810     3.637955
H       0.474980    -3.269708     5.030289
H      -2.653344    -3.867902     2.156441
H      -1.182918    -4.759806     3.943925
C       1.910651    -0.095967    -1.168197
O       2.181113     1.118489    -0.959469
C       1.996411     1.424783     0.452903
C       1.876514     2.797117     0.715404
O       2.078936     3.743488    -0.037868
O       1.499440     2.991448     2.029838
C       1.424255     4.353322     2.430012
H       2.382605     4.858312     2.283101
H       0.659104     4.893465     1.863968
H       1.164956     4.342917     3.490315
72
     -1725.763667     -1725.232329   3.52   4.51
C      -0.812260    -1.320718    -2.395635
C      -1.233073    -2.297573    -1.466606
C      -2.480543    -2.143817    -0.859045
C      -3.264698    -1.045271    -1.164710
C      -2.814485    -0.083212    -2.091873
C      -1.590487    -0.215349    -2.724697
C       0.789468    -2.862579    -2.241619
C      -0.183419    -3.281261    -1.384408
H      -2.847386    -2.880174    -0.148729
H      -4.229089    -0.935759    -0.685445
H      -1.267508     0.541263    -3.429927
H       1.760885    -3.292903    -2.444897
N       0.426888    -1.683436    -2.856910
C       1.236144    -0.918540    -3.778529
H       0.736422    -0.816045    -4.747212
H       1.448610     0.075980    -3.374090
H       2.183979    -1.436904    -3.926891
O      -3.529534     1.033245    -2.423119
C      -4.793087     1.225549    -1.818455
H      -4.706427     1.315043    -0.728788
H      -5.183142     2.159009    -2.225970
H      -5.483604     0.409447    -2.063001
N       0.075389    -2.783488     1.512095
C      -1.076819    -2.933678     2.332630
O      -1.501676    -4.039376     2.538483
C      -1.702060    -1.683292     2.916252
H      -1.407857    -1.670969     3.971244
H      -2.779193    -1.861966     2.908358
C      -1.351111    -0.372672     2.207858
H      -1.892885    -0.305625     1.265337
H      -1.656317     0.481679     2.817475
C       0.151281    -0.297935     1.921898
C       0.612877     0.758702     0.880543
H       1.047330     1.639756     1.366051
C      -0.099548    -4.403413    -0.393907
H       0.437713    -5.259087    -0.814577
H      -1.098714    -4.756333    -0.124513
C       0.648855    -3.987924     0.879928
H       0.616084    -4.779897     1.628050
H       1.689997    -3.756981     0.652266
C       0.963278    -0.166376     3.240076
H       0.646063     0.779005     3.695068
H       0.651795    -0.960429     3.927020
C       2.486395    -0.190991     3.110845
H       2.859135     0.622836     2.486022
H       2.936938    -0.090661     4.102753
H       2.845225    -1.131575     2.680657
O      -0.545788     1.165950     0.146570
C      -0.300481     2.271986    -0.716422
H       0.571994     2.073290    -1.348566
H      -1.189376     2.336606    -1.348152
C      -0.101983     3.561214     0.048825
C       1.125831     4.215286     0.038539
C      -1.151218     4.095254     0.796692
C       1.299620     5.394351     0.758034
H       1.950752     3.780057    -0.517165
C      -0.980250     5.269742     1.515526
H      -2.108577     3.580842     0.813354
C       0.248736     5.924243     1.494726
H       2.262898     5.894925     0.744519
H      -1.804540     5.677248     2.093049
H       0.385089     6.843432     2.056172
C       0.554939    -1.566843     1.232361
O       1.415583    -1.410739     0.324311
C       1.632116     0.007237     0.104138
C       2.719791     0.402656    -0.658251
O       3.044284     1.568736    -0.897463
O       3.447608    -0.657221    -1.167807
C       4.591521    -0.270275    -1.915442
H       5.066947    -1.198592    -2.237678
H       4.313772     0.333374    -2.784859
H       5.284901     0.311928    -1.302364
72
     -1725.761793     -1725.232313   4.70   4.52
C      -1.722811    -2.243637     2.256096
C      -1.804430    -1.627267     0.996150
C      -1.507553    -0.257962     0.900532
C      -1.127894     0.431893     2.026801
C      -1.029751    -0.216837     3.278162
C      -1.327392    -1.560189     3.416437
C      -2.376989    -3.780179     0.776325
C      -2.219341    -2.635195     0.056309
H      -1.571536     0.267764    -0.047267
H      -0.893311     1.487800     1.979822
H      -1.266226    -2.071086     4.368251
H      -2.655199    -4.771207     0.444216
N      -2.081137    -3.560302     2.106318
C      -2.136338    -4.547220     3.160571
H      -2.858892    -4.259146     3.931041
H      -2.447043    -5.502034     2.734127
H      -1.154020    -4.679749     3.625081
O      -0.627914     0.586517     4.304814
C      -0.529483     0.015433     5.593816
H      -1.498423    -0.368305     5.936734
H       0.210745    -0.794076     5.618744
H      -0.205814     0.817378     6.258121
N       0.210887    -2.249855    -1.470035
C       0.930887    -2.925165    -0.435956
O       0.726015    -4.091124    -0.240233
C       1.930672    -2.120275     0.371808
H       2.899780    -2.594019     0.188514
H       1.686601    -2.332824     1.416216
C       1.962038    -0.610158     0.122316
H       1.163596    -0.128193     0.681704
H       2.905286    -0.187965     0.478672
C       1.783616    -0.297486    -1.367180
C       1.402845     1.161200    -1.738719
H       2.269700     1.723169    -2.106522
C      -2.270625    -2.483307    -1.434314
H      -2.492276    -1.445623    -1.700862
H      -3.064513    -3.099047    -1.868065
C      -0.950849    -2.907946    -2.096530
H      -0.784797    -3.977707    -1.980862
H      -0.944447    -2.655354    -3.158079
C       3.005859    -0.791614    -2.187544
H       3.876849    -0.257228    -1.790706
H       3.166808    -1.851781    -1.961784
C       2.933528    -0.609200    -3.703138
H       2.912656     0.444345    -3.988210
H       3.816199    -1.060994    -4.165715
H       2.050648    -1.088301    -4.136728
O       0.925790     1.792003    -0.540931
C       0.451742     3.111988    -0.750378
H       1.265741     3.744224    -1.136966
H      -0.351062     3.109616    -1.496474
C      -0.049553     3.636086     0.570323
C       0.802532     3.680548     1.673735
C      -1.369657     4.044439     0.720833
C       0.341072     4.126667     2.903409
H       1.829268     3.344092     1.565181
C      -1.836307     4.496504     1.952110
H      -2.043030     3.998337    -0.130522
C      -0.981870     4.537606     3.045247
H       1.011805     4.150169     3.756626
H      -2.870238     4.811048     2.055859
H      -1.343941     4.885550     4.007540
C       0.560493    -1.020464    -1.840829
O      -0.158095    -0.372478    -2.655750
C       0.379714     0.984629    -2.798469
C       0.328085     1.470917    -4.113384
O      -0.234316     0.984456    -5.085554
O       1.019252     2.665806    -4.201446
C       1.004475     3.259371    -5.493881
H       1.578420     4.183981    -5.408523
H       1.461918     2.599269    -6.236177
H      -0.018445     3.479690    -5.810833
72
     -1725.761680     -1725.231371   4.77   5.11
C       2.348135     1.127536     1.697873
C       2.834773     0.107722     0.853011
C       2.529896    -1.217403     1.172343
C       1.744939    -1.496993     2.272812
C       1.255722    -0.456607     3.086465
C       1.570190     0.866882     2.823126
C       3.485179     2.092088     0.036413
C       3.565038     0.754546    -0.211449
H       2.873119    -2.036947     0.550035
H       1.489546    -2.526068     2.485932
H       1.181550     1.647551     3.466812
H       3.900066     2.915074    -0.531188
N       2.755092     2.335001     1.183741
C       2.511455     3.625232     1.785972
H       1.437900     3.804099     1.900469
H       2.987514     3.696316     2.769449
H       2.925440     4.402847     1.142177
O       0.443653    -0.669446     4.162284
C      -0.065510    -1.977794     4.360877
H      -0.752449    -1.906884     5.205103
H      -0.608233    -2.332421     3.476462
H       0.735190    -2.684999     4.608454
N       1.985143     0.231549    -2.512130
C       2.052042     1.526668    -3.090798
O       3.072070     1.866846    -3.629526
C       0.827819     2.412849    -2.988114
H       0.381877     2.434247    -3.987658
H       1.210275     3.420162    -2.810234
C      -0.180175     2.001898    -1.913628
H       0.222245     2.229883    -0.925797
H      -1.109079     2.567365    -2.022069
C      -0.465634     0.499083    -1.995065
C      -1.169047    -0.148061    -0.769538
H      -2.242840    -0.279575    -0.941735
C       4.226109     0.124798    -1.401736
H       4.934558    -0.649219    -1.087000
H       4.796579     0.885827    -1.936736
C       3.237084    -0.535706    -2.382217
H       3.679363    -0.611130    -3.375968
H       2.956743    -1.533356    -2.050697
C      -1.202449     0.143334    -3.315440
H      -2.151098     0.691955    -3.287312
H      -0.633380     0.554173    -4.155624
C      -1.471264    -1.337482    -3.581985
H      -0.545532    -1.919791    -3.624254
H      -2.107123    -1.783519    -2.815779
H      -1.974142    -1.445232    -4.547836
O      -0.983526     0.740354     0.339995
C      -1.748784     0.368454     1.484595
H      -1.559848    -0.676581     1.744029
H      -1.374638     1.001958     2.291685
C      -3.230405     0.588027     1.276329
C      -4.114867    -0.486129     1.287637
C      -3.723178     1.871895     1.044353
C      -5.475972    -0.278578     1.081950
H      -3.724466    -1.488454     1.435098
C      -5.079356     2.081392     0.837772
H      -3.033208     2.711519     1.024555
C      -5.960541     1.003392     0.859266
H      -6.156270    -1.124665     1.091273
H      -5.452124     3.085568     0.659727
H      -7.021960     1.165049     0.698206
C       0.854894    -0.209551    -1.950718
O       0.838351    -1.289698    -1.301002
C      -0.466354    -1.450438    -0.675255
C      -0.709906    -2.616008     0.037020
O      -1.715910    -2.849307     0.714212
O       0.295826    -3.551873    -0.085377
C       0.053166    -4.766092     0.608896
H      -0.056432    -4.593964     1.684586
H      -0.854760    -5.254870     0.245360
H       0.921923    -5.398305     0.417511
72
     -1725.763721     -1725.231123   3.49   5.27
C       1.617926    -1.378179    -0.059616
C       1.812575    -1.356468     1.338989
C       1.275113    -2.394784     2.101440
C       0.547922    -3.396779     1.482620
C       0.351249    -3.379385     0.086249
C       0.887784    -2.374517    -0.700930
C       2.796886     0.444748     0.444696
C       2.568677    -0.166099     1.641440
H       1.418248    -2.427041     3.177494
H       0.137725    -4.197427     2.084805
H       0.714426    -2.374036    -1.769345
H       3.282630     1.388005     0.234986
N       2.240832    -0.276704    -0.588826
C       2.179048     0.144603    -1.971962
H       1.178409     0.494960    -2.231072
H       2.888149     0.959782    -2.119491
H       2.452596    -0.679654    -2.635982
O      -0.370696    -4.331953    -0.578497
C      -0.892021    -5.418245     0.160511
H      -1.401487    -6.057432    -0.561656
H      -0.094251    -5.990920     0.649142
H      -1.612964    -5.083681     0.916609
N       0.407533     1.069226     2.971865
C      -0.239094     0.031562     3.702667
O       0.244947    -0.325852     4.743183
C      -1.500042    -0.575617     3.119804
H      -2.318370    -0.251750     3.770634
H      -1.399504    -1.651458     3.273566
C      -1.769257    -0.255696     1.648015
H      -1.114182    -0.852037     1.011590
H      -2.797094    -0.516368     1.382925
C      -1.517017     1.229770     1.372452
C      -1.432682     1.656279    -0.120735
H      -2.361046     2.155781    -0.421538
C       2.812357     0.393380     3.011927
H       3.799076     0.860466     3.085079
H       2.781827    -0.407529     3.754018
C       1.767939     1.464189     3.382023
H       1.744415     1.637691     4.457793
H       1.983560     2.404981     2.876718
C      -2.521880     2.125389     2.147385
H      -3.513904     1.891799     1.743550
H      -2.536328     1.814764     3.196806
C      -2.273931     3.632191     2.083344
H      -3.045346     4.155028     2.655956
H      -1.304220     3.899942     2.515433
H      -2.290011     4.008749     1.059558
O      -1.261561     0.498912    -0.949426
C      -2.004172     0.558564    -2.168070
H      -3.069334     0.382785    -1.953504
H      -1.889075     1.547505    -2.620858
C      -1.472365    -0.494129    -3.102809
C      -1.788518    -1.838504    -2.919705
C      -0.625445    -0.132903    -4.147426
C      -1.261423    -2.808939    -3.760966
H      -2.434777    -2.129886    -2.096494
C      -0.093165    -1.101859    -4.991413
H      -0.374498     0.915653    -4.283178
C      -0.409304    -2.441491    -4.798139
H      -1.504271    -3.853993    -3.597803
H       0.567606    -0.810227    -5.802309
H       0.006024    -3.199220    -5.455371
C      -0.128048     1.536742     1.840885
O       0.524315     2.297179     1.075069
C      -0.273017     2.589015    -0.117522
C       0.412043     3.068817    -1.237286
O      -0.056169     3.131094    -2.374427
O       1.686956     3.512631    -0.967130
C       2.334103     4.134814    -2.069594
H       1.771495     5.008067    -2.410452
H       3.316428     4.441544    -1.706460
H       2.439654     3.444154    -2.911228
72
     -1725.764205     -1725.231120   3.19   5.27
C       1.692871    -1.549188    -1.066385
C       2.566902    -0.618058    -0.470320
C       2.836943     0.569506    -1.152823
C       2.237654     0.815331    -2.371933
C       1.375399    -0.138065    -2.946147
C       1.106256    -1.338562    -2.311139
C       2.313061    -2.360946     0.916919
C       2.958351    -1.165034     0.805929
H       3.480987     1.329991    -0.723626
H       2.417312     1.764875    -2.856704
H       0.429399    -2.050287    -2.765834
H       2.339012    -3.075749     1.729495
N       1.542356    -2.606966    -0.202360
C       0.768447    -3.798973    -0.468016
H       0.680042    -4.378453     0.452511
H      -0.236116    -3.531809    -0.806198
H       1.248330    -4.423370    -1.229472
O       0.735398     0.058138    -4.140027
C       0.894441     1.313761    -4.774049
H       0.268097     1.282906    -5.666778
H       0.566056     2.132110    -4.122034
H       1.936474     1.483098    -5.070124
N       1.797151     0.544808     2.797516
C       1.477683    -0.336123     3.864853
O       2.369328    -0.770653     4.545187
C       0.019087    -0.682507     4.082953
H      -0.320623    -0.078907     4.932241
H       0.009198    -1.720311     4.421516
C      -0.865577    -0.476127     2.854881
H      -0.607300    -1.205849     2.085341
H      -1.916757    -0.631661     3.103526
C      -0.635999     0.926495     2.294909
C      -1.186626     1.238151     0.878558
H      -2.152403     1.753421     0.914719
C       3.835318    -0.527744     1.841548
H       4.799214    -0.238443     1.408195
H       4.042875    -1.244807     2.638102
C       3.218971     0.737959     2.459219
H       3.739144     1.009173     3.378092
H       3.263702     1.579758     1.770551
C      -1.032054     2.070772     3.271075
H      -0.358418     2.066822     4.135210
H      -0.856931     3.015280     2.746343
C      -2.480453     2.004431     3.755352
H      -2.717881     2.893720     4.346055
H      -3.186866     1.965738     2.921469
H      -2.660734     1.131987     4.390329
O      -1.372730    -0.024133     0.217479
C      -1.872215     0.104295    -1.101005
H      -2.729552     0.793650    -1.108098
H      -1.109009     0.530422    -1.760718
C      -2.307620    -1.249213    -1.608534
C      -2.786515    -2.227223    -0.740150
C      -2.264372    -1.521911    -2.973866
C      -3.211827    -3.457759    -1.228383
H      -2.820181    -2.021493     0.323987
C      -2.687016    -2.751484    -3.464048
H      -1.873060    -0.771992    -3.655684
C      -3.162849    -3.724453    -2.591866
H      -3.584139    -4.210599    -0.539909
H      -2.643480    -2.950584    -4.530542
H      -3.495487    -4.684585    -2.973502
C       0.834826     1.080213     2.039094
O       1.107299     1.783870     1.028269
C      -0.125507     2.112847     0.334127
C      -0.030544     3.101496    -0.644125
O       0.952587     3.746207    -0.992682
O      -1.272665     3.310483    -1.223450
C      -1.307482     4.370010    -2.168603
H      -1.028504     5.319920    -1.703891
H      -0.624285     4.182575    -3.002327
H      -2.336396     4.419805    -2.530196
72
     -1725.764524     -1725.231101   2.98   5.28
C       1.718603     0.221456     2.751081
C       2.229154    -0.681000     1.800520
C       2.226075    -2.051138     2.105939
C       1.730040    -2.471666     3.316853
C       1.238160    -1.543675     4.264400
C       1.228555    -0.186571     4.000794
C       2.338978     1.388317     0.954668
C       2.642975     0.091878     0.659635
H       2.610941    -2.778842     1.397160
H       1.715237    -3.521957     3.586034
H       0.858062     0.537578     4.714124
H       2.440111     2.280032     0.352024
N       1.779714     1.481113     2.212639
C       1.303214     2.702748     2.827101
H       1.995153     3.061429     3.596255
H       1.184100     3.460347     2.052551
H       0.320725     2.536792     3.277473
O       0.789615    -2.102327     5.425517
C       0.306579    -1.233775     6.431231
H       1.085501    -0.537390     6.765515
H      -0.564877    -0.664842     6.083759
H       0.010083    -1.869544     7.266005
N       0.952388    -1.225112    -1.293734
C       0.909412    -2.642899    -1.204868
O       1.913800    -3.268998    -1.416053
C      -0.417485    -3.278038    -0.853186
H      -0.361120    -3.530274     0.211229
H      -0.450095    -4.226344    -1.392954
C      -1.633664    -2.404227    -1.164800
H      -1.761263    -2.314326    -2.242587
H      -2.544170    -2.864084    -0.772819
C      -1.448126    -1.011620    -0.560124
C      -2.354444     0.138526    -1.096162
H      -3.225318     0.285618    -0.453402
C       3.225067    -0.457267    -0.610682
H       3.663789    -1.439339    -0.417650
H       4.032797     0.183427    -0.978435
C       2.201683    -0.584371    -1.744209
H       1.925092     0.389722    -2.144063
H       2.596071    -1.192092    -2.557930
C      -1.508521    -1.096854     0.993700
H      -2.424764    -1.652861     1.225334
H      -0.673677    -1.711810     1.344606
C      -1.501260     0.215038     1.773793
H      -2.393631     0.812832     1.579846
H      -1.473793    -0.012138     2.843624
H      -0.626163     0.822692     1.541820
O      -2.868194    -0.241663    -2.396056
C      -2.624977     0.643464    -3.477029
H      -3.365808     0.367064    -4.234577
H      -2.805649     1.681554    -3.181856
C      -1.233921     0.509726    -4.063388
C      -0.413753     1.619827    -4.236852
C      -0.756230    -0.741806    -4.452441
C       0.852459     1.487271    -4.797427
H      -0.763586     2.595444    -3.914782
C       0.510278    -0.882529    -5.004383
H      -1.394939    -1.612694    -4.339435
C       1.318050     0.236217    -5.184118
H       1.476551     2.365916    -4.931093
H       0.862805    -1.864688    -5.304363
H       2.304495     0.133194    -5.626056
C      -0.112581    -0.483066    -0.992015
O      -0.077584     0.773478    -1.138370
C      -1.438051     1.299619    -1.051916
C      -1.522404     2.521514    -0.375411
O      -0.602600     3.229113     0.030633
O      -2.839174     2.885446    -0.200965
C      -3.031411     4.120784     0.476803
H      -2.566262     4.944518    -0.071133
H      -4.111263     4.269092     0.530684
H      -2.605557     4.089036     1.483981
72
     -1725.762279     -1725.230698   4.39   5.53
C       1.242470     0.927586     3.285812
C       2.354860     0.824064     2.430367
C       3.172727    -0.312240     2.527289
C       2.858569    -1.294804     3.436685
C       1.734752    -1.168511     4.286317
C       0.915515    -0.055848     4.231853
C       1.251819     2.711683     1.948600
C       2.347086     1.985937     1.581579
H       4.044316    -0.426323     1.889200
H       3.468510    -2.185565     3.538130
H       0.053914     0.058725     4.876142
H       0.849731     3.623639     1.530551
N       0.577137     2.084938     2.975454
C      -0.621034     2.580614     3.619481
H      -0.401787     2.972598     4.618440
H      -1.054057     3.361598     2.996127
H      -1.361753     1.780348     3.701644
O       1.543811    -2.220650     5.134001
C       0.480911    -2.136021     6.062744
H       0.598535    -1.270022     6.725652
H      -0.490930    -2.076573     5.556858
H       0.520947    -3.050612     6.655039
N       2.037911     0.522921    -0.879816
C       2.851917    -0.640403    -0.960882
O       4.044476    -0.509011    -1.037405
C       2.152320    -1.982745    -0.950805
H       2.254927    -2.368293     0.070295
H       2.745949    -2.638122    -1.590769
C       0.685041    -1.932543    -1.378700
H       0.613613    -1.698622    -2.443307
H       0.212409    -2.906182    -1.243699
C      -0.040608    -0.862102    -0.568142
C      -1.447632    -0.392163    -1.048069
H      -2.232586    -0.912147    -0.500221
C       3.284823     2.240163     0.437557
H       4.213964     1.686269     0.591753
H       3.552882     3.299407     0.374687
C       2.688146     1.846323    -0.921974
H       1.924259     2.559158    -1.230796
H       3.460839     1.801472    -1.689278
C      -0.110751    -1.184459     0.951456
H       0.892549    -1.159341     1.379161
H      -0.665880    -0.373129     1.431267
C      -0.762260    -2.525393     1.284188
H      -0.837226    -2.629840     2.370567
H      -1.771089    -2.612090     0.869904
H      -0.172658    -3.370743     0.917129
O      -1.683929    -0.747943    -2.421432
C      -1.209551     0.165295    -3.387710
H      -1.630931     1.160359    -3.191351
H      -0.113251     0.273947    -3.339805
C      -1.596060    -0.309714    -4.766702
C      -0.795991     0.012227    -5.860417
C      -2.768596    -1.032422    -4.975693
C      -1.160160    -0.376267    -7.144219
H       0.123786     0.571491    -5.708543
C      -3.132620    -1.423776    -6.258119
H      -3.391756    -1.290101    -4.127144
C      -2.331545    -1.095846    -7.346223
H      -0.526774    -0.117382    -7.987144
H      -4.047976    -1.988137    -6.408314
H      -2.618506    -1.401723    -8.347369
C       0.718343     0.424260    -0.699640
O      -0.010136     1.458351    -0.692830
C      -1.417001     1.049895    -0.711524
C      -2.233606     1.830180     0.116696
O      -1.938994     2.864943     0.712030
O      -3.497636     1.293532     0.192789
C      -4.416013     2.040579     0.979533
H      -4.082570     2.108938     2.019351
H      -4.535863     3.053563     0.586057
H      -5.364050     1.502798     0.925654
72
     -1725.762405     -1725.230683   4.31   5.54
C       0.674637     2.347237    -2.427578
C      -0.724520     2.286313    -2.295615
C      -1.486178     1.882103    -3.403410
C      -0.850074     1.563312    -4.579207
C       0.556929     1.651395    -4.694005
C       1.340194     2.046687    -3.625788
C       0.155318     2.898692    -0.329869
C      -1.040467     2.666615    -0.944434
H      -2.568385     1.814879    -3.338980
H      -1.407348     1.248787    -5.454643
H       2.417304     2.120415    -3.695142
H       0.372053     3.158090     0.697045
N       1.197971     2.708403    -1.212822
C       2.603466     2.828869    -0.884201
H       3.028159     3.759717    -1.274450
H       2.712612     2.792973     0.199681
H       3.157000     1.981366    -1.298026
O       1.047630     1.317750    -5.922920
C       2.444881     1.404254    -6.120028
H       2.807174     2.428597    -5.968460
H       2.986390     0.724529    -5.450257
H       2.625552     1.108208    -7.153833
N      -2.427642     0.266141    -0.005399
C      -3.360093    -0.302729    -0.915527
O      -4.313875     0.347262    -1.251545
C      -3.102539    -1.718250    -1.386342
H      -2.748307    -1.640071    -2.419042
H      -4.082471    -2.197474    -1.436321
C      -2.131771    -2.510075    -0.508843
H      -2.599232    -2.744127     0.448640
H      -1.877582    -3.461053    -0.982918
C      -0.863129    -1.689740    -0.261654
C       0.072321    -2.152465     0.888125
H       0.910093    -2.751610     0.515469
C      -2.415815     2.740182    -0.346345
H      -3.161565     2.767340    -1.144121
H      -2.541230     3.660449     0.233456
C      -2.740223     1.576739     0.594992
H      -2.161561     1.643375     1.515847
H      -3.801033     1.568291     0.846363
C      -0.074875    -1.489742    -1.588063
H       0.030829    -2.487850    -2.029964
H      -0.689309    -0.905088    -2.280443
C       1.296741    -0.827557    -1.484879
H       2.007424    -1.436799    -0.923028
H       1.697498    -0.682838    -2.492348
H       1.238621     0.152010    -1.009196
O      -0.710668    -2.970227     1.775643
C      -0.047264    -3.269793     2.995008
H      -0.430293    -4.247970     3.307561
H       1.032238    -3.368625     2.830553
C      -0.306085    -2.256743     4.089238
C      -1.578842    -1.718714     4.270855
C       0.711224    -1.891686     4.965798
C      -1.828193    -0.833285     5.310285
H      -2.375165    -1.993451     3.586261
C       0.463430    -1.007882     6.010163
H       1.712061    -2.288064     4.818257
C      -0.807960    -0.477022     6.187040
H      -2.824354    -0.420507     5.440288
H       1.267783    -0.731277     6.685297
H      -1.003536     0.214245     7.000903
C      -1.285340    -0.357645     0.288927
O      -0.498329     0.119126     1.157225
C       0.531942    -0.864126     1.452201
C       1.791506    -0.328311     1.713252
O       2.114404     0.855506     1.799158
O       2.717021    -1.339303     1.884445
C       4.031300    -0.896622     2.197072
H       4.632014    -1.799443     2.320990
H       4.442095    -0.279880     1.392648
H       4.037431    -0.311808     3.120965
72
     -1725.765055     -1725.230578   2.65   5.61
C      -0.342713     2.385783    -0.030487
C       1.056947     2.519110    -0.099352
C       1.682529     2.386464    -1.348772
C       0.915644     2.152457    -2.465442
C      -0.493408     2.061175    -2.376951
C      -1.142268     2.165455    -1.160666
C       0.413637     2.788405     2.026828
C       1.522987     2.788533     1.234055
H       2.760839     2.481767    -1.444793
H       1.364319     2.059419    -3.448540
H      -2.217193     2.076548    -1.074764
H       0.329073     2.888996     3.100156
N      -0.716262     2.535584     1.280230
C      -2.060921     2.434185     1.803907
H      -2.557094     1.550428     1.393655
H      -2.007278     2.306884     2.885334
H      -2.654072     3.323026     1.563350
O      -1.125932     1.879493    -3.568706
C      -2.539268     1.979697    -3.582120
H      -2.841302     1.861818    -4.622759
H      -3.005023     1.188879    -2.985944
H      -2.862660     2.962204    -3.216375
N       3.178846     0.395131     1.199736
C       4.047226     0.244145     0.085459
O       5.031424     0.931861     0.017995
C       3.684016    -0.785742    -0.966325
H       4.397273    -1.606390    -0.836959
H       3.931049    -0.324119    -1.924572
C       2.233224    -1.275012    -0.948731
H       1.585609    -0.508337    -1.372929
H       2.125657    -2.170242    -1.566444
C       1.781884    -1.569035     0.486534
C       0.253249    -1.728893     0.720867
H      -0.020545    -2.782509     0.861646
C       2.955979     2.841784     1.671488
H       3.092426     3.551133     2.493617
H       3.593935     3.178954     0.850069
C       3.451225     1.476464     2.166298
H       4.528068     1.485533     2.334249
H       2.948365     1.200461     3.093796
C       2.561772    -2.768164     1.090462
H       2.304809    -3.640686     0.478727
H       3.634409    -2.598456     0.951327
C       2.295194    -3.068755     2.565453
H       1.246680    -3.305691     2.754625
H       2.898724    -3.925128     2.879908
H       2.563192    -2.223566     3.207596
O      -0.406456    -1.271465    -0.469526
C      -1.811172    -1.383408    -0.414797
H      -2.097088    -2.320275     0.082777
H      -2.234013    -0.568348     0.188020
C      -2.400942    -1.367368    -1.806013
C      -3.789446    -1.393773    -1.948276
C      -1.607641    -1.361627    -2.947384
C      -4.373470    -1.425587    -3.206811
H      -4.418690    -1.396672    -1.061339
C      -2.191264    -1.396546    -4.210190
H      -0.530144    -1.322944    -2.845845
C      -3.572176    -1.432240    -4.345604
H      -5.454877    -1.450206    -3.300414
H      -1.557530    -1.387985    -5.091669
H      -4.025354    -1.462499    -5.331598
C       2.071214    -0.346650     1.302611
O       1.170328    -0.052956     2.132502
C       0.035607    -0.932596     1.954921
C      -0.941988    -0.823439     2.941726
O      -0.974074    -0.045588     3.893408
O      -1.950696    -1.746450     2.733836
C      -2.979401    -1.724346     3.715139
H      -3.478463    -0.751263     3.742615
H      -3.688978    -2.502127     3.426249
H      -2.577557    -1.934702     4.709916
72
     -1725.763172     -1725.230519   3.83   5.64
C      -1.629908    -1.671259    -0.586289
C      -1.075886    -2.391737     0.495470
C      -1.455917    -2.045284     1.793186
C      -2.363340    -1.020182     1.993309
C      -2.917010    -0.330770     0.894348
C      -2.553103    -0.645138    -0.404667
C      -0.249430    -3.213436    -1.414982
C      -0.195022    -3.383484    -0.064123
H      -1.056886    -2.580136     2.651001
H      -2.659570    -0.766424     3.003173
H      -2.988322    -0.088866    -1.225695
H       0.306089    -3.712436    -2.197363
N      -1.101002    -2.181419    -1.744531
C      -1.378277    -1.719002    -3.086360
H      -0.602125    -2.092552    -3.754755
H      -2.361639    -2.055576    -3.432117
H      -1.342350    -0.626980    -3.119856
O      -3.844019     0.658539     1.023284
C      -4.169693     1.113816     2.321297
H      -3.279637     1.473889     2.850548
H      -4.860721     1.945077     2.182089
H      -4.657189     0.329078     2.913120
N       2.053820    -2.229455     1.388636
C       1.885458    -2.051117     2.787782
O       1.900242    -3.017845     3.503018
C       1.700592    -0.639530     3.309005
H       2.642395    -0.382176     3.805015
H       0.956220    -0.716365     4.104174
C       1.292456     0.409359     2.270864
H       0.237772     0.291344     2.024296
H       1.419536     1.415570     2.678583
C       2.122370     0.253429     0.991900
C       1.594585     0.980505    -0.277213
H       2.176400     1.886551    -0.491061
C       0.748495    -4.255502     0.707602
H       0.898643    -5.216706     0.206312
H       0.345096    -4.472804     1.700292
C       2.130030    -3.603867     0.855943
H       2.761088    -4.171635     1.539570
H       2.625810    -3.535795    -0.113049
C       3.616459     0.593236     1.244959
H       3.645278     1.649541     1.536451
H       3.964932     0.023985     2.112947
C       4.571997     0.349760     0.076855
H       4.308591     0.942486    -0.800928
H       5.589763     0.618052     0.374813
H       4.584185    -0.701911    -0.226855
O       0.247113     1.389664     0.001692
C      -0.372207     2.059269    -1.078178
H       0.335777     2.765463    -1.535368
H      -0.652618     1.342625    -1.859381
C      -1.586403     2.813065    -0.593832
C      -2.667410     3.006843    -1.449123
C      -1.624700     3.376696     0.679113
C      -3.768176     3.753267    -1.045691
H      -2.648997     2.569056    -2.444122
C      -2.721152     4.127308     1.083820
H      -0.788041     3.224289     1.352000
C      -3.796761     4.318388     0.223401
H      -4.603743     3.894444    -1.724362
H      -2.735637     4.567310     2.076897
H      -4.652568     4.906631     0.539805
C       2.022239    -1.178574     0.562130
O       1.910209    -1.338013    -0.682308
C       1.774828    -0.051146    -1.329750
C       1.837869    -0.092787    -2.720979
O       1.943483    -1.080850    -3.445293
O       1.767321     1.182568    -3.250183
C       1.846034     1.236706    -4.668678
H       1.778344     2.293429    -4.934477
H       2.791727     0.820101    -5.025727
H       1.026212     0.679416    -5.131401
72
     -1725.763540     -1725.230498   3.60   5.66
C       2.720140    -1.787770    -0.364585
C       2.160894    -1.222732    -1.532258
C       1.605418    -2.075749    -2.487274
C       1.611308    -3.443413    -2.276014
C       2.188988    -3.982450    -1.107706
C       2.753257    -3.162684    -0.143558
C       2.900110     0.431442    -0.217128
C       2.306832     0.206437    -1.423293
H       1.167198    -1.677809    -3.398180
H       1.178024    -4.094122    -3.024373
H       3.192726    -3.607567     0.741566
H       3.141744     1.364606     0.272698
N       3.154490    -0.759366     0.432952
C       3.751889    -0.885493     1.745938
H       3.228326    -1.655257     2.318884
H       4.812783    -1.149191     1.681396
H       3.634936     0.059473     2.277347
O       2.234740    -5.321139    -0.840377
C       1.720887    -6.215632    -1.808357
H       2.252261    -6.121319    -2.763131
H       1.878651    -7.217219    -1.406675
H       0.647903    -6.057963    -1.972482
N      -0.508331     0.838944    -1.615540
C      -1.217973     0.117511    -2.613117
O      -0.936566     0.293752    -3.768721
C      -2.299533    -0.831333    -2.147092
H      -1.857983    -1.833387    -2.176388
H      -3.071406    -0.811700    -2.918743
C      -2.867435    -0.503186    -0.765245
H      -3.442611     0.420615    -0.808864
H      -3.551195    -1.289919    -0.437151
C      -1.729735    -0.343176     0.244532
C      -2.047793     0.385353     1.586075
H      -2.272686    -0.330664     2.379682
C       1.822088     1.217290    -2.421416
H       1.728270     0.746165    -3.402985
H       2.541708     2.034864    -2.530052
C       0.477600     1.848783    -2.042375
H       0.584026     2.548431    -1.215150
H       0.044267     2.379421    -2.889446
C      -1.051410    -1.721915     0.500643
H      -1.869028    -2.417670     0.723558
H      -0.594246    -2.067313    -0.432035
C      -0.004256    -1.800778     1.608427
H      -0.433885    -1.607209     2.593017
H       0.421954    -2.808137     1.618636
H       0.812753    -1.096745     1.448220
O      -3.242874     1.184593     1.408752
C      -3.151965     2.567514     1.709115
H      -4.188462     2.888947     1.855712
H      -2.605834     2.730729     2.643185
C      -2.525800     3.384745     0.597031
C      -1.467253     4.252117     0.846435
C      -3.016510     3.285619    -0.704994
C      -0.916513     5.014424    -0.178599
H      -1.059439     4.319313     1.849990
C      -2.465634     4.037198    -1.734613
H      -3.854628     2.625638    -0.907883
C      -1.414663     4.910607    -1.471852
H      -0.094617     5.691104     0.035815
H      -2.864005     3.948996    -2.740806
H      -0.988150     5.509147    -2.271120
C      -0.730870     0.623448    -0.319234
O      -0.137300     1.320380     0.554570
C      -0.787280     1.115200     1.847002
C       0.108520     1.065324     2.920736
O       1.317922     1.286041     2.910378
O      -0.549432     0.724903     4.081601
C       0.278874     0.647309     5.234973
H      -0.380686     0.375615     6.060882
H       1.058078    -0.110499     5.111074
H       0.758427     1.608510     5.437993
72
     -1725.761601     -1725.230101   4.82   5.91
C       2.109181    -2.575755    -0.012236
C       2.767096    -1.367819    -0.335467
C       3.566877    -1.334761    -1.478732
C       3.686774    -2.461922    -2.272464
C       3.013573    -3.651957    -1.928791
C       2.220411    -3.722737    -0.794528
C       1.586671    -1.065084     1.544143
C       2.405930    -0.404879     0.674226
H       4.096115    -0.429323    -1.759677
H       4.308718    -2.419042    -3.157107
H       1.720024    -4.652640    -0.550893
H       1.064696    -0.710787     2.422557
N       1.391569    -2.368700     1.137957
C       0.582813    -3.351363     1.828640
H       1.208733    -4.114260     2.304007
H      -0.017311    -2.841322     2.583163
H      -0.097657    -3.840748     1.125401
O       3.088582    -4.799254    -2.667405
C       3.902795    -4.797474    -3.823537
H       3.551887    -4.065614    -4.561420
H       4.950882    -4.589143    -3.576097
H       3.826439    -5.799306    -4.247913
N       0.655353     1.795198    -0.344029
C       0.900273     2.426435    -1.592505
O       1.921541     3.042795    -1.741220
C      -0.144914     2.296094    -2.681038
H       0.317365     1.665063    -3.443331
H      -0.221888     3.290023    -3.127951
C      -1.527672     1.776197    -2.265284
H      -2.122313     2.597309    -1.865511
H      -2.060977     1.398847    -3.142893
C      -1.452184     0.687825    -1.196128
C      -2.696630     0.512802    -0.263975
H      -3.389695    -0.228006    -0.669894
C       2.797450     1.047212     0.699219
H       3.386927     1.282990    -0.190835
H       3.434955     1.273410     1.561375
C       1.610038     2.012009     0.761764
H       1.049766     1.905019     1.689312
H       1.950814     3.043420     0.683789
C      -1.101260    -0.732914    -1.730158
H      -0.974033    -1.384076    -0.859279
H      -1.996598    -1.089556    -2.251278
C       0.108690    -0.867470    -2.649844
H      -0.074579    -0.435144    -3.637348
H       1.007628    -0.413824    -2.225922
H       0.338790    -1.926598    -2.794199
O      -3.417980     1.766899    -0.197964
C      -3.681275     2.293577     1.094285
H      -4.501741     3.002699     0.942935
H      -4.031073     1.512482     1.775684
C      -2.492999     3.018556     1.691920
C      -1.835423     4.001351     0.951957
C      -2.033438     2.723146     2.971178
C      -0.748358     4.683759     1.482298
H      -2.190495     4.241568    -0.046226
C      -0.947936     3.406838     3.509221
H      -2.512804     1.935793     3.544445
C      -0.304848     4.391590     2.768645
H      -0.251351     5.449173     0.893876
H      -0.603699     3.165768     4.510545
H       0.538553     4.929196     3.191521
C      -0.435084     1.054793    -0.157575
O      -0.715464     0.614608     0.995451
C      -2.045867     0.043662     0.970598
C      -2.369127    -0.763872     2.054171
O      -1.647707    -1.083682     3.001131
O      -3.671392    -1.203255     1.959739
C      -4.097030    -2.038374     3.029349
H      -4.026724    -1.516877     3.987968
H      -5.136569    -2.292697     2.815473
H      -3.491814    -2.947875     3.082711
72
     -1725.760611     -1725.229925   5.44   6.02
C      -1.909758    -0.539360     2.871792
C      -1.113406     0.449955     3.477701
C      -1.754173     1.500714     4.152765
C      -3.126238     1.544099     4.190493
C      -3.905482     0.541697     3.567753
C      -3.312547    -0.514423     2.900263
C       0.227979    -1.039952     2.475921
C       0.261025     0.106459     3.212562
H      -1.179326     2.285923     4.632517
H      -3.649311     2.345997     4.698842
H      -3.892145    -1.289794     2.417225
H       1.046987    -1.594254     2.037742
N      -1.075793    -1.449439     2.273893
C      -1.489750    -2.621332     1.536379
H      -1.968758    -2.347662     0.591058
H      -0.607988    -3.222314     1.313358
H      -2.179221    -3.226484     2.132573
O      -5.252098     0.713865     3.687091
C      -6.098206    -0.256833     3.101717
H      -5.929672    -1.249006     3.538299
H      -7.118827     0.061222     3.316145
H      -5.956671    -0.307711     2.015001
N       0.794528     2.233824     1.533150
C      -0.454987     2.928231     1.443118
O      -0.682318     3.825518     2.205016
C      -1.441090     2.462177     0.389951
H      -1.616809     3.322152    -0.262461
H      -2.374890     2.301123     0.936168
C      -1.042674     1.205640    -0.387430
H      -1.242472     0.322797     0.219671
H      -1.640244     1.113363    -1.297477
C       0.449443     1.238135    -0.738758
C       1.084384    -0.086885    -1.236106
H       1.268162    -0.054035    -2.314398
C       1.489279     0.904733     3.536177
H       2.369446     0.316368     3.268485
H       1.555325     1.107423     4.610033
C       1.548498     2.266835     2.797411
H       1.097998     3.065659     3.381681
H       2.581809     2.538319     2.574079
C       0.776492     2.404198    -1.708334
H       0.208619     2.207559    -2.625260
H       0.376224     3.334201    -1.290575
C       2.254229     2.604321    -2.044760
H       2.671387     1.751310    -2.583625
H       2.368019     3.486808    -2.681429
H       2.862186     2.762381    -1.148582
O       0.151002    -1.156373    -0.985832
C       0.571569    -2.376200    -1.573638
H       1.598699    -2.609745    -1.269986
H      -0.089281    -3.144757    -1.160175
C       0.464442    -2.374444    -3.084886
C       1.480320    -2.909199    -3.869424
C      -0.668423    -1.851166    -3.707184
C       1.365857    -2.932042    -5.255613
H       2.374259    -3.297296    -3.390642
C      -0.783519    -1.867325    -5.090599
H      -1.460906    -1.425628    -3.098493
C       0.233607    -2.411848    -5.869013
H       2.165977    -3.353331    -5.856480
H      -1.669906    -1.456213    -5.564070
H       0.143444    -2.426848    -6.950629
C       1.189292     1.434210     0.547920
O       2.242822     0.746079     0.668596
C       2.356894    -0.173261    -0.470152
C       3.678216    -0.281295    -0.942005
O       4.707119     0.123829    -0.418868
O       3.701215    -0.968600    -2.139690
C       4.998858    -1.146406    -2.695129
H       4.853168    -1.679720    -3.636538
H       5.484197    -0.184190    -2.879455
H       5.633919    -1.731748    -2.024849
72
     -1725.760191     -1725.228581   5.70   6.86
C      -2.547211    -3.004233     0.118177
C      -1.349020    -3.111434     0.856871
C      -1.234356    -2.383737     2.042910
C      -2.277930    -1.583424     2.464865
C      -3.464001    -1.500776     1.711217
C      -3.618932    -2.216777     0.532691
C      -1.175984    -4.382604    -0.981667
C      -0.486251    -4.012864     0.132567
H      -0.325602    -2.404001     2.633951
H      -2.140930    -0.990821     3.357848
H      -4.542454    -2.129952    -0.028099
H      -0.875521    -5.047479    -1.780674
N      -2.420097    -3.780645    -1.008733
C      -3.447542    -3.986377    -2.002922
H      -4.328449    -4.467302    -1.564871
H      -3.751372    -3.034843    -2.450406
H      -3.055734    -4.630591    -2.791583
O      -4.519416    -0.712062     2.066367
C      -4.372276     0.104544     3.214304
H      -4.247894    -0.499415     4.120740
H      -3.516661     0.782501     3.113017
H      -5.292764     0.684786     3.290192
N       1.771582    -2.337847    -0.472615
C       2.037328    -2.751475    -1.805983
O       2.351910    -3.895246    -2.005126
C       1.926280    -1.715485    -2.901580
H       0.951349    -1.867805    -3.376234
H       2.676563    -1.987389    -3.646379
C       2.105103    -0.277824    -2.417198
H       3.140793    -0.113108    -2.117647
H       1.886509     0.428126    -3.222186
C       1.188091    -0.006778    -1.222144
C       1.505575     1.250999    -0.373193
H       0.877655     2.102024    -0.652470
C       0.888221    -4.469728     0.515198
H       1.231900    -5.214605    -0.202636
H       0.867832    -4.951883     1.499447
C       1.924368    -3.336989     0.602074
H       1.839064    -2.794090     1.540697
H       2.934270    -3.744395     0.530156
C      -0.305893    -0.042152    -1.657903
H      -0.380094     0.607180    -2.538721
H      -0.546297    -1.056092    -1.996516
C      -1.342418     0.381086    -0.620750
H      -2.343277     0.266028    -1.047871
H      -1.299972    -0.234748     0.279046
H      -1.224224     1.424637    -0.323940
O       2.883076     1.591048    -0.618545
C       3.304935     2.734018     0.107166
H       3.069839     2.613581     1.171256
H       4.393968     2.757341    -0.002406
C       2.705541     4.023539    -0.414206
C       2.225170     4.989760     0.463181
C       2.644678     4.265794    -1.785997
C       1.700426     6.184755    -0.017553
H       2.249317     4.797520     1.531618
C       2.116846     5.455185    -2.269903
H       3.013178     3.511495    -2.475052
C       1.645321     6.420401    -1.385205
H       1.330449     6.931157     0.678855
H       2.074501     5.631481    -3.340470
H       1.234289     7.351574    -1.762532
C       1.430274    -1.074746    -0.194945
O       1.367837    -0.668862     1.002317
C       1.225300     0.786893     1.005266
C       0.419867     1.297294     2.024904
O      -0.061448     0.716701     2.993685
O       0.212852     2.650519     1.824735
C      -0.565998     3.287912     2.826018
H      -1.573747     2.864011     2.872431
H      -0.101497     3.185846     3.810603
H      -0.616789     4.340854     2.542490
72
     -1725.756767     -1725.228474   7.85   6.93
C      -0.290073    -3.973362     0.448429
C      -1.229971    -3.421696    -0.442753
C      -2.586041    -3.728186    -0.255133
C      -2.957267    -4.552817     0.779691
C      -1.994211    -5.101999     1.655567
C      -0.647515    -4.821253     1.506616
C       0.816536    -2.693620    -1.010354
C      -0.493428    -2.609536    -1.376881
H      -3.346149    -3.312954    -0.908787
H      -3.997371    -4.806041     0.951169
H       0.104239    -5.232744     2.167157
H       1.678019    -2.202321    -1.447407
N       0.953077    -3.513540     0.093480
C       2.203550    -3.846165     0.735848
H       2.438483    -4.909727     0.622971
H       2.997971    -3.260548     0.271138
H       2.172474    -3.602346     1.802763
O      -2.505811    -5.907836     2.630299
C      -1.600046    -6.503072     3.537831
H      -0.885504    -7.154948     3.019988
H      -1.051489    -5.745179     4.110995
H      -2.203020    -7.102277     4.220764
N      -1.728297    -0.018216    -0.878613
C      -2.796721     0.120882     0.059331
O      -3.846428    -0.421966    -0.152116
C      -2.569457     0.983235     1.283080
H      -2.646422     0.301158     2.131347
H      -3.451692     1.625407     1.343591
C      -1.286842     1.820338     1.320256
H      -1.440653     2.747470     0.767528
H      -1.053963     2.100213     2.351852
C      -0.095507     1.093028     0.697619
C       1.064529     1.980088     0.157184
H       1.851213     2.108477     0.909043
C      -1.006856    -1.808807    -2.534290
H      -1.531470    -2.455009    -3.247605
H      -0.151957    -1.385711    -3.063124
C      -1.996806    -0.686082    -2.170849
H      -1.988561     0.082940    -2.947895
H      -3.011269    -1.064867    -2.081176
C       0.556593     0.008984     1.605132
H       1.325564    -0.493508     1.010533
H       1.087550     0.556484     2.391864
C      -0.356053    -1.032098     2.249955
H      -1.006401    -1.535355     1.530578
H       0.256582    -1.808899     2.715335
H      -0.973375    -0.600225     3.041903
O       0.517705     3.258276    -0.184229
C       1.482234     4.130344    -0.754969
H       2.264479     4.364141    -0.018416
H       1.961616     3.628224    -1.605688
C       0.793084     5.393206    -1.200663
C      -0.282441     5.325321    -2.086339
C       1.221950     6.638109    -0.755094
C      -0.914912     6.482254    -2.516602
H      -0.623498     4.355101    -2.434343
C       0.592452     7.801831    -1.187395
H       2.055124     6.700847    -0.060150
C      -0.477077     7.725699    -2.068644
H      -1.752246     6.416351    -3.204578
H       0.938309     8.767509    -0.831829
H      -0.971192     8.631304    -2.406300
C      -0.516893     0.454955    -0.595995
O       0.389502     0.437611    -1.482356
C       1.547220     1.192263    -1.002193
C       2.779930     0.573114    -1.234863
O       3.018868    -0.443561    -1.885476
O       3.792564     1.287680    -0.629943
C       5.097351     0.758790    -0.831372
H       5.181445    -0.252043    -0.422263
H       5.346032     0.724427    -1.895443
H       5.778636     1.432454    -0.308710
72
     -1725.753509     -1725.228417   9.90   6.96
C       0.664127     4.677136    -2.021884
C       0.766526     3.335982    -1.618376
C       1.023756     3.054831    -0.266962
C       1.159907     4.097485     0.618902
C       1.049972     5.439398     0.191467
C       0.802244     5.754255    -1.132677
C       0.366550     3.388064    -3.821947
C       0.572349     2.522827    -2.791598
H       1.121509     2.033873     0.086991
H       1.353611     3.917579     1.670499
H       0.716572     6.775995    -1.477656
H       0.181807     3.182152    -4.867967
N       0.419265     4.695516    -3.373199
C       0.252588     5.878867    -4.184087
H      -0.599465     6.474567    -3.839978
H       1.152924     6.501933    -4.161291
H       0.067733     5.578229    -5.216559
O       1.208275     6.365994     1.181637
C       1.113463     7.730870     0.828763
H       1.884978     8.010731     0.100489
H       0.124028     7.971056     0.419793
H       1.267659     8.295046     1.749168
N      -0.601125    -0.971503    -1.926327
C      -1.023061    -1.895773    -2.922274
O      -1.403905    -1.477169    -3.982144
C      -0.972943    -3.370100    -2.576025
H      -0.131913    -3.786689    -3.141415
H      -1.874825    -3.808014    -3.008705
C      -0.853539    -3.675639    -1.083378
H      -1.787666    -3.435591    -0.572975
H      -0.669928    -4.738933    -0.922900
C       0.264617    -2.831997    -0.474321
C       0.342400    -2.730644     1.069117
H       1.083512    -3.416442     1.495136
C       0.562362     1.026538    -2.820918
H       1.426596     0.645541    -2.264002
H       0.643862     0.651067    -3.844943
C      -0.718165     0.475159    -2.185381
H      -0.919467     0.961446    -1.231402
H      -1.575738     0.618379    -2.840490
C       1.676862    -3.143313    -1.049242
H       1.722067    -2.837757    -2.100913
H       2.391372    -2.513132    -0.510632
C       2.088632    -4.610393    -0.928033
H       1.471509    -5.262827    -1.552757
H       3.126262    -4.734460    -1.250828
H       2.020103    -4.965945     0.103713
O      -0.955324    -3.059465     1.581777
C      -1.033009    -2.899830     2.989007
H      -0.220472    -3.465493     3.470944
H      -0.894930    -1.845081     3.254721
C      -2.370364    -3.402593     3.468977
C      -3.137145    -2.644933     4.347518
C      -2.845264    -4.648394     3.060193
C      -4.355706    -3.122887     4.819993
H      -2.779679    -1.668460     4.662997
C      -4.061653    -5.126644     3.525676
H      -2.254702    -5.240945     2.368427
C      -4.820205    -4.365254     4.410318
H      -4.942646    -2.520601     5.506709
H      -4.420778    -6.097722     3.198569
H      -5.771108    -4.740235     4.775718
C      -0.015860    -1.396077    -0.804208
O       0.331707    -0.573114     0.090264
C       0.764148    -1.329207     1.279569
C       1.879394    -0.858156     1.977104
O       2.472648    -1.476228     2.856495
O       2.263003     0.414166     1.608406
C       3.346682     0.943161     2.361421
H       3.525207     1.943908     1.963388
H       3.094979     0.999189     3.423977
H       4.242819     0.326698     2.250553
72
     -1725.760258     -1725.228357   5.66   7.00
C      -1.080755    -2.109006    -0.412965
C      -0.106413    -2.129337    -1.435368
C       1.212417    -2.435097    -1.095576
C       1.533726    -2.730415     0.217293
C       0.534298    -2.740098     1.212220
C      -0.779740    -2.422970     0.909523
C      -2.084266    -1.597398    -2.337760
C      -0.779995    -1.812112    -2.667629
H       1.990334    -2.461481    -1.854077
H       2.557092    -2.978904     0.467960
H      -1.520282    -2.427205     1.699859
H      -2.911361    -1.279838    -2.957593
N      -2.278436    -1.757623    -0.982486
C      -3.549115    -1.646023    -0.301339
H      -3.990743    -2.630436    -0.110871
H      -3.417597    -1.126634     0.651375
H      -4.222956    -1.045286    -0.912486
O       0.775980    -3.071461     2.510754
C       2.109069    -3.326255     2.905492
H       2.515376    -4.211924     2.401188
H       2.753921    -2.462107     2.708690
H       2.073760    -3.504290     3.980267
N       0.995732     0.462468    -3.094522
C       2.389803     0.212880    -3.018842
O       2.921932    -0.388338    -3.914780
C       3.149788     0.727777    -1.813780
H       3.792667     1.522392    -2.199766
H       3.824978    -0.083265    -1.531421
C       2.319398     1.183190    -0.607296
H       2.047122     0.309814    -0.015034
H       2.918080     1.835121     0.035780
C       1.028166     1.895108    -1.018062
C      -0.124306     1.925506     0.031540
H      -0.132938     2.875297     0.579517
C      -0.121949    -1.586787    -3.995218
H      -0.779582    -1.887434    -4.816764
H       0.786538    -2.189817    -4.077490
C       0.232438    -0.111641    -4.219416
H       0.844857     0.012494    -5.112444
H      -0.672562     0.488071    -4.321335
C       1.200264     3.362392    -1.514248
H       0.191832     3.736346    -1.722109
H       1.566393     3.930810    -0.651727
C       2.101558     3.636875    -2.716780
H       3.159899     3.492591    -2.488989
H       1.846052     3.021378    -3.584798
H       1.981003     4.680703    -3.019446
O       0.124725     0.877354     0.977918
C      -0.808089     0.832834     2.039817
H      -1.114653     1.852744     2.309652
H      -1.715674     0.302834     1.727926
C      -0.198097     0.165966     3.249028
C       1.164328     0.265456     3.517993
C      -1.016309    -0.503693     4.154638
C       1.695498    -0.287507     4.676538
H       1.807901     0.781297     2.813926
C      -0.487726    -1.061864     5.312083
H      -2.081362    -0.589364     3.953819
C       0.872056    -0.953005     5.577647
H       2.758995    -0.196342     4.878202
H      -1.139364    -1.581058     6.008166
H       1.287565    -1.382772     6.483879
C       0.365788     1.113629    -2.111880
O      -0.892862     1.125592    -2.057021
C      -1.320503     1.784377    -0.838175
C      -2.706192     1.840915    -0.677610
O      -3.574274     1.446933    -1.453071
O      -3.035108     2.451416     0.517389
C      -4.431130     2.604591     0.736569
H      -4.888673     3.205256    -0.053950
H      -4.936266     1.634448     0.769527
H      -4.532058     3.111934     1.697951
72
     -1725.762760     -1725.228321   4.09   7.02
C      -0.594051     1.175322     2.114817
C      -0.456047     2.272713     1.241783
C       0.827867     2.757960     0.984468
C       1.923295     2.151012     1.564939
C       1.753154     1.055099     2.432546
C       0.493614     0.567044     2.735098
C      -2.625794     1.723332     1.375266
C      -1.779750     2.610485     0.777981
H       0.987968     3.584892     0.300262
H       2.911522     2.509940     1.312301
H       0.387596    -0.282883     3.396804
H      -3.701519     1.641914     1.285434
N      -1.926882     0.848872     2.183871
C      -2.487965    -0.197733     3.008566
H      -3.539912    -0.329376     2.749768
H      -1.966408    -1.142409     2.832554
H      -2.419553     0.055905     4.071807
O       2.800992     0.392175     3.012171
C       4.111064     0.769740     2.630521
H       4.337729     1.796878     2.940169
H       4.785000     0.083103     3.144886
H       4.249968     0.679038     1.546482
N      -1.855349     1.950259    -2.013008
C      -3.190242     1.511931    -2.218584
O      -4.070162     2.330921    -2.257463
C      -3.433611     0.024315    -2.369771
H      -3.626833    -0.148917    -3.433288
H      -4.377624    -0.172820    -1.857697
C      -2.311243    -0.866850    -1.836588
H      -2.305858    -0.839453    -0.745838
H      -2.472365    -1.906356    -2.133516
C      -0.955072    -0.374507    -2.348368
C       0.308429    -0.930131    -1.637378
H       0.778855    -1.733246    -2.217976
C      -2.157788     3.661262    -0.222739
H      -1.754428     4.637627     0.067903
H      -3.244560     3.759796    -0.257769
C      -1.639909     3.360369    -1.639329
H      -2.157728     3.975297    -2.375566
H      -0.570079     3.544619    -1.719322
C      -0.839055    -0.538503    -3.889414
H      -0.961427    -1.608801    -4.093336
H      -1.690460    -0.035675    -4.359497
C       0.449531    -0.033120    -4.539043
H       0.619154     1.029743    -4.342242
H       1.328667    -0.578109    -4.190374
H       0.381900    -0.162672    -5.623344
O      -0.115785    -1.480428    -0.380289
C       0.957321    -2.012272     0.375102
H       1.544522    -2.702512    -0.249605
H       1.632075    -1.211876     0.696677
C       0.412109    -2.751590     1.572597
C       1.163685    -2.820557     2.743331
C      -0.821003    -3.397643     1.523139
C       0.690567    -3.518122     3.848257
H       2.117561    -2.303042     2.796128
C      -1.295997    -4.096989     2.626853
H      -1.411162    -3.346096     0.614778
C      -0.542149    -4.159001     3.793450
H       1.286279    -3.560011     4.755095
H      -2.258848    -4.596444     2.574265
H      -0.912257    -4.705651     4.655035
C      -0.840302     1.079358    -2.000743
O       0.321256     1.437819    -1.663665
C       1.172988     0.269063    -1.555441
C       2.541441     0.514357    -1.642185
O       3.125274     1.590151    -1.724894
O       3.238024    -0.684371    -1.622625
C       4.645607    -0.547469    -1.755541
H       5.064238     0.051785    -0.941431
H       5.052997    -1.559892    -1.723795
H       4.906930    -0.068571    -2.703443
72
     -1725.762760     -1725.228298   4.09   7.04
C       2.188113    -0.077452    -1.189019
C       2.559485    -0.599001     0.066199
C       2.819112     0.296501     1.105801
C       2.689885     1.654391     0.894299
C       2.315984     2.145149    -0.371434
C       2.081171     1.288789    -1.433365
C       2.160872    -2.302964    -1.335612
C       2.536835    -2.036664    -0.052126
H       3.084304    -0.056812     2.096974
H       2.845674     2.327542     1.726068
H       1.784892     1.688064    -2.394760
H       2.024957    -3.261243    -1.820493
N       1.944568    -1.132173    -2.035194
C       1.578693    -1.016214    -3.429112
H       1.305472    -2.002247    -3.808540
H       0.719411    -0.349892    -3.543478
H       2.411843    -0.631243    -4.026718
O       2.140490     3.477001    -0.633662
C       2.240488     4.380608     0.451692
H       1.529057     4.126044     1.246496
H       3.255584     4.397792     0.865886
H       2.001301     5.365356     0.047594
N       0.353906    -2.950425     1.570539
C      -0.142650    -4.076897     0.862849
O       0.481023    -5.104684     0.897436
C      -1.436090    -3.916421     0.090614
H      -2.207064    -4.432240     0.671940
H      -1.307932    -4.501163    -0.822566
C      -1.822093    -2.469993    -0.220867
H      -1.155676    -2.067417    -0.985292
H      -2.838722    -2.421128    -0.619338
C      -1.705308    -1.607308     1.038365
C      -1.713256    -0.067564     0.838824
H      -2.696547     0.364156     1.062751
C       2.786861    -3.047346     1.026987
H       3.752782    -2.867276     1.511799
H       2.827739    -4.047142     0.590233
C       1.715721    -3.030300     2.130520
H       1.768581    -3.939089     2.730210
H       1.834357    -2.170127     2.786956
C      -2.745928    -2.030750     2.112132
H      -3.731850    -1.904057     1.649527
H      -2.631705    -3.102201     2.306161
C      -2.700999    -1.282839     3.444983
H      -1.724537    -1.368435     3.931174
H      -2.920409    -0.219859     3.329253
H      -3.447092    -1.708228     4.122813
O      -1.421399     0.185524    -0.544587
C      -1.386463     1.566968    -0.853450
H      -2.302890     2.052798    -0.485182
H      -0.540037     2.049253    -0.353140
C      -1.283489     1.745991    -2.348513
C      -0.635789     2.864574    -2.867658
C      -1.852598     0.827210    -3.227336
C      -0.552614     3.060635    -4.240945
H      -0.172620     3.575567    -2.189087
C      -1.771639     1.021702    -4.601575
H      -2.356829    -0.046308    -2.828871
C      -1.120707     2.138702    -5.113097
H      -0.041374     3.935672    -4.630723
H      -2.220246     0.297635    -5.275210
H      -1.058061     2.291318    -6.185905
C      -0.325175    -1.798327     1.591995
O       0.181773    -0.752651     2.082808
C      -0.683540     0.377517     1.805155
C      -0.514769     1.480846     2.638533
O       0.313767     1.652999     3.526752
O      -1.459108     2.449919     2.335751
C      -1.404448     3.602010     3.164841
H      -0.433289     4.100065     3.087899
H      -2.195741     4.266720     2.812720
H      -1.574013     3.341062     4.213322
72
     -1725.760975     -1725.228236   5.21   7.08
C       1.587533    -1.680015     0.560412
C       1.999462    -0.623149     1.389314
C       3.024791     0.220823     0.935670
C       3.607114    -0.016745    -0.284564
C       3.195530    -1.103988    -1.086408
C       2.179379    -1.949717    -0.682926
C       0.346711    -1.735989     2.412473
C       1.193944    -0.681029     2.583850
H       3.351803     1.070604     1.526490
H       4.392169     0.625670    -0.666570
H       1.834934    -2.774079    -1.292969
H      -0.409446    -2.122432     3.083650
N       0.560220    -2.341668     1.189881
C      -0.028376    -3.592256     0.761232
H       0.599988    -4.446586     1.037076
H      -1.007566    -3.707520     1.228808
H      -0.173943    -3.587656    -0.319646
O       3.876523    -1.229542    -2.263934
C       3.634285    -2.382309    -3.043625
H       2.602805    -2.409070    -3.414481
H       4.317396    -2.326695    -3.892147
H       3.836522    -3.297767    -2.474087
N      -0.534165     1.666719     2.872928
C      -1.667274     1.338648     3.665954
O      -1.538289     1.260424     4.858685
C      -2.979498     1.087664     2.952381
H      -3.604900     1.966814     3.136342
H      -3.452517     0.263613     3.490654
C      -2.846486     0.777224     1.460820
H      -2.419528    -0.218242     1.328760
H      -3.828157     0.774064     0.980420
C      -1.929729     1.799008     0.783409
C      -1.395769     1.440362    -0.627269
H      -1.949927     1.953081    -1.423017
C       1.265321     0.219777     3.782721
H       2.295508     0.283290     4.151003
H       0.664501    -0.199039     4.593935
C       0.791369     1.654573     3.515949
H       0.705472     2.209945     4.449677
H       1.471812     2.184416     2.851596
C      -2.564198     3.217285     0.791970
H      -3.513833     3.128410     0.251458
H      -2.819741     3.480339     1.823865
C      -1.731271     4.347568     0.186808
H      -2.271439     5.292466     0.299953
H      -0.764418     4.457989     0.687366
H      -1.540098     4.196179    -0.877186
O      -1.561730     0.023204    -0.802653
C      -0.990359    -0.431907    -2.012560
H      -1.360072     0.172382    -2.854649
H       0.099471    -0.308724    -1.985101
C      -1.347615    -1.881964    -2.228183
C      -2.446443    -2.467439    -1.605451
C      -0.575925    -2.654236    -3.094218
C      -2.757700    -3.803382    -1.834674
H      -3.052424    -1.872673    -0.932230
C      -0.883280    -3.989134    -3.325793
H       0.274092    -2.196914    -3.593644
C      -1.976914    -4.569764    -2.692126
H      -3.617936    -4.246765    -1.341976
H      -0.272986    -4.576313    -4.005302
H      -2.222259    -5.611644    -2.871589
C      -0.640562     1.826297     1.550064
O       0.387573     1.983819     0.835258
C       0.006473     1.903883    -0.568910
C       0.742188     2.616760    -1.512237
O       0.418550     2.752088    -2.691968
O       1.902174     3.163934    -1.014867
C       2.714972     3.797181    -1.993980
H       2.185163     4.624631    -2.473370
H       3.590745     4.168968    -1.459215
H       3.020271     3.086249    -2.767302
72
     -1725.756026     -1725.227803   8.32   7.35
C      -2.246972    -2.838986     1.728722
C      -2.373160    -2.714887     0.325916
C      -3.648773    -2.545417    -0.212046
C      -4.751504    -2.505523     0.623367
C      -4.596984    -2.639229     2.017176
C      -3.343252    -2.806552     2.585813
C      -0.197405    -2.922820     0.842007
C      -1.039515    -2.780708    -0.218979
H      -3.790502    -2.429795    -1.281628
H      -5.733816    -2.370288     0.190194
H      -3.255504    -2.906456     3.661538
H       0.885112    -2.976656     0.846578
N      -0.912010    -2.957972     2.024607
C      -0.345354    -3.124512     3.342660
H      -0.658496    -2.312687     4.007105
H      -0.646470    -4.079009     3.787004
H       0.742148    -3.103185     3.258543
O      -5.641509    -2.613069     2.896769
C      -6.947961    -2.454671     2.378261
H      -7.057381    -1.499657     1.850093
H      -7.213345    -3.276053     1.701621
H      -7.617447    -2.467686     3.239179
N      -0.940436    -0.185589    -1.531869
C      -2.072657     0.684857    -1.532232
O      -3.075894     0.353510    -2.102673
C      -1.950478     2.020883    -0.830154
H      -2.673916     1.981654    -0.014223
H      -2.349551     2.750058    -1.539704
C      -0.554496     2.436295    -0.354453
H      -0.007071     2.888360    -1.181917
H      -0.638129     3.198721     0.425593
C       0.264080     1.252968     0.161190
C       1.813685     1.403330     0.128522
H       2.198812     1.768870     1.086992
C      -0.605468    -2.704022    -1.650446
H      -1.057846    -3.513493    -2.235059
H       0.474213    -2.853929    -1.688287
C      -0.971397    -1.397123    -2.379692
H      -0.285470    -1.232919    -3.214989
H      -1.982714    -1.432544    -2.775389
C      -0.108395     0.774996     1.595470
H       0.471467    -0.130616     1.797870
H       0.276076     1.542614     2.276309
C      -1.581870     0.523353     1.908711
H      -2.064153    -0.144090     1.190850
H      -1.666144     0.043494     2.887374
H      -2.152406     1.454220     1.962815
O       2.142581     2.337701    -0.905182
C       3.543737     2.500232    -1.069134
H       3.982609     2.941537    -0.162640
H       4.004478     1.514974    -1.219620
C       3.794434     3.392779    -2.256105
C       3.266398     3.059053    -3.503342
C       4.562229     4.545247    -2.135551
C       3.503602     3.864499    -4.607250
H       2.662997     2.161857    -3.601848
C       4.805866     5.354306    -3.241660
H       4.972796     4.816862    -1.166673
C       4.276758     5.015308    -4.479159
H       3.085546     3.595218    -5.572393
H       5.407875     6.251191    -3.133217
H       4.463518     5.645094    -5.343319
C       0.126975     0.096519    -0.788496
O       1.171871    -0.614210    -0.891135
C       2.257531     0.014525    -0.139141
C       3.012920    -0.869845     0.637931
O       2.959761    -2.098640     0.674628
O       3.917499    -0.171214     1.409818
C       4.760796    -0.981592     2.219041
H       4.176813    -1.571203     2.931479
H       5.352862    -1.665721     1.605282
H       5.417807    -0.292514     2.752580
72
     -1725.754078     -1725.227786   9.54   7.36
C      -3.320397     2.049590    -3.076832
C      -2.411493     1.362042    -2.256585
C      -1.076258     1.244883    -2.679444
C      -0.703520     1.798516    -3.881247
C      -1.636695     2.482413    -4.690990
C      -2.958512     2.622331    -4.305900
C      -4.420809     1.350525    -1.262784
C      -3.140128     0.920528    -1.094205
H      -0.326999     0.731581    -2.084682
H       0.319755     1.720824    -4.229089
H      -3.686231     3.144014    -4.912999
H      -5.280425     1.224388    -0.617824
N      -4.546737     2.036441    -2.457087
C      -5.754950     2.639736    -2.967280
H      -6.037291     2.201532    -3.930467
H      -6.565956     2.464481    -2.258574
H      -5.632909     3.720896    -3.092447
O      -1.124977     2.979190    -5.856145
C      -2.002414     3.674495    -6.716821
H      -1.406241     3.982259    -7.576666
H      -2.822714     3.030597    -7.058574
H      -2.419665     4.565090    -6.229958
N      -1.449133    -2.047139     0.542171
C      -2.060309    -2.802595     1.580967
O      -3.258344    -2.887444     1.616940
C      -1.145115    -3.474267     2.584826
H      -1.056113    -4.519706     2.267729
H      -1.694068    -3.485616     3.527981
C       0.227841    -2.817862     2.735475
H       0.125508    -1.841034     3.210091
H       0.870002    -3.418841     3.381256
C       0.863348    -2.629578     1.358408
C       2.066168    -1.654829     1.240575
H       3.030561    -2.168235     1.312934
C      -2.578940     0.109074     0.031820
H      -3.268889     0.084430     0.880527
H      -1.645116     0.563563     0.382565
C      -2.292236    -1.323908    -0.428338
H      -3.213064    -1.893551    -0.539792
H      -1.762274    -1.322393    -1.380635
C       1.189349    -3.965131     0.629719
H       0.255898    -4.486980     0.391283
H       1.654983    -3.706109    -0.325701
C       2.106381    -4.899945     1.418635
H       2.380981    -5.759767     0.801164
H       3.032599    -4.402895     1.719857
H       1.621601    -5.286069     2.319961
O       1.946704    -0.731731     2.338262
C       2.911577     0.307975     2.305018
H       3.916147    -0.121319     2.174587
H       2.728891     0.970748     1.451101
C       2.840984     1.081317     3.597234
C       2.788061     2.470806     3.588770
C       2.854975     0.412667     4.820932
C       2.756482     3.186630     4.781849
H       2.767655     3.000395     2.640123
C       2.819354     1.122696     6.012240
H       2.889764    -0.672247     4.833524
C       2.772378     2.513912     5.995928
H       2.716472     4.271368     4.760059
H       2.829056     0.590593     6.958632
H       2.746088     3.069407     6.928129
C      -0.122376    -1.904644     0.489945
O       0.406682    -1.106706    -0.334380
C       1.847892    -1.085965    -0.103781
C       2.594492    -0.411177    -1.069451
O       2.199399     0.112522    -2.106138
O       3.933349    -0.409432    -0.724528
C       4.781995     0.235062    -1.666108
H       4.507691     1.286591    -1.790001
H       5.793391     0.155174    -1.263345
H       4.726844    -0.254175    -2.642415
72
     -1725.760081     -1725.227622   5.77   7.46
C       0.769526     0.217371    -2.613783
C      -0.611752     0.476142    -2.685964
C      -1.028485     1.764486    -3.057894
C      -0.087500     2.729366    -3.328084
C       1.294496     2.445385    -3.238574
C       1.743695     1.186302    -2.890331
C      -0.311275    -1.664668    -2.097231
C      -1.292356    -0.747936    -2.350854
H      -2.083842     2.006815    -3.135363
H      -0.378744     3.734431    -3.612760
H       2.796876     0.951343    -2.813519
H      -0.375859    -2.698123    -1.786074
N       0.934844    -1.092271    -2.242469
C       2.197759    -1.784892    -2.091899
H       2.872762    -1.205099    -1.455037
H       2.012067    -2.744766    -1.608529
H       2.678770    -1.945949    -3.062606
O       2.112177     3.503197    -3.504876
C       3.501152     3.324006    -3.298517
H       3.710924     3.030961    -2.262940
H       3.913923     2.575731    -3.986712
H       3.964841     4.289977    -3.501380
N      -3.082800    -0.936423     0.142863
C      -3.894470     0.198163     0.416088
O      -4.828234     0.432494    -0.303908
C      -3.536640     1.061787     1.610355
H      -4.320039     0.881539     2.353126
H      -3.673723     2.093213     1.278038
C      -2.137544     0.844952     2.191837
H      -1.395181     1.327004     1.554552
H      -2.056201     1.314768     3.174859
C      -1.826371    -0.650198     2.300658
C      -0.328707    -1.042606     2.523367
H      -0.150838    -1.271857     3.576368
C      -2.782020    -0.959182    -2.338437
H      -3.097250    -1.545226    -3.209667
H      -3.291789     0.004213    -2.422050
C      -3.322413    -1.685184    -1.106986
H      -4.401571    -1.814190    -1.190325
H      -2.859946    -2.664573    -0.985265
C      -2.738833    -1.321831     3.365846
H      -2.494780    -0.839129     4.319071
H      -3.779667    -1.062676     3.146402
C      -2.628849    -2.839047     3.508851
H      -1.625792    -3.152230     3.800440
H      -3.331896    -3.183002     4.273075
H      -2.876083    -3.355233     2.575966
O       0.540277     0.075774     2.272367
C       0.974008     0.234675     0.927147
H       1.679859    -0.563104     0.669910
H       0.133059     0.167969     0.223652
C       1.632890     1.581834     0.795194
C       2.866326     1.821916     1.400190
C       1.022671     2.602298     0.076353
C       3.478281     3.061291     1.284623
H       3.341585     1.028004     1.969371
C       1.634142     3.845892    -0.046744
H       0.072741     2.418421    -0.415689
C       2.861599     4.077783     0.558262
H       4.437431     3.238744     1.761463
H       1.153915     4.627302    -0.627131
H       3.340203     5.047911     0.465762
C      -2.085801    -1.274608     0.966867
O      -1.260433    -2.173560     0.651310
C      -0.205066    -2.236219     1.649992
C       0.861077    -3.067295     1.289933
O       0.947184    -3.803678     0.307782
O       1.873446    -2.978299     2.214047
C       2.989198    -3.822417     1.958534
H       3.466535    -3.569214     1.006965
H       3.685227    -3.656078     2.782344
H       2.687271    -4.872696     1.927770
72
     -1725.758057     -1725.227430   7.04   7.58
C      -2.323860    -1.827491     1.335572
C      -0.957416    -2.106174     1.542168
C      -0.220217    -2.655726     0.490760
C      -0.836816    -2.914098    -0.716648
C      -2.203636    -2.623483    -0.898035
C      -2.964987    -2.077135     0.122922
C      -1.804413    -1.250284     3.433106
C      -0.645283    -1.727724     2.897053
H       0.837468    -2.866345     0.601395
H      -0.245239    -3.313280    -1.530262
H      -4.013374    -1.862381    -0.049100
H      -1.996380    -0.853467     4.421727
N      -2.824764    -1.297748     2.500655
C      -4.204680    -0.938247     2.732789
H      -4.291657    -0.482705     3.720466
H      -4.547085    -0.215163     1.986272
H      -4.855103    -1.818507     2.694376
O      -2.864371    -2.836673    -2.075091
C      -2.150088    -3.431914    -3.141969
H      -2.860458    -3.525553    -3.964342
H      -1.307273    -2.807108    -3.461474
H      -1.779963    -4.427282    -2.868349
N       0.790091     0.701284     3.070589
C      -0.169347     1.617605     3.595021
O      -0.418696     1.607879     4.770452
C      -0.835263     2.575516     2.627811
H      -0.394013     3.557622     2.825509
H      -1.873953     2.643393     2.957755
C      -0.746515     2.187278     1.152751
H      -1.413354     1.347930     0.952407
H      -1.070303     3.014799     0.516696
C       0.684866     1.775930     0.793567
C       0.870494     1.019772    -0.550652
H       1.259414     1.682316    -1.330821
C       0.720679    -1.776847     3.520478
H       1.407097    -2.241434     2.810530
H       0.728984    -2.404165     4.417064
C       1.276683    -0.394256     3.929320
H       0.969097    -0.123416     4.936328
H       2.367668    -0.396457     3.887026
C       1.657204     2.981860     0.897479
H       1.310006     3.712953     0.158183
H       1.533644     3.451301     1.878781
C       3.140151     2.686444     0.675412
H       3.716171     3.609548     0.790192
H       3.525089     1.964416     1.402607
H       3.333415     2.285802    -0.320737
O      -0.424316     0.554550    -0.950668
C      -0.480375     0.107008    -2.302139
H       0.254438    -0.684739    -2.472347
H      -1.484309    -0.310039    -2.412968
C      -0.261819     1.232625    -3.287725
C      -1.145413     2.310822    -3.328318
C       0.836850     1.223114    -4.141328
C      -0.940940     3.358114    -4.215662
H      -1.998372     2.325566    -2.654588
C       1.043306     2.271357    -5.033855
H       1.541819     0.399071    -4.083361
C       0.155189     3.337989    -5.074318
H      -1.636055     4.191914    -4.239952
H       1.904756     2.253931    -5.694445
H       0.316559     4.155931    -5.769711
C       1.096316     0.716426     1.770029
O       1.772238    -0.221126     1.265963
C       1.859976    -0.023698    -0.178893
C       2.518573    -0.995102    -0.925150
O       2.572223    -1.041070    -2.155726
O       3.153039    -1.943588    -0.148925
C       3.869086    -2.920857    -0.892774
H       4.322147    -3.584814    -0.154679
H       3.200635    -3.485833    -1.549112
H       4.644736    -2.456134    -1.507087
72
     -1725.755235     -1725.226964   8.81   7.88
C       3.678331     2.816086    -2.858656
C       2.899451     2.119403    -1.912153
C       1.513501     2.292632    -1.922352
C       0.939481     3.131639    -2.861306
C       1.739124     3.811023    -3.800192
C       3.118375     3.664630    -3.811703
C       5.056797     1.610061    -1.576297
C       3.809160     1.350619    -1.099244
H       0.863273     1.794005    -1.209883
H      -0.135353     3.253054    -2.848966
H       3.707351     4.203058    -4.545158
H       6.014005     1.231411    -1.242290
N       4.996542     2.493596    -2.639564
C       6.118215     3.002881    -3.391704
H       6.181359     4.093377    -3.312663
H       7.038977     2.573378    -2.993365
H       6.037640     2.730325    -4.449341
O       1.230705     4.651880    -4.751493
C      -0.170440     4.837827    -4.789915
H      -0.695305     3.895172    -4.987364
H      -0.544424     5.269216    -3.853416
H      -0.359762     5.533957    -5.608216
N       2.078286    -1.616324     0.477016
C       2.772726    -2.557149     1.283809
O       3.963870    -2.662293     1.163297
C       1.958040    -3.399269     2.245639
H       2.249098    -3.074807     3.249375
H       2.339405    -4.417606     2.140664
C       0.442183    -3.350534     2.041272
H       0.162397    -3.946296     1.172000
H      -0.071470    -3.782028     2.903875
C      -0.024027    -1.908253     1.820347
C      -1.450194    -1.707370     1.245412
H      -2.170068    -1.450189     2.029099
C       3.407332     0.423730     0.004054
H       2.650980     0.913970     0.628697
H       4.255434     0.180748     0.650136
C       2.815368    -0.872284    -0.561310
H       2.114039    -0.657729    -1.366678
H       3.596116    -1.529859    -0.940093
C       0.195602    -1.052192     3.098625
H      -0.383661    -1.536921     3.893123
H       1.247495    -1.131627     3.393208
C      -0.183206     0.426244     3.016428
H       0.331927     0.942261     2.200872
H      -1.255712     0.566885     2.871942
H       0.094662     0.922108     3.951530
O      -1.843857    -2.953635     0.644733
C      -3.143181    -2.904879     0.078109
H      -3.226472    -2.049406    -0.602487
H      -3.232904    -3.822303    -0.512356
C      -4.242525    -2.849877     1.118381
C      -5.321885    -1.985972     0.967637
C      -4.193155    -3.681878     2.236317
C      -6.343207    -1.957552     1.911463
H      -5.354480    -1.318959     0.111393
C      -5.208293    -3.653014     3.182899
H      -3.348385    -4.352973     2.361392
C      -6.289121    -2.791391     3.020843
H      -7.180621    -1.278897     1.780666
H      -5.158035    -4.305556     4.049306
H      -7.084326    -2.769426     3.759485
C       0.791442    -1.338873     0.700545
O       0.153988    -0.578205    -0.082403
C      -1.263868    -0.590780     0.287848
C      -1.887342     0.652510     0.164197
O      -1.449430     1.679653    -0.348023
O      -3.157802     0.605622     0.702172
C      -3.897408     1.814492     0.595990
H      -4.027497     2.104166    -0.450383
H      -4.867970     1.612307     1.052902
H      -3.397285     2.632388     1.122276
72
     -1725.752653     -1725.226815  10.43   7.97
C      -0.541875    -1.796003    -4.702598
C      -0.451991    -1.412818    -3.348769
C       0.764772    -0.919925    -2.871582
C       1.848183    -0.827303    -3.726116
C       1.732500    -1.220689    -5.072799
C       0.537100    -1.707839    -5.580580
C      -2.532176    -2.146955    -3.746353
C      -1.745175    -1.648971    -2.754423
H       0.892889    -0.605411    -1.841911
H       2.779720    -0.448114    -3.328115
H       0.478781    -2.002085    -6.622114
H      -3.569246    -2.454378    -3.712398
N      -1.822546    -2.240485    -4.930693
C      -2.328359    -2.721765    -6.193859
H      -1.768039    -3.599795    -6.532290
H      -3.375398    -3.005095    -6.073944
H      -2.265082    -1.945202    -6.963449
O       2.767880    -1.154510    -5.963394
C       4.009247    -0.664816    -5.494449
H       4.689031    -0.700606    -6.346838
H       3.924338     0.369889    -5.140684
H       4.407325    -1.289091    -4.685338
N      -1.345106    -2.015392     0.989657
C      -2.385333    -2.450733     1.856053
O      -3.212384    -3.216521     1.439829
C      -2.386945    -1.918021     3.274667
H      -2.022369    -2.736295     3.904118
H      -3.437584    -1.781677     3.538308
C      -1.586496    -0.631849     3.491906
H      -2.116717     0.215566     3.055977
H      -1.479846    -0.427235     4.560092
C      -0.205586    -0.739971     2.837487
C       0.577609     0.583020     2.620765
H       1.345441     0.727225     3.390453
C      -2.090935    -1.423623    -1.314954
H      -3.168635    -1.512116    -1.149104
H      -1.797509    -0.408909    -1.021817
C      -1.353022    -2.431085    -0.426032
H      -1.822358    -3.412287    -0.468379
H      -0.313843    -2.526311    -0.739594
C       0.672400    -1.799665     3.559206
H       0.755550    -1.468875     4.601055
H       0.124753    -2.747831     3.579260
C       2.067245    -2.047062     2.984607
H       2.548175    -2.856214     3.542594
H       2.034340    -2.344111     1.932303
H       2.705364    -1.164773     3.060241
O      -0.370539     1.656730     2.716296
C       0.206603     2.924298     2.448352
H       1.087445     3.073587     3.092132
H       0.551069     2.969972     1.408366
C      -0.819295     3.995055     2.717357
C      -1.071401     4.987818     1.777102
C      -1.514216     4.016793     3.926253
C      -1.996899     5.993859     2.038383
H      -0.541660     4.972863     0.828479
C      -2.440602     5.015460     4.188776
H      -1.326652     3.239847     4.660950
C      -2.682944     6.009724     3.244938
H      -2.182618     6.763396     1.295382
H      -2.976432     5.020545     5.133092
H      -3.406692     6.792043     3.450981
C      -0.409985    -1.161496     1.414651
O       0.372039    -0.612663     0.587418
C       1.178305     0.391761     1.280838
C       2.467869     0.543463     0.768455
O       2.945482     0.059217    -0.253906
O       3.211649     1.375692     1.584277
C       4.539837     1.610938     1.134343
H       5.106798     0.677589     1.075078
H       4.542043     2.080947     0.146992
H       4.992703     2.279277     1.869015
72
     -1725.758870     -1725.226800   6.53   7.98
C      -1.907292    -2.365301    -1.859096
C      -1.343636    -2.131816    -0.593614
C      -2.136866    -1.526087     0.396933
C      -3.431292    -1.177976     0.094429
C      -3.978735    -1.426873    -1.185054
C      -3.230136    -2.025542    -2.182653
C       0.210851    -3.074924    -1.906280
C       0.017186    -2.601472    -0.642320
H      -1.745877    -1.314471     1.388042
H      -4.068859    -0.705025     0.832952
H      -3.633138    -2.227256    -3.166260
H       1.094581    -3.505731    -2.357571
N      -0.944134    -2.935927    -2.653991
C      -1.120937    -3.361425    -4.023043
H      -0.169671    -3.738237    -4.401616
H      -1.865712    -4.160863    -4.095665
H      -1.436661    -2.525144    -4.654746
O      -5.275688    -1.031922    -1.336025
C      -5.896328    -1.264661    -2.584437
H      -5.383424    -0.728315    -3.392562
H      -5.928307    -2.335429    -2.821333
H      -6.915034    -0.886549    -2.493113
N       1.905522    -0.393744    -0.493102
C       2.545500    -0.092979    -1.727682
O       3.205493    -0.933411    -2.277612
C       2.385413     1.303785    -2.295606
H       1.873409     1.167180    -3.249698
H       3.399588     1.620263    -2.552873
C       1.699528     2.353084    -1.411040
H       2.431364     2.801694    -0.740135
H       1.303788     3.161965    -2.032278
C       0.581170     1.760456    -0.555224
C       0.220636     2.515311     0.766813
H      -0.590971     3.228347     0.603291
C       1.008008    -2.545422     0.484531
H       1.401552    -3.542418     0.708650
H       0.497706    -2.206589     1.386864
C       2.229142    -1.650009     0.216902
H       2.706730    -1.377820     1.159402
H       2.958660    -2.151001    -0.415010
C      -0.758617     1.525961    -1.310007
H      -1.445369     1.031373    -0.617522
H      -1.173918     2.522424    -1.497944
C      -0.706550     0.746694    -2.622233
H      -1.726731     0.514958    -2.939135
H      -0.239662     1.322794    -3.425703
H      -0.183013    -0.208531    -2.522391
O       1.371731     3.285856     1.195549
C       1.815296     3.094790     2.530139
H       2.404028     3.989441     2.758708
H       0.972692     3.060336     3.226613
C       2.687862     1.867598     2.697758
C       3.789503     1.680178     1.862571
C       2.423680     0.919925     3.681261
C       4.625865     0.583363     2.022733
H       4.003967     2.416015     1.092675
C       3.258761    -0.180342     3.846843
H       1.547130     1.031030     4.311817
C       4.366572    -0.347723     3.024544
H       5.484175     0.457442     1.369791
H       3.040318    -0.908603     4.622065
H       5.023695    -1.201575     3.160304
C       1.036443     0.461276     0.038217
O       0.542220     0.223428     1.179552
C      -0.194396     1.391916     1.621526
C      -1.022500     1.195166     2.722087
O      -1.235548     0.146310     3.328452
O      -1.624795     2.379918     3.091245
C      -2.516373     2.268921     4.193533
H      -3.330939     1.574398     3.969251
H      -1.995035     1.915870     5.087706
H      -2.913624     3.271642     4.360829
72
     -1725.755923     -1725.226356   8.38   8.26
C       2.860116    -1.694986     0.809079
C       3.556483    -0.707511     0.087602
C       4.679470    -0.113127     0.683891
C       5.058934    -0.497918     1.946533
C       4.343983    -1.493516     2.651469
C       3.237053    -2.108817     2.095915
C       1.816589    -1.404635    -1.141365
C       2.871098    -0.541228    -1.169465
H       5.242370     0.656165     0.165645
H       5.917969    -0.052730     2.435364
H       2.680780    -2.875475     2.618668
H       1.029667    -1.547485    -1.869561
N       1.799112    -2.110770     0.045433
C       0.858893    -3.151970     0.392173
H       0.043557    -3.140614    -0.330382
H       1.335966    -4.137930     0.386442
H       0.434037    -2.968048     1.383247
O       4.837911    -1.777509     3.889686
C       4.182760    -2.772908     4.651622
H       3.141866    -2.496335     4.860555
H       4.206897    -3.745072     4.143915
H       4.730435    -2.845142     5.591658
N       1.954723     2.024649    -0.699158
C       2.411624     2.332888     0.619658
O       3.464825     2.888567     0.762737
C       1.532814     1.910542     1.779705
H       1.255625     2.831133     2.301460
H       2.203016     1.370014     2.454083
C       0.315994     1.053708     1.421868
H       0.629207     0.022155     1.255783
H      -0.388839     1.051193     2.257075
C      -0.364375     1.572676     0.149568
C      -1.392149     0.620902    -0.548395
H      -2.418003     0.962062    -0.379297
C       3.152542     0.464185    -2.247020
H       2.503746     0.252552    -3.099350
H       4.184488     0.379547    -2.602782
C       2.931620     1.932140    -1.796980
H       3.843626     2.380027    -1.409810
H       2.571444     2.538860    -2.629746
C      -0.974432     2.981630     0.368320
H      -1.741347     2.869303     1.144227
H      -0.204273     3.637015     0.789777
C      -1.579084     3.652007    -0.865459
H      -0.850405     3.753053    -1.675594
H      -2.435291     3.098634    -1.256300
H      -1.923919     4.656727    -0.603411
O      -1.288591    -0.720697    -0.025132
C      -2.268405    -1.035349     0.945124
H      -1.924592    -1.959481     1.422927
H      -2.312539    -0.265134     1.729056
C      -3.656952    -1.248719     0.375606
C      -4.779324    -0.952044     1.145149
C      -3.828507    -1.779435    -0.900056
C      -6.057459    -1.190174     0.653106
H      -4.655259    -0.529392     2.139372
C      -5.105244    -2.013769    -1.394358
H      -2.958433    -1.987141    -1.511941
C      -6.222816    -1.723872    -0.619336
H      -6.923976    -0.956385     1.263774
H      -5.227798    -2.423867    -2.392385
H      -7.219453    -1.909888    -1.007279
C       0.696614     1.643971    -0.904935
O       0.328378     1.275355    -2.055660
C      -1.019905     0.713083    -1.978903
C      -1.810679     1.048287    -3.094670
O      -1.452012     1.548795    -4.152112
O      -3.125779     0.715106    -2.861190
C      -4.008238     0.967190    -3.947125
H      -3.704081     0.406782    -4.835261
H      -4.993554     0.637169    -3.613080
H      -4.030520     2.031003    -4.199774
72
     -1725.758421     -1725.226269   6.81   8.31
C       0.559270    -0.365518     2.408892
C       0.470123     1.021459     2.631965
C       1.641398     1.781002     2.591696
C       2.842346     1.172356     2.294599
C       2.895654    -0.210888     2.033723
C       1.763362    -1.001889     2.119896
C      -1.588343     0.142434     2.739045
C      -0.921712     1.329449     2.833027
H       1.618333     2.852500     2.766060
H       3.734780     1.777937     2.221000
H       1.827943    -2.063951     1.923827
H      -2.647501    -0.060713     2.832536
N      -0.708368    -0.890817     2.486778
C      -1.042618    -2.288966     2.333726
H      -0.688924    -2.666025     1.371413
H      -0.601499    -2.888579     3.136664
H      -2.127372    -2.401347     2.374048
O       4.044744    -0.855674     1.668820
C       5.168170    -0.051734     1.346255
H       5.922402    -0.733966     0.950629
H       4.908845     0.697704     0.590072
H       5.569229     0.447908     2.236544
N      -1.978393     2.753641     0.526210
C      -3.393360     2.623776     0.491116
O      -4.055954     3.271792     1.257781
C      -3.998351     1.658129    -0.508376
H      -4.438902     2.271773    -1.302056
H      -4.835451     1.184735     0.009062
C      -3.018955     0.631022    -1.071322
H      -2.745934    -0.093842    -0.301258
H      -3.476538     0.070932    -1.889298
C      -1.752941     1.344372    -1.535480
C      -0.516442     0.468238    -1.871190
H      -0.450164     0.279817    -2.945314
C      -1.505548     2.702463     2.964379
H      -0.984103     3.274322     3.739882
H      -2.556408     2.649174     3.257157
C      -1.388031     3.497674     1.654807
H      -1.913581     4.449879     1.727248
H      -0.346139     3.683120     1.397941
C      -1.989884     2.366758    -2.684516
H      -2.582131     3.209073    -2.309907
H      -1.010521     2.772071    -2.957286
C      -2.672905     1.776091    -3.918149
H      -2.136570     0.903747    -4.302411
H      -3.703897     1.473459    -3.711822
H      -2.704553     2.520004    -4.719196
O      -0.606694    -0.801606    -1.193895
C      -0.466445    -1.935620    -2.038896
H      -1.435970    -2.204993    -2.483451
H       0.231315    -1.704216    -2.852848
C       0.078006    -3.088025    -1.236879
C       1.365062    -3.000218    -0.707215
C      -0.671436    -4.237062    -1.012178
C       1.890972    -4.044065     0.039421
H       1.940971    -2.095060    -0.868907
C      -0.147408    -5.287160    -0.262846
H      -1.675285    -4.312190    -1.421858
C       1.133622    -5.191161     0.265023
H       2.892296    -3.959076     0.451477
H      -0.741258    -6.179819    -0.092592
H       1.544696    -6.009017     0.848723
C      -1.211516     2.128798    -0.375711
O       0.048792     2.170713    -0.331128
C       0.584784     1.336475    -1.401700
C       1.969330     1.133427    -1.405426
O       2.850484     1.718568    -0.791599
O       2.271286     0.116187    -2.302862
C       3.654347    -0.192123    -2.402238
H       3.739107    -0.956948    -3.176966
H       4.236583     0.690029    -2.681132
H       4.039760    -0.580740    -1.453536
72
     -1725.752555     -1725.226064  10.50   8.44
C      -3.396596     3.167201     1.291693
C      -2.785062     2.509819     2.377416
C      -2.746578     3.164999     3.617243
C      -3.302300     4.417008     3.741069
C      -3.912670     5.053500     2.637815
C      -3.970559     4.442636     1.398096
C      -2.655428     1.188178     0.569110
C      -2.321813     1.238355     1.890764
H      -2.282549     2.693580     4.478472
H      -3.288364     4.948830     4.685786
H      -4.434253     4.914371     0.541663
H      -2.455067     0.427579    -0.175768
N      -3.304270     2.348333     0.196636
C      -3.780730     2.637455    -1.137399
H      -3.457264     1.832573    -1.798576
H      -4.873489     2.702782    -1.163783
H      -3.359768     3.579044    -1.503713
O      -4.423513     6.292461     2.906621
C      -5.048381     6.989194     1.848772
H      -5.917329     6.439824     1.464940
H      -5.381038     7.941028     2.264472
H      -4.348173     7.180062     1.025670
N       0.720285    -0.804390     2.160161
C       1.402254    -1.527392     3.178283
O       1.293683    -1.174949     4.321245
C       2.258618    -2.703137     2.749861
H       1.771024    -3.594128     3.156737
H       3.195659    -2.599546     3.301846
C       2.512780    -2.821157     1.245132
H       3.249019    -2.081003     0.930020
H       2.924275    -3.804513     1.005289
C       1.216010    -2.589055     0.463414
C       1.347110    -2.316466    -1.058127
H       1.128256    -3.214527    -1.648210
C      -1.523513     0.201115     2.620798
H      -1.755197    -0.782818     2.200802
H      -1.798745     0.155278     3.678296
C      -0.001928     0.440894     2.491357
H       0.202991     1.146266     1.686772
H       0.437751     0.819541     3.411341
C       0.185088    -3.715468     0.751186
H       0.670158    -4.654256     0.459710
H       0.029087    -3.774087     1.833689
C      -1.174913    -3.606205     0.062595
H      -1.678647    -2.661640     0.286086
H      -1.093380    -3.689086    -1.022598
H      -1.821168    -4.417423     0.411408
O       2.703471    -1.924532    -1.302888
C       2.933712    -1.556415    -2.653326
H       2.596707    -2.365760    -3.319714
H       2.350761    -0.662411    -2.904233
C       4.406825    -1.304596    -2.846932
C       4.852198    -0.140108    -3.462445
C       5.343685    -2.249649    -2.429892
C       6.211169     0.078652    -3.667793
H       4.129552     0.606049    -3.781393
C       6.699456    -2.033410    -2.628911
H       5.001961    -3.157292    -1.942005
C       7.137309    -0.867857    -3.251695
H       6.544458     0.992001    -4.150933
H       7.419159    -2.776049    -2.298200
H       8.198057    -0.699322    -3.408822
C       0.652422    -1.276761     0.914796
O       0.116307    -0.588913    -0.000865
C       0.335876    -1.255937    -1.287639
C      -0.732657    -1.156190    -2.177043
O      -1.756390    -0.478329    -2.077453
O      -0.508699    -1.946629    -3.286357
C      -1.531768    -1.897213    -4.272561
H      -2.487553    -2.242620    -3.868399
H      -1.662307    -0.879900    -4.651478
H      -1.205080    -2.557473    -5.077913
72
     -1725.754563     -1725.226046   9.24   8.45
C       3.982203     2.277920     1.781165
C       3.115158     1.860951     2.810394
C       3.627670     1.756260     4.112023
C       4.947638     2.061904     4.348576
C       5.795767     2.480912     3.299794
C       5.330328     2.595936     2.002275
C       1.973661     1.902940     0.879397
C       1.829432     1.631696     2.208379
H       2.992925     1.436373     4.933023
H       5.372996     1.990847     5.343330
H       5.964902     2.915567     1.186082
H       1.263258     1.818397     0.065898
N       3.270083     2.293575     0.610330
C       3.774904     2.637447    -0.700101
H       4.642467     2.020874    -0.955422
H       2.987717     2.448032    -1.430908
H       4.061869     3.692960    -0.750992
O       7.080173     2.752274     3.680459
C       7.985571     3.176059     2.682671
H       8.110987     2.412374     1.904675
H       7.659839     4.115618     2.218629
H       8.940324     3.336385     3.184861
N      -0.791700    -0.937566     2.351580
C      -1.733498    -1.411727     3.306734
O      -1.481457    -1.315731     4.477094
C      -3.008812    -2.041862     2.781292
H      -3.819347    -1.366181     3.070582
H      -3.152917    -2.948664     3.373211
C      -3.022372    -2.351078     1.282248
H      -2.415872    -3.233664     1.076874
H      -4.038795    -2.576146     0.950224
C      -2.459233    -1.169721     0.486163
C      -2.063108    -1.434403    -0.989495
H      -2.835870    -1.090409    -1.684385
C       0.588944     1.088343     2.850166
H      -0.284286     1.485537     2.322937
H       0.497047     1.420179     3.888226
C       0.532940    -0.455446     2.792750
H       1.260072    -0.833980     2.075187
H       0.723219    -0.913293     3.760868
C      -3.386695     0.071188     0.609432
H      -4.365890    -0.243179     0.229959
H      -3.527140     0.295374     1.672243
C      -2.945485     1.345701    -0.109137
H      -2.931670     1.221175    -1.193240
H      -3.647337     2.152031     0.124771
H      -1.949037     1.673446     0.200271
O      -1.902674    -2.854785    -1.136319
C      -1.543213    -3.235195    -2.454916
H      -0.666981    -2.665874    -2.786584
H      -1.258701    -4.289617    -2.381126
C      -2.674684    -3.072692    -3.448346
C      -2.443606    -2.525175    -4.705661
C      -3.964106    -3.488301    -3.118188
C      -3.479607    -2.401992    -5.625590
H      -1.446467    -2.178649    -4.960319
C      -5.001734    -3.362410    -4.031897
H      -4.150236    -3.910327    -2.134899
C      -4.760880    -2.820740    -5.291024
H      -3.284844    -1.974045    -6.604297
H      -6.001560    -3.689258    -3.762627
H      -5.571189    -2.723719    -6.006839
C      -1.114690    -0.844548     1.060702
O      -0.245836    -0.499034     0.208812
C      -0.809797    -0.653320    -1.135178
C      -0.427038     0.340205    -2.034596
O       0.420096     1.223774    -1.892079
O      -1.136616     0.218872    -3.210502
C      -0.803286     1.164450    -4.217655
H      -1.000545     2.186633    -3.882495
H       0.251584     1.087421    -4.495036
H      -1.434953     0.923111    -5.074437
72
     -1725.757866     -1725.226043   7.16   8.45
C       2.969868     0.242057    -3.125683
C       2.358821     0.248540    -1.855407
C       1.382384     1.207091    -1.582496
C       1.018825     2.111036    -2.563410
C       1.633962     2.075445    -3.829502
C       2.620320     1.145371    -4.127520
C       3.865491    -1.408863    -1.910995
C       2.947079    -0.824701    -1.094245
H       0.891108     1.274309    -0.619607
H       0.259296     2.842221    -2.321037
H       3.077319     1.147187    -5.110318
H       4.518133    -2.251240    -1.722505
N       3.895183    -0.774598    -3.141355
C       4.744351    -1.115347    -4.257727
H       5.390238    -0.274003    -4.530043
H       5.376194    -1.960663    -3.979929
H       4.148806    -1.399737    -5.131709
O       1.315020     2.938584    -4.840348
C       0.315626     3.907362    -4.586194
H       0.606268     4.577830    -3.768620
H       0.211891     4.482659    -5.507157
H      -0.644213     3.437080    -4.340371
N       0.450314    -1.929857     1.514336
C       0.485673    -3.136023     2.268163
O       1.211293    -4.025310     1.914073
C      -0.416493    -3.229909     3.482421
H       0.238081    -3.144082     4.355708
H      -0.792615    -4.255006     3.489919
C      -1.562020    -2.215704     3.521664
H      -2.322989    -2.485017     2.790332
H      -2.044238    -2.225791     4.502570
C      -1.046611    -0.810612     3.204724
C      -2.100166     0.259801     2.783316
H      -2.425992     0.858097     3.638288
C       2.515642    -1.229870     0.281773
H       2.473038    -0.344664     0.927483
H       3.220570    -1.932943     0.734172
C       1.124570    -1.865276     0.204465
H       0.477064    -1.289961    -0.454451
H       1.180213    -2.883919    -0.174401
C      -0.151868    -0.290861     4.365651
H      -0.792709    -0.283623     5.255063
H       0.626640    -1.037078     4.556200
C       0.510914     1.076552     4.202638
H       1.145170     1.271530     5.072943
H       1.144664     1.123459     3.312304
H      -0.220771     1.881885     4.129187
O      -3.278676    -0.430855     2.290672
C      -3.735358    -0.094066     0.986987
H      -4.767910    -0.456629     0.957822
H      -3.757623     0.989701     0.843506
C      -2.942731    -0.756027    -0.123017
C      -2.345215    -0.009106    -1.134400
C      -2.804503    -2.144137    -0.143959
C      -1.634994    -0.634723    -2.154229
H      -2.408098     1.074289    -1.111821
C      -2.100821    -2.775056    -1.161591
H      -3.274614    -2.736546     0.636227
C      -1.518762    -2.019468    -2.175145
H      -1.157755    -0.034652    -2.922830
H      -2.010412    -3.857154    -1.167096
H      -0.967750    -2.508088    -2.973082
C      -0.251294    -0.879483     1.936025
O      -0.331323     0.164799     1.224975
C      -1.329390     1.049912     1.809794
C      -1.429978     2.312020     1.237049
O      -0.769619     2.789014     0.313733
O      -2.430224     3.037294     1.854699
C      -2.604605     4.355291     1.349955
H      -2.867695     4.339734     0.288323
H      -3.417146     4.794145     1.931692
H      -1.692853     4.946351     1.473352
72
     -1725.754563     -1725.226042   9.24   8.45
C       3.652293     0.621937    -3.239336
C       3.591356    -0.705015    -2.769832
C       4.225933    -1.706884    -3.519134
C       4.885946    -1.372379    -4.678514
C       4.935334    -0.033748    -5.126248
C       4.321774     0.983555    -4.417678
C       2.470270     0.615906    -1.344397
C       2.832163    -0.683291    -1.548696
H       4.200523    -2.742323    -3.192806
H       5.385886    -2.123839    -5.279248
H       4.349217     2.014708    -4.744771
H       1.860606     1.059415    -0.566450
N       2.959722     1.412639    -2.359939
C       2.747298     2.838697    -2.467414
H       3.688342     3.389396    -2.366333
H       2.289716     3.091066    -3.429146
H       2.069364     3.145030    -1.669813
O       5.626109     0.151659    -6.291012
C       5.716022     1.466312    -6.799490
H       6.297233     1.398654    -7.719853
H       4.724188     1.876225    -7.028520
H       6.230182     2.133801    -6.096425
N       0.131913    -2.649279    -0.020245
C      -0.029313    -3.958572     0.512638
O       0.657962    -4.850726     0.095342
C      -1.092786    -4.157356     1.575207
H      -0.555171    -4.397422     2.497467
H      -1.621246    -5.071006     1.293439
C      -2.065274    -2.990056     1.761243
H      -2.784751    -2.968362     0.942187
H      -2.635065    -3.114200     2.685334
C      -1.306783    -1.659443     1.786589
C      -2.141039    -0.364924     1.605105
H      -2.341823     0.125255     2.563106
C       2.399332    -1.843940    -0.705153
H       2.301053    -1.508979     0.332332
H       3.151344    -2.638046    -0.700704
C       1.039829    -2.420310    -1.162605
H       0.536705    -1.719976    -1.828420
H       1.145105    -3.375688    -1.671771
C      -0.389339    -1.570755     3.037848
H      -1.049715    -1.677431     3.906268
H       0.271813    -2.443903     3.046111
C       0.458678    -0.308903     3.192829
H      -0.154708     0.581841     3.338820
H       1.105495    -0.415418     4.069028
H       1.101391    -0.131164     2.325997
O      -3.390006    -0.746889     1.005895
C      -4.257201     0.354947     0.790069
H      -3.735494     1.142897     0.234318
H      -5.062391    -0.033889     0.158663
C      -4.831728     0.917726     2.073316
C      -4.904589     2.291472     2.277168
C      -5.312489     0.060703     3.062600
C      -5.457424     2.805572     3.445402
H      -4.511025     2.963547     1.520436
C      -5.860455     0.569996     4.232125
H      -5.251430    -1.012921     2.910243
C      -5.937043     1.946074     4.425316
H      -5.509398     3.880307     3.590957
H      -6.230942    -0.107819     4.995206
H      -6.367119     2.345277     5.338594
C      -0.465913    -1.601123     0.548400
O      -0.382074    -0.454781     0.020428
C      -1.268844     0.465447     0.738081
C      -0.759039     1.754246     0.885355
O       0.247779     2.247652     0.374071
O      -1.570221     2.496363     1.717367
C      -1.162809     3.843540     1.914225
H      -1.129428     4.386374     0.965635
H      -1.909808     4.287807     2.574483
H      -0.173992     3.894711     2.378703
72
     -1725.750239     -1725.225957  11.95   8.51
C       4.804724    -0.589698    -0.261870
C       3.399677    -0.477240    -0.290511
C       2.649789    -1.212532     0.630245
C       3.294326    -2.034026     1.536964
C       4.698573    -2.131053     1.541878
C       5.473393    -1.410074     0.645190
C       4.253522     0.834890    -1.894611
C       3.069400     0.444590    -1.349716
H       1.566756    -1.163453     0.660002
H       2.688310    -2.595125     2.235383
H       6.552708    -1.504998     0.673955
H       4.442121     1.517508    -2.712926
N       5.312521     0.221347    -1.248914
C       6.713245     0.395563    -1.549939
H       7.173593    -0.554979    -1.839713
H       6.814950     1.096146    -2.380477
H       7.252889     0.799833    -0.686968
O       5.390376    -2.926680     2.412545
C       4.644579    -3.683522     3.346241
H       3.966361    -4.384289     2.844415
H       5.374518    -4.243398     3.932484
H       4.062053    -3.036314     4.013126
N      -0.484929    -0.149897    -2.505883
C      -1.040736     0.496560    -3.642494
O      -0.316288     0.803384    -4.551060
C      -2.533058     0.749128    -3.658714
H      -2.940193     0.018690    -4.361773
H      -2.659552     1.722343    -4.137589
C      -3.252728     0.708162    -2.305399
H      -3.098632     1.653572    -1.784830
H      -4.330365     0.602359    -2.460688
C      -2.743497    -0.417226    -1.404108
C      -2.916408    -0.231943     0.133479
H      -3.854789    -0.669252     0.492436
C       1.682479     0.828058    -1.762772
H       1.695432     1.677614    -2.451624
H       1.109304     1.131825    -0.879009
C       0.973934    -0.356353    -2.429084
H       1.330367    -0.505715    -3.446674
H       1.141104    -1.270866    -1.860789
C      -3.296029    -1.833711    -1.744092
H      -2.885065    -2.518460    -0.995992
H      -4.375308    -1.789904    -1.560069
C      -3.040076    -2.396327    -3.141582
H      -3.632742    -1.894861    -3.910046
H      -1.984367    -2.343576    -3.427599
H      -3.324130    -3.452084    -3.159989
O      -2.922390     1.182531     0.386538
C      -2.959233     1.504285     1.768690
H      -3.893239     1.141377     2.220300
H      -2.126289     1.006498     2.282242
C      -2.852672     2.999589     1.919410
C      -3.781508     3.710458     2.670202
C      -1.799110     3.688145     1.318018
C      -3.662337     5.088528     2.825683
H      -4.609751     3.183752     3.136654
C      -1.679052     5.061833     1.467284
H      -1.074040     3.137664     0.726585
C      -2.610971     5.766448     2.224492
H      -4.394590     5.631156     3.415528
H      -0.855633     5.586738     0.992655
H      -2.516397     6.841315     2.342519
C      -1.247112    -0.474057    -1.459320
O      -0.708459    -0.852554    -0.377885
C      -1.736315    -0.952144     0.650981
C      -1.432830    -1.772182     1.734825
O      -0.393592    -2.385809     1.961682
O      -2.506652    -1.826768     2.604989
C      -2.295721    -2.643528     3.749598
H      -3.216723    -2.587823     4.332834
H      -2.095612    -3.679374     3.461706
H      -1.451883    -2.280091     4.342951
72
     -1725.758121     -1725.225786   7.00   8.61
C       1.230184    -2.017820     3.553612
C       0.792918    -1.216842     2.486379
C       1.447178    -1.329512     1.248355
C       2.487110    -2.217451     1.117247
C       2.906766    -3.015485     2.203821
C       2.290143    -2.930762     3.440145
C      -0.482996    -0.779971     4.277356
C      -0.312509    -0.429899     2.972478
H       1.150638    -0.740643     0.387434
H       3.002771    -2.320085     0.169687
H       2.597709    -3.534638     4.283336
H      -1.206887    -0.422097     4.997484
N       0.443453    -1.738119     4.645401
C       0.558647    -2.353344     5.946353
H      -0.196029    -1.926785     6.609124
H       0.395246    -3.434696     5.886860
H       1.545861    -2.168165     6.382638
O       3.947458    -3.855811     1.926855
C       4.418601    -4.685792     2.967859
H       4.794564    -4.095012     3.812754
H       3.635359    -5.367644     3.322653
H       5.237654    -5.269287     2.545712
N      -0.926242     2.592800     0.778010
C      -1.940161     3.541490     1.085801
O      -2.197682     3.770644     2.236906
C      -2.632242     4.219971    -0.078985
H      -2.131679     5.185201    -0.217475
H      -3.643684     4.443629     0.264143
C      -2.638800     3.404238    -1.373000
H      -3.270969     2.522957    -1.255735
H      -3.060557     3.990051    -2.191255
C      -1.218257     2.950300    -1.703089
C      -1.036089     1.794079    -2.725078
H      -0.888037     2.152346    -3.747908
C      -1.100092     0.560764     2.173812
H      -2.021508     0.839668     2.693257
H      -1.387296     0.101532     1.223693
C      -0.293009     1.826525     1.869060
H      -0.233793     2.482728     2.735571
H       0.716795     1.575126     1.545859
C      -0.252164     4.118698    -2.052562
H      -0.112230     4.751630    -1.169312
H       0.722747     3.675272    -2.275389
C      -0.712602     4.979943    -3.228608
H       0.064606     5.705164    -3.485429
H      -0.908166     4.379196    -4.121008
H      -1.620713     5.543108    -2.994855
O      -2.254990     1.017139    -2.679411
C      -2.149187    -0.267904    -3.275700
H      -3.163172    -0.521127    -3.604376
H      -1.506407    -0.231121    -4.162224
C      -1.642071    -1.328202    -2.321318
C      -2.090081    -1.364997    -1.001620
C      -0.742176    -2.296918    -2.751398
C      -1.627483    -2.336672    -0.124899
H      -2.803700    -0.619277    -0.664039
C      -0.272523    -3.268082    -1.874644
H      -0.379515    -2.270339    -3.774369
C      -0.710447    -3.288868    -0.557521
H      -1.970352    -2.347138     0.905689
H       0.448090    -4.003403    -2.219474
H      -0.326297    -4.030152     0.135789
C      -0.646373     2.278132    -0.488668
O       0.150839     1.334078    -0.755854
C       0.171676     1.138889    -2.195624
C       1.187037     0.312247    -2.674394
O       2.082827    -0.231985    -2.039116
O       1.085567     0.172732    -4.046253
C       2.107476    -0.625345    -4.629797
H       1.888737    -0.661538    -5.698681
H       3.093113    -0.182293    -4.463222
H       2.107405    -1.635058    -4.208842
72
     -1725.755957     -1725.225389   8.36   8.86
C       4.065110    -0.198809    -0.579418
C       2.695320    -0.197868    -0.270867
C       2.186548     0.838447     0.529840
C       3.038869     1.816818     0.982935
C       4.413578     1.794353     0.659674
C       4.952347     0.788998    -0.124064
C       3.130998    -1.966740    -1.575246
C       2.111844    -1.341755    -0.924308
H       1.135205     0.897984     0.790920
H       2.666608     2.628919     1.596422
H       6.002065     0.756876    -0.383700
H       3.113169    -2.859952    -2.185510
N       4.320261    -1.288236    -1.376946
C       5.609258    -1.659153    -1.910165
H       6.012321    -0.868749    -2.552274
H       6.325110    -1.860766    -1.106145
H       5.498732    -2.565354    -2.508051
O       5.138719     2.829729     1.177052
C       6.520991     2.872625     0.890812
H       6.908017     3.762737     1.388200
H       7.038799     1.987288     1.281014
H       6.704447     2.953575    -0.188090
N      -1.210155    -2.302183     0.618114
C      -1.900588    -3.483933     0.231107
O      -1.265850    -4.450152    -0.096007
C      -3.412926    -3.465693     0.276948
H      -3.681670    -4.015290     1.182314
H      -3.738805    -4.089092    -0.558041
C      -4.078300    -2.085545     0.223231
H      -4.073766    -1.722508    -0.804746
H      -5.125532    -2.165937     0.529039
C      -3.358993    -1.054702     1.092738
C      -3.494232     0.445065     0.682110
H      -4.354596     0.923161     1.159895
C       0.668133    -1.730697    -0.884748
H       0.449474    -2.496184    -1.634781
H       0.056430    -0.857757    -1.131266
C       0.260286    -2.247104     0.496146
H       0.636432    -3.252296     0.676861
H       0.626033    -1.585998     1.281844
C      -3.690388    -1.135101     2.611780
H      -3.152885    -0.313826     3.094558
H      -4.756938    -0.900318     2.702002
C      -3.389502    -2.439766     3.347677
H      -3.506084    -2.280272     4.423131
H      -4.073015    -3.245498     3.070322
H      -2.362569    -2.783547     3.183940
O      -3.682492     0.468450    -0.749543
C      -3.165785     1.606070    -1.438228
H      -3.903216     1.843194    -2.212635
H      -3.089818     2.466234    -0.769355
C      -1.831277     1.314705    -2.088967
C      -0.665921     1.966161    -1.695796
C      -1.761388     0.377184    -3.120267
C       0.544621     1.695513    -2.327014
H      -0.693798     2.681448    -0.879879
C      -0.556430     0.104793    -3.753211
H      -2.665728    -0.139142    -3.431296
C       0.602136     0.766115    -3.356592
H       1.447095     2.198132    -1.994819
H      -0.519439    -0.625746    -4.555970
H       1.550483     0.543678    -3.835373
C      -1.874983    -1.188837     0.923802
O      -1.247320    -0.098360     1.068749
C      -2.215852     0.982047     1.179941
C      -1.710815     2.211168     1.590043
O      -0.554560     2.500099     1.888688
O      -2.720659     3.155216     1.627614
C      -2.305223     4.446495     2.054927
H      -1.553591     4.863445     1.378349
H      -3.202425     5.067991     2.048341
H      -1.881931     4.408155     3.062234
72
     -1725.754312     -1725.225382   9.39   8.87
C      -1.415414    -4.255481     1.409278
C      -2.473306    -3.414092     1.026760
C      -3.690477    -3.517163     1.716859
C      -3.814184    -4.427066     2.738299
C      -2.734896    -5.262608     3.104525
C      -1.519834    -5.193281     2.448378
C      -0.710149    -2.988004    -0.287388
C      -1.998824    -2.605236    -0.067274
H      -4.532449    -2.883820     1.456239
H      -4.739971    -4.528605     3.293199
H      -0.682733    -5.824717     2.715200
H      -0.008501    -2.636489    -1.030841
N      -0.339094    -3.980103     0.601467
C       0.928426    -4.672512     0.622635
H       1.402858    -4.590368     1.605678
H       0.804155    -5.732770     0.377653
H       1.590687    -4.222399    -0.118280
O      -3.002002    -6.115626     4.135734
C      -1.967399    -6.978139     4.563567
H      -2.379670    -7.563579     5.386045
H      -1.653285    -7.656182     3.760119
H      -1.098227    -6.413069     4.922953
N      -1.815278     0.240060     0.664669
C      -1.569568     0.072408     2.061353
O      -2.367767    -0.513152     2.737720
C      -0.295146     0.674335     2.618802
H       0.401916    -0.159325     2.752468
H      -0.547117     1.021756     3.622655
C       0.312951     1.794214     1.773547
H      -0.308868     2.688227     1.834186
H       1.301800     2.064145     2.152715
C       0.413146     1.357895     0.309592
C       0.640804     2.468612    -0.748057
H       1.692858     2.542441    -1.040744
C      -2.754538    -1.537017    -0.799270
H      -3.719321    -1.920602    -1.150249
H      -2.198834    -1.227106    -1.689118
C      -3.049220    -0.306177     0.068336
H      -3.510688     0.483548    -0.527444
H      -3.701125    -0.550155     0.904037
C       1.435755     0.195564     0.152574
H       2.365920     0.541140     0.619063
H       1.085601    -0.654116     0.748585
C       1.730836    -0.289106    -1.266378
H       2.407542    -1.148766    -1.218316
H       0.829283    -0.596919    -1.802223
H       2.220045     0.479343    -1.867769
O       0.237412     3.712366    -0.149874
C       0.389031     4.816055    -1.028284
H      -0.112541     4.609083    -1.980991
H      -0.131119     5.645369    -0.538556
C       1.837797     5.183815    -1.271266
C       2.303705     5.434310    -2.557233
C       2.723202     5.287257    -0.198657
C       3.630404     5.793553    -2.771899
H       1.625642     5.331145    -3.398912
C       4.048720     5.641019    -0.409324
H       2.365101     5.084279     0.806536
C       4.505415     5.898503    -1.698734
H       3.980667     5.987398    -3.781173
H       4.728299     5.717887     0.433996
H       5.541459     6.177004    -1.864480
C      -0.939938     0.874318    -0.116146
O      -1.247004     1.155265    -1.309487
C      -0.212895     2.026687    -1.880091
C       0.123154     1.678209    -3.196609
O      -0.429815     0.866988    -3.930208
O       1.217739     2.405040    -3.616933
C       1.626828     2.145705    -4.953741
H       0.824446     2.376174    -5.659638
H       2.485574     2.794597    -5.135843
H       1.912016     1.098042    -5.083990
72
     -1725.750954     -1725.225253  11.50   8.95
C      -1.221002    -4.397140    -2.397165
C      -1.132732    -3.042753    -2.015805
C      -1.707359    -2.645156    -0.806326
C      -2.337899    -3.585525    -0.010843
C      -2.406803    -4.933505    -0.411476
C      -1.851560    -5.358363    -1.609442
C      -0.124813    -3.292679    -4.002833
C      -0.423104    -2.353162    -3.064739
H      -1.683950    -1.614320    -0.466189
H      -2.778081    -3.254389     0.920101
H      -1.923268    -6.402324    -1.891844
H       0.400696    -3.184663    -4.942721
N      -0.599219    -4.533517    -3.615676
C      -0.477557    -5.764650    -4.359144
H       0.075100    -6.516174    -3.785463
H      -1.463105    -6.169430    -4.612715
H       0.065044    -5.569456    -5.285661
O      -3.015578    -5.907279     0.331221
C      -3.595736    -5.532168     1.564971
H      -4.393071    -4.792041     1.425511
H      -4.019901    -6.443765     1.988197
H      -2.845225    -5.127237     2.254772
N       1.223177     0.800541    -1.785310
C       2.038331     1.622484    -2.607199
O       2.542343     1.145575    -3.588691
C       2.247701     3.064214    -2.194087
H       1.829787     3.660595    -3.007319
H       3.327995     3.223449    -2.242719
C       1.700654     3.479840    -0.822851
H       2.424215     3.221905    -0.049488
H       1.569976     4.565082    -0.786317
C       0.382623     2.784675    -0.480390
C       0.012619     2.668945     1.027791
H      -0.626762     3.498791     1.349773
C      -0.063670    -0.901086    -3.051339
H      -0.932476    -0.319987    -2.719074
H       0.204167    -0.546891    -4.050934
C       1.102885    -0.637125    -2.092461
H       0.952298    -1.160024    -1.148837
H       2.049497    -0.956420    -2.524863
C      -0.874005     3.352378    -1.205445
H      -1.735298     2.795989    -0.822700
H      -0.990985     4.381909    -0.849366
C      -0.901734     3.337279    -2.733888
H      -1.906552     3.600093    -3.076252
H      -0.216484     4.065132    -3.173609
H      -0.671023     2.351051    -3.149958
O       1.239410     2.697470     1.771267
C       1.048247     2.497574     3.163763
H       0.455916     3.320377     3.588738
H       0.488245     1.566534     3.322550
C       2.396084     2.425530     3.832560
C       3.348212     1.508822     3.386374
C       2.706061     3.250253     4.907670
C       4.585758     1.420725     4.006474
H       3.112566     0.865343     2.544291
C       3.945429     3.162241     5.535129
H       1.973242     3.972231     5.258071
C       4.887305     2.247380     5.085458
H       5.319277     0.704517     3.648948
H       4.173785     3.812060     6.374286
H       5.855351     2.177456     5.571544
C       0.488784     1.326569    -0.804439
O      -0.177094     0.574540    -0.033137
C      -0.706556     1.377495     1.066920
C      -1.931561     0.948810     1.576325
O      -2.563909    -0.064998     1.292594
O      -2.392798     1.841716     2.525694
C      -3.633567     1.482492     3.119788
H      -4.425827     1.416783     2.368775
H      -3.560012     0.518187     3.630366
H      -3.862500     2.271205     3.838797
72
     -1725.756020     -1725.225058   8.32   9.07
C       1.498074    -1.303918    -2.483029
C       2.539649    -0.479423    -2.023283
C       3.854356    -0.968972    -2.079479
C       4.086066    -2.227649    -2.575814
C       3.021418    -3.038040    -3.033499
C       1.713092    -2.592036    -2.996606
C       0.595950     0.611546    -1.775594
C       1.938668     0.751230    -1.578180
H       4.686938    -0.366939    -1.729801
H       5.088674    -2.636419    -2.629484
H       0.885636    -3.198021    -3.340939
H      -0.206691     1.301176    -1.550182
N       0.315217    -0.626809    -2.322355
C      -0.980157    -1.086860    -2.772168
H      -0.985372    -1.241247    -3.855852
H      -1.259482    -2.020783    -2.277324
H      -1.731444    -0.340614    -2.520950
O       3.401401    -4.262302    -3.498554
C       2.391980    -5.134018    -3.967803
H       1.857428    -4.703462    -4.823681
H       2.900443    -6.045286    -4.284107
H       1.673809    -5.377932    -3.175075
N       2.208745     0.735369     1.226559
C       2.432328    -0.684475     1.321603
O       3.548883    -1.114237     1.318975
C       1.157346    -1.489319     1.332528
H       1.428341    -2.539246     1.443130
H       0.711186    -1.351576     0.340911
C       0.164400    -1.036798     2.413446
H      -0.823405    -1.431722     2.175818
H       0.459399    -1.463316     3.375538
C       0.083530     0.494913     2.536799
C      -1.225738     1.196450     2.100167
H      -1.949389     1.255815     2.920792
C       2.626749     1.913183    -0.927612
H       1.931843     2.752357    -0.856271
H       3.477558     2.252118    -1.528285
C       3.157437     1.575353     0.480564
H       4.080747     0.999438     0.437611
H       3.338278     2.487084     1.053948
C       0.417750     0.970335     3.983797
H       0.212486     2.042979     4.048620
H      -0.305241     0.470568     4.638355
C       1.840812     0.685987     4.461975
H       2.119028    -0.367712     4.359670
H       2.579078     1.280400     3.915379
H       1.934230     0.947474     5.519523
O      -1.793539     0.409377     1.034920
C      -2.989223     0.982526     0.537709
H      -3.697777     1.137656     1.366124
H      -2.782062     1.966989     0.100918
C      -3.595296     0.062842    -0.491762
C      -3.610765    -1.316782    -0.292742
C      -4.168145     0.583797    -1.648262
C      -4.183002    -2.158633    -1.236921
H      -3.161492    -1.728684     0.604431
C      -4.744073    -0.256593    -2.595785
H      -4.155572     1.657593    -1.814155
C      -4.750080    -1.630817    -2.393326
H      -4.187876    -3.231669    -1.070693
H      -5.185729     0.164292    -3.493672
H      -5.198154    -2.289185    -3.130686
C       1.039897     1.209976     1.628177
O       0.654123     2.369957     1.290932
C      -0.747918     2.533632     1.683695
C      -1.092128     3.828680     2.094204
O      -0.420998     4.849933     2.036184
O      -2.384899     3.837686     2.587095
C      -2.838864     5.115446     3.016663
H      -2.827681     5.832484     2.191268
H      -3.860007     4.969129     3.373660
H      -2.210764     5.505723     3.822240
72
     -1725.751655     -1725.225040  11.06   9.08
C       1.737283    -4.030535    -3.846306
C       0.916951    -3.801415    -2.729267
C       0.502663    -4.899796    -1.959309
C       0.913755    -6.162419    -2.317942
C       1.740745    -6.368886    -3.444654
C       2.166212    -5.311419    -4.227894
C       1.363814    -1.833296    -3.700845
C       0.687367    -2.380829    -2.654746
H      -0.134339    -4.760892    -1.090740
H       0.614638    -7.034939    -1.748042
H       2.799008    -5.452152    -5.094038
H       1.448724    -0.796700    -3.999220
N       2.003675    -2.817974    -4.432595
C       2.809502    -2.610070    -5.612922
H       2.842917    -1.542466    -5.835787
H       3.834613    -2.962343    -5.456593
H       2.383862    -3.130454    -6.477493
O       2.067635    -7.674453    -3.676500
C       2.894521    -7.961140    -4.785835
H       3.033371    -9.042754    -4.790658
H       2.422468    -7.654136    -5.727591
H       3.872641    -7.472530    -4.693431
N      -0.206715    -1.187296     0.831576
C      -1.091844    -2.083847     1.487804
O      -1.054624    -3.253575     1.210518
C      -2.048286    -1.507148     2.511208
H      -1.641375    -1.772401     3.492364
H      -2.973469    -2.077334     2.405154
C      -2.301182    -0.003909     2.385087
H      -2.923310     0.197309     1.512340
H      -2.846297     0.364034     3.257896
C      -0.978285     0.754040     2.235672
C      -1.057639     2.212535     1.714597
H      -0.979752     2.938413     2.530281
C      -0.103795    -1.677787    -1.596915
H      -1.075421    -2.168547    -1.468626
H      -0.295861    -0.639156    -1.883334
C       0.640295    -1.701867    -0.259485
H       0.923351    -2.716923     0.012254
H       1.537687    -1.085245    -0.303498
C      -0.141253     0.666726     3.542142
H      -0.766720     1.097741     4.332699
H      -0.005936    -0.389576     3.797221
C       1.225056     1.351431     3.539056
H       1.139876     2.434683     3.437262
H       1.732076     1.145940     4.486803
H       1.869863     0.990258     2.732800
O      -2.339867     2.367299     1.079532
C      -2.536619     3.667694     0.548815
H      -1.694045     3.942215    -0.096629
H      -3.434297     3.590283    -0.072919
C      -2.737539     4.721489     1.618061
C      -2.094129     5.951521     1.534558
C      -3.587921     4.474803     2.695370
C      -2.302389     6.926693     2.504387
H      -1.411822     6.140982     0.711451
C      -3.794546     5.443793     3.667766
H      -4.086422     3.512605     2.768449
C      -3.153481     6.675442     3.572664
H      -1.794575     7.883211     2.426018
H      -4.458857     5.239300     4.501939
H      -3.315923     7.434557     4.331459
C      -0.214504     0.120299     1.112728
O       0.423454     0.930257     0.384058
C       0.101230     2.302123     0.792501
C       1.216118     3.153821     0.802685
O       2.341174     2.944581     0.368436
O       0.879467     4.360358     1.385930
C       1.929875     5.317374     1.419948
H       1.511687     6.205178     1.898222
H       2.783991     4.947558     1.994173
H       2.271468     5.559663     0.409925
72
     -1725.749567     -1725.224827  12.37   9.22
C       0.388622    -2.161702     4.852114
C       0.590962    -1.003984     4.082736
C       1.329606     0.053816     4.636294
C       1.834475    -0.075737     5.909050
C       1.620149    -1.250669     6.663888
C       0.895441    -2.311736     6.152413
C      -0.621925    -2.454637     2.882001
C      -0.068944    -1.212859     2.818975
H       1.503342     0.965416     4.072057
H       2.409773     0.719256     6.370093
H       0.721678    -3.218028     6.717103
H      -1.200812    -2.989204     2.140445
N      -0.355449    -3.041931     4.105998
C      -0.787587    -4.353056     4.530511
H      -1.429176    -4.288955     5.415744
H      -1.358454    -4.816391     3.724304
H       0.069668    -4.994880     4.759729
O       2.181257    -1.234968     7.908774
C       2.011485    -2.376488     8.724125
H       2.529069    -2.162098     9.659706
H       0.951102    -2.565111     8.933829
H       2.454920    -3.267877     8.262863
N       1.349900     0.898414     0.007500
C       1.646258     2.222475     0.432790
O       1.952865     2.414124     1.579497
C       1.552782     3.329841    -0.595544
H       2.582994     3.580641    -0.868004
H       1.163058     4.198078    -0.060229
C       0.701675     3.000972    -1.822621
H      -0.355150     2.993578    -1.552947
H       0.829847     3.767313    -2.590893
C       1.076794     1.626951    -2.386186
C       0.074763     0.977706    -3.374488
H       0.402885     1.078412    -4.416479
C      -0.082053    -0.253515     1.670729
H      -0.365578     0.745695     2.020563
H      -0.816802    -0.558875     0.919403
C       1.300393    -0.172380     1.018873
H       2.068377     0.052636     1.756404
H       1.551618    -1.110288     0.524412
C       2.516959     1.638489    -2.969174
H       2.521243     2.406134    -3.751598
H       3.204430     1.986512    -2.190896
C       3.042557     0.321561    -3.539862
H       3.023725    -0.484328    -2.799977
H       2.471513    -0.009010    -4.409236
H       4.082137     0.456290    -3.853983
O      -1.180154     1.655310    -3.220682
C      -2.198780     1.084328    -4.025792
H      -1.859870     1.035713    -5.072213
H      -2.400497     0.056211    -3.702574
C      -3.440376     1.932559    -3.920533
C      -3.368553     3.314046    -4.097023
C      -4.677817     1.349175    -3.671513
C      -4.513908     4.094054    -4.029454
H      -2.404085     3.776002    -4.283994
C      -5.829703     2.127518    -3.607106
H      -4.741418     0.274719    -3.522272
C      -5.750028     3.501683    -3.786522
H      -4.444153     5.168805    -4.167336
H      -6.789110     1.657618    -3.413313
H      -6.646378     4.111816    -3.735236
C       1.008108     0.640001    -1.259065
O       0.550935    -0.494318    -1.573177
C       0.070841    -0.445277    -2.966044
C       0.350664    -1.550376    -3.777497
O       0.228678    -1.562781    -5.000236
O       0.770785    -2.659186    -3.083394
C       0.982445    -3.808622    -3.893226
H       1.288112    -4.602382    -3.209667
H       0.064907    -4.093529    -4.415183
H       1.762970    -3.628691    -4.637752
72
     -1725.756382     -1725.224576   8.09   9.37
C      -0.535928    -3.198948     2.685462
C      -0.482369    -1.991709     1.960015
C       0.488851    -1.849723     0.968011
C       1.372940    -2.881196     0.718960
C       1.295905    -4.078011     1.455109
C       0.341668    -4.255030     2.447745
C      -2.157665    -1.858308     3.443300
C      -1.535934    -1.145696     2.464167
H       0.568821    -0.952878     0.368570
H       2.112578    -2.732874    -0.056322
H       0.307662    -5.189205     2.996362
H      -2.998564    -1.583257     4.066376
N      -1.566631    -3.100517     3.590751
C      -1.958509    -4.127699     4.525739
H      -2.264997    -5.039257     4.001774
H      -1.136316    -4.372479     5.206412
H      -2.802189    -3.768594     5.117612
O       2.135788    -5.137424     1.251338
C       3.135355    -5.000493     0.259504
H       2.695713    -4.835010    -0.731638
H       3.818424    -4.174438     0.490448
H       3.689565    -5.940137     0.257623
N      -0.816944     2.425337     1.468976
C      -1.720196     3.482530     1.768111
O      -2.326458     3.457136     2.805021
C      -1.859735     4.592096     0.746095
H      -1.256526     5.427288     1.116936
H      -2.899232     4.919734     0.805128
C      -1.477157     4.203518    -0.684424
H      -2.227691     3.529947    -1.099194
H      -1.453380     5.089737    -1.323795
C      -0.115469     3.503417    -0.704507
C       0.238706     2.667710    -1.967069
H       0.842361     3.236517    -2.682805
C      -1.850747     0.231732     1.969882
H      -2.818078     0.575858     2.346524
H      -1.918374     0.204160     0.878017
C      -0.767020     1.246068     2.356843
H      -0.895327     1.601812     3.377692
H       0.225882     0.808931     2.257991
C       1.021137     4.505400    -0.357014
H       0.967116     5.296732    -1.113816
H       0.779268     4.979213     0.600037
C       2.446931     3.958815    -0.288439
H       2.541695     3.142596     0.433542
H       2.791768     3.587446    -1.254651
H       3.122464     4.760318     0.025561
O      -1.011489     2.315531    -2.600768
C      -0.919077     1.213946    -3.495078
H      -1.719137     1.366512    -4.227810
H       0.036679     1.228181    -4.029511
C      -1.104655    -0.124591    -2.811846
C      -2.109443    -0.297567    -1.861168
C      -0.301327    -1.211129    -3.143425
C      -2.300025    -1.529353    -1.249240
H      -2.745254     0.544221    -1.602321
C      -0.482700    -2.442264    -2.525060
H       0.498018    -1.080919    -3.867042
C      -1.483677    -2.605884    -1.576722
H      -3.079641    -1.650326    -0.502543
H       0.171906    -3.272445    -2.772585
H      -1.609602    -3.559148    -1.073724
C      -0.146298     2.402996     0.315224
O       0.503687     1.371822    -0.023600
C       0.991787     1.547352    -1.378270
C       2.019390     0.695845    -1.767572
O       2.556396    -0.199048    -1.119644
O       2.414386     0.982483    -3.063251
C       3.476935     0.170945    -3.546904
H       3.203838    -0.888308    -3.529039
H       3.661232     0.495273    -4.572780
H       4.378909     0.304720    -2.943286
72
     -1725.756518     -1725.224526   8.01   9.41
C       2.904382     0.561976    -1.861765
C       2.888257     0.133469    -0.514741
C       3.579581     0.893972     0.429127
C       4.247766     2.041193     0.038218
C       4.242953     2.446852    -1.310822
C       3.573170     1.710862    -2.276219
C       1.693318    -1.310526    -1.748000
C       2.100953    -1.075441    -0.470806
H       3.598815     0.603652     1.474027
H       4.776290     2.620221     0.784052
H       3.592214     2.043658    -3.307527
H       1.046248    -2.096365    -2.117698
N       2.173389    -0.333749    -2.600818
C       1.994141    -0.295720    -4.033394
H       1.603295     0.676158    -4.349197
H       2.937259    -0.484008    -4.557702
H       1.275372    -1.064837    -4.319553
O       4.882234     3.565106    -1.763542
C       5.594322     4.352151    -0.828324
H       4.930473     4.752812    -0.052647
H       6.401581     3.780183    -0.354991
H       6.024073     5.178649    -1.395491
N       0.345753     0.009512     1.525694
C       0.635700     1.255905     2.160994
O       1.526033     1.322627     2.963939
C      -0.222218     2.442483     1.780840
H       0.331092     2.986115     1.006981
H      -0.243453     3.089762     2.659147
C      -1.628652     2.070482     1.313385
H      -2.203045     1.667079     2.145934
H      -2.161125     2.955671     0.957008
C      -1.547058     1.024241     0.201309
C      -2.838876     0.211947    -0.113811
H      -3.389051     0.647930    -0.950038
C       1.753656    -1.933025     0.708900
H       2.647099    -2.435517     1.097055
H       1.074369    -2.716280     0.367660
C       1.115857    -1.193070     1.903393
H       0.437042    -1.860833     2.435965
H       1.866485    -0.839887     2.604923
C      -0.933341     1.665846    -1.081269
H      -1.436308     2.632281    -1.202775
H       0.122897     1.886812    -0.887952
C      -1.030703     0.886473    -2.390529
H      -0.535495    -0.082350    -2.332281
H      -2.065931     0.720515    -2.694385
H      -0.544029     1.467373    -3.180434
O      -3.720778     0.284606     1.033952
C      -4.169138    -0.940702     1.587443
H      -5.066515    -0.677790     2.157494
H      -4.455973    -1.645084     0.800801
C      -3.160631    -1.588062     2.515346
C      -2.798758    -2.923142     2.368182
C      -2.591694    -0.851611     3.554625
C      -1.903612    -3.518323     3.251036
H      -3.212266    -3.498851     1.546203
C      -1.691744    -1.437341     4.435092
H      -2.876913     0.187583     3.687929
C      -1.350434    -2.778769     4.289616
H      -1.638530    -4.563928     3.125729
H      -1.262422    -0.849240     5.240269
H      -0.656375    -3.244451     4.982785
C      -0.666885    -0.097404     0.669025
O      -1.001874    -1.235342     0.226404
C      -2.293254    -1.120839    -0.451175
C      -2.376512    -1.879322    -1.625424
O      -1.561172    -2.685182    -2.067227
O      -3.557801    -1.617559    -2.283058
C      -3.737229    -2.341475    -3.494235
H      -4.708424    -2.035032    -3.886502
H      -2.948979    -2.106021    -4.215323
H      -3.728871    -3.419082    -3.310824
72
     -1725.750109     -1725.224434  12.03   9.46
C      -2.466467     3.983362    -1.105743
C      -1.258666     3.528261    -0.536449
C      -0.091346     4.258513    -0.765794
C      -0.143565     5.403136    -1.543844
C      -1.362399     5.835131    -2.102037
C      -2.538600     5.132610    -1.890377
C      -2.899952     2.117864     0.045192
C      -1.565145     2.326646     0.200991
H       0.856346     3.939323    -0.341786
H       0.766128     5.963065    -1.716618
H      -3.461125     5.489947    -2.332928
H      -3.521009     1.323097     0.437484
N      -3.460985     3.109539    -0.740014
C      -4.851735     3.218907    -1.112614
H      -4.970172     3.185382    -2.200775
H      -5.402974     2.382844    -0.679157
H      -5.286264     4.152054    -0.738833
O      -1.478848     6.954884    -2.877983
C      -0.314128     7.714017    -3.134513
H      -0.629689     8.546852    -3.764180
H       0.121860     8.107475    -2.208030
H       0.440987     7.124093    -3.668431
N       1.462786     0.095627     0.655179
C       2.683750     0.805028     0.798891
O       2.738167     1.956358     0.454876
C       3.867261     0.056425     1.377980
H       4.014277     0.456521     2.386252
H       4.733980     0.382221     0.798619
C       3.738588    -1.468525     1.378768
H       3.855492    -1.853539     0.365896
H       4.532950    -1.914741     1.982560
C       2.369528    -1.893868     1.915607
C       1.896013    -3.341597     1.602606
H       2.116560    -4.040702     2.415939
C      -0.575129     1.481031     0.937967
H      -1.088227     0.755144     1.576563
H       0.044672     2.110645     1.586637
C       0.337112     0.740548    -0.042899
H      -0.208030    -0.033495    -0.582370
H       0.768348     1.430084    -0.766016
C       2.258314    -1.576413     3.433404
H       3.066523    -2.137698     3.916568
H       2.491865    -0.516237     3.579016
C       0.933355    -1.886911     4.129037
H       0.092429    -1.364020     3.664302
H       0.704263    -2.953143     4.118986
H       0.992614    -1.561184     5.172241
O       2.622482    -3.778033     0.426227
C       1.884300    -4.608597    -0.458691
H       2.637183    -5.165751    -1.026557
H       1.270630    -5.326320     0.095135
C       1.017850    -3.808595    -1.410328
C      -0.255988    -4.246518    -1.759740
C       1.492366    -2.617066    -1.957127
C      -1.047040    -3.503102    -2.627325
H      -0.642944    -5.161109    -1.319956
C       0.705555    -1.871952    -2.825619
H       2.490386    -2.275247    -1.700091
C      -0.570643    -2.311787    -3.162085
H      -2.043197    -3.852526    -2.881261
H       1.091075    -0.947424    -3.246219
H      -1.188606    -1.731777    -3.840452
C       1.319318    -1.132105     1.161028
O       0.246960    -1.774765     0.978987
C       0.448979    -3.139163     1.441005
C      -0.640201    -3.997859     1.536784
O      -0.567668    -5.189858     1.835621
O      -1.844479    -3.391870     1.268979
C      -2.963931    -4.264596     1.337718
H      -3.835350    -3.650157     1.105921
H      -2.873265    -5.078389     0.612279
H      -3.063490    -4.699996     2.335593
72
     -1725.756942     -1725.224414   7.74   9.48
C       0.572770     2.588959    -2.462030
C       0.962590     1.279786    -2.806038
C       0.589880     0.782019    -4.062373
C      -0.141143     1.573151    -4.918718
C      -0.514354     2.884901    -4.552706
C      -0.162980     3.414860    -3.323198
C       1.660463     1.711858    -0.722252
C       1.668609     0.739195    -1.674264
H       0.869925    -0.222468    -4.366030
H      -0.443165     1.216379    -5.897030
H      -0.438192     4.418724    -3.027358
H       2.010076     1.683999     0.299015
N       1.005176     2.836131    -1.184928
C       0.774729     4.037540    -0.412871
H      -0.273697     4.341849    -0.488132
H       0.991373     3.819896     0.633311
H       1.407706     4.862895    -0.755792
O      -1.232427     3.557921    -5.499362
C      -1.625855     4.883474    -5.207767
H      -2.283444     4.922453    -4.330203
H      -0.756185     5.530686    -5.038537
H      -2.172900     5.238366    -6.081877
N       0.938406    -2.517154    -0.239272
C       1.012725    -3.934040    -0.395992
O       1.302309    -4.396098    -1.465094
C       0.700778    -4.788810     0.816294
H       1.660180    -5.172694     1.177247
H       0.157442    -5.653728     0.430671
C      -0.087015    -4.080963     1.919474
H      -1.114787    -3.915180     1.595869
H      -0.129594    -4.703597     2.816687
C       0.552716    -2.731194     2.244750
C      -0.317700    -1.697087     3.018180
H      -0.138579    -1.744435     4.095730
C       2.142053    -0.673118    -1.501607
H       2.728076    -0.748365    -0.581581
H       2.806458    -0.973424    -2.318094
C       0.940192    -1.642660    -1.432233
H       0.011570    -1.075986    -1.393644
H       0.902233    -2.313741    -2.286625
C       1.929423    -2.935177     2.938041
H       1.724332    -3.522028     3.841035
H       2.545957    -3.571213     2.294170
C       2.734580    -1.690850     3.311602
H       2.228092    -1.083138     4.062692
H       3.699248    -2.001707     3.724340
H       2.934043    -1.052358     2.446360
O      -1.710966    -2.028536     2.797779
C      -2.563929    -0.961633     2.400501
H      -3.572624    -1.308771     2.646106
H      -2.364687    -0.059504     2.986095
C      -2.485134    -0.651830     0.918686
C      -2.180008     0.626844     0.461438
C      -2.722887    -1.657976    -0.017455
C      -2.120159     0.898262    -0.900764
H      -1.959687     1.414027     1.175866
C      -2.679115    -1.388353    -1.379939
H      -2.963602    -2.659644     0.328354
C      -2.376162    -0.105303    -1.826783
H      -1.862169     1.894464    -1.244198
H      -2.877287    -2.181447    -2.095069
H      -2.320894     0.112330    -2.889207
C       0.728785    -1.976871     0.959398
O       0.604104    -0.721900     1.081841
C       0.152281    -0.431761     2.431492
C       0.320097     0.865757     2.891881
O       0.797598     1.840565     2.307331
O      -0.151216     0.970387     4.186753
C      -0.025502     2.263352     4.765003
H      -0.585882     3.007369     4.191665
H      -0.434956     2.181779     5.773435
H       1.021912     2.574561     4.809922
72
     -1725.750725     -1725.224295  11.64   9.55
C       5.109330    -0.146685    -2.970710
C       4.494912    -0.102912    -1.701623
C       5.235852     0.359521    -0.612898
C       6.546633     0.765587    -0.801483
C       7.135773     0.713683    -2.079642
C       6.426587     0.256853    -3.179735
C       3.014886    -0.895133    -3.185610
C       3.147293    -0.591381    -1.866773
H       4.796247     0.404344     0.379277
H       7.113749     1.122802     0.048055
H       6.907215     0.228124    -4.150706
H       2.158120    -1.288003    -3.717331
N       4.190561    -0.633823    -3.867692
C       4.423539    -0.840495    -5.277570
H       3.512415    -1.228961    -5.735523
H       4.686909     0.099687    -5.773512
H       5.229609    -1.563633    -5.441099
O       8.423161     1.100229    -2.330448
C       9.199165     1.580296    -1.250651
H       8.756096     2.479578    -0.805374
H       9.324954     0.815696    -0.474220
H      10.175036     1.830655    -1.668602
N       0.801083     0.648315     0.838837
C       1.430282     0.648490     2.112180
O       2.621445     0.801991     2.178469
C       0.553735     0.448860     3.331386
H       0.445339     1.435250     3.793877
H       1.147640    -0.146329     4.028071
C      -0.801432    -0.203883     3.053754
H      -0.666031    -1.262255     2.828524
H      -1.439911    -0.144539     3.938717
C      -1.490901     0.471412     1.863951
C      -2.668942    -0.293243     1.206266
H      -3.637792     0.092155     1.539579
C       2.116056    -0.685072    -0.787022
H       2.537160    -1.193484     0.088007
H       1.254291    -1.269939    -1.123013
C       1.646411     0.710052    -0.366929
H       2.492299     1.351040    -0.126582
H       1.063183     1.178534    -1.159294
C      -1.891595     1.931553     2.213895
H      -2.558229     1.863741     3.081636
H      -0.997187     2.464751     2.552846
C      -2.565087     2.749981     1.112881
H      -3.540127     2.343416     0.838893
H      -2.720242     3.772909     1.469322
H      -1.958780     2.803739     0.204155
O      -2.557338    -1.670991     1.607143
C      -3.581307    -2.486466     1.061354
H      -3.631200    -2.350941    -0.025401
H      -3.267060    -3.515137     1.264957
C      -4.939380    -2.228626     1.680470
C      -6.076343    -2.129548     0.885828
C      -5.067822    -2.103800     3.063399
C      -7.325583    -1.919649     1.460465
H      -5.979938    -2.201395    -0.193287
C      -6.312250    -1.889489     3.640194
H      -4.181299    -2.172890     3.687077
C      -7.446551    -1.799879     2.838780
H      -8.205170    -1.845631     0.828176
H      -6.398934    -1.793626     4.718279
H      -8.420374    -1.634275     3.288953
C      -0.520937     0.482310     0.721634
O      -1.036970     0.277420    -0.412236
C      -2.456200    -0.054147    -0.242495
C      -3.284157     0.546910    -1.202591
O      -2.963067     1.148017    -2.219295
O      -4.610124     0.358594    -0.862703
C      -5.543328     0.900317    -1.787934
H      -5.421277     1.982710    -1.885562
H      -5.421981     0.448430    -2.776170
H      -6.532119     0.668309    -1.387579
72
     -1725.750387     -1725.224170  11.86   9.63
C       1.761341    -3.742817    -2.163552
C       0.413668    -3.453178    -2.455226
C      -0.087665    -3.812868    -3.715015
C       0.738548    -4.433845    -4.622545
C       2.085342    -4.716149    -4.304568
C       2.618971    -4.377038    -3.074180
C       0.872268    -2.735855    -0.379593
C      -0.138329    -2.812066    -1.292511
H      -1.120265    -3.605777    -3.979896
H       0.380604    -4.724009    -5.603968
H       3.647982    -4.585745    -2.812307
H       0.892433    -2.289981     0.607224
N       2.024240    -3.294209    -0.895425
C       3.291421    -3.362742    -0.202480
H       3.569888    -4.399025     0.015829
H       4.084081    -2.900097    -0.798776
H       3.198526    -2.814291     0.735725
O       2.787150    -5.336816    -5.299771
C       4.142138    -5.649021    -5.051820
H       4.245949    -6.340297    -4.205911
H       4.514966    -6.130847    -5.956416
H       4.732278    -4.744983    -4.855189
N      -2.254925     0.115126    -0.622073
C      -3.604158     0.506581    -0.839596
O      -4.206245     0.040048    -1.768433
C      -4.213512     1.518403     0.108866
H      -5.056995     1.005436     0.574315
H      -4.657504     2.282293    -0.534615
C      -3.276464     2.160074     1.140462
H      -2.758848     3.004648     0.685476
H      -3.858540     2.557130     1.976894
C      -2.217498     1.186329     1.658352
C      -0.911709     1.800604     2.243323
H      -0.977720     1.923593     3.330304
C      -1.503849    -2.219648    -1.119815
H      -1.763704    -2.248790    -0.057095
H      -2.265757    -2.807648    -1.639567
C      -1.564496    -0.751211    -1.599690
H      -0.557942    -0.351512    -1.718157
H      -2.098695    -0.643426    -2.540812
C      -2.727593     0.146651     2.700105
H      -1.860449    -0.449589     3.000919
H      -3.024242     0.723025     3.583339
C      -3.869103    -0.787224     2.298146
H      -3.680281    -1.303495     1.351223
H      -3.986017    -1.559331     3.063668
H      -4.827316    -0.268974     2.221397
O      -0.728618     3.081256     1.627450
C       0.484225     3.712674     2.010180
H       0.474984     3.932354     3.087259
H       1.323852     3.032601     1.814965
C       0.638898     4.985419     1.219474
C       0.863725     6.200146     1.856661
C       0.576312     4.953365    -0.173694
C       1.029051     7.368539     1.118464
H       0.907275     6.236121     2.941947
C       0.736687     6.116115    -0.912695
H       0.396622     4.007809    -0.675973
C       0.965700     7.328389    -0.267430
H       1.204798     8.310256     1.629207
H       0.684045     6.078808    -1.996505
H       1.092513     8.238077    -0.845925
C      -1.622696     0.440064     0.504429
O      -0.402332     0.134838     0.656862
C       0.097439     0.784209     1.868003
C       1.069076     0.075657     2.569772
O       1.636504    -0.971192     2.253800
O       1.377822     0.726686     3.747527
C       2.375330     0.091236     4.536635
H       2.059369    -0.910798     4.840293
H       3.316736     0.006485     3.986751
H       2.510709     0.723448     5.415982
72
     -1725.756133     -1725.224113   8.25   9.66
C       1.339834    -2.017539     3.388600
C       0.828821    -1.203805     2.364647
C       1.426849    -1.265227     1.095104
C       2.487226    -2.114551     0.892506
C       2.981362    -2.926293     1.936771
C       2.420366    -2.893527     3.201743
C      -0.371309    -0.849937     4.224957
C      -0.273534    -0.461967     2.923270
H       1.070961    -0.665041     0.265244
H       2.962241    -2.175202    -0.079624
H       2.785304    -3.508747     4.013271
H      -1.069662    -0.531998     4.987780
N       0.598351    -1.789403     4.523134
C       0.793788    -2.432955     5.800594
H       0.059916    -2.045875     6.509367
H       0.658997    -3.516916     5.720561
H       1.795119    -2.229048     6.194270
O       4.033684    -3.725067     1.590034
C       4.578443    -4.565601     2.585687
H       5.395009    -5.111033     2.111080
H       4.974329    -3.984654     3.428291
H       3.834295    -5.281509     2.957151
N      -1.078190     2.595493     0.843108
C      -2.139293     3.466509     1.212777
O      -2.353650     3.666118     2.378154
C      -2.943049     4.100271     0.095729
H      -2.560464     5.120031    -0.016783
H      -3.959276     4.198907     0.481614
C      -2.920837     3.333785    -1.229337
H      -3.499429     2.414257    -1.135651
H      -3.389016     3.928269    -2.018126
C      -1.483452     2.979275    -1.620394
C      -1.286861     1.854220    -2.675378
H      -1.161211     2.253672    -3.687876
C      -1.125802     0.525822     2.190093
H      -2.032694     0.757177     2.756387
H      -1.438853     0.085394     1.239099
C      -0.375908     1.828205     1.890780
H      -0.309203     2.464591     2.771435
H       0.629692     1.622734     1.525191
C      -0.690052     4.258186    -2.009518
H      -1.231969     4.704580    -2.851509
H      -0.765476     4.972323    -1.182950
C       0.783217     4.089476    -2.380095
H       0.914415     3.489096    -3.281583
H       1.220572     5.075381    -2.564773
H       1.358401     3.615691    -1.579403
O      -2.483028     1.042543    -2.648787
C      -2.328004    -0.233843    -3.254288
H      -3.332353    -0.522916    -3.582854
H      -1.688751    -0.165760    -4.141532
C      -1.779087    -1.282393    -2.309639
C      -2.228719    -1.352670    -0.991784
C      -0.840956    -2.211032    -2.748471
C      -1.732466    -2.317595    -0.125885
H      -2.969905    -0.638013    -0.646278
C      -0.337334    -3.174204    -1.882110
H      -0.473407    -2.155390    -3.768889
C      -0.779276    -3.229240    -0.567036
H      -2.079128    -2.354585     0.902889
H       0.412143    -3.876729    -2.233738
H      -0.368835    -3.963795     0.118303
C      -0.831434     2.321193    -0.440160
O      -0.019385     1.401894    -0.749592
C      -0.063126     1.200399    -2.183293
C       1.018535     0.517211    -2.729758
O       1.994437     0.050964    -2.150929
O       0.876123     0.415337    -4.102625
C       1.941169    -0.265056    -4.753967
H       1.683793    -0.282920    -5.814702
H       2.889762     0.258380    -4.606361
H       2.047232    -1.285345    -4.373943
72
     -1725.754922     -1725.224088   9.01   9.68
C       0.533144     0.999336     3.496646
C       0.229772     1.963748     2.506808
C      -0.755118     2.910327     2.783974
C      -1.412342     2.892033     4.003784
C      -1.085473     1.923588     4.972273
C      -0.109151     0.968226     4.731073
C       1.788624     0.570639     1.701351
C       1.060444     1.670063     1.366632
H      -1.018533     3.666212     2.049867
H      -2.174601     3.633900     4.203056
H       0.120721     0.236462     5.497001
H       2.468848    -0.016017     1.101550
N       1.485732     0.156763     2.983936
C       2.046719    -1.004915     3.637920
H       2.753970    -0.719861     4.424079
H       1.251052    -1.609845     4.083350
H       2.556913    -1.609571     2.887532
O      -1.690331     1.847734     6.195974
C      -2.673545     2.812087     6.514745
H      -3.008494     2.579132     7.526317
H      -2.260225     3.828007     6.496264
H      -3.528924     2.756388     5.830135
N      -0.141411     1.408532    -2.064940
C      -0.685981     2.107840    -3.182078
O      -1.100543     3.224472    -3.032856
C      -0.718030     1.393181    -4.516777
H       0.039983     1.882941    -5.131718
H      -1.678370     1.660873    -4.962912
C      -0.538627    -0.127704    -4.476895
H      -1.472950    -0.596093    -4.165576
H      -0.311367    -0.503322    -5.478673
C       0.553200    -0.554137    -3.498958
C       0.452822    -1.995378    -2.901079
H       0.972389    -2.727506    -3.524465
C       0.995013     2.310691     0.012893
H       1.841937     1.966233    -0.586949
H       1.083265     3.399656     0.080191
C      -0.326515     1.938364    -0.696562
H      -0.837465     1.157151    -0.136555
H      -0.996978     2.788096    -0.796624
C       2.007123    -0.388702    -4.027491
H       2.668414    -0.807693    -3.263659
H       2.090381    -1.045236    -4.900775
C       2.487009     1.015659    -4.393136
H       3.568611     0.995848    -4.552569
H       2.037556     1.387986    -5.316279
H       2.294177     1.742766    -3.596669
O      -0.947167    -2.358225    -2.856177
C      -1.422084    -2.953463    -1.652600
H      -2.292969    -3.542318    -1.957839
H      -0.680485    -3.639508    -1.234660
C      -1.844934    -1.934101    -0.613387
C      -2.842914    -1.007065    -0.915742
C      -1.264201    -1.902717     0.650911
C      -3.262985    -0.079227     0.029005
H      -3.298855    -1.020195    -1.902227
C      -1.673777    -0.968675     1.596472
H      -0.466170    -2.597021     0.895026
C      -2.676993    -0.057700     1.291707
H      -4.045340     0.631442    -0.220820
H      -1.202035    -0.943090     2.572782
H      -2.983975     0.675283     2.031723
C       0.412287     0.209027    -2.215597
O       0.832071    -0.426310    -1.201241
C       1.120003    -1.794833    -1.603918
C       1.847618    -2.577737    -0.718299
O       2.330985    -2.266110     0.371995
O       1.985152    -3.856571    -1.221746
C       2.736084    -4.742541    -0.401389
H       2.759582    -5.695561    -0.932769
H       3.753983    -4.372051    -0.251627
H       2.264273    -4.869688     0.577262
72
     -1725.755978     -1725.223545   8.35  10.02
C      -1.260909     2.720797    -2.055278
C      -0.190190     1.932184    -2.538324
C      -0.266146     1.437076    -3.839028
C      -1.371739     1.718197    -4.625915
C      -2.420456     2.509911    -4.120012
C      -2.376578     3.021335    -2.831238
C       0.231088     2.492324    -0.410479
C       0.759489     1.809211    -1.461390
H       0.534723     0.827100    -4.246791
H      -1.414809     1.326625    -5.633865
H      -3.198647     3.629376    -2.471422
H       0.586078     2.578649     0.605901
N      -0.984605     3.051641    -0.753608
C      -1.835888     3.805850     0.139873
H      -2.865507     3.440380     0.079659
H      -1.479938     3.659074     1.160032
H      -1.826669     4.873673    -0.103426
O      -3.538446     2.828595    -4.839348
C      -3.630304     2.361821    -6.170530
H      -3.631400     1.265641    -6.213530
H      -4.578816     2.736545    -6.557360
H      -2.810500     2.747870    -6.788719
N       2.160944    -1.369498    -0.397598
C       3.041131    -2.449266    -0.708560
O       3.484139    -2.549674    -1.819449
C       3.359004    -3.433370     0.399641
H       4.380414    -3.211447     0.724578
H       3.403654    -4.411446    -0.083448
C       2.371187    -3.431842     1.567108
H       1.424330    -3.872817     1.254819
H       2.753071    -4.041341     2.390008
C       2.117078    -2.001928     2.044353
C       0.852375    -1.755806     2.919101
H       1.086972    -1.789659     3.986473
C       1.980477     0.939583    -1.436177
H       2.546899     1.137859    -0.522208
H       2.650087     1.167515    -2.271656
C       1.582295    -0.553203    -1.486847
H       0.501782    -0.649162    -1.395888
H       1.897108    -1.032672    -2.410319
C       3.389785    -1.421153     2.722951
H       3.619837    -2.098221     3.553925
H       4.223474    -1.508529     2.018278
C       3.333766     0.016659     3.238438
H       4.319731     0.295797     3.622525
H       3.070739     0.728316     2.450750
H       2.612084     0.135791     4.047739
O      -0.093065    -2.820755     2.651333
C      -1.430557    -2.427506     2.368277
H      -2.028899    -3.322837     2.564944
H      -1.762854    -1.641466     3.052523
C      -1.634917    -1.991195     0.931001
C      -1.290173    -2.848841    -0.113402
C      -2.166234    -0.742445     0.621855
C      -1.492179    -2.476796    -1.436920
H      -0.876329    -3.826964     0.116531
C      -2.356604    -0.359382    -0.700988
H      -2.409264    -0.049730     1.421677
C      -2.027082    -1.226767    -1.734998
H      -1.227772    -3.161165    -2.237815
H      -2.754027     0.623921    -0.929382
H      -2.171665    -0.918164    -2.765996
C       1.743872    -1.171713     0.851267
O       0.915258    -0.248595     1.109613
C       0.457812    -0.407965     2.479033
C      -0.137891     0.690540     3.080545
O      -0.354299     1.809615     2.610530
O      -0.506478     0.376615     4.374904
C      -1.127483     1.435927     5.091937
H      -1.355009     1.035197     6.081327
H      -0.458528     2.296468     5.180975
H      -2.047829     1.759645     4.597494
72
     -1725.749347     -1725.223312  12.51  10.17
C      -2.097379     3.276677     2.582542
C      -1.797937     3.604469     1.238816
C      -2.629134     4.507607     0.576315
C      -3.715050     5.061036     1.234475
C      -3.986875     4.718206     2.573054
C      -3.182837     3.823462     3.262203
C      -0.276908     2.130333     1.980064
C      -0.620069     2.858358     0.879798
H      -2.434238     4.784090    -0.455721
H      -4.350332     5.760135     0.706620
H      -3.416856     3.579045     4.292064
H       0.519275     1.409125     2.119601
N      -1.159956     2.373459     3.012896
C      -1.103183     1.753427     4.317577
H      -2.053309     1.264462     4.554095
H      -0.316692     0.997771     4.304633
H      -0.879797     2.489028     5.097364
O      -5.040387     5.227869     3.282213
C      -5.897739     6.144931     2.633849
H      -6.656555     6.420356     3.367503
H      -5.358047     7.046284     2.317809
H      -6.386598     5.691939     1.762402
N       0.467189     0.840304    -1.992398
C       0.813895     1.053795    -3.354344
O       0.331731     1.983864    -3.942101
C       1.767759     0.075026    -4.007719
H       2.631165     0.671232    -4.308246
H       1.280109    -0.220302    -4.940301
C       2.165459    -1.161898    -3.191662
H       1.405387    -1.934433    -3.308893
H       3.101934    -1.576513    -3.575335
C       2.301327    -0.862207    -1.698478
C       2.145150    -2.059596    -0.715398
H       3.115772    -2.502271    -0.464502
C       0.051923     2.771476    -0.456378
H       1.108650     2.534358    -0.298849
H       0.026668     3.730104    -0.982643
C      -0.569890     1.672641    -1.348688
H      -1.183349     1.001891    -0.748057
H      -1.179266     2.083540    -2.150256
C       3.605888    -0.115769    -1.289351
H       3.577381    -0.004869    -0.200852
H       4.429861    -0.804721    -1.505536
C       3.899687     1.241259    -1.928807
H       4.178274     1.157057    -2.981402
H       3.058262     1.937439    -1.850154
H       4.745155     1.704420    -1.412549
O       1.325448    -3.040227    -1.362977
C       1.029678    -4.152524    -0.531463
H       1.951713    -4.697007    -0.282756
H       0.588815    -3.794911     0.408395
C       0.068553    -5.057980    -1.256314
C      -1.129356    -4.547103    -1.756196
C       0.346373    -6.409852    -1.421807
C      -2.030576    -5.375639    -2.408242
H      -1.349085    -3.491043    -1.633305
C      -0.557192    -7.245350    -2.072130
H       1.280176    -6.815580    -1.041764
C      -1.747100    -6.729530    -2.566477
H      -2.958845    -4.965985    -2.794648
H      -0.327647    -8.299443    -2.193665
H      -2.453064    -7.378113    -3.075619
C       1.131923    -0.042402    -1.248553
O       0.771207    -0.263424    -0.054121
C       1.520207    -1.409833     0.459219
C       1.819962    -1.368149     1.818282
O       1.450372    -0.551097     2.663010
O       2.624712    -2.435798     2.163085
C       2.978791    -2.496073     3.538748
H       3.540542    -1.607721     3.841048
H       2.089732    -2.576011     4.170401
H       3.599145    -3.387102     3.650583
72
     -1725.752482     -1725.223102  10.54  10.30
C      -3.102515     0.363849     2.719245
C      -2.940507     0.659049     1.349675
C      -2.863244    -0.396673     0.438382
C      -2.943654    -1.699256     0.899051
C      -3.112049    -1.967807     2.272159
C      -3.194279    -0.940492     3.200242
C      -2.975820     2.584405     2.497631
C      -2.864728     2.093539     1.231646
H      -2.725153    -0.227038    -0.626043
H      -2.875747    -2.506074     0.180896
H      -3.324064    -1.177897     4.249731
H      -2.952648     3.607721     2.847537
N      -3.119220     1.552742     3.407013
C      -3.290728     1.694184     4.834169
H      -3.212282     2.749977     5.097866
H      -4.271971     1.326365     5.151841
H      -2.515145     1.143164     5.375304
O      -3.201150    -3.230180     2.787392
C      -3.164665    -4.321172     1.887838
H      -2.211403    -4.364196     1.347080
H      -3.272104    -5.218646     2.498343
H      -3.988946    -4.273080     1.166149
N      -0.182121     2.874714     0.371546
C       0.544133     3.342004     1.501647
O       0.111581     4.252522     2.155889
C       1.870726     2.680670     1.814153
H       1.738747     2.206484     2.787773
H       2.566932     3.506520     1.982104
C       2.424600     1.710609     0.764297
H       2.917960     2.281374    -0.024980
H       3.182006     1.068115     1.223214
C       1.331786     0.861864     0.114678
C       1.636913     0.269448    -1.307107
H       2.007717    -0.756574    -1.234393
C      -2.669415     2.857171    -0.045539
H      -3.469516     3.590040    -0.193861
H      -2.727473     2.163595    -0.885762
C      -1.350551     3.639713    -0.112227
H      -1.142858     3.940484    -1.142113
H      -1.385578     4.529485     0.512276
C       0.813317    -0.319361     0.983564
H      -0.010987    -0.787835     0.438468
H       1.624945    -1.056075     1.003396
C       0.370030    -0.025963     2.415564
H      -0.141283    -0.904728     2.816782
H       1.216772     0.185633     3.074186
H      -0.340772     0.802867     2.476575
O       2.610755     1.075049    -1.995661
C       3.912463     0.518467    -2.020512
H       4.559364     1.314181    -2.405575
H       4.259692     0.276624    -1.004522
C       4.036648    -0.710938    -2.898168
C       3.263011    -0.841035    -4.048639
C       4.952116    -1.710513    -2.577933
C       3.408350    -1.953818    -4.867046
H       2.533665    -0.075879    -4.288338
C       5.101987    -2.822045    -3.399330
H       5.553981    -1.622049    -1.676599
C       4.329747    -2.945377    -4.547939
H       2.796661    -2.047669    -5.759366
H       5.820833    -3.592963    -3.139421
H       4.442913    -3.812870    -5.190749
C       0.183939     1.755340    -0.255957
O      -0.423285     1.410892    -1.312006
C       0.307275     0.317308    -1.946732
C      -0.510171    -0.665856    -2.510035
O      -1.732221    -0.646517    -2.651114
O       0.244662    -1.734871    -2.935699
C      -0.486318    -2.761338    -3.590329
H      -1.006299    -2.372213    -4.470116
H       0.251258    -3.507798    -3.890535
H      -1.226619    -3.209367    -2.920964
72
     -1725.753394     -1725.222842   9.97  10.46
C      -1.918661     2.067386     1.372047
C      -0.794729     1.493616     2.001734
C      -0.889003     0.183460     2.478699
C      -2.070428    -0.516765     2.319420
C      -3.179517     0.078164     1.684416
C      -3.119150     1.378993     1.208305
C      -0.272327     3.579660     1.366272
C       0.249229     2.485811     1.989641
H      -0.040373    -0.307955     2.946072
H      -2.128970    -1.535775     2.679689
H      -3.988354     1.810323     0.725133
H       0.188039     4.532855     1.141293
N      -1.580331     3.340691     0.984351
C      -2.473233     4.292860     0.365328
H      -2.888775     3.888979    -0.563094
H      -3.298515     4.554762     1.035948
H      -1.915352     5.199997     0.128186
O      -4.364623    -0.564553     1.490602
C      -4.422613    -1.953771     1.767469
H      -4.320653    -2.151196     2.841643
H      -5.406111    -2.284363     1.432293
H      -3.652130    -2.500554     1.213246
N       2.528323     2.185805     0.188768
C       2.369663     3.131585    -0.862004
O       2.447998     4.308213    -0.625872
C       2.134147     2.601462    -2.264915
H       3.093225     2.710917    -2.784576
H       1.450759     3.308566    -2.738827
C       1.619593     1.165216    -2.353276
H       0.574729     1.126385    -2.041142
H       1.649465     0.806738    -3.383065
C       2.450137     0.269397    -1.437466
C       1.908968    -1.164437    -1.140725
H       2.440634    -1.896031    -1.751118
C       1.629542     2.301611     2.547745
H       1.743667     1.266591     2.872438
H       1.783405     2.921590     3.437848
C       2.755150     2.661083     1.569722
H       2.876813     3.738132     1.480220
H       3.700085     2.233022     1.913833
C       3.948714     0.172420    -1.849150
H       4.437380     1.140653    -1.692322
H       4.422527    -0.531610    -1.157356
C       4.170196    -0.282302    -3.291466
H       3.644742    -1.216431    -3.507997
H       3.833599     0.468026    -4.012797
H       5.235557    -0.453407    -3.469462
O       0.545798    -1.325199    -1.570851
C      -0.489589    -1.036933    -0.643744
H      -0.194106    -1.342984     0.361547
H      -0.707040     0.039615    -0.603333
C      -1.722816    -1.797283    -1.053882
C      -2.880406    -1.141762    -1.451486
C      -1.708467    -3.191919    -1.020189
C      -4.015012    -1.863207    -1.810233
H      -2.900313    -0.056268    -1.470548
C      -2.836391    -3.915574    -1.379176
H      -0.798497    -3.699189    -0.713384
C      -3.995541    -3.250516    -1.773825
H      -4.914751    -1.336927    -2.113477
H      -2.815369    -5.000960    -1.354317
H      -4.878409    -3.816094    -2.055454
C       2.436539     0.875298    -0.070334
O       2.369229     0.033050     0.863850
C       2.244195    -1.306827     0.298938
C       1.939005    -2.281748     1.263060
O       1.898166    -2.145757     2.481214
O       1.672504    -3.487746     0.658187
C       1.357724    -4.541990     1.561423
H       0.461521    -4.306499     2.143188
H       1.185656    -5.425002     0.943426
H       2.183940    -4.723405     2.253665
72
     -1725.747692     -1725.222836  13.55  10.47
C       3.920186    -1.920651    -0.066341
C       2.823440    -2.357284    -0.846807
C       3.016340    -3.430869    -1.716696
C       4.257148    -4.039943    -1.801498
C       5.331068    -3.582075    -1.013423
C       5.175882    -2.518909    -0.137801
C       2.161240    -0.637040     0.432127
C       1.706858    -1.512954    -0.509808
H       2.200202    -3.797564    -2.332124
H       4.390099    -4.871414    -2.481158
H       6.020376    -2.188439     0.456092
H       1.641870     0.143650     0.974629
N       3.492941    -0.873417     0.707681
C       4.283572    -0.140499     1.670800
H       5.100252     0.400508     1.181730
H       3.633757     0.576476     2.174365
H       4.706116    -0.816803     2.420479
O       6.581382    -4.137065    -1.048526
C       6.801997    -5.226196    -1.921193
H       6.631365    -4.944534    -2.967680
H       7.847329    -5.510098    -1.792393
H       6.162555    -6.080902    -1.667842
N      -1.928850    -1.649250     0.162613
C      -3.061736    -2.119093    -0.556634
O      -2.963516    -3.116584    -1.218874
C      -4.353755    -1.341644    -0.423947
H      -4.980134    -1.939150     0.242712
H      -4.829444    -1.395552    -1.405221
C      -4.237242     0.113611     0.046865
H      -3.936036     0.740231    -0.792716
H      -5.214850     0.473446     0.380853
C      -3.208605     0.289960     1.165574
C      -2.530156     1.688218     1.296098
H      -3.094741     2.365370     1.946036
C       0.291228    -1.603825    -0.998030
H       0.236946    -2.112276    -1.964410
H      -0.098444    -0.593984    -1.159543
C      -0.623027    -2.323672     0.017684
H      -0.832665    -3.350915    -0.271422
H      -0.159085    -2.323274     1.003505
C      -3.714478    -0.106185     2.583760
H      -2.897505     0.101855     3.280299
H      -4.515153     0.601087     2.827617
C      -4.213155    -1.534568     2.796546
H      -4.364012    -1.705646     3.865870
H      -5.171176    -1.721559     2.306128
H      -3.493283    -2.283646     2.450239
O      -2.473407     2.223304    -0.036933
C      -1.795854     3.467622    -0.141600
H      -2.372865     4.258833     0.357187
H      -0.819272     3.402884     0.351413
C      -1.616887     3.784146    -1.603254
C      -2.135825     4.946808    -2.158970
C      -0.907749     2.900530    -2.417209
C      -1.949990     5.230130    -3.509263
H      -2.693598     5.637921    -1.532753
C      -0.723381     3.177227    -3.763297
H      -0.503329     1.990057    -1.984577
C      -1.244164     4.345867    -4.313049
H      -2.360134     6.142116    -3.931780
H      -0.171314     2.481832    -4.388183
H      -1.099277     4.563570    -5.366516
C      -1.980654    -0.513212     0.859350
O      -0.913265    -0.002647     1.308083
C      -1.219956     1.310346     1.868538
C      -0.152691     1.951231     2.493364
O       0.987522     1.525134     2.679972
O      -0.532927     3.200670     2.936321
C       0.484205     3.925781     3.617098
H       1.346751     4.101710     2.967899
H       0.032297     4.876050     3.906858
H       0.822663     3.385156     4.505086
72
     -1725.755118     -1725.222736   8.89  10.53
C       2.988947    -1.871799     0.562533
C       1.836090    -2.412644     1.174203
C       1.736077    -3.798409     1.289100
C       2.752384    -4.609683     0.811215
C       3.892450    -4.041698     0.210447
C       4.024814    -2.667508     0.080941
C       1.634472    -0.182964     1.110019
C       0.980460    -1.306032     1.524275
H       0.863774    -4.255186     1.747345
H       2.658446    -5.683496     0.907077
H       4.913307    -2.258050    -0.385656
H       1.348654     0.857673     1.127677
N       2.844056    -0.511793     0.529034
C       3.760199     0.433691    -0.070029
H       3.258986     1.399467    -0.149003
H       4.670838     0.541686     0.528891
H       4.035804     0.103345    -1.075572
O       4.932076    -4.780973    -0.282210
C       4.863525    -6.187874    -0.164704
H       4.003469    -6.595799    -0.709994
H       5.783471    -6.573183    -0.606341
H       4.808565    -6.501114     0.885155
N      -2.127980     0.352025     2.230873
C      -3.404314    -0.146822     2.614623
O      -3.474335    -0.953386     3.502172
C      -4.616034     0.385921     1.876768
H      -5.072572     1.125905     2.542449
H      -5.319806    -0.446703     1.823232
C      -4.333159     0.966130     0.488583
H      -4.107308     0.160429    -0.210164
H      -5.217408     1.482528     0.106540
C      -3.141996     1.928157     0.538601
C      -2.451278     2.276234    -0.811110
H      -2.800350     3.233177    -1.215288
C      -0.373805    -1.453094     2.164176
H      -0.328493    -2.265887     2.895484
H      -1.105880    -1.776436     1.413357
C      -0.919420    -0.202356     2.877500
H      -1.216160    -0.433697     3.898328
H      -0.177591     0.594312     2.909523
C      -3.506405     3.214412     1.330959
H      -4.350593     3.668175     0.798936
H      -3.886395     2.917537     2.314037
C      -2.401609     4.253067     1.522473
H      -2.060990     4.671075     0.573900
H      -2.783180     5.074568     2.136146
H      -1.528762     3.835812     2.033331
O      -2.810498     1.234860    -1.741443
C      -1.936870     1.113146    -2.854517
H      -2.556374     0.726805    -3.671617
H      -1.552655     2.092759    -3.156433
C      -0.787282     0.161251    -2.602519
C      -0.998338    -1.037011    -1.921166
C       0.483035     0.438170    -3.097083
C       0.037920    -1.943364    -1.749859
H      -1.986062    -1.259130    -1.528599
C       1.522475    -0.469674    -2.926807
H       0.662936     1.378965    -3.609454
C       1.302408    -1.666027    -2.257689
H      -0.133204    -2.870536    -1.212191
H       2.508969    -0.237750    -3.317322
H       2.111103    -2.374737    -2.114962
C      -2.011589     1.222537     1.226951
O      -0.873373     1.491980     0.752144
C      -1.030254     2.332131    -0.415320
C       0.129546     2.974021    -0.834514
O       1.255548     2.896091    -0.342811
O      -0.120772     3.773483    -1.931301
C       1.013738     4.477225    -2.422388
H       1.804737     3.785275    -2.726209
H       0.663162     5.049627    -3.283007
H       1.416650     5.151169    -1.661717
72
     -1725.752242     -1725.222547  10.69  10.65
C      -0.331375     1.216156     3.753228
C      -0.161079     2.067108     2.649389
C      -1.301948     2.542330     1.982331
C      -2.544588     2.162718     2.428461
C      -2.692439     1.310834     3.546795
C      -1.592177     0.822324     4.228079
C       1.862177     1.495237     3.427290
C       1.255503     2.230555     2.451597
H      -1.214490     3.168791     1.100619
H      -3.446047     2.501922     1.930935
H      -1.685662     0.168528     5.085015
H       2.914033     1.344186     3.629268
N       0.913725     0.872817     4.218820
C       1.185072     0.061194     5.383058
H       0.804580     0.536286     6.293484
H       0.728861    -0.928879     5.284192
H       2.264007    -0.064983     5.482819
O      -3.985415     1.022556     3.874768
C      -4.211925     0.180957     4.987347
H      -3.770387    -0.811892     4.834819
H      -3.810112     0.619681     5.909250
H      -5.294023     0.081881     5.079013
N       2.887613     0.936271     0.414908
C       3.692758    -0.052931     1.038726
O       4.508293     0.266579     1.863277
C       3.494466    -1.492848     0.608333
H       3.010972    -1.994444     1.452702
H       4.497197    -1.920456     0.538771
C       2.709835    -1.688548    -0.688794
H       3.324908    -1.409534    -1.546882
H       2.446199    -2.742814    -0.805018
C       1.448470    -0.820301    -0.680606
C       0.724297    -0.607203    -2.050954
H      -0.164436    -1.238240    -2.131737
C       1.894652     3.037794     1.357688
H       2.231381     4.012574     1.728061
H       1.146117     3.245459     0.590786
C       3.113575     2.366256     0.713076
H       3.365632     2.866528    -0.224843
H       3.982884     2.391277     1.366146
C       0.467843    -1.281384     0.436196
H       0.354698    -2.366550     0.321441
H       0.947061    -1.119787     1.408281
C      -0.907352    -0.619575     0.459670
H      -0.839541     0.466395     0.519437
H      -1.498998    -0.875088    -0.421857
H      -1.457593    -0.955475     1.343802
O       1.610967    -0.923269    -3.139785
C       1.368811    -2.180545    -3.741119
H       2.219787    -2.349922    -4.409797
H       1.375215    -2.987389    -2.992593
C       0.077067    -2.244954    -4.531937
C      -0.612682    -3.449464    -4.648043
C      -0.417544    -1.113683    -5.175532
C      -1.776277    -3.528201    -5.404474
H      -0.238921    -4.335827    -4.140871
C      -1.583251    -1.190253    -5.926994
H       0.104413    -0.169973    -5.067803
C      -2.264013    -2.396821    -6.047382
H      -2.303089    -4.473712    -5.488703
H      -1.963121    -0.300570    -6.420317
H      -3.173468    -2.454157    -6.637438
C       1.890398     0.585182    -0.404861
O       1.281652     1.471205    -1.063792
C       0.365477     0.829172    -2.010995
C      -0.889557     1.456741    -2.035803
O      -1.209160     2.521716    -1.515251
O      -1.788482     0.709904    -2.759385
C      -3.085239     1.279176    -2.873600
H      -3.040275     2.259690    -3.355013
H      -3.662267     0.585642    -3.487859
H      -3.553664     1.396050    -1.891840
72
     -1725.754110     -1725.222480   9.52  10.69
C      -1.392056     0.774781     3.081672
C      -1.897971    -0.434890     2.555719
C      -2.128848    -1.494362     3.432177
C      -1.861412    -1.346941     4.783700
C      -1.362781    -0.127006     5.280451
C      -1.126377     0.947647     4.437271
C      -1.608928     1.013891     0.873072
C      -2.032680    -0.257278     1.130597
H      -2.512179    -2.442574     3.066852
H      -2.042815    -2.179579     5.450733
H      -0.744681     1.875348     4.847860
H      -1.511636     1.559849    -0.052830
N      -1.217057     1.642482     2.039056
C      -0.691630     2.988626     2.122836
H      -1.410833     3.665889     2.596367
H       0.236753     2.992053     2.699356
H      -0.467818     3.336286     1.113886
O      -1.077857     0.088706     6.600454
C      -1.316850    -0.962774     7.514364
H      -2.375614    -1.249383     7.528945
H      -0.706101    -1.844045     7.282451
H      -1.035261    -0.579656     8.496061
N      -1.693876    -1.403866    -2.147201
C      -1.798325    -2.734398    -2.634918
O      -2.760329    -3.389870    -2.334038
C      -0.699227    -3.262482    -3.532483
H      -1.153328    -3.333460    -4.523568
H      -0.531797    -4.293023    -3.211793
C       0.618132    -2.478521    -3.555972
H       1.227351    -2.772264    -2.701567
H       1.187197    -2.733684    -4.454637
C       0.404913    -0.965696    -3.486887
C       1.573284    -0.109919    -2.912988
H       2.246169     0.242016    -3.702565
C      -2.594775    -1.303994     0.207935
H      -3.582988    -1.595629     0.581640
H      -1.987157    -2.215990     0.253265
C      -2.767107    -0.901233    -1.261690
H      -3.687039    -1.323572    -1.662179
H      -2.806347     0.180590    -1.381854
C      -0.013337    -0.301444    -4.832811
H      -0.098570     0.772347    -4.640299
H       0.841008    -0.425527    -5.507657
C      -1.281731    -0.796860    -5.525195
H      -2.150168    -0.799496    -4.858498
H      -1.519603    -0.126976    -6.356014
H      -1.165465    -1.797574    -5.947479
O       2.314536    -0.963192    -2.021662
C       3.300889    -0.287948    -1.257028
H       4.129191    -0.997489    -1.144061
H       3.679725     0.584678    -1.799380
C       2.820618     0.127672     0.116764
C       1.915849    -0.659179     0.826776
C       3.347806     1.262946     0.724309
C       1.564734    -0.329292     2.128550
H       1.488980    -1.538849     0.356040
C       2.996282     1.597377     2.027496
H       4.041290     1.891173     0.172419
C       2.110092     0.796197     2.735461
H       0.856502    -0.947500     2.669916
H       3.421047     2.483458     2.490646
H       1.832352     1.047937     3.754133
C      -0.641540    -0.645101    -2.461000
O      -0.451334     0.455394    -1.872024
C       0.829342     1.001495    -2.285516
C       1.099713     2.282164    -1.805762
O       0.363846     3.006132    -1.138239
O       2.349851     2.702635    -2.207244
C       2.700901     4.009975    -1.769016
H       2.009131     4.755886    -2.168945
H       2.689544     4.073802    -0.677038
H       3.708409     4.193080    -2.147189
72
     -1725.751650     -1725.222382  11.06  10.75
C       0.009616     1.846266    -2.066602
C      -1.108442     2.126211    -1.247683
C      -1.135395     3.342169    -0.561734
C      -0.083800     4.232314    -0.689095
C       1.015532     3.927938    -1.516168
C       1.071539     2.734864    -2.217923
C      -1.385245     0.109661    -2.191523
C      -1.995721     0.992969    -1.353509
H      -1.969971     3.605402     0.079139
H      -0.120482     5.167556    -0.145988
H       1.930435     2.521835    -2.843458
H      -1.720484    -0.875726    -2.491164
N      -0.173087     0.607519    -2.629550
C       0.700738    -0.017056    -3.598338
H       0.708975     0.540981    -4.540800
H       1.721524    -0.084690    -3.212161
H       0.338766    -1.027383    -3.794696
O       2.085447     4.760682    -1.683716
C       2.056830     6.022237    -1.044230
H       1.197810     6.618834    -1.374395
H       2.029445     5.919961     0.047462
H       2.978664     6.527858    -1.334237
N      -2.255867     0.633816     1.565309
C      -1.657596     1.584959     2.439614
O      -2.189990     2.647653     2.619774
C      -0.355079     1.213592     3.125021
H      -0.591545     1.180415     4.192777
H       0.296486     2.080800     2.993626
C       0.330646    -0.068708     2.649284
H       0.889515     0.133813     1.736247
H       1.057392    -0.410659     3.389955
C      -0.704688    -1.165827     2.386769
C      -0.221369    -2.407375     1.567235
H      -0.047818    -3.252297     2.237942
C      -3.345539     0.781772    -0.736202
H      -3.666702    -0.235728    -0.964260
H      -4.083086     1.453803    -1.191341
C      -3.442656     1.032181     0.779034
H      -3.578961     2.087556     0.998790
H      -4.304716     0.495590     1.184738
C      -1.379040    -1.611215     3.714569
H      -0.584540    -2.056325     4.324205
H      -1.718987    -0.720126     4.252629
C      -2.547043    -2.587576     3.584364
H      -2.252422    -3.516417     3.094060
H      -2.934961    -2.829890     4.577868
H      -3.370789    -2.157867     3.004798
O       1.077590    -2.179169     0.993715
C       1.090497    -1.541544    -0.274863
H       0.736377    -2.236697    -1.045847
H       0.424316    -0.669708    -0.288525
C       2.500936    -1.105736    -0.574823
C       2.859820     0.236710    -0.517579
C       3.469326    -2.051215    -0.908682
C       4.163481     0.633945    -0.797486
H       2.113384     0.983937    -0.265689
C       4.772168    -1.660750    -1.183477
H       3.193574    -3.101246    -0.946479
C       5.121951    -0.314033    -1.130438
H       4.428118     1.685946    -0.754114
H       5.518250    -2.406254    -1.440466
H       6.140170    -0.006763    -1.346814
C      -1.750456    -0.601806     1.479107
O      -2.148520    -1.403914     0.593084
C      -1.372439    -2.630906     0.651328
C      -1.542060    -3.436814    -0.486780
O      -2.320611    -3.265483    -1.420205
O      -0.692788    -4.514867    -0.441271
C      -0.804721    -5.404286    -1.546320
H      -0.575747    -4.895111    -2.487086
H      -0.082109    -6.201271    -1.363600
H      -1.813853    -5.819319    -1.613124
72
     -1725.752387     -1725.222308  10.60  10.80
C      -3.249944     0.298683    -1.963322
C      -2.268439    -0.174816    -2.859980
C      -1.607174     0.744879    -3.675174
C      -1.917929     2.090303    -3.585236
C      -2.905123     2.537294    -2.683069
C      -3.584114     1.647732    -1.865015
C      -3.081638    -1.912495    -1.704908
C      -2.183178    -1.602306    -2.680350
H      -0.842859     0.416609    -4.373475
H      -1.396934     2.794853    -4.220283
H      -4.338798     2.021509    -1.182823
H      -3.322324    -2.872316    -1.267913
N      -3.735705    -0.777585    -1.264233
C      -4.733539    -0.724014    -0.219530
H      -4.907180    -1.733543     0.155215
H      -4.394040    -0.101062     0.613802
H      -5.678840    -0.325430    -0.601065
O      -3.258968     3.848660    -2.545222
C      -2.634232     4.804170    -3.381201
H      -2.825108     4.595530    -4.440784
H      -3.075096     5.766650    -3.119386
H      -1.552032     4.844127    -3.207490
N       0.706142    -1.654400    -2.117970
C       1.627747    -0.988172    -2.971249
O       1.567115    -1.158863    -4.159508
C       2.698983    -0.214664    -2.243438
H       3.277394     0.330268    -2.989973
H       3.351698    -0.961724    -1.776101
C       2.133680     0.715851    -1.168434
H       2.946242     1.096625    -0.548001
H       1.671255     1.575875    -1.660955
C       1.085073     0.030431    -0.271143
C       1.541037    -0.470657     1.122279
H       1.454327     0.299628     1.894794
C      -1.252969    -2.525628    -3.408267
H      -0.968732    -2.083955    -4.366123
H      -1.744873    -3.478277    -3.629406
C       0.014531    -2.856379    -2.615399
H      -0.224227    -3.462820    -1.741866
H       0.723132    -3.404892    -3.238587
C      -0.133122     0.996393    -0.150793
H       0.295772     1.950910     0.177365
H      -0.516274     1.165096    -1.161631
C      -1.284464     0.623849     0.778010
H      -2.074346     1.373096     0.667225
H      -1.714207    -0.351851     0.541853
H      -0.977286     0.616349     1.825155
O       2.924249    -0.847549     0.965874
C       3.493601    -1.359945     2.161617
H       2.859163    -2.158668     2.563316
H       4.450325    -1.797530     1.859884
C       3.715916    -0.290466     3.209059
C       3.264458    -0.461890     4.512807
C       4.383372     0.887449     2.873575
C       3.483245     0.521353     5.472723
H       2.721452    -1.365196     4.773803
C       4.600181     1.872067     3.826891
H       4.732614     1.029416     1.854736
C       4.152048     1.689426     5.132281
H       3.125328     0.374300     6.487151
H       5.120978     2.784533     3.553064
H       4.322282     2.458395     5.879369
C       0.638731    -1.291919    -0.831900
O       0.248404    -2.116850     0.046186
C       0.629190    -1.614590     1.364201
C      -0.309105    -1.879793     2.368736
O      -1.318920    -2.571503     2.302277
O       0.049434    -1.237919     3.537284
C      -0.836102    -1.456940     4.628044
H      -0.898451    -2.520285     4.874052
H      -0.420324    -0.899998     5.469792
H      -1.842500    -1.095423     4.398779
72
     -1725.749121     -1725.221997  12.65  10.99
C       3.515179    -2.341732     2.225388
C       3.177633    -1.686685     1.022520
C       4.154919    -0.931416     0.372181
C       5.423861    -0.839848     0.919614
C       5.734649    -1.502621     2.122903
C       4.786278    -2.261836     2.790724
C       1.375126    -2.791086     1.765938
C       1.794885    -1.993330     0.747681
H       3.931480    -0.414995    -0.556915
H       6.175399    -0.252092     0.409061
H       5.055331    -2.760443     3.714629
H       0.402596    -3.235143     1.934121
N       2.401382    -3.013096     2.667212
C       2.326592    -3.815368     3.865443
H       3.033213    -4.650991     3.823517
H       2.543693    -3.213796     4.754383
H       1.317653    -4.220121     3.960193
O       6.966920    -1.450742     2.713070
C       7.978371    -0.690650     2.082275
H       7.699068     0.367537     2.008025
H       8.863474    -0.784546     2.712711
H       8.206262    -1.076480     1.081044
N       0.142171     0.583498    -1.484050
C       1.012244     1.142267    -2.454684
O       2.201544     1.046141    -2.299274
C       0.395846     1.840781    -3.648115
H       0.638694     1.213522    -4.508524
H       0.977940     2.756091    -3.780371
C      -1.102135     2.154347    -3.561702
H      -1.249860     3.059319    -2.972001
H      -1.497498     2.357184    -4.561139
C      -1.900658     1.027968    -2.905799
C      -3.242474     1.414739    -2.212322
H      -4.097424     1.369818    -2.894174
C       1.003399    -1.478811    -0.412598
H       0.057997    -2.022641    -0.506399
H       1.565169    -1.629613    -1.341788
C       0.716519     0.016059    -0.251585
H       0.011494     0.197559     0.558998
H       1.632359     0.566979    -0.047337
C      -2.196447    -0.187525    -3.831348
H      -2.842022    -0.862967    -3.263330
H      -2.805120     0.199446    -4.656140
C      -1.012116    -0.974901    -4.390692
H      -0.458421    -0.423208    -5.153562
H      -0.310490    -1.282193    -3.607590
H      -1.380393    -1.889074    -4.864571
O      -3.085332     2.775847    -1.747108
C      -3.859544     3.104097    -0.601613
H      -4.017078     4.186836    -0.655754
H      -4.836410     2.611633    -0.635002
C      -3.150720     2.759474     0.692144
C      -3.864873     2.283748     1.787411
C      -1.772996     2.935892     0.811105
C      -3.215542     1.982941     2.979033
H      -4.934147     2.119396     1.692770
C      -1.121656     2.637988     2.000839
H      -1.209831     3.311802    -0.037974
C      -1.841732     2.158532     3.090390
H      -3.784801     1.605573     3.823318
H      -0.048472     2.786516     2.081715
H      -1.334765     1.925668     4.021648
C      -1.176530     0.537700    -1.686751
O      -1.940653     0.085729    -0.786855
C      -3.318933     0.373846    -1.173790
C      -4.359077    -0.077771    -0.361883
O      -5.539404     0.241633    -0.495153
O      -3.951193    -0.948037     0.617090
C      -4.997714    -1.414113     1.458295
H      -4.527651    -2.097021     2.167612
H      -5.471520    -0.585511     1.992554
H      -5.763713    -1.937710     0.880335
72
     -1725.749342     -1725.221956  12.51  11.02
C       3.615838    -3.976186     0.448541
C       2.504030    -3.115948     0.547485
C       2.705661    -1.738885     0.437984
C       3.981627    -1.250623     0.226607
C       5.075822    -2.130977     0.126251
C       4.910195    -3.504274     0.237012
C       1.792577    -5.227772     0.784564
C       1.343743    -3.943231     0.762836
H       1.893104    -1.025062     0.514023
H       4.107465    -0.179740     0.143789
H       5.773163    -4.155288     0.157287
H       1.240231    -6.148354     0.921081
N       3.163304    -5.266330     0.596431
C       3.988285    -6.450194     0.566257
H       4.503788    -6.544520    -0.395369
H       4.736046    -6.428337     1.366151
H       3.356531    -7.328829     0.707261
O       6.359519    -1.707805    -0.082262
C       6.581121    -0.315782    -0.200553
H       6.036479     0.105951    -1.053986
H       6.285106     0.216453     0.711521
H       7.653443    -0.193385    -0.359249
N      -1.753385    -2.087843    -0.337435
C      -3.052712    -2.647971    -0.244733
O      -3.173501    -3.843204    -0.196452
C      -4.231293    -1.695396    -0.233648
H      -4.664418    -1.764366     0.769029
H      -4.971232    -2.133071    -0.907732
C      -3.914492    -0.248699    -0.620050
H      -3.772285    -0.171519    -1.699764
H      -4.757009     0.395333    -0.355442
C      -2.637653     0.231598     0.075695
C      -1.965168     1.528354    -0.482069
H      -2.197092     2.394518     0.144883
C      -0.058126    -3.433821     0.881421
H      -0.069144    -2.574360     1.562713
H      -0.726908    -4.189663     1.301540
C      -0.591988    -2.985167    -0.484783
H       0.171482    -2.438118    -1.036003
H      -0.913388    -3.837352    -1.081559
C      -2.840779     0.321120     1.613167
H      -3.656604     1.035923     1.774381
H      -3.205836    -0.646834     1.973448
C      -1.627255     0.732403     2.446764
H      -1.886071     0.685018     3.508968
H      -0.771044     0.071322     2.284006
H      -1.304037     1.751495     2.227681
O      -2.423663     1.795661    -1.820651
C      -3.406785     2.810768    -1.906990
H      -3.791652     2.753447    -2.930937
H      -4.249063     2.607520    -1.228854
C      -2.874643     4.203880    -1.638228
C      -3.665502     5.145347    -0.984929
C      -1.601806     4.568743    -2.070678
C      -3.198658     6.438215    -0.773793
H      -4.656643     4.867115    -0.634692
C      -1.133136     5.858182    -1.857604
H      -0.974737     3.830882    -2.558211
C      -1.930339     6.797800    -1.211878
H      -3.826445     7.163040    -0.264779
H      -0.138306     6.131639    -2.196604
H      -1.562235     7.805921    -1.048234
C      -1.563482    -0.768845    -0.225562
O      -0.420282    -0.268299    -0.422525
C      -0.529169     1.188702    -0.427145
C       0.575957     1.845786     0.116025
O       1.662906     1.370685     0.439927
O       0.308483     3.189954     0.257792
C       1.389647     3.972034     0.744118
H       2.260916     3.886903     0.088691
H       1.029316     5.002216     0.756387
H       1.682185     3.662119     1.751672
72
     -1725.753607     -1725.221808   9.84  11.11
C       1.170206     2.101227    -1.395105
C       0.367146     2.427691    -0.290232
C      -1.026430     2.487343    -0.461342
C      -1.557475     2.223402    -1.700033
C      -0.730759     1.889234    -2.797450
C       0.644263     1.831357    -2.667276
C       2.509843     2.399866     0.370196
C       1.245669     2.617911     0.833348
H      -1.689879     2.699206     0.371280
H      -2.629074     2.244470    -1.864864
H       1.288684     1.562906    -3.493361
H       3.456280     2.434259     0.894060
N       2.478414     2.078985    -0.975146
C       3.630364     1.874157    -1.822632
H       3.745587     2.691241    -2.542807
H       4.525162     1.829603    -1.200028
H       3.544561     0.930977    -2.371016
O      -1.400356     1.623082    -3.953295
C      -0.640520     1.203932    -5.072280
H       0.050070     1.991014    -5.401141
H      -0.081715     0.288147    -4.850292
H      -1.359543     1.004270    -5.867463
N       1.422042     0.581284     2.884712
C       2.695892    -0.039842     2.772949
O       3.684812     0.554535     3.113474
C       2.756672    -1.456155     2.229769
H       3.012700    -2.086255     3.087530
H       3.629601    -1.479366     1.573947
C       1.505215    -1.960101     1.509330
H       1.459592    -1.531987     0.507703
H       1.542373    -3.044857     1.385586
C       0.245594    -1.558326     2.279515
C      -1.111762    -1.692934     1.512034
H      -1.669105    -2.550212     1.899223
C       0.802971     2.947382     2.229020
H      -0.287550     2.946231     2.255988
H       1.117562     3.955812     2.518552
C       1.343007     1.994375     3.308200
H       2.358150     2.255846     3.597181
H       0.709015     2.039973     4.197192
C       0.169929    -2.280266     3.652584
H       0.075560    -3.349805     3.432904
H       1.124196    -2.153382     4.174256
C      -0.962745    -1.832988     4.576343
H      -1.944910    -1.985110     4.125867
H      -0.923767    -2.402095     5.509553
H      -0.879573    -0.771964     4.834549
O      -0.893835    -2.042106     0.131737
C      -0.937442    -0.977016    -0.811695
H      -1.947527    -0.561369    -0.865292
H      -0.260330    -0.167061    -0.516141
C      -0.529586    -1.527407    -2.153429
C       0.813972    -1.603725    -2.512542
C      -1.489001    -1.991434    -3.048385
C       1.194394    -2.144510    -3.734117
H       1.569762    -1.226535    -1.829648
C      -1.116663    -2.532936    -4.273105
H      -2.539237    -1.929144    -2.778333
C       0.227657    -2.613976    -4.617539
H       2.246010    -2.204137    -3.997988
H      -1.877015    -2.894312    -4.958607
H       0.522271    -3.040025    -5.571464
C       0.319038    -0.084038     2.514997
O      -0.771873     0.521807     2.338280
C      -1.767674    -0.403558     1.836180
C      -3.028328     0.164565     1.626760
O      -3.380146     1.318994     1.852684
O      -3.894992    -0.771098     1.107637
C      -5.214391    -0.288867     0.883038
H      -5.776910    -1.131666     0.477560
H      -5.670365     0.053024     1.816195
H      -5.213757     0.542461     0.172126
72
     -1725.745669     -1725.221656  14.82  11.21
C      -2.926303     4.185574    -0.658294
C      -2.772407     2.791649    -0.810843
C      -3.707807     2.092963    -1.575753
C      -4.756160     2.778621    -2.166732
C      -4.885643     4.171146    -2.000461
C      -3.974398     4.892270    -1.244583
C      -1.102710     3.559472     0.471041
C      -1.591692     2.413096    -0.072967
H      -3.622669     1.018798    -1.712353
H      -5.476744     2.229145    -2.758140
H      -4.100611     5.963033    -1.134465
H      -0.229647     3.706644     1.093364
N      -1.896905     4.640064     0.129039
C      -1.690136     6.011943     0.529124
H      -0.793394     6.070686     1.148121
H      -1.551788     6.658661    -0.343755
H      -2.539306     6.383316     1.112498
O      -5.896380     4.904120    -2.557874
C      -6.857102     4.227924    -3.344272
H      -7.557650     4.990766    -3.686283
H      -6.396505     3.744968    -4.214840
H      -7.400251     3.476520    -2.758052
N      -0.044793    -0.813832    -1.319417
C      -1.034107    -1.775692    -1.658715
O      -2.117078    -1.396579    -2.019122
C      -0.666237    -3.239170    -1.563257
H      -0.527470    -3.571432    -2.594761
H      -1.566439    -3.744628    -1.207131
C       0.539335    -3.578614    -0.681351
H       0.236914    -3.564982     0.366276
H       0.885713    -4.593109    -0.898668
C       1.691188    -2.588265    -0.853802
C       2.683476    -2.440762     0.334940
H       3.559315    -3.089880     0.218962
C      -1.023178     1.032328     0.013565
H      -1.810797     0.319148     0.282113
H      -0.253478     0.978609     0.789278
C      -0.416592     0.612221    -1.327436
H      -1.128856     0.748572    -2.138653
H       0.480966     1.190022    -1.546293
C       2.557604    -2.802567    -2.130514
H       3.364197    -2.064222    -2.094133
H       3.035287    -3.781262    -2.010765
C       1.872389    -2.734211    -3.494989
H       2.635077    -2.719074    -4.278555
H       1.236694    -3.601161    -3.689190
H       1.269920    -1.827815    -3.617318
O       1.976214    -2.793405     1.531554
C       2.766907    -2.625250     2.697947
H       3.613284    -3.326852     2.687735
H       3.178933    -1.607271     2.710071
C       1.904982    -2.865353     3.910022
C       2.305664    -3.744718     4.909344
C       0.696245    -2.184290     4.054085
C       1.517874    -3.940865     6.039953
H       3.241992    -4.286056     4.803237
C      -0.093634    -2.379816     5.177344
H       0.376863    -1.500505     3.273927
C       0.316838    -3.258668     6.176017
H       1.843990    -4.630118     6.812747
H      -1.033204    -1.844771     5.276496
H      -0.300520    -3.410748     7.055789
C       1.159637    -1.186396    -0.877869
O       1.948541    -0.321073    -0.399214
C       3.073411    -1.016617     0.251260
C       4.359066    -0.492112     0.071340
O       5.396217    -1.076146     0.373727
O       4.371208     0.775031    -0.459637
C       5.668705     1.345220    -0.574903
H       6.303170     0.751520    -1.238724
H       5.519233     2.343682    -0.988808
H       6.155532     1.410555     0.401971
72
     -1725.750159     -1725.220905  12.00  11.68
C       2.257174    -0.071107    -3.902729
C       1.007941    -0.396665    -3.347891
C       0.085741    -1.106952    -4.132004
C       0.429121    -1.463227    -5.415033
C       1.691476    -1.124892    -5.952633
C       2.625635    -0.425554    -5.210255
C       2.197787     0.721592    -1.815322
C       0.989446     0.126007    -2.006419
H      -0.889012    -1.375868    -3.735251
H      -0.256995    -2.012040    -6.050352
H       3.596239    -0.159239    -5.607210
H       2.578089     1.228642    -0.938752
N       2.975883     0.614589    -2.955447
C       4.318946     1.119455    -3.118148
H       4.371245     1.841998    -3.939475
H       4.622748     1.620958    -2.197993
H       5.024528     0.305743    -3.317326
O       1.891235    -1.543947    -7.237102
C       3.131302    -1.243783    -7.844163
H       3.965599    -1.704625    -7.300500
H       3.086154    -1.660264    -8.850997
H       3.293999    -0.160591    -7.909090
N      -1.298902    -1.575871     0.492660
C      -2.564716    -2.007798     0.014414
O      -2.677926    -2.333810    -1.137478
C      -3.709865    -2.062129     1.002064
H      -3.812683    -3.117115     1.268032
H      -4.604131    -1.810259     0.428563
C      -3.582467    -1.167732     2.240844
H      -3.822590    -0.139658     1.969143
H      -4.309996    -1.476389     2.997315
C      -2.174004    -1.184493     2.835186
C      -1.718244     0.078082     3.630206
H      -1.962871     0.003614     4.693957
C      -0.122378    -0.012701    -1.017762
H      -1.083204     0.222738    -1.488395
H       0.015463     0.695508    -0.199028
C      -0.178696    -1.433068    -0.456005
H      -0.332473    -2.170177    -1.241645
H       0.740334    -1.673002     0.080205
C      -1.857675    -2.417692     3.730695
H      -0.843727    -2.275175     4.115712
H      -2.527967    -2.345627     4.594600
C      -1.973763    -3.807438     3.107335
H      -3.010164    -4.097544     2.919453
H      -1.414359    -3.890649     2.169449
H      -1.556438    -4.546800     3.796460
O      -2.433293     1.201102     3.066214
C      -1.764062     2.457466     3.115231
H      -2.541540     3.200585     3.323973
H      -1.042281     2.485217     3.934863
C      -1.091748     2.793753     1.801798
C      -1.863177     2.920629     0.645542
C       0.280346     3.004248     1.717504
C      -1.280383     3.269766    -0.564452
H      -2.934729     2.748881     0.701540
C       0.869790     3.351056     0.504936
H       0.899539     2.886472     2.601102
C       0.092218     3.489551    -0.637509
H      -1.896139     3.369667    -1.453448
H       1.942575     3.513669     0.458991
H       0.553791     3.750039    -1.584649
C      -1.153371    -1.122438     1.738813
O      -0.079101    -0.544324     2.075707
C      -0.264982     0.044347     3.392158
C       0.890231     0.503206     4.021545
O       2.048011     0.453727     3.621449
O       0.570075     1.070883     5.243404
C       1.689060     1.548199     5.979816
H       2.219549     2.330457     5.429287
H       1.287170     1.950782     6.911410
H       2.391611     0.738012     6.192886
72
     -1725.751126     -1725.219259  11.39  12.71
C      -1.216033     1.872687    -1.916318
C      -0.336142     0.817123    -2.232161
C       1.029510     0.989073    -1.988490
C       1.485820     2.179694    -1.456187
C       0.586134     3.224464    -1.157630
C      -0.774823     3.081969    -1.381863
C      -2.423948     0.186027    -2.750865
C      -1.134194    -0.254054    -2.770896
H       1.736626     0.190050    -2.184645
H       2.542847     2.295455    -1.254973
H      -1.441898     3.901773    -1.140974
H      -3.331281    -0.315436    -3.062546
N      -2.490073     1.466159    -2.230857
C      -3.676555     2.286165    -2.142822
H      -3.618033     3.140874    -2.825010
H      -4.545289     1.683608    -2.412266
H      -3.815935     2.658452    -1.123356
O       0.975709     4.421519    -0.643084
C       2.331769     4.571576    -0.254528
H       2.620780     3.808180     0.475179
H       3.000522     4.533082    -1.123162
H       2.401596     5.554842     0.211177
N      -1.700179    -2.621897    -1.195781
C      -3.081265    -2.626281    -0.847948
O      -3.908141    -2.851766    -1.691149
C      -3.456651    -2.353733     0.596560
H      -3.782948    -3.317662     0.999995
H      -4.352643    -1.731143     0.553134
C      -2.372683    -1.713551     1.464960
H      -2.293650    -0.652229     1.226554
H      -2.637271    -1.781185     2.522594
C      -1.021514    -2.385442     1.215364
C       0.239777    -1.637126     1.757129
H       0.631440    -2.158726     2.634106
C      -0.606254    -1.582169    -3.229118
H       0.459632    -1.628911    -3.003100
H      -0.694132    -1.690524    -4.315457
C      -1.315040    -2.798030    -2.610989
H      -2.245700    -3.019542    -3.127695
H      -0.670021    -3.678048    -2.673114
C      -1.027092    -3.861987     1.699165
H      -1.165884    -3.827434     2.785615
H      -1.907070    -4.368489     1.289247
C       0.218715    -4.678896     1.356443
H       0.112533    -5.693609     1.750817
H       0.364004    -4.761598     0.274010
H       1.125890    -4.243423     1.779127
O      -0.088192    -0.340930     2.285059
C       0.004483     0.796998     1.439806
H       0.513988     0.531966     0.510468
H      -1.003071     1.150374     1.181680
C       0.758845     1.901200     2.135640
C       2.073673     1.690776     2.554454
C       0.164732     3.137872     2.356930
C       2.771230     2.706769     3.193365
H       2.545340     0.727914     2.378343
C       0.862541     4.157021     2.997798
H      -0.855280     3.307913     2.023372
C       2.168015     3.942225     3.418328
H       3.792015     2.533459     3.520686
H       0.383688     5.116635     3.168013
H       2.716308     4.732733     3.921917
C      -0.776800    -2.368701    -0.259906
O       0.409400    -2.089639    -0.584731
C       1.162543    -1.731227     0.604697
C       2.539542    -1.556255     0.495565
O       3.291970    -1.272500     1.425025
O       3.013259    -1.725960    -0.788831
C       4.416344    -1.529988    -0.920225
H       4.971768    -2.240189    -0.302363
H       4.642573    -1.692328    -1.975393
H       4.700124    -0.516025    -0.623888
72
     -1725.750194     -1725.218622  11.98  13.11
C       1.324605    -3.955618    -0.929473
C       0.954590    -2.700619    -0.419178
C       0.928582    -1.601602    -1.294468
C       1.254425    -1.786976    -2.616700
C       1.616610    -3.060334    -3.107621
C       1.661533    -4.165202    -2.275902
C       0.877070    -4.201228     1.244867
C       0.666115    -2.882101     0.981747
H       0.662771    -0.604744    -0.959845
H       1.243074    -0.950178    -3.305410
H       1.937852    -5.147999    -2.633812
H       0.768041    -4.743072     2.175062
N       1.278320    -4.864177     0.100657
C       1.582032    -6.271992    -0.003482
H       0.903260    -6.770983    -0.703364
H       2.612987    -6.427418    -0.338402
H       1.465714    -6.733991     0.978201
O       1.910597    -3.095728    -4.441102
C       2.281496    -4.338202    -5.000911
H       3.193956    -4.731465    -4.535111
H       1.476906    -5.078040    -4.903355
H       2.470717    -4.151746    -6.058685
N       0.757817     0.408412     2.854176
C       0.451599     0.438828     4.239784
O       0.787932    -0.483330     4.934082
C      -0.290312     1.650631     4.769694
H       0.461600     2.277228     5.260111
H      -0.936765     1.276758     5.565895
C      -1.086440     2.437380     3.724196
H      -1.977737     1.875069     3.441758
H      -1.434109     3.383717     4.145592
C      -0.230465     2.700876     2.483139
C      -0.972500     3.119012     1.170938
H      -0.952983     4.202428     1.043721
C       0.208712    -1.819514     1.930781
H      -0.170995    -2.259447     2.857223
H      -0.621308    -1.267974     1.475751
C       1.322623    -0.822427     2.269093
H       2.019712    -1.238263     2.994691
H       1.873622    -0.535353     1.374245
C       0.904142     3.712884     2.813896
H       0.402517     4.634265     3.131599
H       1.452162     3.342845     3.686486
C       1.905391     4.027802     1.703208
H       2.421408     3.130403     1.349070
H       1.431037     4.498951     0.841315
H       2.664662     4.714496     2.089632
O      -2.387051     2.818146     1.241511
C      -2.769363     1.495737     0.911070
H      -2.126432     0.754385     1.407592
H      -3.770889     1.377412     1.339798
C      -2.821962     1.198195    -0.571872
C      -2.353495    -0.016511    -1.063823
C      -3.375889     2.119031    -1.456699
C      -2.412248    -0.302668    -2.422228
H      -1.910919    -0.740444    -0.386450
C      -3.450127     1.830414    -2.811912
H      -3.729558     3.072628    -1.078597
C      -2.964997     0.620981    -3.300161
H      -2.012233    -1.242358    -2.790217
H      -3.881436     2.556795    -3.494843
H      -3.014793     0.401924    -4.362430
C       0.373503     1.403661     2.045610
O       0.461522     1.278075     0.790185
C      -0.173323     2.413627     0.156899
C       0.079188     2.556561    -1.210673
O       0.750823     1.824811    -1.929368
O      -0.532272     3.688265    -1.691221
C      -0.381822     3.890110    -3.091579
H       0.671438     4.007900    -3.360276
H      -0.797095     3.047805    -3.651377
H      -0.933141     4.803253    -3.322731
72
     -1725.751421     -1725.218449  11.21  13.22
C       2.983014    -0.438035    -1.420246
C       2.863482    -0.692143    -0.033757
C       3.262004    -1.942622     0.441522
C       3.735074    -2.902403    -0.437771
C       3.827664    -2.624337    -1.815816
C       3.454777    -1.388478    -2.321107
C       2.172777     1.403637    -0.448692
C       2.328663     0.506682     0.564228
H       3.211072    -2.179545     1.499584
H       4.037808    -3.866577    -0.050687
H       3.543880    -1.198791    -3.384568
H       1.778236     2.412363    -0.411943
N       2.557045     0.845549    -1.652095
C       2.517304     1.510431    -2.934909
H       3.523823     1.631559    -3.348506
H       1.907501     0.945364    -3.647158
H       2.071112     2.496514    -2.799031
O       4.281915    -3.524131    -2.736932
C       4.720011    -4.788203    -2.277790
H       3.906850    -5.345830    -1.797320
H       5.052947    -5.331401    -3.162936
H       5.558046    -4.691592    -1.576810
N      -0.378931    -0.225362     2.144441
C      -1.157221    -1.358990     2.538452
O      -0.714613    -2.113901     3.361750
C      -2.444430    -1.573072     1.786024
H      -2.989506    -2.353760     2.316457
H      -2.134268    -1.995053     0.824306
C      -3.313382    -0.324784     1.554077
H      -3.817596    -0.412307     0.592479
H      -4.092378    -0.273280     2.318844
C      -2.509781     0.981615     1.574511
C      -2.689553     1.970306     0.380134
H      -3.504882     2.663762     0.593534
C       2.014206     0.757977     2.008207
H       1.695248     1.793374     2.137336
H       2.924135     0.639952     2.610449
C       1.017915    -0.207875     2.651123
H       1.369852    -1.233436     2.552438
H       0.947822     0.000483     3.722776
C      -2.795118     1.802912     2.875867
H      -2.262432     2.756109     2.802203
H      -3.864366     2.038150     2.843331
C      -2.458694     1.111594     4.195127
H      -1.380818     0.977322     4.326662
H      -2.808960     1.724780     5.029795
H      -2.935036     0.130648     4.289290
O      -3.128848     1.312547    -0.829392
C      -2.155173     0.867578    -1.760082
H      -2.603218     1.020861    -2.747486
H      -1.253978     1.485439    -1.703673
C      -1.796684    -0.594182    -1.601448
C      -0.504529    -0.984888    -1.265246
C      -2.764687    -1.576234    -1.814991
C      -0.176842    -2.333195    -1.144973
H       0.260013    -0.231867    -1.107108
C      -2.445561    -2.921333    -1.692763
H      -3.774901    -1.277882    -2.082179
C      -1.148169    -3.302696    -1.357605
H       0.840174    -2.616662    -0.893412
H      -3.205999    -3.677023    -1.864088
H      -0.898555    -4.355342    -1.267370
C      -1.021406     0.784765     1.553359
O      -0.413303     1.735288     0.982550
C      -1.373713     2.639121     0.378788
C      -0.825934     3.746836    -0.272318
O       0.358391     4.076212    -0.346152
O      -1.817955     4.493095    -0.860485
C      -1.366181     5.671380    -1.517659
H      -0.675276     5.429660    -2.330335
H      -2.260926     6.152878    -1.915654
H      -0.858956     6.340471    -0.817147
72
     -1725.749788     -1725.218429  12.23  13.23
C       1.890196    -1.941914    -0.432994
C       1.937665    -1.486890     0.904580
C       1.601047    -2.385884     1.919118
C       1.226992    -3.679560     1.601850
C       1.193320    -4.105901     0.259296
C       1.531138    -3.244528    -0.770996
C       2.542401     0.190890    -0.456487
C       2.367082    -0.108950     0.860503
H       1.623703    -2.089374     2.962018
H       0.965207    -4.360115     2.401458
H       1.493733    -3.595380    -1.795250
H       2.832451     1.135906    -0.898434
N       2.249881    -0.900683    -1.252160
C       2.433700    -0.979476    -2.684824
H       1.570888    -1.458658    -3.153399
H       2.519411     0.032251    -3.084555
H       3.341216    -1.538007    -2.940340
O       0.831798    -5.367078    -0.121927
C       0.534193    -6.310992     0.888702
H      -0.334678    -6.003957     1.483502
H       0.303628    -7.243170     0.371587
H       1.391717    -6.469013     1.553939
N       0.159508     0.849271     2.601330
C      -0.724202    -0.088417     3.201337
O      -0.359416    -0.727400     4.152672
C      -2.114968    -0.257990     2.619936
H      -2.788184    -0.075696     3.460056
H      -2.200461    -1.327771     2.409861
C      -2.494357     0.568364     1.382412
H      -2.294052    -0.009733     0.480551
H      -3.569738     0.767287     1.383080
C      -1.731125     1.889365     1.291511
C      -1.557326     2.508289    -0.137807
H      -2.357684     3.222105    -0.338304
C       2.639448     0.838349     1.990467
H       2.821344     1.827891     1.568653
H       3.556359     0.548034     2.517794
C       1.556835     0.925812     3.079305
H       1.649153     0.115173     3.796771
H       1.667698     1.866300     3.626470
C      -2.303630     3.024862     2.193774
H      -1.702079     3.918037     1.997234
H      -3.306974     3.236186     1.807559
C      -2.380579     2.774243     3.698307
H      -2.698523     3.693086     4.198378
H      -3.107488     2.001007     3.956930
H      -1.412710     2.496385     4.127901
O      -1.723365     1.525321    -1.173774
C      -0.591255     0.706327    -1.416947
H       0.250498     1.320829    -1.754780
H      -0.268536     0.186237    -0.504276
C      -0.944472    -0.310486    -2.468222
C      -1.168938    -1.639414    -2.128014
C      -1.034636     0.071477    -3.805279
C      -1.469089    -2.579742    -3.108131
H      -1.088170    -1.949829    -1.090946
C      -1.337848    -0.861232    -4.787112
H      -0.866979     1.111424    -4.070911
C      -1.553090    -2.192251    -4.439519
H      -1.635256    -3.615852    -2.829632
H      -1.407457    -0.552698    -5.825652
H      -1.789389    -2.923494    -5.206025
C      -0.296841     1.691493     1.668578
O       0.498899     2.434285     1.031607
C      -0.230023     3.166403     0.001654
C       0.629256     3.730647    -0.963212
O       1.854275     3.777527    -0.941638
O      -0.098541     4.263124    -1.995443
C       0.679921     4.872947    -3.018713
H       1.349678     4.147150    -3.489173
H      -0.034128     5.255535    -3.749759
H       1.281945     5.691723    -2.616051
72
     -1725.742904     -1725.218394  16.55  13.25
C      -0.502775     5.060111    -1.995033
C       0.330179     4.014476    -1.563817
C       1.701131     4.267732    -1.398594
C       2.185537     5.528380    -1.659101
C       1.328439     6.565694    -2.089825
C      -0.026632     6.352375    -2.266133
C      -1.765948     3.239478    -1.714885
C      -0.502499     2.851281    -1.390791
H       2.375887     3.482572    -1.069957
H       3.237834     5.762275    -1.542920
H      -0.696509     7.135322    -2.595841
H      -2.683592     2.666168    -1.716746
N      -1.783300     4.572850    -2.083832
C      -2.945648     5.324541    -2.495741
H      -2.830465     5.699349    -3.518317
H      -3.819320     4.671633    -2.464717
H      -3.124037     6.172122    -1.825537
O       1.950767     7.761516    -2.308227
C       1.158540     8.849131    -2.739587
H       1.837685     9.694923    -2.851772
H       0.681464     8.639383    -3.705189
H       0.387677     9.101314    -2.000561
N       0.980224     0.337207     1.032466
C       2.354799     0.135384     0.728485
O       3.048028     1.069291     0.425698
C       2.782364    -1.313943     0.726207
H       3.866063    -1.336254     0.608648
H       2.328919    -1.770806    -0.161920
C       2.325719    -2.073324     1.975167
H       2.503264    -3.139994     1.837593
H       2.930117    -1.748176     2.826782
C       0.835339    -1.836003     2.289595
C      -0.175163    -2.937257     1.886210
H      -0.338569    -3.672303     2.682879
C      -0.041776     1.513019    -0.905570
H       0.843873     1.197490    -1.469217
H      -0.815366     0.755169    -1.060650
C       0.316854     1.569789     0.582389
H       1.007660     2.387658     0.784405
H      -0.577691     1.708329     1.190605
C       0.707913    -1.456025     3.797765
H       1.188559    -2.274500     4.346750
H       1.336452    -0.570872     3.955497
C      -0.680179    -1.204201     4.381251
H      -0.571304    -0.878372     5.420471
H      -1.229209    -0.425567     3.845765
H      -1.293711    -2.106638     4.379695
O       0.404231    -3.596565     0.744197
C      -0.469401    -4.549201     0.154405
H      -0.788590    -5.277439     0.914994
H      -1.367911    -4.046297    -0.221687
C       0.264156    -5.244835    -0.961811
C      -0.148731    -5.106593    -2.282112
C       1.377078    -6.037023    -0.681468
C       0.533388    -5.751121    -3.309879
H      -1.011637    -4.486665    -2.509239
C       2.062395    -6.678685    -1.702445
H       1.706281    -6.146736     0.348042
C       1.640157    -6.537682    -3.021711
H       0.199510    -5.635019    -4.336353
H       2.928236    -7.291582    -1.471413
H       2.175221    -7.040200    -3.821361
C       0.272447    -0.707623     1.480070
O      -0.961647    -0.814418     1.228211
C      -1.397974    -2.156889     1.592620
C      -2.721470    -2.243770     2.040640
O      -3.578186    -1.370125     2.056861
O      -2.982621    -3.525249     2.490008
C      -4.313395    -3.726420     2.950365
H      -4.543040    -3.067714     3.792635
H      -5.036361    -3.533278     2.153182
H      -4.369726    -4.770593     3.263404
72
     -1725.750487     -1725.218373  11.79  13.27
C      -2.629090     3.425808     0.452525
C      -1.697187     2.444608     0.057105
C      -1.150275     1.611055     1.034474
C      -1.534827     1.753244     2.354186
C      -2.473562     2.735839     2.720771
C      -3.031385     3.587036     1.777327
C      -2.355344     3.578208    -1.761429
C      -1.541331     2.559061    -1.372576
H      -0.423256     0.845178     0.799597
H      -1.087126     1.090329     3.082438
H      -3.750545     4.334963     2.090899
H      -2.531006     3.977912    -2.751627
N      -3.017640     4.114855    -0.672519
C      -3.968441     5.200593    -0.700821
H      -4.073831     5.555945    -1.727262
H      -4.950563     4.872170    -0.344341
H      -3.628497     6.034775    -0.078137
O      -2.897466     2.922192     4.007082
C      -2.351204     2.082159     5.006254
H      -2.580424     1.027394     4.812096
H      -1.264199     2.204451     5.082021
H      -2.816637     2.387522     5.944374
N       1.635988     0.795510    -2.413404
C       1.987430     0.678424    -3.784229
O       1.734702     1.585102    -4.531918
C       2.671786    -0.599664    -4.228768
H       3.735067    -0.357198    -4.324290
H       2.313955    -0.789582    -5.242437
C       2.448061    -1.811583    -3.319241
H       1.430214    -2.183187    -3.446458
H       3.116842    -2.627600    -3.603487
C       2.677971    -1.433833    -1.853889
C       2.113593    -2.403073    -0.762935
H       2.895241    -3.070735    -0.397482
C      -0.668221     1.691605    -2.224138
H      -0.885688     1.834025    -3.286154
H      -0.881101     0.641269    -1.994130
C       0.823853     1.947011    -1.974441
H       1.174229     2.820005    -2.522674
H       1.019783     2.096039    -0.913409
C       4.185827    -1.145326    -1.600621
H       4.714338    -2.075275    -1.840070
H       4.521995    -0.402176    -2.330948
C       4.581669    -0.672908    -0.202265
H       4.362778    -1.419052     0.562742
H       5.657272    -0.472799    -0.182920
H       4.068764     0.251636     0.079253
O       1.132288    -3.311661    -1.316420
C      -0.193003    -2.824820    -1.420510
H      -0.217942    -1.811200    -1.846439
H      -0.677823    -3.482701    -2.150597
C      -0.982464    -2.843082    -0.129590
C      -1.819544    -1.780961     0.198505
C      -0.911350    -3.939208     0.725689
C      -2.559404    -1.797550     1.374577
H      -1.876902    -0.914989    -0.453991
C      -1.660726    -3.965975     1.893160
H      -0.248863    -4.762588     0.479764
C      -2.483922    -2.893736     2.224035
H      -3.181678    -0.944825     1.627665
H      -1.596805    -4.824769     2.555297
H      -3.061962    -2.912919     3.142980
C       1.880280    -0.203026    -1.556749
O       1.384589    -0.183603    -0.393255
C       1.660328    -1.446676     0.260052
C       1.400143    -1.482528     1.632480
O       0.949981    -0.581894     2.335230
O       1.739405    -2.707846     2.149589
C       1.460310    -2.861377     3.536366
H       2.029124    -2.142976     4.132991
H       0.394382    -2.721027     3.735079
H       1.759046    -3.879986     3.789971
72
     -1725.750701     -1725.218204  11.66  13.37
C       1.187790    -1.086619    -2.146470
C       2.111496    -0.206566    -1.536134
C       3.262138    -0.752345    -0.962554
C       3.465750    -2.121074    -0.985709
C       2.527390    -2.973202    -1.601388
C       1.384135    -2.464447    -2.195239
C       0.398910     0.989569    -2.352833
C       1.578800     1.127041    -1.687036
H       4.008821    -0.120524    -0.493061
H       4.360705    -2.525845    -0.531531
H       0.678854    -3.141057    -2.662546
H      -0.315024     1.757518    -2.623557
N       0.144194    -0.339664    -2.633708
C      -0.949199    -0.837914    -3.440427
H      -1.728044    -0.075092    -3.487017
H      -0.619501    -1.069140    -4.459493
H      -1.378825    -1.734180    -2.987749
O       2.666315    -4.330476    -1.659307
C       3.843059    -4.906213    -1.124988
H       3.927376    -4.722821    -0.046965
H       3.759489    -5.979278    -1.300840
H       4.739422    -4.525769    -1.629494
N       1.812420     1.707369     1.159549
C       2.420872     0.689757     1.951837
O       3.610505     0.683331     2.113418
C       1.479726    -0.389017     2.433198
H       2.032773    -0.995965     3.150279
H       1.319102    -1.014312     1.546127
C       0.132118     0.088761     3.008939
H      -0.636365    -0.655613     2.796153
H       0.210413     0.157457     4.096583
C      -0.324750     1.449072     2.454655
C      -1.750893     1.532676     1.820348
H      -2.492115     1.785936     2.579724
C       2.159718     2.436824    -1.243355
H       1.412966     3.213579    -1.417446
H       3.034207     2.696857    -1.851582
C       2.631347     2.496483     0.222359
H       3.640379     2.106077     0.335220
H       2.637897     3.534931     0.564888
C      -0.235668     2.569748     3.538442
H      -0.654409     3.486101     3.111516
H      -0.913019     2.258062     4.341086
C       1.154881     2.837966     4.109407
H       1.626391     1.934215     4.508554
H       1.829844     3.267560     3.363140
H       1.082685     3.557021     4.929639
O      -2.195924     0.253485     1.338110
C      -1.605360    -0.165605     0.120950
H      -1.772365     0.588293    -0.655754
H      -0.517159    -0.287528     0.222673
C      -2.220478    -1.474091    -0.292982
C      -1.494397    -2.657738    -0.244125
C      -3.535381    -1.501446    -0.753944
C      -2.066113    -3.855748    -0.661091
H      -0.466818    -2.643897     0.106851
C      -4.112059    -2.693740    -1.167117
H      -4.103081    -0.575459    -0.781406
C      -3.375390    -3.875005    -1.124421
H      -1.487337    -4.773530    -0.622293
H      -5.137719    -2.705863    -1.522873
H      -3.824887    -4.808474    -1.447922
C       0.504459     1.920875     1.301658
O      -0.136493     2.626922     0.475667
C      -1.555539     2.624822     0.826675
C      -2.367850     3.031585    -0.252439
O      -2.009178     3.504322    -1.325417
O      -3.691180     2.834623     0.045786
C      -4.596014     3.235240    -0.976666
H      -4.413451     2.682907    -1.903108
H      -5.594433     3.014073    -0.596040
H      -4.500920     4.304200    -1.185398
72
     -1725.736355     -1725.211255  20.66  17.73
C       0.535761     4.641265    -2.595524
C       0.887789     3.842377    -1.487553
C       1.570947     4.433958    -0.423687
C       1.881208     5.782713    -0.476591
C       1.515197     6.558803    -1.593446
C       0.839478     5.999330    -2.666800
C      -0.179765     2.560618    -2.983554
C       0.416251     2.506682    -1.762498
H       1.862629     3.848835     0.443595
H       2.410947     6.233186     0.352465
H       0.571926     6.621880    -3.512612
H      -0.658327     1.772717    -3.550264
N      -0.115929     3.841737    -3.502269
C      -0.639760     4.273879    -4.776657
H       0.158776     4.660361    -5.418639
H      -1.104589     3.422991    -5.277289
H      -1.396331     5.054647    -4.645406
O       1.791465     7.893078    -1.704721
C       2.475942     8.524904    -0.641168
H       3.469115     8.086247    -0.484899
H       2.587494     9.569878    -0.933101
H       1.904449     8.470591     0.293546
N      -0.129755     0.470702     1.386296
C       0.923996     0.681166     2.321840
O       1.494341     1.739029     2.327775
C       1.274060    -0.455452     3.257325
H       0.867610    -0.181129     4.235845
H       2.360378    -0.426542     3.363375
C       0.792827    -1.833443     2.803449
H       1.395172    -2.181109     1.963295
H       0.914686    -2.563373     3.607204
C      -0.675718    -1.775642     2.369777
C      -1.204538    -2.973737     1.543923
H      -1.807210    -3.655627     2.154670
C       0.534498     1.334024    -0.841247
H       1.568356     1.234963    -0.491369
H       0.274405     0.405530    -1.358894
C      -0.379511     1.510980     0.373444
H      -0.205427     2.470697     0.855904
H      -1.428283     1.453295     0.084649
C      -1.597689    -1.466703     3.582289
H      -1.426365    -2.274096     4.303512
H      -1.246472    -0.545807     4.059744
C      -3.094394    -1.339748     3.301420
H      -3.609320    -1.061621     4.225886
H      -3.310004    -0.562635     2.561257
H      -3.530000    -2.274036     2.943338
O      -0.064384    -3.683929     1.043736
C      -0.432310    -4.791142     0.237479
H      -1.138378    -5.431114     0.788890
H      -0.946154    -4.443563    -0.666598
C       0.807152    -5.571889    -0.118122
C       1.712896    -5.947357     0.873591
C       1.053504    -5.950745    -1.433172
C       2.840097    -6.690488     0.554443
H       1.529632    -5.648041     1.900956
C       2.180902    -6.699776    -1.756916
H       0.358480    -5.653869    -2.213939
C       3.076272    -7.071570    -0.763498
H       3.538191    -6.975272     1.335811
H       2.359270    -6.989444    -2.787987
H       3.957417    -7.654377    -1.013008
C      -0.805445    -0.680742     1.357170
O      -1.595179    -0.930023     0.400344
C      -2.048702    -2.342991     0.495161
C      -3.423373    -2.610379     0.329255
O      -3.961284    -3.610177     0.784848
O      -4.220302    -1.727670    -0.370051
C      -3.672329    -0.956326    -1.427902
H      -4.457452    -0.866916    -2.182112
H      -3.389344     0.044846    -1.087329
H      -2.799489    -1.447416    -1.868682
72
     -1725.735375     -1725.209468  21.28  18.85
C      -2.587852    -3.437560     0.580449
C      -1.773436    -2.325734     0.283938
C      -0.942876    -1.819481     1.283842
C      -0.949134    -2.394333     2.541663
C      -1.780702    -3.498065     2.814782
C      -2.605927    -4.036757     1.838541
C      -2.943119    -2.858736    -1.549849
C      -2.022254    -1.968866    -1.090469
H      -0.289138    -0.975498     1.094320
H      -0.308977    -1.971369     3.304661
H      -3.231538    -4.888404     2.079334
H      -3.396401    -2.935813    -2.529442
N      -3.294505    -3.754002    -0.554648
C      -4.242021    -4.836685    -0.676247
H      -4.643689    -4.846211    -1.690821
H      -3.761230    -5.801574    -0.484068
H      -5.073555    -4.710841     0.025173
O      -1.836254    -4.110225     4.034841
C      -1.020850    -3.598147     5.071430
H      -1.221627    -4.217605     5.946385
H       0.043403    -3.666304     4.815745
H      -1.271304    -2.555257     5.300748
N      -1.193973     1.669526    -1.607834
C      -1.139285     2.199056    -2.928019
O      -1.904234     1.774149    -3.751606
C      -0.125440     3.282011    -3.217301
H      -0.694730     4.213617    -3.252943
H       0.212977     3.100201    -4.239305
C       1.062020     3.367581    -2.252582
H       1.777238     2.579395    -2.489212
H       1.579208     4.322291    -2.385179
C       0.640627     3.206750    -0.791303
C       1.707908     2.644176     0.195193
H       2.353448     3.422712     0.615189
C      -1.412799    -0.797956    -1.795742
H      -1.498207    -0.894293    -2.880906
H      -0.343483    -0.752015    -1.559433
C      -2.073270     0.514800    -1.349750
H      -3.006529     0.687811    -1.883440
H      -2.280126     0.496904    -0.281115
C       0.039716     4.491402    -0.150999
H      -0.145420     4.263010     0.901724
H       0.841306     5.238288    -0.165957
C      -1.224238     5.083964    -0.772856
H      -1.624801     5.852836    -0.106526
H      -1.034202     5.565723    -1.734511
H      -2.012570     4.335638    -0.909335
O       2.480606     1.707711    -0.573255
C       3.504362     1.047902     0.168192
H       4.323655     1.749595     0.375961
H       3.111334     0.704265     1.129674
C       3.997357    -0.112669    -0.654903
C       5.292409    -0.143110    -1.157541
C       3.142390    -1.182090    -0.923720
C       5.733275    -1.222774    -1.917564
H       5.964459     0.686485    -0.955117
C       3.576110    -2.258987    -1.682438
H       2.129907    -1.163458    -0.528899
C       4.875670    -2.281610    -2.181744
H       6.747692    -1.233463    -2.304117
H       2.902421    -3.086106    -1.885006
H       5.216297    -3.124396    -2.775004
C      -0.348771     2.085595    -0.663555
O      -0.301642     1.490966     0.456202
C       0.838263     2.027275     1.220516
C       1.111779     1.570522     2.514120
O       2.184176     1.746686     3.076794
O       0.131763     0.874571     3.208339
C      -1.224169     1.287445     3.105636
H      -1.668704     1.141975     4.093126
H      -1.296193     2.344673     2.831166
H      -1.772602     0.682884     2.376585
72
     -1725.739209     -1725.208750  18.87  19.30
C       3.904943     1.988417     0.393081
C       2.693471     1.327646     0.125884
C       2.501555     0.047806     0.668051
C       3.494231    -0.523607     1.427829
C       4.704285     0.160461     1.679635
C       4.929798     1.425250     1.169835
C       2.651985     3.330095    -0.875380
C       1.902032     2.208767    -0.698112
H       1.578738    -0.495041     0.504298
H       3.376540    -1.514683     1.851037
H       5.848692     1.965874     1.353356
H       2.417912     4.230728    -1.427401
N       3.865791     3.213045    -0.225013
C       4.914688     4.206134    -0.199342
H       4.594854     5.074394    -0.777495
H       5.123504     4.530984     0.825386
H       5.836783     3.815948    -0.642829
O       5.595274    -0.527607     2.451263
C       6.829333     0.094139     2.748629
H       7.401928     0.304142     1.836653
H       6.683268     1.025880     3.309194
H       7.384958    -0.612338     3.366074
N      -1.839410     1.516293    -0.571619
C      -2.766637     2.598145    -0.610423
O      -2.367838     3.715685    -0.423545
C      -4.219953     2.263951    -0.870875
H      -4.431458     2.583780    -1.895922
H      -4.795219     2.929322    -0.223934
C      -4.589520     0.798729    -0.637661
H      -4.579345     0.576897     0.430159
H      -5.602463     0.600797    -0.996877
C      -3.593261    -0.120468    -1.346923
C      -3.539664    -1.599806    -0.888479
H      -4.170563    -2.258151    -1.492625
C       0.524352     1.953295    -1.229671
H       0.519610     1.061106    -1.866735
H       0.198470     2.794498    -1.848737
C      -0.470679     1.768051    -0.085200
H      -0.196109     0.927812     0.551632
H      -0.518140     2.666327     0.527499
C      -3.756911    -0.010981    -2.889500
H      -4.801184    -0.273614    -3.094925
H      -3.645011     1.041285    -3.172953
C      -2.839665    -0.860077    -3.769461
H      -3.043414    -0.627585    -4.819368
H      -1.781466    -0.651684    -3.585449
H      -3.001010    -1.929197    -3.623821
O      -4.006022    -1.631388     0.483736
C      -3.501343    -2.730914     1.224325
H      -4.227609    -2.904673     2.026299
H      -3.456926    -3.632432     0.602968
C      -2.138393    -2.458574     1.830018
C      -1.206832    -3.484962     1.964774
C      -1.807208    -1.186850     2.295488
C       0.032580    -3.247070     2.547590
H      -1.444173    -4.473667     1.581676
C      -0.566319    -0.943383     2.870584
H      -2.531580    -0.383093     2.204954
C       0.359670    -1.974151     3.001218
H       0.747988    -4.058894     2.640933
H      -0.322673     0.052945     3.229244
H       1.326365    -1.784023     3.456488
C      -2.208134     0.287163    -0.939803
O      -1.380402    -0.672994    -0.884028
C      -2.114246    -1.929741    -1.054080
C      -1.579170    -3.092777    -1.617578
O      -2.299599    -4.038995    -1.923230
O      -0.233875    -3.228055    -1.869821
C       0.710821    -2.445615    -1.160067
H       1.650325    -3.001214    -1.194267
H       0.856723    -1.467732    -1.629570
H       0.411956    -2.309760    -0.117062
72
     -1725.737204     -1725.208729  20.13  19.32
C      -0.889158    -0.568596     4.586924
C      -0.928274     0.370810     3.535530
C      -1.993128     1.271732     3.479172
C      -2.982349     1.221144     4.447021
C      -2.920884     0.271367     5.485424
C      -1.874878    -0.634323     5.569791
C       0.909178    -0.890038     3.300887
C       0.241426     0.143716     2.722154
H      -2.054260     2.011416     2.686064
H      -3.804284     1.923090     4.396153
H      -1.854884    -1.352939     6.380800
H       1.833113    -1.366416     2.999858
N       0.241686    -1.331893     4.429081
C       0.654900    -2.408157     5.298763
H      -0.099364    -3.201557     5.326218
H       1.587914    -2.831111     4.922850
H       0.823872    -2.045993     6.318279
O      -3.865290     0.170787     6.468680
C      -4.960958     1.063790     6.437136
H      -5.581940     0.809402     7.296963
H      -4.632644     2.106685     6.525474
H      -5.549873     0.945513     5.519303
N      -0.162180     1.367132    -0.841395
C      -0.917566     2.563686    -0.960598
O      -1.631045     2.895632    -0.050880
C      -0.786464     3.365619    -2.237153
H      -0.282861     4.290381    -1.947572
H      -1.805411     3.657874    -2.501914
C      -0.093906     2.671540    -3.415383
H      -0.803547     2.012732    -3.916162
H       0.224307     3.416742    -4.149983
C       1.104988     1.830127    -2.977670
C       1.505857     0.632778    -3.887760
H       2.208310     0.911207    -4.678302
C       0.588728     0.885035     1.470620
H       1.617618     0.666648     1.167051
H       0.520516     1.965151     1.643798
C      -0.370517     0.510800     0.338571
H      -0.233787    -0.524934     0.028803
H      -1.404740     0.645464     0.648301
C       2.399145     2.643281    -2.684695
H       3.186665     1.913780    -2.475852
H       2.671803     3.129507    -3.627932
C       2.360618     3.680841    -1.563317
H       3.376925     4.031136    -1.362603
H       1.766968     4.560720    -1.820652
H       1.975425     3.265731    -0.625505
O       0.276270     0.158451    -4.484976
C       0.311284    -1.199237    -4.906023
H      -0.424893    -1.272997    -5.714015
H       1.295223    -1.457231    -5.308563
C      -0.062295    -2.161651    -3.797038
C      -1.061033    -1.833105    -2.881047
C       0.564455    -3.400040    -3.694019
C      -1.426898    -2.726153    -1.882317
H      -1.554277    -0.868551    -2.957469
C       0.197438    -4.297578    -2.697389
H       1.369393    -3.648174    -4.379050
C      -0.799365    -3.964963    -1.788270
H      -2.212151    -2.460546    -1.180046
H       0.699591    -5.257794    -2.626922
H      -1.086600    -4.666028    -1.010657
C       0.748126     1.036139    -1.759016
O       1.371234    -0.062986    -1.665536
C       2.126636    -0.275685    -2.903213
C       2.977065    -1.366817    -3.141250
O       3.460344    -1.550001    -4.254613
O       3.345921    -2.256453    -2.165007
C       2.746653    -2.264726    -0.881142
H       2.977357    -1.353629    -0.319532
H       1.662329    -2.395167    -0.942431
H       3.182417    -3.122111    -0.364799
72
     -1725.738950     -1725.208186  19.03  19.66
C      -3.074205     1.677871    -2.722687
C      -2.996201     0.971149    -1.511135
C      -4.163058     0.385554    -0.994948
C      -5.342662     0.515287    -1.689197
C      -5.396953     1.228185    -2.908325
C      -4.269223     1.821283    -3.445595
C      -0.959502     1.761437    -2.008230
C      -1.627703     1.037769    -1.068684
H      -4.141554    -0.163118    -0.057747
H      -6.263812     0.076913    -1.322032
H      -4.294803     2.371323    -4.376825
H       0.085622     2.040293    -2.044813
N      -1.821849     2.157387    -3.015656
C      -1.468745     2.935625    -4.180157
H      -2.023676     3.879328    -4.206052
H      -0.402383     3.163440    -4.144292
H      -1.672286     2.379135    -5.101067
O      -6.634282     1.272338    -3.483870
C      -6.769693     1.966875    -4.707109
H      -7.819111     1.881501    -4.990946
H      -6.511363     3.027494    -4.596427
H      -6.146438     1.520747    -5.492234
N      -0.425980    -1.737912     1.222152
C      -1.309154    -2.074878     2.283593
O      -2.493318    -1.943591     2.121349
C      -0.705774    -2.605284     3.565303
H      -0.878116    -3.683987     3.542060
H      -1.337715    -2.219719     4.367801
C       0.767957    -2.265442     3.815031
H       0.847181    -1.238262     4.172452
H       1.168318    -2.909482     4.603231
C       1.621233    -2.397113     2.553705
C       2.911010    -1.533139     2.470983
H       3.786917    -2.041738     2.884729
C      -1.061260     0.397523     0.157295
H      -1.677963     0.631734     1.032607
H      -0.059662     0.784946     0.350347
C      -0.983663    -1.122306     0.005073
H      -1.967523    -1.559418    -0.152863
H      -0.340502    -1.396306    -0.831133
C       2.033568    -3.854819     2.192683
H       2.682893    -3.787771     1.314693
H       2.666612    -4.202482     3.016573
C       0.926477    -4.874428     1.931289
H       0.192528    -4.515409     1.201905
H       1.367976    -5.785803     1.518941
H       0.396911    -5.162492     2.842253
O       2.658802    -0.327759     3.226582
C       3.619226     0.694349     2.982870
H       3.681648     1.270061     3.913082
H       4.602572     0.258566     2.779832
C       3.229202     1.619837     1.848905
C       1.917388     2.075238     1.726623
C       4.184644     2.066831     0.939920
C       1.567176     2.966923     0.719653
H       1.168753     1.728084     2.432099
C       3.837477     2.958354    -0.068546
H       5.198001     1.682858     1.002092
C       2.529008     3.414228    -0.181036
H       0.542049     3.318203     0.641914
H       4.592637     3.293531    -0.773146
H       2.262613     4.119022    -0.963025
C       0.897558    -1.805567     1.383450
O       1.665264    -1.303922     0.508377
C       3.036808    -1.336526     1.015613
C       4.179537    -1.040124     0.263870
O       5.297147    -1.087715     0.771066
O       4.122124    -0.713458    -1.069091
C       2.920858    -0.260755    -1.670957
H       3.222055     0.200767    -2.613393
H       2.235268    -1.087776    -1.880487
H       2.417113     0.486509    -1.050293
72
     -1725.737993     -1725.207381  19.63  20.16
C      -1.992674     2.424791    -3.213790
C      -2.251977     1.848079    -1.952638
C      -3.574457     1.757614    -1.515693
C      -4.596225     2.226713    -2.323822
C      -4.310268     2.795220    -3.580752
C      -3.007302     2.902614    -4.041217
C      -0.038992     1.829755    -2.306924
C      -0.978448     1.474144    -1.389628
H      -3.810920     1.325176    -0.547618
H      -5.618464     2.152661    -1.976752
H      -2.819573     3.346166    -5.012100
H       1.037124     1.721366    -2.262042
N      -0.634631     2.406934    -3.415244
C       0.043788     2.903971    -4.589207
H      -0.137090     3.975663    -4.723158
H       1.117150     2.745679    -4.473682
H      -0.289955     2.374537    -5.487754
O      -5.272562     3.275118    -4.424714
C      -6.623039     3.192351    -4.014668
H      -7.211274     3.623058    -4.825887
H      -6.932629     2.151783    -3.857802
H      -6.800597     3.765962    -3.096697
N      -1.002147    -1.319828     1.176280
C      -2.019397    -1.225864     2.164245
O      -3.064720    -0.704920     1.878013
C      -1.736004    -1.811296     3.529939
H      -2.278534    -2.759336     3.557125
H      -2.244417    -1.156459     4.240371
C      -0.259227    -1.985000     3.902492
H       0.154637    -1.021306     4.201051
H      -0.170689    -2.651531     4.765189
C       0.578169    -2.523284     2.742542
C       2.093131    -2.174417     2.733569
H       2.699913    -2.914842     3.263345
C      -0.756658     0.792452    -0.078635
H      -1.303390     1.307765     0.719493
H       0.302752     0.820557     0.180922
C      -1.217095    -0.665200    -0.126084
H      -2.278707    -0.742589    -0.351690
H      -0.658245    -1.224560    -0.876274
C       0.470023    -4.060298     2.516475
H       1.160412    -4.306281     1.704175
H       0.879105    -4.527892     3.418933
C      -0.905941    -4.649976     2.212246
H      -1.411508    -4.127944     1.392819
H      -0.789461    -5.692540     1.903941
H      -1.565580    -4.648407     3.082969
O       2.232718    -0.891263     3.382791
C       3.508182    -0.295285     3.171736
H       3.705323     0.306987     4.065630
H       4.284325    -1.063246     3.094732
C       3.553287     0.597664     1.948979
C       2.501054     1.468180     1.669276
C       4.666669     0.596536     1.112737
C       2.562509     2.327764     0.578811
H       1.630168     1.471289     2.317524
C       4.730940     1.454681     0.021037
H       5.470350    -0.108934     1.298750
C       3.681356     2.325444    -0.248605
H       1.737359     3.005478     0.378321
H       5.603540     1.438147    -0.625004
H       3.738639     3.002530    -1.095657
C       0.196122    -1.829200     1.471604
O       1.151410    -1.710893     0.646886
C       2.382633    -2.171675     1.288266
C       3.606145    -2.362511     0.636061
O       4.595624    -2.748323     1.253022
O       3.762300    -2.162141    -0.713916
C       2.845293    -1.378254    -1.458787
H       3.356076    -1.140803    -2.394006
H       1.927424    -1.930813    -1.682634
H       2.597150    -0.447719    -0.939214
