72
     -1725.769281     -1725.239533   0.00   0.00
C      -1.446557     3.042947    -0.463723
C      -0.324024     3.317321    -1.266712
C      -0.442900     3.174581    -2.657712
C      -1.637830     2.755308    -3.194000
C      -2.751726     2.482529    -2.366177
C      -2.678664     2.629935    -0.993160
C       0.247115     3.584439     0.881341
C       0.754690     3.670145    -0.381901
H       0.398082     3.384664    -3.312220
H      -1.764446     2.634271    -4.264084
H      -3.521649     2.429191    -0.345378
H       0.734311     3.716729     1.836948
N      -1.079312     3.207764     0.846361
C      -1.936549     3.040919     2.001076
H      -2.488780     2.100172     1.926079
H      -1.313354     2.981389     2.892031
H      -2.646895     3.869791     2.091001
O      -3.867362     2.069755    -3.034886
C      -5.042222     1.841834    -2.281828
H      -4.902424     1.032257    -1.554530
H      -5.361973     2.750260    -1.756694
H      -5.811047     1.550903    -2.998173
N       2.453324     1.474910    -1.155379
C       2.483159     1.238758    -2.556885
O       2.990739     2.060364    -3.273398
C       1.873078    -0.052721    -3.057172
H       2.478097    -0.360309    -3.912057
H       0.886038     0.212084    -3.453785
C       1.773842    -1.151647    -1.998602
H       1.237927    -2.016332    -2.393026
H       2.770996    -1.496446    -1.718607
C       1.073741    -0.597152    -0.759571
C       1.160960    -1.405082     0.559538
H       0.280429    -2.034803     0.712303
C       2.174274     3.931533    -0.793448
H       2.615978     4.735980    -0.197230
H       2.202047     4.257133    -1.836128
C       3.081026     2.701934    -0.630548
H       4.020869     2.836829    -1.165558
H       3.297591     2.515349     0.420697
C      -0.403823    -0.189357    -1.012901
H      -0.809699     0.179306    -0.066207
H      -0.440573     0.652137    -1.706212
C      -1.285006    -1.317025    -1.548409
H      -2.319064    -0.966382    -1.616966
H      -0.982876    -1.633250    -2.551383
H      -1.273118    -2.197656    -0.899062
O       2.331363    -2.233941     0.476795
C       2.499851    -3.053934     1.622699
H       3.503985    -3.478804     1.527606
H       2.468949    -2.440919     2.531461
C       1.471069    -4.161986     1.706697
C       1.205727    -4.954907     0.590358
C       0.779777    -4.406974     2.887883
C       0.270252    -5.977885     0.657586
H       1.737078    -4.760448    -0.336811
C      -0.155549    -5.434410     2.960655
H       0.963574    -3.776544     3.752622
C      -0.411800    -6.222249     1.846301
H       0.072455    -6.588205    -0.218406
H      -0.687880    -5.614961     3.889556
H      -1.142594    -7.023140     1.900487
C       1.808733     0.643074    -0.333832
O       1.834950     0.826476     0.917374
C       1.237554    -0.330648     1.578835
C       0.430349    -0.008924     2.671134
O       0.274580     1.086100     3.210816
O      -0.211841    -1.135898     3.140911
C      -1.025435    -0.927961     4.286442
H      -1.436433    -1.906045     4.543990
H      -0.437604    -0.535851     5.120858
H      -1.837548    -0.226272     4.074316
72
     -1725.768399     -1725.238577   0.55   0.60
C       3.244203     0.805006     0.598782
C       3.484850    -0.028758    -0.516308
C       3.642136     0.562663    -1.770410
C       3.538878     1.937273    -1.901936
C       3.288582     2.744996    -0.773556
C       3.149405     2.190355     0.489021
C       3.223888    -1.312250     1.300050
C       3.471599    -1.388049    -0.038369
H       3.836682    -0.044095    -2.650078
H       3.659634     2.384051    -2.880258
H       2.963106     2.837989     1.337712
H       3.081934    -2.101381     2.025007
N       3.086304     0.001503     1.698445
C       2.844577     0.452481     3.052508
H       3.748682     0.886510     3.492959
H       2.047422     1.200828     3.060990
H       2.504699    -0.394096     3.647261
O       3.157654     4.103526    -0.835787
C       3.348098     4.738870    -2.085242
H       3.227581     5.807059    -1.901458
H       4.353623     4.551642    -2.480943
H       2.601736     4.413017    -2.820065
N       1.213469    -2.189507    -1.634790
C       1.253323    -1.697499    -2.967504
O       2.103753    -2.107123    -3.712680
C       0.202175    -0.684151    -3.366293
H      -0.033650    -0.890666    -4.411914
H       0.700292     0.292022    -3.347198
C      -1.046472    -0.691706    -2.483783
H      -1.714463     0.126146    -2.758365
H      -1.603967    -1.619156    -2.627332
C      -0.629676    -0.584248    -1.018217
C      -1.679959    -0.913620     0.072047
H      -2.164428    -0.012792     0.458065
C       3.563609    -2.616206    -0.895775
H       4.144839    -3.400469    -0.400961
H       4.081742    -2.377183    -1.827651
C       2.189467    -3.218220    -1.229334
H       2.265111    -3.931091    -2.050188
H       1.765976    -3.723510    -0.362061
C       0.067218     0.759531    -0.668842
H       0.312928     0.735841     0.396869
H       1.019270     0.828320    -1.196852
C      -0.766657     2.002061    -0.978984
H      -0.934392     2.125638    -2.053265
H      -1.743317     1.979970    -0.486003
H      -0.234712     2.891446    -0.628643
O      -2.668021    -1.765832    -0.529213
C      -3.710463    -2.109424     0.370167
H      -4.276868    -2.898919    -0.133571
H      -3.288772    -2.522940     1.294169
C      -4.618037    -0.940024     0.689674
C      -4.964298    -0.642463     2.002943
C      -5.120630    -0.144243    -0.339619
C      -5.808266     0.426348     2.287712
H      -4.555567    -1.242757     2.810147
C      -5.959192     0.925530    -0.059374
H      -4.844810    -0.368027    -1.366081
C      -6.307915     1.212000     1.257538
H      -6.070842     0.647207     3.317814
H      -6.343901     1.537715    -0.869439
H      -6.965008     2.047546     1.477795
C       0.359745    -1.681739    -0.742474
O       0.289361    -2.162542     0.425196
C      -0.853280    -1.568804     1.114367
C      -0.615132    -1.268371     2.456393
O       0.364286    -1.558971     3.142657
O      -1.682892    -0.576776     2.989881
C      -1.562123    -0.260122     4.369188
H      -1.447184    -1.164908     4.972250
H      -0.702196     0.390748     4.553000
H      -2.484747     0.256803     4.640203
72
     -1725.768399     -1725.238566   0.55   0.61
C       2.721945    -1.725393     1.069816
C       1.859658    -2.838095     0.948003
C       1.918699    -3.603960    -0.217009
C       2.794705    -3.251412    -1.229839
C       3.637480    -2.130112    -1.085839
C       3.618659    -1.362034     0.067759
C       1.448411    -1.817995     2.898619
C       1.052016    -2.879480     2.140601
H       1.277783    -4.471627    -0.344281
H       2.829140    -3.851318    -2.129969
H       4.282502    -0.509505     0.150936
H       1.063388    -1.456969     3.841942
N       2.454064    -1.114856     2.267856
C       3.128291     0.051968     2.796310
H       3.194956     0.826053     2.026956
H       2.536406     0.456002     3.616293
H       4.137032    -0.196512     3.143417
O       4.510890    -1.717289    -2.051939
C       4.622798    -2.492287    -3.230042
H       4.941032    -3.517700    -3.006505
H       3.677495    -2.518001    -3.785866
H       5.384131    -2.004848    -3.840046
N      -1.446688    -2.503675     0.760264
C      -1.557229    -3.262351    -0.436352
O      -1.618267    -4.461042    -0.360566
C      -1.600581    -2.498616    -1.742363
H      -2.270785    -3.059145    -2.396746
H      -0.598043    -2.585165    -2.176909
C      -2.024817    -1.036241    -1.602754
H      -1.935435    -0.518564    -2.559052
H      -3.073163    -0.974628    -1.304847
C      -1.164735    -0.360530    -0.536527
C      -1.625958     1.008723     0.022652
H      -1.126681     1.843207    -0.476921
C      -0.087175    -3.823548     2.391555
H      -0.123475    -4.127989     3.442141
H       0.051219    -4.733120     1.802060
C      -1.456511    -3.213334     2.053142
H      -2.222654    -3.985841     1.990184
H      -1.753203    -2.483659     2.805720
C       0.340063    -0.279131    -0.913888
H       0.858440     0.226283    -0.093818
H       0.761594    -1.283977    -0.963974
C       0.622498     0.446888    -2.228633
H       0.218754    -0.093432    -3.090335
H       0.207182     1.459182    -2.241136
H       1.703971     0.526771    -2.372671
O      -3.043269     1.103376    -0.192655
C      -3.579777     2.340021     0.250597
H      -4.666150     2.212074     0.214606
H      -3.288245     2.524845     1.291486
C      -3.163376     3.505817    -0.621646
C      -3.267361     3.412087    -2.009350
C      -2.675642     4.680206    -0.059476
C      -2.895767     4.476734    -2.818411
H      -3.639196     2.492783    -2.452518
C      -2.306288     5.751391    -0.866863
H      -2.568387     4.749549     1.018801
C      -2.416113     5.652308    -2.247542
H      -2.981281     4.391475    -3.897482
H      -1.927347     6.662775    -0.414514
H      -2.126640     6.486265    -2.879320
C      -1.263384    -1.181710     0.718626
O      -1.223181    -0.504717     1.786157
C      -1.223998     0.915852     1.447034
C      -0.377042     1.690923     2.240716
O       0.246745     1.355184     3.247138
O      -0.320244     2.983249     1.761581
C       0.482502     3.870726     2.526662
H       0.404648     4.843371     2.036976
H       0.122218     3.938645     3.556767
H       1.526767     3.545072     2.545231
72
     -1725.767022     -1725.238024   1.42   0.95
C      -1.739402    -2.081720    -2.457622
C      -2.651106    -1.054199    -2.152571
C      -2.827024    -0.015632    -3.079881
C      -2.096765    -0.019887    -4.245189
C      -1.185084    -1.063241    -4.529454
C      -0.997787    -2.112539    -3.648495
C      -2.580543    -2.485497    -0.432593
C      -3.186888    -1.335985    -0.847066
H      -3.526285     0.792150    -2.884139
H      -2.207575     0.766587    -4.983390
H      -0.307164    -2.920278    -3.851354
H      -2.658387    -3.012869     0.507597
N      -1.705507    -2.945920    -1.394391
C      -0.905986    -4.148989    -1.296218
H      -0.887597    -4.471287    -0.256146
H      -1.307518    -4.945521    -1.931841
H       0.125901    -3.939234    -1.591041
O      -0.527721    -0.933459    -5.718278
C       0.348998    -1.973257    -6.105158
H       1.181735    -2.080398    -5.398781
H      -0.180286    -2.930275    -6.190072
H       0.742304    -1.691665    -7.082347
N      -2.175378     1.065957     0.381627
C      -2.332614     2.230458    -0.419029
O      -3.441772     2.643627    -0.630837
C      -1.075057     2.883877    -0.949513
H      -1.273688     3.957166    -0.957581
H      -0.992506     2.574924    -1.998015
C       0.191383     2.540451    -0.164520
H       1.071433     2.959096    -0.655045
H       0.147239     2.978376     0.834422
C       0.309358     1.022957    -0.036991
C       1.310945     0.445802     0.996272
H       2.264585     0.175312     0.530719
C      -4.112764    -0.445896    -0.070290
H      -4.852056    -1.032895     0.483445
H      -4.668002     0.197733    -0.756848
C      -3.378482     0.432768     0.953801
H      -4.023318     1.234049     1.314120
H      -3.043637    -0.159733     1.804443
C       0.499825     0.298033    -1.397576
H       0.591412    -0.771906    -1.188690
H      -0.400092     0.412094    -2.003543
C       1.707309     0.772396    -2.204383
H       1.603786     1.813245    -2.525235
H       2.642920     0.683354    -1.644107
H       1.799977     0.162089    -3.107604
O       1.535212     1.458916     1.984724
C       2.380493     1.021467     3.037297
H       1.971523     0.097713     3.468267
H       3.383888     0.793365     2.649625
C       2.460317     2.104309     4.081427
C       1.292396     2.619123     4.644214
C       3.688329     2.592032     4.513176
C       1.354709     3.602594     5.620272
H       0.330749     2.244145     4.307659
C       3.755393     3.576181     5.495226
H       4.603654     2.202049     4.075929
C       2.588664     4.083143     6.050278
H       0.438507     3.996657     6.049375
H       4.721416     3.947331     5.823361
H       2.637543     4.851878     6.815102
C      -0.973953     0.511433     0.555858
O      -0.831078    -0.489635     1.316013
C       0.593819    -0.756080     1.485093
C       0.928760    -2.110974     1.506842
O       0.176632    -3.084360     1.524013
O       2.300495    -2.264268     1.530160
C       2.747054    -3.611819     1.598134
H       3.837164    -3.566945     1.630955
H       2.364642    -4.107596     2.494486
H       2.422548    -4.180878     0.721899
72
     -1725.767974     -1725.234987   0.82   2.85
C      -2.336642    -1.256386    -0.621419
C      -3.022498    -0.101776    -0.202346
C      -3.347436     0.026888     1.157161
C      -2.967229    -0.957876     2.039233
C      -2.268977    -2.103853     1.593579
C      -1.953603    -2.276689     0.259979
C      -2.636948     0.047422    -2.403685
C      -3.208538     0.725383    -1.367365
H      -3.889479     0.895214     1.520077
H      -3.200833    -0.888799     3.096033
H      -1.413266    -3.142186    -0.099605
H      -2.500810     0.341896    -3.435188
N      -2.112161    -1.150428    -1.968377
C      -1.362521    -2.083876    -2.780375
H      -1.866856    -3.054592    -2.831477
H      -1.267885    -1.670509    -3.784644
H      -0.355333    -2.215231    -2.374311
O      -1.936676    -2.989495     2.581610
C      -1.358586    -4.221164     2.194714
H      -0.378576    -4.076914     1.722539
H      -1.230692    -4.798284     3.110981
H      -2.015003    -4.770534     1.508987
N      -1.537311     2.806108    -0.384083
C      -1.802048     2.988781     1.000539
O      -2.797336     3.580439     1.326406
C      -0.802011     2.425134     1.988190
H      -1.390953     2.087899     2.842884
H      -0.204883     3.274923     2.339847
C       0.081720     1.305087     1.440996
H       0.863510     1.052660     2.157326
H      -0.513849     0.404853     1.288568
C       0.684765     1.732809     0.104883
C       1.338501     0.638511    -0.786897
H       2.418923     0.603063    -0.635275
C      -3.726822     2.133974    -1.372581
H      -4.372799     2.297396    -0.506636
H      -4.330578     2.332413    -2.263310
C      -2.588202     3.169840    -1.352083
H      -2.105058     3.233850    -2.326460
H      -2.957801     4.156518    -1.073799
C       1.653717     2.943961     0.219427
H       2.058186     3.128526    -0.780742
H       1.089694     3.840579     0.500135
C       2.793806     2.725683     1.214896
H       2.432270     2.684039     2.246256
H       3.336915     1.797462     1.018153
H       3.509554     3.550322     1.149985
O       0.785677    -0.650544    -0.459110
C       1.746383    -1.660330    -0.193557
H       1.185407    -2.599822    -0.218356
H       2.492764    -1.695568    -0.995327
C       2.423043    -1.501152     1.150181
C       3.788636    -1.252145     1.239520
C       1.674993    -1.590889     2.324626
C       4.403486    -1.094037     2.478814
H       4.379752    -1.181615     0.330004
C       2.282888    -1.432935     3.561815
H       0.605229    -1.773976     2.266354
C       3.650907    -1.183140     3.641946
H       5.470515    -0.902114     2.532517
H       1.689921    -1.504245     4.468479
H       4.126030    -1.060598     4.610077
C      -0.439735     2.159420    -0.790221
O      -0.266760     1.870377    -2.004772
C       0.979789     1.112967    -2.151427
C       1.010912     0.373463    -3.350477
O       0.257283     0.445360    -4.312897
O       2.082385    -0.495214    -3.340547
C       2.251063    -1.241927    -4.538911
H       3.153790    -1.839465    -4.398954
H       1.393844    -1.896659    -4.723371
H       2.370433    -0.578253    -5.399130
72
     -1725.763722     -1725.234794   3.49   2.97
C       2.090406    -2.890619    -0.856879
C       0.989041    -3.557014    -0.286411
C       0.309189    -4.506223    -1.064793
C       0.726315    -4.752133    -2.350835
C       1.834269    -4.069628    -2.901517
C       2.534684    -3.130420    -2.165352
C       1.818024    -2.113391     1.219240
C       0.835182    -3.042401     1.050777
H      -0.547267    -5.041088    -0.668175
H       0.218604    -5.477243    -2.976699
H       3.388557    -2.601514    -2.567775
H       2.006811    -1.471076     2.070808
N       2.585772    -2.013325     0.075178
C       3.716208    -1.130917    -0.099676
H       3.576798    -0.487087    -0.974347
H       3.801981    -0.497364     0.784202
H       4.647048    -1.694762    -0.220087
O       2.135686    -4.417130    -4.185436
C       3.234900    -3.776551    -4.802097
H       4.169366    -3.980067    -4.264495
H       3.302554    -4.190149    -5.808740
H       3.081052    -2.692170    -4.866707
N      -1.798623    -2.055052     0.630216
C      -2.397268    -2.348013    -0.634572
O      -2.805443    -3.454654    -0.857004
C      -2.495685    -1.215205    -1.633937
H      -3.403470    -1.403582    -2.209592
H      -1.656247    -1.347055    -2.326541
C      -2.490549     0.178171    -1.008405
H      -2.469286     0.947587    -1.781674
H      -3.402744     0.334887    -0.429828
C      -1.287103     0.306898    -0.078493
C      -1.261637     1.486706     0.923986
H      -0.683102     2.332644     0.542725
C      -0.204821    -3.380232     2.076894
H       0.004364    -2.794861     2.973983
H      -0.140943    -4.435629     2.363955
C      -1.664275    -3.128605     1.633783
H      -2.100426    -4.007955     1.167508
H      -2.278069    -2.858523     2.496221
C       0.080841     0.225655    -0.815935
H       0.862710     0.384732    -0.068457
H       0.235488    -0.785440    -1.205198
C       0.231731     1.244528    -1.945631
H      -0.433708     1.027916    -2.786743
H       0.024111     2.263615    -1.605947
H       1.256058     1.227984    -2.329194
O      -2.619588     1.894458     1.140517
C      -2.720156     3.005512     2.017862
H      -3.785500     3.091283     2.253039
H      -2.175655     2.799223     2.947046
C      -2.218329     4.290226     1.393093
C      -1.322978     5.111392     2.069059
C      -2.652134     4.664343     0.121284
C      -0.873265     6.294864     1.491850
H      -0.961520     4.812697     3.048491
C      -2.202834     5.841891    -0.459576
H      -3.344109     4.020566    -0.414065
C      -1.312665     6.662924     0.227205
H      -0.174212     6.926751     2.031151
H      -2.547956     6.122316    -1.450135
H      -0.961673     7.584980    -0.225606
C      -1.325304    -0.837995     0.891816
O      -0.896110    -0.555917     2.048901
C      -0.603602     0.882924     2.111955
C       0.642226     1.173378     2.684346
O       1.422600     0.411129     3.253231
O       0.922781     2.516515     2.560631
C       2.150375     2.928796     3.146940
H       2.162175     2.719800     4.220031
H       3.000980     2.419445     2.685228
H       2.219371     4.004253     2.973395
72
     -1725.762747     -1725.234418   4.10   3.21
C       2.548136     2.883901    -0.251541
C       2.409334     1.535182     0.137848
C       1.623436     0.692172    -0.650867
C       0.981399     1.193717    -1.768477
C       1.123357     2.550673    -2.122998
C       1.911759     3.409949    -1.373212
C       3.737540     2.573016     1.611820
C       3.179048     1.361524     1.342919
H       1.498663    -0.357168    -0.402146
H       0.366074     0.527830    -2.358182
H       2.006143     4.446759    -1.674772
H       4.367227     2.872192     2.438868
N       3.370344     3.501921     0.658247
C       3.769242     4.889960     0.621549
H       4.424917     5.092909     1.469671
H       4.312950     5.116332    -0.301316
H       2.898186     5.549454     0.690356
O       0.512338     3.109331    -3.207335
C      -0.327146     2.281654    -3.993838
H      -0.712700     2.917755    -4.791564
H       0.226411     1.444200    -4.430671
H      -1.162542     1.885776    -3.406640
N       0.773605     0.425502     2.706800
C       0.237948     1.751141     2.744915
O       0.828333     2.608120     3.341525
C      -1.083008     1.995672     2.039790
H      -0.977911     2.966329     1.550462
H      -1.819250     2.136511     2.839505
C      -1.523624     0.918428     1.049169
H      -2.563253     1.072382     0.755117
H      -0.924372     0.983067     0.142400
C      -1.334948    -0.465389     1.668543
C      -1.392718    -1.699528     0.732622
H      -2.366413    -2.198406     0.780666
C       3.204629     0.134170     2.201549
H       4.162570     0.038135     2.721934
H       3.088640    -0.761991     1.584684
C       2.108705     0.159302     3.276470
H       2.056741    -0.794583     3.804665
H       2.288582     0.957734     3.994328
C      -2.226963    -0.724408     2.917530
H      -2.028443    -1.748867     3.249818
H      -1.911555    -0.066330     3.735095
C      -3.723466    -0.539326     2.666647
H      -4.290551    -0.843685     3.550993
H      -3.977237     0.503989     2.458018
H      -4.073989    -1.145560     1.826632
O      -1.192484    -1.238851    -0.615205
C      -1.058477    -2.305798    -1.539963
H      -0.103048    -2.820804    -1.384435
H      -1.856144    -3.044454    -1.374136
C      -1.150965    -1.757689    -2.941206
C      -0.135938    -1.982962    -3.864678
C      -2.276611    -1.035241    -3.337962
C      -0.245550    -1.510451    -5.169770
H       0.749027    -2.534845    -3.560663
C      -2.390611    -0.563095    -4.637552
H      -3.065946    -0.847312    -2.616388
C      -1.375175    -0.803650    -5.559544
H       0.552190    -1.699253    -5.881618
H      -3.274722    -0.007520    -4.935492
H      -1.465420    -0.437672    -6.577493
C       0.081405    -0.566947     2.151303
O       0.600701    -1.712280     2.018925
C      -0.325480    -2.574078     1.273497
C      -0.379698    -3.890638     1.761735
O       0.342802    -4.424767     2.591761
O      -1.399170    -4.584063     1.136776
C      -1.525364    -5.939744     1.548874
H      -1.733524    -6.007415     2.620220
H      -2.358257    -6.353002     0.977021
H      -0.609705    -6.498916     1.338405
72
     -1725.763822     -1725.234287   3.43   3.29
C      -0.290808     0.894413    -3.678637
C       0.407316    -0.299747    -3.395897
C       1.641968    -0.206720    -2.749016
C       2.136909     1.029097    -2.380093
C       1.411296     2.201766    -2.662616
C       0.193173     2.151790    -3.325100
C      -1.541752    -0.819641    -4.375436
C      -0.421716    -1.390282    -3.851730
H       2.223646    -1.086823    -2.498794
H       3.074912     1.061118    -1.843926
H      -0.342428     3.071978    -3.528479
H      -2.408633    -1.296477    -4.813253
N      -1.477784     0.558054    -4.284251
C      -2.462543     1.493914    -4.774864
H      -2.837742     2.127426    -3.964699
H      -2.039352     2.134209    -5.555517
H      -3.301336     0.938743    -5.197464
O       1.837438     3.447350    -2.303464
C       3.032313     3.540504    -1.548559
H       2.956617     2.971161    -0.614564
H       3.896120     3.182542    -2.120885
H       3.162686     4.599443    -1.321743
N      -0.845255    -2.603030    -1.321449
C      -2.255192    -2.721428    -1.438171
O      -2.706233    -3.456328    -2.276967
C      -3.109593    -1.913347    -0.485591
H      -4.002534    -2.513057    -0.300293
H      -3.440450    -1.030610    -1.044749
C      -2.406052    -1.520759     0.813019
H      -3.031939    -0.846155     1.399670
H      -2.231258    -2.405848     1.426782
C      -1.061916    -0.869918     0.492082
C      -0.038048    -0.721428     1.645517
H      -0.071889     0.270755     2.103440
C      -0.160645    -2.861288    -3.727382
H       0.759940    -3.134433    -4.255352
H      -0.979004    -3.405840    -4.199588
C      -0.004036    -3.352855    -2.272354
H      -0.281376    -4.405233    -2.198519
H       1.021775    -3.243543    -1.927064
C      -1.187535     0.478026    -0.273342
H      -0.176506     0.859431    -0.442485
H      -1.610012     0.296888    -1.266324
C      -2.025899     1.529075     0.454126
H      -3.082430     1.248685     0.508079
H      -1.671361     1.700045     1.474852
H      -1.966781     2.482546    -0.078217
O      -0.374247    -1.711252     2.636062
C       0.459685    -1.648714     3.781465
H       0.239933    -2.559500     4.347745
H       1.515062    -1.675744     3.485768
C       0.192131    -0.428565     4.638344
C       1.241773     0.306040     5.179229
C      -1.118146    -0.033560     4.906343
C       0.991239     1.413203     5.983188
H       2.264300     0.015971     4.956809
C      -1.372181     1.073745     5.704252
H      -1.940645    -0.600799     4.480667
C      -0.316302     1.799486     6.247726
H       1.820593     1.976994     6.399352
H      -2.396949     1.371201     5.905345
H      -0.514087     2.664352     6.873231
C      -0.296150    -1.798396    -0.405448
O       0.952819    -1.799942    -0.202768
C       1.243414    -0.953198     0.946335
C       2.500067    -0.353741     0.952099
O       3.426749    -0.498821     0.157858
O       2.619295     0.486968     2.045723
C       3.900127     1.078736     2.200960
H       3.841562     1.692233     3.102236
H       4.675867     0.316180     2.316288
H       4.158016     1.702953     1.340468
72
     -1725.765149     -1725.234021   2.59   3.46
C       0.924696    -2.232998     2.635975
C       1.426918    -2.953269     1.537073
C       2.810597    -2.938557     1.300794
C       3.631486    -2.228635     2.144085
C       3.105222    -1.526598     3.253453
C       1.748712    -1.519909     3.519719
C      -0.803318    -3.150374     1.565422
C       0.300682    -3.554254     0.873154
H       3.236119    -3.477485     0.459168
H       4.704662    -2.197174     1.991912
H       1.328090    -0.989439     4.363643
H      -1.850988    -3.335587     1.374176
N      -0.441074    -2.353019     2.631215
C      -1.359938    -1.725567     3.557939
H      -1.344164    -2.221583     4.534075
H      -1.100934    -0.670797     3.686592
H      -2.363349    -1.765811     3.135386
O       4.038375    -0.878178     4.008937
C       3.588974    -0.172392     5.148598
H       3.099404    -0.842366     5.866182
H       4.477759     0.260133     5.608986
H       2.896995     0.633306     4.873126
N       0.601562    -2.362180    -1.771009
C       1.937392    -2.329406    -2.255698
O       2.512302    -3.368614    -2.443098
C       2.547757    -0.972488    -2.531067
H       3.154243    -1.095557    -3.430724
H       3.249377    -0.779694    -1.713087
C       1.528004     0.156180    -2.686733
H       2.033754     1.123217    -2.740312
H       0.972318     0.032265    -3.617318
C       0.548646     0.141260    -1.509513
C      -0.760390     0.960629    -1.666452
H      -0.688692     1.939294    -1.183195
C       0.356838    -4.408313    -0.360254
H      -0.302838    -5.276711    -0.264444
H       1.369810    -4.795088    -0.492293
C      -0.063932    -3.671423    -1.635857
H       0.191935    -4.254118    -2.521163
H      -1.135987    -3.478171    -1.640374
C       1.286808     0.494227    -0.185902
H       2.027095    -0.283503     0.027122
H       1.848882     1.413152    -0.391819
C       0.424740     0.692945     1.057858
H      -0.181235    -0.186874     1.276448
H       1.077917     0.866929     1.917892
H      -0.242520     1.551670     0.962489
O      -0.977837     1.149346    -3.073944
C      -2.154090     1.894256    -3.349096
H      -2.308940     1.797109    -4.428218
H      -3.011472     1.443928    -2.834979
C      -2.028089     3.355102    -2.971438
C      -0.904785     4.083865    -3.361649
C      -3.025266     3.991857    -2.241073
C      -0.785641     5.426874    -3.032607
H      -0.119472     3.587541    -3.924562
C      -2.911620     5.339090    -1.913096
H      -3.889874     3.423152    -1.912564
C      -1.792422     6.059537    -2.308790
H       0.093869     5.983374    -3.341924
H      -3.698221     5.824254    -1.343221
H      -1.701098     7.110398    -2.052296
C      -0.035096    -1.240114    -1.425993
O      -1.251029    -1.274946    -1.081963
C      -1.768373     0.092294    -1.004632
C      -2.580218     0.313044     0.112415
O      -3.002705    -0.509242     0.923581
O      -2.895262     1.650768     0.218714
C      -3.738836     1.983215     1.312916
H      -3.904299     3.060135     1.247283
H      -4.692107     1.451895     1.248694
H      -3.265835     1.734198     2.267335
72
     -1725.765263     -1725.233949   2.52   3.50
C      -2.015180     0.064314    -0.893110
C      -2.311191    -1.296933    -0.659459
C      -2.014200    -2.224265    -1.659315
C      -1.426677    -1.799062    -2.838462
C      -1.135285    -0.434531    -3.040604
C      -1.428775     0.512639    -2.073786
C      -2.896607    -0.109664     1.147413
C      -2.877584    -1.384357     0.663280
H      -2.236846    -3.278551    -1.524728
H      -1.202740    -2.527939    -3.606861
H      -1.186885     1.553809    -2.245716
H      -3.181761     0.256318     2.124426
N      -2.386404     0.772130     0.220705
C      -2.201559     2.193300     0.421265
H      -2.804820     2.770391    -0.286956
H      -2.500276     2.440340     1.440018
H      -1.148854     2.455380     0.297591
O      -0.551906     0.042447    -4.183616
C      -0.296296    -0.865351    -5.236012
H       0.132792    -0.274946    -6.046578
H       0.420753    -1.639921    -4.937015
H      -1.219101    -1.342804    -5.587606
N      -0.668065    -2.807434     1.680465
C      -0.252015    -3.712414     0.667790
O      -0.881264    -4.723621     0.499960
C       0.973839    -3.349419    -0.147628
H       0.755152    -3.674523    -1.166153
H       1.781809    -3.994840     0.216278
C       1.372359    -1.873972    -0.104687
H       2.352146    -1.736660    -0.566343
H       0.662255    -1.275114    -0.678258
C       1.374352    -1.387595     1.344626
C       1.449818     0.148668     1.589637
H       2.469278     0.449985     1.846278
C      -3.146170    -2.654437     1.414543
H      -3.328104    -3.471375     0.712213
H      -4.037820    -2.567843     2.042758
C      -1.970225    -3.033792     2.334271
H      -1.972635    -2.424009     3.237149
H      -2.011523    -4.085533     2.616763
C       2.410943    -2.107448     2.252123
H       2.345944    -1.644057     3.242081
H       2.121997    -3.156619     2.379706
C       3.847843    -2.036842     1.734875
H       4.533394    -2.455852     2.476748
H       3.978176    -2.605708     0.809529
H       4.161507    -1.006575     1.543237
O       1.048040     0.880349     0.420800
C       2.108372     1.566324    -0.230411
H       2.716275     2.092808     0.517767
H       2.759742     0.857866    -0.763560
C       1.522713     2.562153    -1.195199
C       0.969816     3.746838    -0.709696
C       1.494118     2.312051    -2.562051
C       0.385115     4.659787    -1.575794
H       0.992641     3.939231     0.359570
C       0.911190     3.224541    -3.434721
H       1.905860     1.384604    -2.948719
C       0.353131     4.397643    -2.942881
H      -0.046867     5.577271    -1.187899
H       0.880856     3.008603    -4.497603
H      -0.105857     5.109038    -3.622303
C       0.022434    -1.687779     1.918172
O      -0.420068    -0.796714     2.691185
C       0.521105     0.322910     2.737974
C      -0.097297     1.524918     3.143658
O      -1.213258     1.684875     3.620154
O       0.765193     2.582985     2.958710
C       0.256747     3.842050     3.379163
H      -0.019877     3.821090     4.436421
H       1.061121     4.562443     3.217928
H      -0.624826     4.128407     2.796500
72
     -1725.765263     -1725.233941   2.52   3.51
C      -1.421681    -1.617548     0.474065
C      -1.854725    -1.812477    -0.856232
C      -2.972537    -1.106281    -1.303048
C      -3.616066    -0.226665    -0.449518
C      -3.156353    -0.046537     0.871066
C      -2.057846    -0.741178     1.349357
C      -0.042436    -3.077839    -0.493478
C      -0.949031    -2.757346    -1.460408
H      -3.345353    -1.236207    -2.314647
H      -4.482908     0.313910    -0.807583
H      -1.715559    -0.579654     2.363685
H       0.840163    -3.700432    -0.550095
N      -0.317438    -2.404483     0.675970
C       0.472813    -2.459825     1.886978
H       0.826175    -1.460717     2.149807
H      -0.111782    -2.868160     2.717667
H       1.339972    -3.094714     1.705125
O      -3.750100     0.811628     1.757248
C      -4.919460     1.493143     1.350941
H      -4.724144     2.162188     0.503738
H      -5.719579     0.792717     1.081937
H      -5.236659     2.086750     2.209270
N       0.113061    -0.838842    -3.230436
C      -0.966625    -0.019109    -3.654657
O      -1.719140    -0.439917    -4.493282
C      -1.106939     1.352015    -3.022434
H      -2.179719     1.509314    -2.898692
H      -0.774396     2.070687    -3.780548
C      -0.357807     1.541768    -1.703192
H      -0.367139     2.594737    -1.414866
H      -0.854798     0.987511    -0.904656
C       1.073265     1.024400    -1.849651
C       1.909602     0.838674    -0.548929
H       2.592471     1.680549    -0.404388
C      -0.894222    -3.102354    -2.919037
H      -1.876459    -2.954316    -3.374065
H      -0.624943    -4.151617    -3.073083
C       0.142713    -2.246015    -3.670103
H       1.153026    -2.607398    -3.481160
H      -0.041108    -2.252918    -4.744266
C       1.919265     1.793197    -2.902966
H       2.925593     1.362130    -2.881585
H       1.519980     1.602622    -3.905354
C       1.991183     3.301555    -2.664446
H       2.336639     3.538017    -1.653849
H       2.694261     3.758138    -3.366684
H       1.021001     3.785696    -2.810100
O       1.059695     0.748904     0.605447
C       1.129319     1.874782     1.469418
H       2.181251     2.147363     1.629585
H       0.615934     2.739376     1.022921
C       0.495414     1.516377     2.786690
C       1.187412     0.703848     3.684385
C      -0.781575     1.954881     3.116267
C       0.605890     0.324470     4.885783
H       2.185267     0.361630     3.423543
C      -1.368306     1.579311     4.319895
H      -1.336098     2.573207     2.416710
C      -0.677186     0.761266     5.204562
H       1.150685    -0.312161     5.576251
H      -2.372470     1.915172     4.556796
H      -1.135350     0.463910     6.142662
C       0.988508    -0.395360    -2.322791
O       1.848694    -1.161845    -1.812941
C       2.645689    -0.421667    -0.833946
C       3.253636    -1.272407     0.113920
O       3.345812    -2.492705     0.094407
O       3.801691    -0.525044     1.133088
C       4.481944    -1.283697     2.124159
H       4.898336    -0.559357     2.826961
H       3.796866    -1.960152     2.645448
H       5.284709    -1.878897     1.681363
72
     -1725.762635     -1725.233904   4.17   3.53
C       1.247448    -1.378348    -3.450189
C       0.409104    -0.263103    -3.239725
C      -0.895787    -0.478398    -2.790367
C      -1.327691    -1.770503    -2.549301
C      -0.467220    -2.867132    -2.756895
C       0.829823    -2.686394    -3.213093
C       2.409567     0.467004    -3.942435
C       1.180418     0.911964    -3.558881
H      -1.579395     0.342950    -2.596552
H      -2.337520    -1.918333    -2.189437
H       1.466554    -3.549730    -3.367903
H       3.285647     1.027786    -4.239480
N       2.466369    -0.913478    -3.881152
C       3.590753    -1.735980    -4.263561
H       3.350204    -2.352086    -5.136331
H       4.433411    -1.089840    -4.514160
H       3.890169    -2.392290    -3.440526
O      -0.831976    -4.163572    -2.527457
C      -2.154827    -4.416201    -2.094468
H      -2.890072    -4.069074    -2.830346
H      -2.235391    -5.498681    -1.987608
H      -2.357757    -3.940935    -1.127022
N       1.816007     2.212160    -1.112986
C       3.173205     1.873468    -0.835417
O       4.044346     2.242895    -1.575703
C       3.444357     1.065443     0.417839
H       4.388067     1.444074     0.815325
H       3.641835     0.040677     0.084236
C       2.326959     1.109444     1.458481
H       2.537311     0.420373     2.277729
H       2.255530     2.107933     1.893359
C       1.000244     0.766022     0.784597
C      -0.308253     1.072211     1.556507
H      -0.700254     0.186597     2.064238
C       0.725772     2.330496    -3.373556
H      -0.339531     2.331959    -3.134712
H       0.841344     2.913686    -4.292478
C       1.500275     3.074000    -2.269527
H       2.461834     3.431264    -2.630621
H       0.922897     3.925516    -1.902859
C       0.942734    -0.683453     0.225706
H      -0.058285    -0.839038    -0.182333
H       1.629053    -0.785830    -0.620188
C       1.247886    -1.759669     1.267400
H       2.294802    -1.742358     1.585933
H       0.623235    -1.652646     2.159528
H       1.051170    -2.748246     0.843401
O       0.000680     2.081230     2.533758
C      -1.114606     2.416568     3.343962
H      -0.813111     3.315078     3.891618
H      -1.976108     2.670194     2.714861
C      -1.486429     1.315732     4.315527
C      -2.811341     0.927609     4.481253
C      -0.496430     0.679734     5.064241
C      -3.147970    -0.073123     5.387141
H      -3.583684     1.402396     3.883760
C      -0.827816    -0.322355     5.965691
H       0.540486     0.974620     4.931927
C      -2.157296    -0.699881     6.131534
H      -4.186647    -0.365900     5.506632
H      -0.047917    -0.809977     6.542750
H      -2.417664    -1.482318     6.837507
C       0.827615     1.703464    -0.375282
O      -0.368485     2.054556    -0.591331
C      -1.214759     1.516049     0.472791
C      -2.490199     1.127412     0.063889
O      -3.020663     1.282115    -1.034943
O      -3.162254     0.520253     1.105958
C      -4.491455     0.121208     0.803093
H      -5.104580     0.980005     0.516106
H      -4.509563    -0.604997    -0.014714
H      -4.884173    -0.332282     1.715256
72
     -1725.763074     -1725.233060   3.89   4.06
C      -2.599448    -0.656830     2.135912
C      -2.124432    -1.347739     1.007317
C      -2.505015    -0.883851    -0.263882
C      -3.307460     0.225618    -0.368223
C      -3.772269     0.900613     0.782680
C      -3.429626     0.471417     2.052736
C      -1.299026    -2.323711     2.849570
C      -1.288229    -2.420674     1.490398
H      -2.159670    -1.367429    -1.171008
H      -3.587507     0.613607    -1.340466
H      -3.774969     0.975292     2.945766
H      -0.792505    -2.938930     3.581208
N      -2.087572    -1.264394     3.256352
C      -2.373698    -0.894036     4.623070
H      -2.069485     0.138683     4.821532
H      -3.441180    -0.997308     4.843367
H      -1.817239    -1.551919     5.292180
O      -4.561962     1.983188     0.529281
C      -5.075840     2.699444     1.633889
H      -5.675940     3.509633     1.218525
H      -5.712616     2.063887     2.261822
H      -4.270162     3.124481     2.245614
N       1.191150    -1.615506     0.390864
C       2.000393    -1.767058     1.545292
O       2.186904    -2.872460     1.982179
C       2.578475    -0.512686     2.166159
H       3.536501    -0.804434     2.600247
H       1.921620    -0.260730     3.007110
C       2.723271     0.665723     1.202576
H       3.024701     1.565977     1.741067
H       3.506027     0.458868     0.473275
C       1.409515     0.891567     0.460388
C       1.436538     1.761636    -0.831146
H       1.201165     2.806326    -0.619075
C      -0.510323    -3.428592     0.696338
H      -1.179271    -4.004539     0.047123
H      -0.044827    -4.133413     1.386964
C       0.583645    -2.818616    -0.204035
H       1.383294    -3.539445    -0.372358
H       0.190427    -2.519426    -1.172960
C       0.245046     1.358199     1.382150
H      -0.640896     1.488226     0.753890
H      -0.000965     0.556881     2.086588
C       0.533238     2.645334     2.153150
H       0.824481     3.463651     1.488512
H      -0.364919     2.963127     2.690479
H       1.328436     2.513447     2.893193
O       2.785904     1.749395    -1.367639
C       2.951324     1.304632    -2.706568
H       2.210252     1.761200    -3.369232
H       3.938615     1.676315    -2.999361
C       2.919364    -0.204190    -2.844063
C       2.041244    -0.834185    -3.720051
C       3.774249    -0.989867    -2.070609
C       2.020752    -2.220871    -3.826847
H       1.344449    -0.240077    -4.302876
C       3.755565    -2.374845    -2.169996
H       4.472506    -0.506178    -1.393465
C       2.879115    -2.995181    -3.055490
H       1.327404    -2.695754    -4.514433
H       4.431271    -2.969752    -1.562994
H       2.868253    -4.077385    -3.145767
C       0.958838    -0.409545    -0.129897
O       0.322420    -0.279795    -1.214447
C       0.378621     1.112149    -1.622461
C      -0.435323     1.453934    -2.701120
O      -1.226379     0.740135    -3.311931
O      -0.245853     2.778492    -3.040539
C      -1.052386     3.229437    -4.121208
H      -0.843737     2.661570    -5.032354
H      -2.115401     3.128315    -3.885248
H      -0.798841     4.280953    -4.267014
72
     -1725.765412     -1725.232639   2.43   4.33
C      -1.347562    -1.551618     1.697043
C      -0.778036    -2.652897     1.032031
C      -1.452757    -3.185218    -0.077688
C      -2.629527    -2.607142    -0.495140
C      -3.175968    -1.495956     0.187070
C      -2.551473    -0.957743     1.294858
C       0.565467    -2.055372     2.722292
C       0.455405    -2.962940     1.709495
H      -1.056105    -4.044569    -0.610430
H      -3.176234    -2.994473    -1.347985
H      -2.945346    -0.099289     1.822333
H       1.369330    -1.894883     3.427455
N      -0.513789    -1.198825     2.724012
C      -0.708041    -0.085236     3.627139
H      -1.599881    -0.232722     4.245782
H       0.169973    -0.003120     4.267673
H      -0.804035     0.846522     3.062232
O      -4.339285    -1.012052    -0.347362
C      -5.043778    -0.031983     0.390486
H      -5.283569    -0.390639     1.398722
H      -4.477486     0.905149     0.464835
H      -5.968638     0.154248    -0.156207
N       2.075370    -2.281891    -0.530434
C       1.432101    -2.775595    -1.698104
O       1.527835    -3.945572    -1.959948
C       0.655592    -1.791856    -2.547844
H      -0.231722    -2.332720    -2.881983
H       1.261504    -1.623139    -3.444514
C       0.268664    -0.481395    -1.859385
H      -0.082294     0.240328    -2.599538
H      -0.554135    -0.658405    -1.167232
C       1.458257     0.096019    -1.088277
C       1.152648     1.194385    -0.022983
H       1.351859     2.189427    -0.430150
C       1.494212    -3.940600     1.241650
H       1.028847    -4.711639     0.622861
H       1.967927    -4.451606     2.085321
C       2.614515    -3.258651     0.433847
H       3.287048    -2.709896     1.092135
H       3.190734    -3.989229    -0.133291
C       2.556723     0.581087    -2.074160
H       2.757908    -0.220543    -2.792091
H       2.099880     1.398386    -2.645097
C       3.880718     1.044694    -1.468884
H       4.561801     1.344364    -2.270928
H       3.749716     1.890849    -0.793446
H       4.368738     0.245911    -0.901366
O      -0.227953     1.136422     0.379311
C      -0.962246     2.334510     0.179372
H      -1.872586     2.213297     0.774286
H      -0.407928     3.189055     0.586022
C      -1.321294     2.575977    -1.270115
C      -0.688541     3.570330    -2.009453
C      -2.275953     1.774618    -1.897130
C      -0.998207     3.764679    -3.352760
H       0.051658     4.205298    -1.529442
C      -2.588575     1.964477    -3.235498
H      -2.764103     0.981156    -1.337787
C      -1.948346     2.960836    -3.968162
H      -0.496792     4.545735    -3.915569
H      -3.331862     1.332615    -3.711741
H      -2.192943     3.109315    -5.015135
C       2.002869    -0.986326    -0.206790
O       2.395831    -0.583595     0.922376
C       2.093530     0.834103     1.068264
C       2.115002     1.275366     2.399181
O       2.515250     0.685717     3.397249
O       1.620189     2.562735     2.473953
C       1.669107     3.142376     3.770915
H       2.692681     3.158707     4.154386
H       1.293984     4.161568     3.660826
H       1.044122     2.589076     4.478640
72
     -1725.761793     -1725.232300   4.70   4.54
C       3.423575     0.180762    -1.156575
C       2.623530     0.115934    -0.003423
C       1.575070    -0.817742     0.032044
C       1.347631    -1.620917    -1.059608
C       2.151436    -1.519147    -2.217160
C       3.202117    -0.622680    -2.285861
C       4.200738     1.673621     0.308355
C       3.135431     1.090216     0.924000
H       0.938830    -0.917802     0.906108
H       0.545697    -2.348291    -1.057763
H       3.833247    -0.537327    -3.160558
H       4.845950     2.470073     0.653608
N       4.387948     1.135311    -0.948598
C       5.419902     1.513777    -1.886863
H       6.030984     2.299876    -1.441120
H       6.066877     0.662855    -2.123564
H       4.984279     1.898960    -2.814315
O       1.802572    -2.366587    -3.227604
C       2.575892    -2.341670    -4.410277
H       2.140253    -3.088715    -5.074597
H       2.534269    -1.358942    -4.896461
H       3.622366    -2.603272    -4.209918
N       0.584781     2.460654     0.932549
C       0.877842     2.949237    -0.378631
O       1.781803     3.723540    -0.530432
C       0.018124     2.455557    -1.526263
H       0.728084     2.125503    -2.289524
H      -0.464077     3.349720    -1.932657
C      -0.985447     1.344338    -1.207325
H      -1.759885     1.302303    -1.977672
H      -0.480370     0.381217    -1.207788
C      -1.630294     1.566232     0.164946
C      -2.359870     0.353402     0.803360
H      -3.447993     0.433758     0.693552
C       2.494067     1.500325     2.215553
H       3.245211     1.795913     2.954434
H       1.939388     0.660831     2.645144
C       1.545195     2.693998     2.027243
H       0.973573     2.889108     2.936038
H       2.098421     3.590246     1.751523
C      -2.531777     2.830459     0.155824
H      -1.936931     3.675455    -0.208830
H      -3.304580     2.649637    -0.600318
C      -3.185989     3.215786     1.482121
H      -2.451593     3.360262     2.280123
H      -3.730189     4.156950     1.358577
H      -3.899667     2.462373     1.820777
O      -1.917170    -0.821004     0.106958
C      -2.435482    -2.025064     0.647834
H      -2.160089    -2.111936     1.705081
H      -3.534635    -2.018693     0.587957
C      -1.864497    -3.170307    -0.147540
C      -2.059022    -3.228703    -1.527504
C      -1.107321    -4.159444     0.469198
C      -1.506708    -4.258788    -2.274460
H      -2.633613    -2.447371    -2.015913
C      -0.554118    -5.197271    -0.275819
H      -0.939073    -4.112172     1.541495
C      -0.752420    -5.248051    -1.648699
H      -1.659326    -4.289832    -3.348780
H       0.036436    -5.962435     0.218637
H      -0.318827    -6.053640    -2.232816
C      -0.528072     1.766812     1.158901
O      -0.719599     1.219176     2.283077
C      -1.950374     0.423278     2.227604
C      -2.717607     0.497976     3.399741
O      -2.418840     0.996097     4.477088
O      -3.940637    -0.117244     3.202488
C      -4.787807    -0.120645     4.344952
H      -5.701257    -0.636113     4.042459
H      -4.316911    -0.648179     5.178815
H      -5.019458     0.898457     4.667072
72
     -1725.760728     -1725.232196   5.37   4.60
C       1.466467     1.505923    -2.878749
C       1.913612     2.446728    -1.934028
C       3.259703     2.410625    -1.538173
C       4.098858     1.468038    -2.082377
C       3.628962     0.540247    -3.041001
C       2.309142     0.542189    -3.453364
C      -0.282088     2.743827    -2.259883
C       0.775878     3.240233    -1.552780
H       3.640483     3.109121    -0.799268
H       5.143933     1.412838    -1.798421
H       1.931565    -0.158886    -4.185909
H      -1.326805     3.021209    -2.242191
N       0.121292     1.696095    -3.061243
C      -0.731881     0.946821    -3.959309
H      -1.770869     1.153370    -3.707245
H      -0.536314     1.210456    -5.004190
H      -0.569232    -0.126258    -3.823761
O       4.575253    -0.328651    -3.501084
C       4.187572    -1.263293    -4.488439
H       5.079498    -1.844320    -4.724841
H       3.405894    -1.937624    -4.116777
H       3.831814    -0.760736    -5.396394
N       0.389812     2.730874     1.327989
C       1.453315     2.704157     2.273292
O       2.193185     3.645722     2.362815
C       1.446627     1.491909     3.173794
H       0.572793     1.604942     3.826384
H       2.344416     1.535442     3.790782
C       1.342530     0.166488     2.410355
H       2.316318    -0.060644     1.967505
H       1.109589    -0.635779     3.112099
C       0.281979     0.209269     1.299320
C      -1.079434    -0.481180     1.542196
H      -1.065728    -1.552464     1.336765
C       0.769627     4.344666    -0.534252
H       0.338498     5.261974    -0.949159
H       1.796432     4.583024    -0.246082
C      -0.027437     4.009966     0.729891
H       0.110888     4.781554     1.488050
H      -1.091760     3.920645     0.510422
C       0.888396    -0.253531    -0.058008
H       0.187050    -0.030057    -0.865832
H       1.782804     0.346643    -0.243609
C       1.250143    -1.738897    -0.093226
H       1.785942    -1.960549    -1.020613
H       1.898598    -2.027259     0.740461
H       0.359708    -2.372708    -0.066273
O      -1.377585    -0.250417     2.931318
C      -2.630667    -0.794385     3.325370
H      -2.804488    -0.411078     4.335054
H      -3.420003    -0.415244     2.665787
C      -2.631940    -2.306650     3.328012
C      -3.530641    -3.023008     2.545706
C      -1.709159    -3.003454     4.108164
C      -3.518756    -4.414662     2.548569
H      -4.233095    -2.486855     1.914674
C      -1.691644    -4.390563     4.111824
H      -0.998431    -2.448245     4.714204
C      -2.600801    -5.100742     3.332032
H      -4.226066    -4.961630     1.932748
H      -0.968356    -4.921059     4.723507
H      -2.589028    -6.186250     3.334469
C      -0.247159     1.594638     1.046669
O      -1.407532     1.609208     0.536234
C      -1.967230     0.255525     0.607983
C      -2.571883    -0.158570    -0.585538
O      -2.839182     0.518192    -1.576880
O      -2.885941    -1.499055    -0.531268
C      -3.538660    -2.007179    -1.686931
H      -4.476979    -1.477754    -1.872510
H      -2.904862    -1.912264    -2.573621
H      -3.736944    -3.060662    -1.481217
72
     -1725.762670     -1725.232063   4.15   4.69
C      -0.579007    -0.577670    -3.719735
C      -1.165830    -0.877738    -2.472820
C      -1.238140     0.130287    -1.508408
C      -0.718474     1.382225    -1.782122
C      -0.114988     1.647589    -3.028076
C      -0.040643     0.673307    -4.012146
C      -1.244821    -2.708735    -3.759491
C      -1.576454    -2.257424    -2.519048
H      -1.694791    -0.049716    -0.539849
H      -0.766513     2.146051    -1.017741
H       0.422057     0.910681    -4.963156
H      -1.360821    -3.695419    -4.187405
N      -0.644613    -1.707676    -4.497631
C      -0.157258    -1.823014    -5.852856
H       0.920267    -1.635425    -5.898186
H      -0.347834    -2.835082    -6.212995
H      -0.668483    -1.115547    -6.513608
O       0.430700     2.854508    -3.352559
C       0.333191     3.902089    -2.402181
H       0.836755     3.644843    -1.465223
H       0.825582     4.764289    -2.853239
H      -0.712047     4.150359    -2.188673
N       0.188332    -2.821172    -0.314839
C       1.307302    -2.769043    -1.202295
O       1.429958    -3.612810    -2.046706
C       2.296222    -1.631351    -1.031479
H       2.401462    -1.196360    -2.029287
H       3.253903    -2.112835    -0.812242
C       1.939831    -0.548430    -0.008792
H       2.837446    -0.002952     0.293493
H       1.262663     0.173891    -0.459448
C       1.265013    -1.160068     1.223828
C       0.510334    -0.186796     2.167907
H       1.080044    -0.002410     3.086725
C      -2.074450    -3.055387    -1.352694
H      -2.768508    -3.838266    -1.673251
H      -2.622466    -2.408161    -0.661798
C      -0.924595    -3.746282    -0.601524
H      -1.268589    -4.157157     0.349234
H      -0.494637    -4.545646    -1.202677
C       2.255180    -2.055339     2.016336
H       2.703197    -2.776620     1.323686
H       3.068306    -1.397948     2.345095
C       1.676435    -2.805798     3.215546
H       0.833003    -3.444315     2.935188
H       2.447164    -3.448869     3.650753
H       1.331619    -2.126212     3.997344
O       0.372482     1.070027     1.483711
C      -0.429920     1.995546     2.196537
H      -1.480958     1.683562     2.169262
H      -0.125861     2.017112     3.253069
C      -0.259055     3.364274     1.587360
C       1.010200     3.937157     1.498193
C      -1.356779     4.087228     1.133082
C       1.174682     5.211625     0.975261
H       1.871023     3.372715     1.843483
C      -1.196753     5.367211     0.608433
H      -2.348108     3.646411     1.193861
C       0.068934     5.931904     0.529726
H       2.167299     5.647386     0.914884
H      -2.064024     5.922601     0.264371
H       0.196357     6.931223     0.125545
C       0.132802    -2.013414     0.741545
O      -0.925874    -1.933663     1.427384
C      -0.758692    -0.901674     2.458815
C      -1.322692    -1.270216     3.692666
O      -2.053684    -2.219132     3.942077
O      -0.954128    -0.366643     4.671621
C      -1.497654    -0.638285     5.957995
H      -2.590465    -0.621267     5.931430
H      -1.175582    -1.617507     6.322968
H      -1.125554     0.149370     6.615775
72
     -1725.761446     -1725.231663   4.92   4.94
C       3.180240    -1.302441     1.240246
C       2.441364    -2.504666     1.299571
C       2.829431    -3.565829     0.480414
C       3.915083    -3.422715    -0.365710
C       4.638859    -2.213203    -0.400377
C       4.281091    -1.141262     0.402003
C       1.520499    -1.023319     2.706363
C       1.377707    -2.301719     2.249536
H       2.280055    -4.502302     0.488999
H       4.203710    -4.252829    -0.997324
H       4.858120    -0.225045     0.356394
H       0.914564    -0.453632     3.397593
N       2.599214    -0.408891     2.102410
C       3.058178     0.938687     2.367306
H       2.283819     1.467625     2.922717
H       3.992456     0.932250     2.939067
H       3.223739     1.470946     1.425879
O       5.720404    -2.006887    -1.209620
C       6.158410    -3.075093    -2.026341
H       6.448968    -3.946002    -1.426240
H       5.387447    -3.372380    -2.747774
H       7.030366    -2.703930    -2.566233
N      -1.209924    -2.300892     0.864562
C      -1.316241    -3.227662    -0.206427
O      -1.235939    -4.402711     0.035145
C      -1.541031    -2.684517    -1.600299
H      -2.295941    -3.336113    -2.046724
H      -0.615219    -2.890251    -2.140946
C      -1.960303    -1.212781    -1.705329
H      -1.792231    -0.851240    -2.724000
H      -3.029586    -1.127150    -1.509356
C      -1.223198    -0.319097    -0.707312
C      -1.928528     1.002346    -0.278978
H      -1.644676     1.842815    -0.918568
C       0.303668    -3.296160     2.588154
H       0.302968    -3.535011     3.657232
H       0.497514    -4.232042     2.059879
C      -1.112347    -2.824450     2.241322
H      -1.819951    -3.649958     2.319287
H      -1.434996    -2.023348     2.904731
C       0.227429     0.074269    -1.122361
H       0.117098     0.865872    -1.871957
H       0.704338     0.541962    -0.254956
C       1.137919    -1.013596    -1.683078
H       0.799490    -1.366985    -2.661125
H       2.143328    -0.606043    -1.817533
H       1.237467    -1.868611    -1.011552
O      -3.345795     0.782966    -0.370534
C      -4.102985     1.917150     0.024910
H      -5.135423     1.561258     0.096754
H      -3.782719     2.251702     1.018760
C      -4.013478     3.059878    -0.963937
C      -4.199553     2.823549    -2.325822
C      -3.753783     4.356203    -0.533350
C      -4.133310     3.867026    -3.238488
H      -4.394585     1.811228    -2.667702
C      -3.690484     5.405450    -1.444727
H      -3.582984     4.542570     0.522696
C      -3.881089     5.163436    -2.798672
H      -4.279707     3.670196    -4.296171
H      -3.487089     6.412865    -1.094642
H      -3.830479     5.980525    -3.511582
C      -1.184522    -0.987513     0.637661
O      -1.200966    -0.176826     1.612290
C      -1.435783     1.169359     1.106935
C      -0.723895     2.171222     1.764821
O      -0.024420     2.072161     2.773939
O      -0.910302     3.385923     1.140442
C      -0.260561     4.485815     1.762989
H       0.824988     4.351699     1.771237
H      -0.523326     5.363613     1.169743
H      -0.602581     4.612536     2.793759
72
     -1725.761334     -1725.231374   4.99   5.12
C      -1.026295    -1.927882     1.992203
C       0.304053    -2.146286     2.395157
C       0.736641    -3.469235     2.578140
C      -0.135105    -4.504623     2.346670
C      -1.466259    -4.259898     1.936224
C      -1.933802    -2.971335     1.753933
C      -0.032438     0.059264     2.182860
C       0.925941    -0.851951     2.515003
H       1.754180    -3.684278     2.887216
H       0.171597    -5.536594     2.473428
H      -2.948393    -2.763251     1.441217
H       0.044118     1.135746     2.108863
N      -1.219407    -0.575583     1.873236
C      -2.468161     0.073926     1.541139
H      -2.322720     1.152546     1.564951
H      -2.800995    -0.193156     0.534759
H      -3.248364    -0.190577     2.261379
O      -2.216364    -5.381960     1.745630
C      -3.562840    -5.217777     1.345018
H      -4.136508    -4.656290     2.092729
H      -3.632537    -4.709633     0.375209
H      -3.977195    -6.222247     1.254524
N       2.663734    -1.136786     0.389394
C       2.306974    -2.412738    -0.156777
O       2.893250    -3.391241     0.211243
C       1.171608    -2.450458    -1.160812
H       0.465308    -3.179760    -0.752921
H       1.584078    -2.902610    -2.067018
C       0.473877    -1.115363    -1.433502
H      -0.089901    -1.162388    -2.368054
H      -0.240348    -0.905956    -0.637074
C       1.496564     0.026291    -1.491706
C       0.935853     1.472551    -1.445806
H       1.012978     1.953003    -2.428513
C       2.367007    -0.548002     2.799194
H       2.682215    -0.985397     3.752155
H       2.486911     0.533638     2.890065
C       3.326936    -1.073331     1.702211
H       4.202811    -0.427851     1.615129
H       3.661794    -2.087667     1.906392
C       2.481875    -0.149688    -2.676297
H       2.907965    -1.157935    -2.634629
H       1.877816    -0.108069    -3.590132
C       3.619265     0.868812    -2.754969
H       4.224965     0.877957    -1.843457
H       4.280937     0.615919    -3.588714
H       3.252184     1.883912    -2.919396
O      -0.460804     1.406806    -1.111357
C      -1.058298     2.690957    -1.088222
H      -0.647156     3.285580    -0.263230
H      -0.821856     3.226281    -2.020267
C      -2.551969     2.543090    -0.946587
C      -3.260174     3.338472    -0.051672
C      -3.246548     1.613361    -1.719679
C      -4.640261     3.210359     0.073914
H      -2.726471     4.062551     0.558331
C      -4.622518     1.479958    -1.594836
H      -2.697613     0.986819    -2.415218
C      -5.324087     2.279193    -0.696436
H      -5.179458     3.838466     0.776238
H      -5.151648     0.750919    -2.200933
H      -6.400260     2.176347    -0.600487
C       2.257383    -0.020205    -0.203319
O       2.482390     1.104812     0.327251
C       1.798882     2.151174    -0.442174
C       2.573582     3.318736    -0.574899
O       3.608626     3.614426     0.005652
O       1.985154     4.177674    -1.483429
C       2.681063     5.404851    -1.669429
H       2.747450     5.961983    -0.731143
H       3.694649     5.230282    -2.040820
H       2.104134     5.971336    -2.402745
72
     -1725.759326     -1725.231302   6.25   5.17
C      -0.349323     3.422672    -1.809206
C      -1.409542     3.342440    -0.879842
C      -1.522311     4.340804     0.088748
C      -0.605286     5.376638     0.122155
C       0.440137     5.435505    -0.822112
C       0.579541     4.460817    -1.797573
C      -1.518202     1.572662    -2.250459
C      -2.147423     2.142384    -1.181083
H      -2.317241     4.308322     0.827752
H      -0.703564     6.142983     0.880029
H       1.391411     4.533283    -2.511805
H      -1.720481     0.648403    -2.774342
N      -0.429998     2.330764    -2.634234
C       0.449554     2.039419    -3.746976
H       0.256600     1.021709    -4.086315
H       0.290871     2.744778    -4.569844
H       1.494195     2.099362    -3.426981
O       1.376036     6.430840    -0.847002
C       1.270114     7.472488     0.103596
H       0.320624     8.012345     0.003239
H       1.365319     7.093176     1.128422
H       2.095007     8.155148    -0.103975
N      -1.877562     0.106003     0.940319
C      -1.837237     0.616838     2.265350
O      -2.790458     1.219294     2.681759
C      -0.600213     0.355342     3.096895
H      -0.972804     0.024873     4.069680
H      -0.158168     1.338055     3.269851
C       0.413858    -0.649539     2.535169
H       1.386984    -0.500373     3.012098
H       0.093577    -1.662965     2.778482
C       0.559936    -0.553560     1.015857
C       1.061926    -1.826729     0.270890
H       2.149781    -1.814697     0.141362
C      -3.331497     1.626557    -0.413090
H      -4.226060     1.578611    -1.043894
H      -3.562124     2.316160     0.401557
C      -3.135392     0.226685     0.176461
H      -3.948100    -0.015134     0.861567
H      -3.100783    -0.530220    -0.605885
C       1.438952     0.630144     0.510934
H       2.476888     0.333197     0.698130
H       1.328123     0.680224    -0.577185
C       1.199482     2.009765     1.116492
H       0.155349     2.323005     1.053225
H       1.521726     2.059535     2.160184
H       1.778766     2.752841     0.562250
O       0.687773    -2.965332     1.057152
C       1.018512    -4.197048     0.432435
H       0.572446    -4.223738    -0.570657
H       2.108487    -4.283238     0.316835
C       0.493686    -5.327396     1.278203
C      -0.861092    -5.382559     1.606003
C       1.338217    -6.334650     1.730230
C      -1.358773    -6.426730     2.371303
H      -1.524237    -4.596224     1.258617
C       0.842134    -7.386348     2.495272
H       2.396319    -6.297002     1.485154
C      -0.507087    -7.433901     2.817176
H      -2.414805    -6.457606     2.621565
H       1.513035    -8.166672     2.841048
H      -0.896751    -8.251798     3.415077
C      -0.798922    -0.445905     0.385559
O      -0.882123    -0.997739    -0.752333
C       0.354853    -1.716550    -1.023895
C       0.766449    -1.700543    -2.355074
O       0.172865    -1.242404    -3.331936
O       1.995236    -2.314231    -2.486407
C       2.485534    -2.386667    -3.818957
H       3.441124    -2.910647    -3.759659
H       1.794312    -2.937783    -4.462346
H       2.631819    -1.388141    -4.241013
72
     -1725.763903     -1725.231217   3.37   5.22
C      -1.968901    -0.190854    -2.886979
C      -0.664141    -0.652858    -2.610152
C       0.376148     0.278674    -2.582334
C       0.108827     1.618884    -2.777708
C      -1.206551     2.053959    -3.030710
C      -2.260546     1.154269    -3.104059
C      -2.076289    -2.391863    -2.520483
C      -0.760621    -2.073141    -2.369613
H       1.398330    -0.016257    -2.374505
H       0.928764     2.319220    -2.698915
H      -3.261612     1.519580    -3.302710
H      -2.561275    -3.353430    -2.416313
N      -2.818808    -1.269764    -2.839508
C      -4.236656    -1.231644    -3.111489
H      -4.429508    -0.890594    -4.133693
H      -4.648271    -2.235568    -2.996941
H      -4.751572    -0.562980    -2.414057
O      -1.535765     3.365775    -3.208711
C      -0.508925     4.328471    -3.046667
H       0.271242     4.212634    -3.808124
H      -0.987869     5.301240    -3.165255
H      -0.054804     4.260978    -2.050744
N       0.063793    -2.061001     0.348430
C      -0.930764    -2.906735     0.904944
O      -0.952787    -4.065322     0.582132
C      -1.916430    -2.289403     1.874377
H      -2.178055    -3.078180     2.582009
H      -2.822951    -2.081398     1.293824
C      -1.409336    -1.032142     2.580874
H      -2.207995    -0.572259     3.165619
H      -0.615320    -1.290226     3.281424
C      -0.855912    -0.050829     1.552431
C       0.051974     1.107365     2.059877
H      -0.520709     2.018597     2.243531
C       0.333467    -3.012899    -1.958067
H       1.122023    -3.042814    -2.718493
H      -0.077031    -4.020510    -1.877776
C       1.010086    -2.640464    -0.622160
H       1.448192    -3.525304    -0.161008
H       1.800794    -1.906159    -0.758784
C      -1.936160     0.518271     0.587073
H      -1.435987     1.212873    -0.093773
H      -2.323151    -0.290775    -0.041170
C      -3.097237     1.220344     1.289584
H      -2.750323     2.008710     1.963793
H      -3.750385     1.687725     0.547119
H      -3.708253     0.524098     1.872202
O       0.626674     0.717807     3.334076
C       2.042467     0.753084     3.444579
H       2.448045     1.682079     3.032711
H       2.234634     0.749866     4.522408
C       2.719327    -0.443033     2.806465
C       2.325024    -1.733713     3.159402
C       3.721564    -0.286567     1.854469
C       2.918851    -2.845433     2.576093
H       1.552021    -1.865780     3.911101
C       4.322371    -1.395993     1.269251
H       4.015722     0.710813     1.543245
C       3.925203    -2.678306     1.629354
H       2.601829    -3.842548     2.866590
H       5.101522    -1.254954     0.526245
H       4.400084    -3.544134     1.177442
C       0.126897    -0.769614     0.678369
O       1.069727    -0.034266     0.266408
C       0.969030     1.259306     0.918255
C       1.767026     2.270226     0.392849
O       2.524570     2.223974    -0.574940
O       1.613525     3.429144     1.130956
C       2.419449     4.515829     0.697184
H       2.194047     5.345331     1.369850
H       3.482764     4.265545     0.753636
H       2.184887     4.795033    -0.334343
72
     -1725.764205     -1725.231115   3.19   5.28
C       0.022123    -2.530426     0.018526
C       1.409208    -2.281582     0.000829
C       2.049636    -2.008169     1.210848
C       1.320957    -1.968487     2.382713
C      -0.062399    -2.229881     2.369717
C      -0.725835    -2.531731     1.192596
C       0.708530    -2.615919    -2.102457
C       1.831240    -2.346829    -1.377161
H       3.110425    -1.782796     1.246505
H       1.826859    -1.700416     3.299839
H      -1.792320    -2.715793     1.205544
H       0.602351    -2.737331    -3.172916
N      -0.392860    -2.726460    -1.276634
C      -1.739375    -3.064665    -1.680244
H      -1.996690    -4.088745    -1.388675
H      -2.455948    -2.373801    -1.228438
H      -1.817069    -2.981610    -2.765623
O      -0.840977    -2.183602     3.494480
C      -0.228520    -1.773643     4.703079
H       0.545871    -2.482440     5.019454
H       0.213486    -0.774794     4.605199
H      -1.022028    -1.751293     5.451457
N       2.616530     0.317905    -2.099026
C       2.245208     0.428906    -3.465457
O       2.900438    -0.147169    -4.293406
C       1.031943     1.271398    -3.802006
H       0.552736     0.774813    -4.647895
H       1.411834     2.226770    -4.181434
C       0.064279     1.471989    -2.637197
H      -0.725326     2.175857    -2.905694
H      -0.420612     0.525548    -2.391173
C       0.838591     1.957016    -1.412934
C       0.115908     1.922973    -0.040739
H      -0.302558     2.898139     0.230321
C       3.205167    -2.098863    -1.923565
H       3.227912    -2.348506    -2.986072
H       3.941645    -2.739285    -1.425517
C       3.673893    -0.645867    -1.743427
H       3.947631    -0.440712    -0.710050
H       4.533145    -0.437763    -2.381269
C       1.526460     3.338690    -1.605148
H       2.012440     3.589929    -0.657092
H       2.325734     3.251372    -2.349504
C       0.571153     4.459777    -2.014218
H      -0.266415     4.554993    -1.317588
H       1.100664     5.416676    -2.024082
H       0.160067     4.302840    -3.015833
O      -0.966263     0.985531    -0.163595
C      -1.720717     0.844455     1.026026
H      -1.134723     0.327193     1.793072
H      -1.974049     1.837724     1.425430
C      -2.988558     0.080003     0.730452
C      -3.602740     0.153328    -0.517494
C      -3.580454    -0.689334     1.729506
C      -4.786624    -0.533393    -0.763030
H      -3.145243     0.748716    -1.299831
C      -4.762488    -1.378040     1.486069
H      -3.096954    -0.768229     2.699239
C      -5.370192    -1.302050     0.237595
H      -5.255260    -0.466158    -1.740393
H      -5.209656    -1.976802     2.273769
H      -6.294759    -1.837630     0.046605
C       1.938783     0.970910    -1.149205
O       2.193950     0.804631     0.074879
C       1.218813     1.535520     0.865324
C       1.513788     1.677534     2.220387
O       2.495302     1.280844     2.839231
O       0.503088     2.388035     2.849577
C       0.752638     2.674203     4.218141
H       0.870636     1.756394     4.801834
H       1.660037     3.273484     4.334746
H      -0.113496     3.236130     4.573025
72
     -1725.764205     -1725.231103   3.19   5.29
C      -1.894208     1.333353    -1.019433
C      -1.014248     1.292307    -2.119541
C      -1.025526     0.160042    -2.936183
C      -1.871948    -0.891052    -2.645356
C      -2.745933    -0.817208    -1.544054
C      -2.781824     0.301135    -0.728647
C      -0.685190     3.208189    -1.002562
C      -0.247861     2.514231    -2.091648
H      -0.347955     0.068422    -3.778701
H      -1.824799    -1.780490    -3.258216
H      -3.452632     0.329361     0.120270
H      -0.357383     4.171127    -0.632173
N      -1.676070     2.508795    -0.342062
C      -2.417522     2.955577     0.815965
H      -1.915975     3.823998     1.246401
H      -3.440740     3.240183     0.547664
H      -2.452664     2.166701     1.571840
O      -3.591379    -1.834771    -1.193033
C      -3.513148    -3.040277    -1.930944
H      -4.218003    -3.728095    -1.461571
H      -3.800895    -2.887690    -2.977886
H      -2.502790    -3.464872    -1.891641
N       2.455557     1.748188    -1.505623
C       2.956915     2.822585    -0.723532
O       3.213385     3.864917    -1.266164
C       3.137088     2.590989     0.762726
H       2.900473     3.543342     1.241055
H       4.208049     2.423668     0.924183
C       2.296390     1.446832     1.326217
H       2.552041     1.255036     2.369698
H       1.238981     1.716269     1.300007
C       2.503557     0.197394     0.472047
C       1.516690    -0.983368     0.667599
H       1.921517    -1.754806     1.331330
C       0.857632     2.919617    -3.019702
H       1.149536     3.951212    -2.813865
H       0.522276     2.880761    -4.062112
C       2.099149     2.019637    -2.910121
H       1.933291     1.052759    -3.381852
H       2.960638     2.495093    -3.379419
C       3.963826    -0.338053     0.476844
H       3.974880    -1.245687    -0.134862
H       4.621109     0.381326    -0.024159
C       4.512209    -0.642435     1.870907
H       5.495516    -1.114445     1.790605
H       4.632452     0.264360     2.471009
H       3.862922    -1.327809     2.422784
O       0.333303    -0.440184     1.275454
C      -0.669160    -1.411439     1.512114
H      -1.105110    -1.751256     0.566714
H      -0.225727    -2.291854     2.000502
C      -1.738532    -0.824815     2.401769
C      -1.437634     0.156358     3.343417
C      -3.047575    -1.291852     2.308845
C      -2.429315     0.663923     4.175538
H      -0.420825     0.525523     3.418627
C      -4.040746    -0.784893     3.137916
H      -3.294732    -2.042311     1.563123
C      -3.734407     0.195658     4.075180
H      -2.180175     1.427810     4.906146
H      -5.057349    -1.156204     3.050791
H      -4.508664     0.591019     4.725074
C       2.191941     0.560710    -0.950379
O       1.654434    -0.370436    -1.610066
C       1.372352    -1.481258    -0.717585
C       1.028115    -2.685028    -1.330620
O       0.943443    -2.942041    -2.526645
O       0.784198    -3.650827    -0.366281
C       0.519538    -4.945249    -0.887405
H      -0.366892    -4.942800    -1.528675
H       1.366047    -5.312738    -1.474337
H       0.356094    -5.592170    -0.023304
72
     -1725.759792     -1725.231090   5.95   5.30
C      -0.794362     2.736345    -2.134473
C      -0.634794     3.438414    -0.919577
C       0.538958     4.166519    -0.720457
C       1.511875     4.188633    -1.704523
C       1.323331     3.484247    -2.911468
C       0.169813     2.750735    -3.139771
C      -2.579713     2.328234    -0.860258
C      -1.799697     3.166320    -0.116999
H       0.706025     4.707607     0.205958
H       2.418090     4.755961    -1.536448
H       0.052760     2.219828    -4.077327
H      -3.518415     1.850030    -0.616783
N      -1.985684     2.059570    -2.076308
C      -2.541425     1.229095    -3.123438
H      -2.907187     1.836386    -3.958314
H      -1.781357     0.535051    -3.493467
H      -3.352886     0.635095    -2.705547
O       2.241506     3.466433    -3.922956
C       3.423394     4.227821    -3.767944
H       3.199763     5.294012    -3.640703
H       4.018818     3.877617    -2.915897
H       3.994792     4.087674    -4.686278
N      -0.785762     1.747382     2.258219
C       0.380047     2.148287     2.968811
O       0.466487     3.271764     3.384082
C       1.356511     1.026948     3.233016
H       0.869427     0.368092     3.961681
H       2.239579     1.463057     3.700568
C       1.714104     0.220808     1.978830
H       2.416451     0.803016     1.375742
H       2.223522    -0.697522     2.274626
C       0.481553    -0.119835     1.126919
C      -0.093113    -1.553444     1.187443
H       0.420554    -2.255133     0.528796
C      -2.045823     3.664228     1.278652
H      -3.023453     4.151476     1.358127
H      -1.297710     4.418309     1.535255
C      -2.010712     2.560256     2.340020
H      -2.048307     2.988387     3.342311
H      -2.849776     1.874357     2.220157
C       0.698559     0.313707    -0.352697
H      -0.249169     0.252952    -0.893442
H       0.990874     1.366805    -0.349504
C       1.757351    -0.510451    -1.086450
H       2.709364    -0.536914    -0.546249
H       1.428331    -1.540882    -1.245776
H       1.945798    -0.067490    -2.068497
O       0.059135    -1.963673     2.558607
C      -0.461106    -3.263102     2.808620
H      -0.432401    -3.378502     3.896006
H      -1.505331    -3.310692     2.478302
C       0.349390    -4.351486     2.141325
C      -0.232417    -5.213126     1.218287
C       1.706347    -4.489352     2.433512
C       0.523697    -6.206092     0.602530
H      -1.281622    -5.093600     0.965383
C       2.464601    -5.475788     1.820031
H       2.168115    -3.812648     3.147351
C       1.872384    -6.340160     0.902896
H       0.056759    -6.872030    -0.116630
H       3.519857    -5.572639     2.056208
H       2.464133    -7.113196     0.422554
C      -0.759010     0.603534     1.574848
O      -1.834148     0.012687     1.255299
C      -1.504182    -1.335404     0.780052
C      -2.167324    -1.680234    -0.404865
O      -3.090477    -1.086263    -0.959038
O      -1.663530    -2.854332    -0.920239
C      -2.297863    -3.305633    -2.109301
H      -1.806425    -4.243472    -2.374610
H      -3.365390    -3.474410    -1.944883
H      -2.181488    -2.580176    -2.919906
72
     -1725.763501     -1725.230866   3.63   5.44
C      -0.357938     0.066707     2.744565
C       0.218628    -1.192090     2.994692
C      -0.627007    -2.307525     3.098194
C      -1.983337    -2.143930     2.939808
C      -2.538764    -0.867521     2.690288
C      -1.738838     0.255176     2.592702
C       1.851847     0.334774     2.860674
C       1.643803    -0.997067     3.068885
H      -0.223173    -3.295198     3.300278
H      -2.665651    -2.983234     3.017120
H      -2.141069     1.239143     2.391294
H       2.776555     0.887550     2.767587
N       0.653381     0.987031     2.665761
C       0.502485     2.389173     2.342018
H      -0.013889     2.499344     1.384322
H      -0.054535     2.915582     3.124392
H       1.494997     2.829651     2.244966
O      -3.898844    -0.856649     2.558883
C      -4.537052     0.396670     2.420172
H      -5.607112     0.190944     2.379416
H      -4.325514     1.048830     3.276354
H      -4.233780     0.903283     1.495203
N       2.140472    -2.519730     0.730446
C       1.290895    -3.655196     0.737904
O       1.570065    -4.587719     1.445041
C       0.073188    -3.626547    -0.161718
H      -0.712181    -4.147406     0.388565
H       0.316416    -4.256712    -1.025211
C      -0.384977    -2.234327    -0.598587
H      -1.153049    -2.333012    -1.367003
H      -0.834409    -1.710529     0.247518
C       0.808929    -1.426492    -1.110877
C       0.647015     0.120110    -1.279018
H       0.427855     0.388286    -2.315349
C       2.674238    -2.086221     3.129472
H       2.243667    -2.982033     3.583445
H       3.528487    -1.793576     3.747358
C       3.218458    -2.442581     1.733974
H       3.915606    -1.682062     1.384095
H       3.721926    -3.408953     1.741171
C       1.452821    -2.011453    -2.398810
H       2.283083    -1.351540    -2.670232
H       1.890192    -2.991523    -2.178292
C       0.483828    -2.139607    -3.574909
H       1.027244    -2.441609    -4.474689
H      -0.287682    -2.892984    -3.390168
H      -0.015495    -1.191859    -3.795880
O      -0.414077     0.630752    -0.449814
C      -1.677738     0.703984    -1.088775
H      -1.972037    -0.269965    -1.499547
H      -2.384972     0.942193    -0.288464
C      -1.761846     1.747704    -2.181546
C      -1.389843     3.066156    -1.926443
C      -2.233054     1.412118    -3.446940
C      -1.491340     4.030178    -2.918342
H      -1.005706     3.329005    -0.946841
C      -2.337866     2.376537    -4.444889
H      -2.523510     0.385511    -3.656767
C      -1.967592     3.688224    -4.181193
H      -1.200392     5.055084    -2.708675
H      -2.708794     2.100458    -5.426916
H      -2.047411     4.443737    -4.956330
C       1.865541    -1.464521    -0.045272
O       2.523573    -0.396367     0.060193
C       1.984696     0.601353    -0.855148
C       2.405499     1.907166    -0.535804
O       3.232116     2.252682     0.300809
O       1.767784     2.819432    -1.338617
C       2.139378     4.173173    -1.121253
H       3.213855     4.313879    -1.264843
H       1.582442     4.757825    -1.855643
H       1.879508     4.498329    -0.108758
72
     -1725.760376     -1725.230594   5.59   5.61
C       0.703436     0.045885     2.834546
C      -0.388543    -0.833658     3.007490
C      -1.286365    -0.579455     4.045468
C      -1.102618     0.519424     4.864132
C      -0.007253     1.384720     4.664431
C       0.907541     1.157816     3.648381
C       0.825890    -1.523697     1.253871
C      -0.285659    -1.837932     1.976699
H      -2.140182    -1.227689     4.212971
H      -1.811499     0.706484     5.659867
H       1.740344     1.838892     3.518183
H       1.224580    -2.006305     0.371507
N       1.438913    -0.395346     1.764171
C       2.675112     0.191097     1.296722
H       3.425709     0.200562     2.092852
H       3.054965    -0.398143     0.463890
H       2.519522     1.212192     0.938536
O       0.231995     2.484877     5.435575
C      -0.651478     2.757932     6.506690
H      -0.270659     3.659372     6.988021
H      -1.671484     2.943204     6.148823
H      -0.664800     1.937595     7.234372
N      -2.508009    -1.052480     0.543921
C      -2.938288     0.124010     1.239659
O      -3.759481     0.023418     2.107006
C      -2.295664     1.440745     0.849670
H      -1.899277     1.844064     1.786404
H      -3.115670     2.102666     0.557750
C      -1.195349     1.361637    -0.211933
H      -1.021614     2.344367    -0.656351
H      -0.260295     1.048922     0.252718
C      -1.567687     0.348829    -1.301900
C      -0.437094    -0.083967    -2.272873
H      -0.580651     0.362658    -3.264038
C      -1.271693    -2.919495     1.650133
H      -1.446745    -3.569352     2.513795
H      -0.857439    -3.546768     0.857997
C      -2.645112    -2.366793     1.193092
H      -3.121488    -3.051303     0.488919
H      -3.318713    -2.206382     2.031688
C      -2.831895     0.791372    -2.083552
H      -3.627470     1.021762    -1.366683
H      -2.576516     1.737490    -2.574837
C      -3.362894    -0.205544    -3.113733
H      -2.650912    -0.379510    -3.923058
H      -3.597275    -1.174960    -2.663071
H      -4.283526     0.182906    -3.559216
O       0.813614     0.406320    -1.760350
C       1.896255     0.079824    -2.613995
H       2.052248    -1.005770    -2.629460
H       1.660597     0.386515    -3.644335
C       3.137920     0.790303    -2.138623
C       3.092264     2.142123    -1.799490
C       4.348477     0.111906    -2.041816
C       4.235802     2.799773    -1.367863
H       2.148819     2.674092    -1.868099
C       5.498162     0.768514    -1.612871
H       4.392180    -0.943073    -2.299290
C       5.443613     2.113818    -1.273440
H       4.187004     3.852070    -1.104933
H       6.435872     0.226019    -1.542842
H       6.338229     2.628741    -0.938075
C      -1.845547    -0.944880    -0.601847
O      -1.376548    -1.972727    -1.168895
C      -0.566157    -1.564893    -2.322427
C      -0.742730    -2.409653    -3.434068
O      -1.312551    -3.490698    -3.484533
O      -0.136559    -1.860821    -4.548024
C      -0.235940    -2.655719    -5.724044
H       0.283316    -2.101621    -6.508173
H       0.235766    -3.630939    -5.576983
H      -1.280824    -2.815343    -6.004230
72
     -1725.762654     -1725.230068   4.16   5.94
C       0.412250    -0.271605    -2.438315
C       0.895236     1.035158    -2.225078
C       2.191380     1.189192    -1.728684
C       2.961022     0.075963    -1.452811
C       2.451895    -1.216786    -1.682823
C       1.179428    -1.406812    -2.192655
C      -1.217104     1.156028    -2.968068
C      -0.171922     1.940344    -2.578559
H       2.598301     2.173518    -1.520569
H       3.947739     0.215893    -1.032359
H       0.804339    -2.409813    -2.349927
H      -2.200930     1.452662    -3.308782
N      -0.883460    -0.181550    -2.885504
C      -1.714676    -1.302109    -3.264841
H      -1.733290    -2.049438    -2.466974
H      -2.733530    -0.949009    -3.432663
H      -1.351978    -1.770968    -4.185845
O       3.155601    -2.358388    -1.407875
C       4.428613    -2.222525    -0.805568
H       4.791703    -3.236975    -0.634958
H       5.129015    -1.694834    -1.463792
H       4.361963    -1.692405     0.152127
N      -1.063088     3.192095    -0.160840
C      -2.458791     3.348614    -0.368075
O      -2.842031     4.218322    -1.105254
C      -3.393376     2.397220     0.350649
H      -4.203109     2.192897    -0.352788
H      -3.843366     2.967810     1.169400
C      -2.739526     1.104968     0.841660
H      -3.421771     0.552939     1.493185
H      -2.512828     0.460692    -0.009249
C      -1.437174     1.418191     1.583076
C      -0.469512     0.230678     1.837452
H      -0.545965    -0.139268     2.867289
C      -0.179247     3.436836    -2.478851
H      -1.071561     3.830414    -2.969766
H       0.687576     3.864033    -2.995060
C      -0.144057     3.949951    -1.029469
H       0.849328     3.850803    -0.595627
H      -0.442946     4.997322    -0.985903
C      -1.709930     2.200933     2.897504
H      -2.299157     3.092071     2.657794
H      -2.355799     1.558577     3.507718
C      -0.486809     2.625079     3.710967
H      -0.814084     3.208649     4.576690
H       0.080212     1.768532     4.080310
H       0.197102     3.250453     3.129371
O      -0.856602    -0.833081     0.953690
C      -0.028826    -1.974989     1.075707
H       0.983877    -1.751604     0.722513
H       0.051569    -2.263844     2.134813
C      -0.623072    -3.114147     0.283661
C       0.211455    -4.087248    -0.261234
C      -2.000137    -3.232324     0.110270
C      -0.318571    -5.157277    -0.972022
H       1.287785    -3.992218    -0.147240
C      -2.532960    -4.302763    -0.599218
H      -2.654673    -2.476970     0.530970
C      -1.693947    -5.268494    -1.143520
H       0.345119    -5.905738    -1.394252
H      -3.608536    -4.382652    -0.725994
H      -2.109523    -6.104723    -1.696838
C      -0.592416     2.261376     0.676267
O       0.642289     2.011167     0.740844
C       0.854343     0.838545     1.568682
C       2.115614     0.750070     2.156534
O       3.089877     1.476584     1.989619
O       2.164378    -0.337587     3.012729
C       3.411820    -0.510475     3.670691
H       3.305148    -1.400865     4.293362
H       4.221977    -0.650857     2.948824
H       3.652333     0.355773     4.293482
72
     -1725.763546     -1725.229896   3.60   6.05
C      -1.146183    -0.340506     1.898811
C      -0.056484    -0.417823     2.786737
C       0.450931    -1.684048     3.114963
C      -0.119511    -2.805086     2.556727
C      -1.215757    -2.699466     1.670575
C      -1.743565    -1.470274     1.325715
C      -0.584081     1.736817     2.476868
C       0.290524     0.932457     3.148057
H       1.282536    -1.788921     3.805653
H       0.239833    -3.799922     2.796933
H      -2.556221    -1.368439     0.618139
H      -0.629029     2.815643     2.416917
N      -1.450392     0.982586     1.717860
C      -2.492843     1.502451     0.859072
H      -2.371447     2.583266     0.784494
H      -2.399734     1.075355    -0.141736
H      -3.485896     1.273353     1.260676
O      -1.685172    -3.891863     1.193725
C      -3.007182    -3.911931     0.682304
H      -3.097514    -3.335501    -0.243381
H      -3.236625    -4.958385     0.477323
H      -3.716880    -3.522265     1.422207
N       2.817437     0.791241     1.865201
C       3.372964    -0.489991     2.130218
O       3.898084    -0.685482     3.194017
C       3.265402    -1.546791     1.049669
H       3.043286    -2.477799     1.573985
H       4.273255    -1.662794     0.637895
C       2.226878    -1.274275    -0.041147
H       2.383631    -1.961902    -0.876699
H       1.227210    -1.458884     0.354782
C       2.316841     0.176504    -0.523966
C       1.104391     0.726845    -1.344859
H       1.328987     0.720571    -2.417781
C       1.510804     1.347322     3.917174
H       1.834256     0.533456     4.570755
H       1.304090     2.209161     4.558832
C       2.675924     1.737330     2.988106
H       2.508619     2.720481     2.549562
H       3.623902     1.744682     3.525266
C       3.653830     0.428770    -1.271665
H       4.475796     0.062440    -0.648254
H       3.632192    -0.214586    -2.159568
C       3.952520     1.869991    -1.682703
H       3.197256     2.269220    -2.360650
H       3.999953     2.536963    -0.816175
H       4.923292     1.911127    -2.185162
O      -0.084833    -0.051051    -1.133817
C      -0.296790    -1.138603    -2.012378
H       0.345007    -1.038493    -2.900334
H      -0.033673    -2.083150    -1.518123
C      -1.741997    -1.198823    -2.449961
C      -2.357642    -2.430998    -2.647455
C      -2.459493    -0.031250    -2.703384
C      -3.674778    -2.501957    -3.088869
H      -1.803047    -3.345379    -2.451052
C      -3.777063    -0.101048    -3.138367
H      -1.975436     0.927644    -2.556326
C      -4.388856    -1.335371    -3.332491
H      -4.142737    -3.469823    -3.241138
H      -4.330139     0.813369    -3.330867
H      -5.417287    -1.387030    -3.675363
C       2.244164     1.055744     0.687324
O       1.572566     2.108719     0.518119
C       0.967786     2.098565    -0.802093
C      -0.038861     3.061217    -0.960139
O      -0.368061     3.950263    -0.182234
O      -0.651402     2.917597    -2.187407
C      -1.657662     3.883767    -2.464306
H      -1.254953     4.897922    -2.404000
H      -2.002466     3.677697    -3.479368
H      -2.492450     3.799369    -1.761446
72
     -1725.758379     -1725.229383   6.84   6.37
C      -4.044229     0.881948    -0.559079
C      -3.323086    -0.213433    -0.039882
C      -2.613921    -1.031280    -0.922552
C      -2.631778    -0.745917    -2.276711
C      -3.364101     0.351900    -2.771039
C      -4.080673     1.179579    -1.919587
C      -4.284327     0.882660     1.663062
C      -3.494224    -0.193303     1.390885
H      -2.031321    -1.880595    -0.576268
H      -2.071364    -1.385243    -2.946425
H      -4.634199     2.016606    -2.328969
H      -4.636308     1.259804     2.613867
N      -4.624516     1.542182     0.496491
C      -5.470586     2.708350     0.394104
H      -6.387286     2.482903    -0.160764
H      -5.742924     3.037944     1.397886
H      -4.945721     3.526569    -0.108931
O      -3.421115     0.684583    -4.095154
C      -2.741085    -0.142275    -5.019551
H      -3.120487    -1.170810    -4.991792
H      -2.932424     0.285923    -6.004321
H      -1.660371    -0.149354    -4.832458
N      -0.923155     0.404591     2.652073
C      -0.918697     1.780671     3.022392
O      -1.778378     2.204415     3.746662
C       0.204349     2.653213     2.501274
H       0.546422     3.223001     3.368949
H      -0.274982     3.380404     1.843943
C       1.379525     1.939576     1.823760
H       1.944411     2.650628     1.213959
H       2.061638     1.560718     2.585472
C       0.927454     0.759518     0.963530
C       1.969664    -0.367915     0.701177
H       2.520136    -0.202405    -0.229553
C      -2.878487    -1.160628     2.358953
H      -2.401947    -1.967367     1.799762
H      -3.641777    -1.629560     2.988834
C      -1.860849    -0.525255     3.316194
H      -2.354985     0.068057     4.082170
H      -1.264809    -1.301465     3.802460
C       0.341114     1.151853    -0.423360
H       1.193109     1.498868    -1.018985
H      -0.013531     0.234693    -0.901384
C      -0.763570     2.205602    -0.467765
H      -1.584243     1.985793     0.220727
H      -0.384687     3.209200    -0.256269
H      -1.196848     2.226363    -1.471079
O       2.886201    -0.374540     1.808325
C       3.880867    -1.380627     1.690461
H       4.372774    -1.413084     2.667612
H       3.408494    -2.353181     1.508743
C       4.894874    -1.082572     0.606631
C       5.245836    -2.051087    -0.327232
C       5.497320     0.173490     0.538099
C       6.191462    -1.776776    -1.310175
H       4.761839    -3.022562    -0.294977
C       6.438301     0.452114    -0.443216
H       5.220488     0.935748     1.260642
C       6.790333    -0.525475    -1.369619
H       6.456060    -2.542431    -2.033067
H       6.900106     1.433825    -0.486198
H       7.527261    -0.308988    -2.136768
C      -0.083956    -0.049864     1.722138
O      -0.049828    -1.291677     1.469184
C       1.110567    -1.572268     0.624083
C       0.871679    -2.501794    -0.390445
O      -0.130167    -3.191878    -0.571233
O       1.966158    -2.596344    -1.224566
C       1.829582    -3.539613    -2.278694
H       1.677686    -4.548648    -1.885615
H       0.983806    -3.289176    -2.925400
H       2.761429    -3.493904    -2.845421
72
     -1725.759716     -1725.229322   6.00   6.41
C      -1.965173    -2.680353     0.942142
C      -2.085959    -1.982327     2.164733
C      -1.816035    -2.668946     3.349354
C      -1.426271    -3.994944     3.305884
C      -1.305914    -4.664818     2.071176
C      -1.573493    -4.015521     0.876141
C      -2.560811    -0.579214     0.481936
C      -2.472605    -0.630266     1.840305
H      -1.893379    -2.170622     4.310061
H      -1.213964    -4.510987     4.232868
H      -1.471604    -4.555770    -0.057765
H      -2.778298     0.267456    -0.155397
N      -2.272079    -1.811018    -0.073978
C      -2.269325    -2.128875    -1.483507
H      -2.705177    -1.293176    -2.031535
H      -1.251734    -2.291626    -1.852443
H      -2.871754    -3.021797    -1.674811
O      -0.926167    -5.970372     1.957857
C      -0.661438    -6.697325     3.142920
H      -0.391442    -7.704497     2.823588
H       0.173526    -6.260457     3.703948
H      -1.546580    -6.747718     3.788362
N      -0.105992     0.559906     2.618322
C       0.717737    -0.540226     3.021011
O       0.722106    -0.878147     4.171380
C       1.527101    -1.239466     1.946346
H       1.276682    -2.298644     2.055087
H       2.574669    -1.143898     2.245565
C       1.279421    -0.768800     0.511380
H       2.089645    -1.097374    -0.143887
H       0.359704    -1.216157     0.134861
C       1.146310     0.757719     0.458363
C       0.576578     1.369470    -0.848331
H       1.366867     1.846135    -1.436393
C      -2.603183     0.537742     2.772118
H      -3.325397     0.328384     3.567894
H      -2.986546     1.392425     2.210813
C      -1.264351     0.935050     3.446271
H      -1.226911     2.011651     3.621802
H      -1.119474     0.423199     4.394667
C       2.472420     1.454648     0.861342
H       2.807121     1.048940     1.822115
H       3.217689     1.145959     0.118926
C       2.429599     2.980034     0.951942
H       3.396815     3.352881     1.302030
H       2.226997     3.442835    -0.015933
H       1.666586     3.328905     1.654675
O       0.025865     0.300971    -1.643634
C      -0.356359     0.742935    -2.935494
H      -0.932461    -0.080745    -3.369099
H      -1.014239     1.616461    -2.858695
C       0.826046     1.060249    -3.828017
C       1.926200     0.204276    -3.865808
C       0.823770     2.193848    -4.633268
C       3.002942     0.476709    -4.698734
H       1.935432    -0.678256    -3.232826
C       1.898543     2.466986    -5.473143
H      -0.020509     2.875284    -4.590639
C       2.989942     1.608801    -5.508159
H       3.854480    -0.196601    -4.719066
H       1.883675     3.355090    -6.097465
H       3.830455     1.821383    -6.161303
C       0.070004     1.129108     1.430390
O      -0.719028     2.033754     1.033996
C      -0.416292     2.365709    -0.363504
C      -0.490678     3.748257    -0.614658
O      -0.943941     4.627731     0.104776
O       0.017418     4.032462    -1.867043
C      -0.027484     5.408429    -2.225655
H       0.536747     6.019580    -1.516041
H       0.421184     5.475790    -3.218659
H      -1.058237     5.771793    -2.252459
72
     -1725.761271     -1725.229273   5.03   6.44
C      -2.337665    -1.045844    -1.866146
C      -2.168722    -1.981342    -0.830481
C      -2.626540    -1.640930     0.453326
C      -3.218597    -0.419049     0.658225
C      -3.392186     0.494250    -0.404226
C      -2.961577     0.197625    -1.683943
C      -1.310059    -2.832950    -2.719142
C      -1.514013    -3.132732    -1.405302
H      -2.497289    -2.310795     1.296198
H      -3.555385    -0.125780     1.645584
H      -3.079205     0.887613    -2.509239
H      -0.845307    -3.432456    -3.490915
N      -1.798052    -1.574747    -3.013062
C      -1.822593    -0.956038    -4.318591
H      -1.329225     0.020591    -4.296130
H      -1.289698    -1.595185    -5.024196
H      -2.849770    -0.825751    -4.675461
O      -3.991670     1.670362    -0.052450
C      -4.277650     2.599342    -1.077852
H      -3.361550     2.963688    -1.560049
H      -4.937908     2.163979    -1.838142
H      -4.785555     3.436702    -0.597967
N       0.959754    -3.208368    -0.010182
C       1.797733    -3.424064    -1.133989
O       1.799722    -4.508017    -1.656295
C       2.648446    -2.263662    -1.608909
H       2.695256    -2.356533    -2.695602
H       3.663617    -2.451497    -1.240806
C       2.136211    -0.890072    -1.176672
H       2.844585    -0.107567    -1.453768
H       1.197508    -0.668881    -1.687633
C       1.884970    -0.893001     0.331095
C       1.058311     0.275842     0.932658
H       1.694352     1.064334     1.342429
C      -1.108542    -4.413405    -0.736116
H      -0.747144    -5.107616    -1.496619
H      -1.972319    -4.883981    -0.253534
C      -0.020751    -4.249653     0.341813
H      -0.449581    -3.960807     1.299263
H       0.526203    -5.183597     0.474311
C       3.166794    -1.107651     1.183417
H       2.863905    -1.060145     2.234200
H       3.559651    -2.116766     1.016438
C       4.264700    -0.078932     0.908801
H       5.075407    -0.193532     1.633950
H       4.698049    -0.200787    -0.088358
H       3.891337     0.945995     0.989740
O       0.278382     0.823775    -0.146045
C      -0.342041     2.058468     0.176308
H      -0.997219     2.272707    -0.671990
H      -0.967600     1.960000     1.067970
C       0.662327     3.177832     0.356256
C       0.601756     4.023548     1.458152
C       1.670910     3.369653    -0.588361
C       1.525749     5.052641     1.613730
H      -0.166740     3.864309     2.208280
C       2.596423     4.392784    -0.435123
H       1.725894     2.709217    -1.449046
C       2.524327     5.239774     0.667415
H       1.466003     5.705548     2.479052
H       3.375458     4.533614    -1.178317
H       3.246644     6.041065     0.787175
C       0.960473    -2.034934     0.630135
O       0.147832    -1.803389     1.565792
C       0.299781    -0.422524     1.994122
C      -0.485002    -0.073785     3.095032
O      -1.220436    -0.797564     3.757733
O      -0.317814     1.262935     3.409446
C      -1.054317     1.690263     4.548185
H      -0.767414     1.121768     5.436656
H      -0.811397     2.746035     4.686070
H      -2.129937     1.568073     4.391698
72
     -1725.760313     -1725.228745   5.63   6.77
C       0.942561     2.902505    -3.087261
C       0.269227     1.996358    -2.251959
C      -0.000267     2.371754    -0.925850
C       0.419918     3.602813    -0.480692
C       1.107459     4.492945    -1.334658
C       1.377265     4.163740    -2.651711
C       0.503999     1.061899    -4.275253
C      -0.000446     0.817260    -3.034651
H      -0.533026     1.720657    -0.240257
H       0.220914     3.915637     0.537840
H       1.898938     4.834787    -3.320871
H       0.511127     0.429762    -5.153382
N       1.075969     2.320671    -4.324681
C       1.706218     2.922861    -5.475633
H       1.661286     2.222901    -6.311534
H       1.192429     3.844562    -5.768546
H       2.757818     3.152559    -5.273602
O       1.467527     5.676122    -0.755153
C       2.155444     6.617581    -1.552436
H       2.347063     7.478383    -0.910785
H       3.111077     6.215792    -1.912246
H       1.549426     6.934822    -2.410453
N      -0.299354    -2.219356    -0.797997
C      -0.219778    -3.575570    -1.221270
O       0.263182    -3.828016    -2.291779
C      -0.758525    -4.631759    -0.276331
H      -0.107927    -5.499691    -0.399028
H      -1.738613    -4.925950    -0.668929
C      -0.849827    -4.191856     1.185322
H      -1.353256    -4.952557     1.783962
H       0.149591    -4.071657     1.603559
C      -1.580562    -2.855345     1.274525
C      -1.454016    -2.032219     2.592187
H      -2.267753    -2.247720     3.286811
C      -0.630591    -0.440428    -2.519996
H      -0.913646    -1.106569    -3.340252
H      -1.543212    -0.195448    -1.964171
C       0.349700    -1.158101    -1.589148
H       1.154002    -1.627617    -2.151870
H       0.788285    -0.458954    -0.879248
C      -3.074746    -2.931834     0.847311
H      -3.496157    -1.929207     0.963583
H      -3.136342    -3.174482    -0.219698
C      -3.901091    -3.939532     1.645937
H      -4.956038    -3.858519     1.369007
H      -3.590385    -4.970323     1.452395
H      -3.829799    -3.762202     2.722493
O      -0.226538    -2.435721     3.254966
C       0.709099    -1.418485     3.585877
H       0.210359    -0.545855     4.015637
H       1.333758    -1.863638     4.367064
C       1.588408    -1.005854     2.421899
C       2.330201    -1.970603     1.739411
C       1.683653     0.322376     2.016942
C       3.165177    -1.615178     0.688320
H       2.266543    -3.009014     2.052756
C       2.516922     0.684710     0.962592
H       1.081749     1.079795     2.509435
C       3.265580    -0.281780     0.301806
H       3.742766    -2.377333     0.173963
H       2.565376     1.722678     0.648479
H       3.919088     0.001224    -0.517890
C      -0.917107    -1.893627     0.335276
O      -0.970657    -0.689357     0.717807
C      -1.532287    -0.659374     2.064837
C      -1.733605     0.612705     2.598677
O      -1.566482     1.701572     2.054737
O      -2.176926     0.519263     3.901778
C      -2.445357     1.769063     4.525490
H      -2.791400     1.532921     5.533214
H      -1.545213     2.388774     4.571436
H      -3.218166     2.319278     3.981887
72
     -1725.757747     -1725.228716   7.24   6.79
C       0.032859     3.810782     0.061135
C       0.857743     3.232346    -0.928962
C       0.463541     3.326976    -2.264605
C      -0.711987     3.980482    -2.590603
C      -1.508558     4.563633    -1.583428
C      -1.144061     4.488458    -0.248784
C       1.763062     2.839633     1.081728
C       1.976570     2.631591    -0.248799
H       1.067812     2.888940    -3.053859
H      -1.006898     4.047655    -3.629756
H      -1.775977     4.946758     0.503071
H       2.337031     2.510620     1.936931
N       0.596692     3.548484     1.283755
C       0.045805     3.912175     2.572168
H       0.552340     3.334708     3.345086
H       0.162257     4.983180     2.768376
H      -1.016497     3.654798     2.610734
O      -2.674269     5.229097    -1.837887
C      -3.081519     5.376099    -3.184407
H      -2.336281     5.927152    -3.770859
H      -3.268786     4.403919    -3.656596
H      -4.010762     5.946422    -3.157568
N       1.685970    -0.148385    -1.105784
C       1.375848    -0.320904    -2.482518
O       2.162729     0.063165    -3.306129
C       0.071884    -1.008048    -2.828478
H       0.287420    -1.637484    -3.694505
H      -0.603315    -0.222882    -3.183091
C      -0.546051    -1.810974    -1.683040
H      -1.554774    -2.137481    -1.945718
H       0.039955    -2.715302    -1.507028
C      -0.589119    -0.959620    -0.411632
C      -0.853359    -1.703848     0.935913
H      -1.898647    -1.604307     1.227294
C       3.110507     1.893166    -0.898340
H       4.071021     2.195681    -0.468632
H       3.149200     2.141688    -1.961206
C       3.018756     0.372078    -0.746502
H       3.742024    -0.124821    -1.393756
H       3.203791     0.071508     0.284250
C      -1.574710     0.232042    -0.593503
H      -1.202511     0.881362    -1.392526
H      -2.512573    -0.205644    -0.955873
C      -1.850352     1.092014     0.636874
H      -2.486294     1.933248     0.347240
H      -2.365266     0.534908     1.421752
H      -0.932275     1.503376     1.057905
O      -0.674149    -3.123391     0.791692
C       0.643250    -3.595308     0.959643
H       1.356295    -3.016649     0.347592
H       0.962709    -3.465381     2.001223
C       0.735678    -5.046528     0.552889
C       1.930205    -5.732010     0.776886
C      -0.321109    -5.713009    -0.058166
C       2.067778    -7.058958     0.396332
H       2.760169    -5.218640     1.256659
C      -0.183665    -7.044333    -0.440777
H      -1.254285    -5.189490    -0.227494
C       1.007757    -7.720435    -0.216597
H       3.003301    -7.579238     0.577569
H      -1.016571    -7.553885    -0.915760
H       1.112020    -8.758595    -0.515706
C       0.791732    -0.438581    -0.156315
O       1.109597    -0.373192     1.064928
C       0.054632    -0.998693     1.874028
C      -0.233297    -0.266319     3.036479
O       0.377945     0.696471     3.493386
O      -1.347299    -0.772246     3.662881
C      -1.710947    -0.103316     4.863962
H      -2.594050    -0.621773     5.240756
H      -0.903461    -0.153659     5.599068
H      -1.944204     0.948709     4.675012
72
     -1725.754517     -1725.228540   9.26   6.90
C      -1.883375    -4.896929    -0.005943
C      -1.659670    -3.535726     0.255200
C      -1.998204    -2.592508    -0.729818
C      -2.528064    -3.031912    -1.919784
C      -2.737566    -4.407134    -2.163799
C      -2.422375    -5.363821    -1.214766
C      -1.024000    -4.720103     2.049063
C      -1.106380    -3.443770     1.581928
H      -1.861637    -1.525884    -0.577828
H      -2.801157    -2.326430    -2.695662
H      -2.579196    -6.420782    -1.383716
H      -0.663633    -5.084094     3.002206
N      -1.489929    -5.611766     1.099795
C      -1.562922    -7.046244     1.245073
H      -1.174830    -7.323961     2.226383
H      -2.597444    -7.397947     1.170102
H      -0.961587    -7.549955     0.480839
O      -3.268174    -4.694547    -3.389519
C      -3.504606    -6.051025    -3.702808
H      -2.574635    -6.633505    -3.689929
H      -4.224860    -6.503173    -3.009194
H      -3.921359    -6.063349    -4.710602
N       0.927489    -0.291840     2.063574
C       1.605742    -0.010895     3.281103
O       1.907865    -0.921514     4.004593
C       1.916183     1.439937     3.592313
H       2.913941     1.442355     4.035969
H       1.227532     1.732534     4.392899
C       1.824959     2.389405     2.397726
H       1.905452     3.426935     2.725443
H       2.652348     2.210047     1.709408
C       0.512349     2.152469     1.653290
C       0.358282     2.759284     0.235162
H      -0.189457     3.707638     0.252843
C      -0.670172    -2.179272     2.253000
H      -0.572706    -2.315533     3.333810
H      -1.427073    -1.403254     2.087828
C       0.667717    -1.693441     1.684038
H       1.496935    -2.290452     2.059855
H       0.664298    -1.739727     0.595641
C      -0.758878     2.466873     2.494086
H      -1.624035     2.300540     1.844507
H      -0.843713     1.746880     3.316003
C      -0.798414     3.887192     3.057977
H      -0.674172     4.639314     2.273903
H      -1.762795     4.070907     3.540066
H      -0.020611     4.051539     3.809402
O       1.680837     2.993196    -0.269012
C       1.680800     3.450910    -1.611263
H       1.273986     2.676678    -2.272549
H       1.028843     4.333944    -1.701141
C       3.090405     3.805879    -2.009188
C       3.626265     3.342503    -3.205695
C       3.868392     4.626373    -1.193011
C       4.916052     3.696835    -3.589793
H       3.030674     2.694321    -3.842762
C       5.156186     4.978351    -1.570414
H       3.458015     4.984697    -0.254063
C       5.683359     4.515939    -2.772955
H       5.320878     3.328670    -4.527500
H       5.752510     5.616504    -0.925420
H       6.690380     4.792683    -3.068932
C       0.438326     0.695158     1.310422
O      -0.126102     0.445962     0.207115
C      -0.409882     1.711804    -0.473170
C      -1.598483     1.717456    -1.206072
O      -2.349029     0.776979    -1.448015
O      -1.854930     2.985687    -1.691876
C      -3.038355     3.089327    -2.472987
H      -3.921258     2.812829    -1.889891
H      -3.104529     4.134071    -2.782161
H      -2.986805     2.439884    -3.351327
72
     -1725.754346     -1725.228339   9.37   7.02
C      -1.081523    -5.109443    -0.746339
C      -1.122293    -3.769385    -0.310220
C      -1.408248    -2.767148    -1.240115
C      -1.634127    -3.109344    -2.561671
C      -1.581170    -4.454786    -2.973148
C      -1.306050    -5.473335    -2.072672
C      -0.659909    -5.079287     1.449329
C      -0.847650    -3.776186     1.105307
H      -1.467650    -1.719562    -0.960981
H      -1.856542    -2.316944    -3.263599
H      -1.275019    -6.499816    -2.419249
H      -0.432790    -5.510457     2.415616
N      -0.797270    -5.898741     0.342693
C      -0.676170    -7.336830     0.324359
H      -0.443178    -7.687800     1.331077
H      -1.611576    -7.805829     0.001058
H       0.127864    -7.654109    -0.348092
O      -1.794921    -4.854316    -4.263596
C      -2.077050    -3.857773    -5.226216
H      -2.995034    -3.310139    -4.980471
H      -1.247931    -3.146125    -5.322117
H      -2.212857    -4.382787    -6.172772
N       0.529245    -0.448565     2.250855
C       0.898803    -0.210357     3.603234
O       1.195351    -1.143609     4.299652
C       0.901255     1.225901     4.087395
H       1.773356     1.319544     4.737709
H       0.025246     1.328261     4.737757
C       0.904521     2.279112     2.979550
H       0.749766     3.275248     3.396905
H       1.872668     2.294708     2.476886
C      -0.173948     1.945124     1.950715
C      -0.128834     2.674611     0.583316
H      -0.805311     3.535415     0.555931
C      -0.745374    -2.558587     1.968912
H      -0.821512    -2.813668     3.029581
H      -1.575136    -1.880694     1.735054
C       0.576991    -1.823868     1.719352
H       1.408736    -2.331455     2.205040
H       0.782659    -1.752107     0.652118
C      -1.623315     1.989492     2.516043
H      -2.301111     1.776377     1.683434
H      -1.759496     1.180683     3.242985
C      -1.999473     3.322159     3.163644
H      -1.835813     4.164168     2.485356
H      -3.058934     3.319660     3.435159
H      -1.428112     3.509316     4.077466
O       1.219943     3.126327     0.395128
C       1.427182     3.737517    -0.868635
H       1.089972     3.055748    -1.660670
H       0.834687     4.660225    -0.947812
C       2.893664     4.044744    -1.024806
C       3.839678     3.032473    -0.862488
C       3.325593     5.325380    -1.349705
C       5.191270     3.299232    -1.023398
H       3.507551     2.031419    -0.604998
C       4.680790     5.596292    -1.515770
H       2.596558     6.122090    -1.471478
C       5.615846     4.583651    -1.352806
H       5.918237     2.503412    -0.892777
H       5.003919     6.601016    -1.770216
H       6.673523     4.792059    -1.480009
C       0.051822     0.537189     1.488807
O      -0.235223     0.334336     0.273826
C      -0.571747     1.615512    -0.350371
C      -1.572157     1.543410    -1.321139
O      -2.103811     0.544062    -1.796803
O      -1.916676     2.812192    -1.746747
C      -2.917309     2.844755    -2.756368
H      -3.077887     3.899479    -2.986952
H      -2.588740     2.309977    -3.651893
H      -3.847819     2.390768    -2.404152
72
     -1725.756186     -1725.228005   8.22   7.23
C      -3.552491    -0.372505    -2.218564
C      -2.551051    -1.338503    -2.029769
C      -1.603989    -1.535179    -3.047959
C      -1.686143    -0.780848    -4.193179
C      -2.707625     0.181080    -4.364725
C      -3.657012     0.403377    -3.383576
C      -3.845867    -1.287031    -0.200256
C      -2.752601    -1.911895    -0.724738
H      -0.789712    -2.242108    -2.926539
H      -0.965544    -0.898825    -4.994444
H      -4.445248     1.135811    -3.496550
H      -4.326319    -1.419154     0.759808
N      -4.336778    -0.350318    -1.091879
C      -5.517345     0.460678    -0.901303
H      -5.281128     1.524572    -1.003623
H      -6.296845     0.200543    -1.625243
H      -5.906095     0.289163     0.103408
O      -2.663794     0.851195    -5.552816
C      -3.658016     1.825281    -5.797896
H      -3.447503     2.233222    -6.787051
H      -4.661611     1.381836    -5.796296
H      -3.616957     2.634307    -5.057786
N      -1.212958    -1.320386     1.674436
C      -2.019218    -0.539077     2.548873
O      -3.037910    -0.997802     2.993456
C      -1.531205     0.852282     2.900680
H      -1.735083     0.974275     3.966773
H      -2.202592     1.545519     2.384180
C      -0.064788     1.131738     2.574519
H       0.151165     2.198267     2.671992
H       0.583709     0.607810     3.277967
C       0.254454     0.657673     1.153719
C       1.755085     0.535918     0.777648
H       2.091987     1.388645     0.177896
C      -1.888819    -2.966696    -0.093797
H      -0.952930    -3.034310    -0.651415
H      -2.356359    -3.955517    -0.160336
C      -1.583307    -2.722705     1.389297
H      -2.445747    -2.927627     2.019318
H      -0.755326    -3.358123     1.712102
C      -0.549582     1.476949     0.102560
H      -1.616475     1.273703     0.246672
H      -0.396529     2.533723     0.352906
C      -0.206703     1.238303    -1.365367
H       0.804353     1.571626    -1.608429
H      -0.293365     0.188097    -1.642655
H      -0.905641     1.795066    -1.996806
O       2.502301     0.516265     2.001136
C       3.889799     0.318015     1.787008
H       4.062956    -0.668694     1.341541
H       4.265232     1.070230     1.075190
C       4.611301     0.445544     3.103873
C       5.514322    -0.528543     3.514803
C       4.397460     1.556362     3.919428
C       6.202122    -0.396184     4.717419
H       5.678991    -1.402239     2.890135
C       5.077842     1.689939     5.120937
H       3.687581     2.316094     3.607072
C       5.985388     0.713584     5.522497
H       6.905336    -1.164029     5.025049
H       4.901396     2.558605     5.747944
H       6.518944     0.818836     6.461925
C      -0.150661    -0.782812     1.068729
O       0.635386    -1.516567     0.407737
C       1.803017    -0.727743    -0.000636
C       2.181767    -0.969892    -1.328056
O       1.764069    -1.836414    -2.089490
O       3.157169    -0.076078    -1.718895
C       3.605814    -0.242169    -3.058267
H       4.359934     0.529677    -3.222002
H       4.044514    -1.232935    -3.203218
H       2.781484    -0.120898    -3.767065
72
     -1725.756186     -1725.228001   8.22   7.24
C       3.391238    -1.321043    -2.106127
C       2.235485    -2.053409    -1.790627
C       2.271416    -2.929422    -0.693526
C       3.431193    -3.043774     0.033885
C       4.585288    -2.301949    -0.306594
C       4.587230    -1.428698    -1.379361
C       1.794148    -0.753823    -3.563372
C       1.217990    -1.671561    -2.734780
H       1.389168    -3.483665    -0.390225
H       3.490816    -3.702112     0.893098
H       5.460267    -0.851813    -1.654226
H       1.373026    -0.215094    -4.401490
N       3.107408    -0.529373    -3.191357
C       4.043392     0.334512    -3.873567
H       3.520975     0.860387    -4.673892
H       4.461264     1.077510    -3.186918
H       4.864508    -0.241325    -4.313513
O       5.661301    -2.520631     0.503903
C       6.854315    -1.817926     0.220512
H       7.236755    -2.065128    -0.777726
H       6.707360    -0.733112     0.295058
H       7.579566    -2.133901     0.971067
N      -1.015417     0.126738    -2.229879
C      -0.769291     1.355252    -2.904659
O      -0.680640     1.372163    -4.103685
C      -0.651485     2.609635    -2.061771
H      -1.188683     3.385057    -2.612354
H       0.404902     2.894521    -2.093373
C      -1.163583     2.483116    -0.627686
H      -0.865597     3.353241    -0.038018
H      -2.253806     2.448180    -0.619051
C      -0.618466     1.202472     0.011190
C      -1.301378     0.729251     1.321854
H      -0.706248     0.988966     2.204305
C      -0.193456    -2.185758    -2.749904
H      -0.399666    -2.674423    -1.795922
H      -0.329131    -2.952019    -3.521416
C      -1.251521    -1.106320    -3.010148
H      -1.261632    -0.792016    -4.051220
H      -2.243608    -1.481400    -2.748255
C       0.930755     1.266940     0.146618
H       1.365635     1.301384    -0.858384
H       1.158982     2.230233     0.618686
C       1.601556     0.138035     0.924403
H       1.355505    -0.843277     0.519656
H       2.688256     0.248007     0.859578
H       1.325185     0.148954     1.980775
O      -2.565407     1.399892     1.411692
C      -3.325370     0.978472     2.532047
H      -3.582202    -0.082761     2.432855
H      -2.723913     1.086585     3.448573
C      -4.569025     1.824330     2.625841
C      -5.819560     1.233249     2.767139
C      -4.478580     3.215559     2.593488
C      -6.964884     2.015341     2.882938
H      -5.899841     0.149746     2.782803
C      -5.618277     3.998644     2.704297
H      -3.505421     3.682157     2.475402
C      -6.866224     3.399556     2.852138
H      -7.934720     1.540157     2.994085
H      -5.534947     5.080820     2.675996
H      -7.757881     4.012291     2.940396
C      -0.985772     0.067179    -0.895747
O      -1.341070    -0.990004    -0.304727
C      -1.389458    -0.741870     1.140411
C      -0.834958    -1.789768     1.887793
O      -0.479261    -2.896003     1.494282
O      -0.734319    -1.430413     3.215860
C      -0.177517    -2.433135     4.056878
H      -0.154708    -2.006397     5.061182
H      -0.792180    -3.337112     4.046561
H       0.834217    -2.698103     3.736253
72
     -1725.759287     -1725.227926   6.27   7.28
C       3.162286    -0.707259     1.846506
C       2.705044     0.625050     1.830900
C       3.622793     1.640956     1.529812
C       4.932170     1.316864     1.257650
C       5.367364    -0.026149     1.286324
C       4.493636    -1.057962     1.582680
C       0.971982    -0.723294     2.271204
C       1.294906     0.589913     2.116729
H       3.310571     2.680941     1.506364
H       5.665018     2.080410     1.022051
H       4.810225    -2.092344     1.611221
H       0.007377    -1.186094     2.416230
N       2.090107    -1.518363     2.114183
C       2.094000    -2.963878     2.170776
H       1.061914    -3.311959     2.123315
H       2.632607    -3.375840     1.311882
H       2.564111    -3.328339     3.090380
O       6.691487    -0.202073     1.002272
C       7.200762    -1.519927     1.029192
H       8.261002    -1.442056     0.786081
H       7.090234    -1.971143     2.023198
H       6.705648    -2.156166     0.284791
N      -1.224157     2.317689     0.146372
C      -1.804810     3.577308    -0.191928
O      -1.217064     4.589570     0.073237
C      -3.152549     3.556356    -0.885806
H      -3.144311     4.406410    -1.570335
H      -3.901631     3.786362    -0.119777
C      -3.470976     2.247511    -1.607814
H      -4.489175     2.262483    -1.999408
H      -2.804450     2.118424    -2.461684
C      -3.270735     1.078038    -0.649806
C      -3.150439    -0.352772    -1.251696
H      -4.114267    -0.863072    -1.300573
C       0.335369     1.740913     2.060719
H       0.663596     2.565322     2.701687
H      -0.637154     1.418436     2.442558
C       0.178892     2.245903     0.608048
H       0.585074     3.245044     0.471617
H       0.687567     1.567647    -0.074424
C      -4.274879     1.062885     0.537911
H      -4.044445     0.183040     1.145688
H      -4.099559     1.936615     1.175628
C      -5.743013     1.031057     0.113433
H      -5.953793     0.197360    -0.561766
H      -6.381980     0.910792     0.992817
H      -6.045831     1.955550    -0.386603
O      -2.659145    -0.215903    -2.607893
C      -1.573373    -1.053142    -2.987697
H      -1.701262    -2.066343    -2.596626
H      -1.630923    -1.103610    -4.079683
C      -0.222865    -0.497121    -2.581726
C       0.658161    -1.232403    -1.794765
C       0.159020     0.776696    -3.003328
C       1.898429    -0.711331    -1.442417
H       0.365165    -2.211769    -1.429354
C       1.402957     1.295595    -2.666083
H      -0.522307     1.359568    -3.617308
C       2.278991     0.550318    -1.881687
H       2.568865    -1.287052    -0.813416
H       1.688253     2.285012    -3.011458
H       3.246012     0.953417    -1.596103
C      -1.896256     1.186997    -0.055209
O      -1.377561     0.068198     0.233654
C      -2.245558    -0.983400    -0.276626
C      -1.992758    -2.279582     0.155464
O      -1.152360    -2.674366     0.965505
O      -2.851595    -3.161398    -0.470283
C      -2.696363    -4.520909    -0.083466
H      -3.441537    -5.080871    -0.651149
H      -1.692484    -4.886049    -0.318968
H      -2.870029    -4.646713     0.988785
72
     -1725.759287     -1725.227893   6.27   7.30
C      -1.350672     2.287041    -2.618084
C      -2.115802     1.149589    -2.293840
C      -2.620045     0.365246    -3.340513
C      -2.357158     0.719019    -4.644088
C      -1.592983     1.868150    -4.943149
C      -1.080217     2.670923    -3.938914
C      -1.419247     2.111026    -0.394931
C      -2.154123     1.062967    -0.857709
H      -3.213699    -0.520321    -3.133283
H      -2.733838     0.132645    -5.474661
H      -0.494557     3.556088    -4.149800
H      -1.133128     2.362831     0.615223
N      -0.930359     2.861041    -1.446346
C      -0.075131     4.019882    -1.310713
H       0.784094     3.938171    -1.983426
H      -0.614524     4.945681    -1.537583
H       0.297230     4.053604    -0.286584
O      -1.414811     2.102608    -6.276647
C      -0.673406     3.246061    -6.650356
H      -1.149445     4.166655    -6.290141
H       0.355554     3.197708    -6.272240
H      -0.654779     3.254370    -7.740706
N      -1.416092    -1.961843     1.018080
C      -1.872010    -3.259818     1.399688
O      -2.774883    -3.770479     0.795968
C      -1.167486    -3.928545     2.563637
H      -1.167522    -4.995525     2.333849
H      -1.818087    -3.802507     3.436368
C       0.242649    -3.404832     2.833792
H       0.652893    -3.854895     3.739023
H       0.907919    -3.678583     2.013740
C       0.206061    -1.884531     2.947262
C       1.548999    -1.106034     2.827176
H       2.014543    -0.932471     3.799235
C      -2.717605    -0.058872    -0.037572
H      -3.764624    -0.252030    -0.291860
H      -2.701161     0.223214     1.018718
C      -1.889457    -1.348205    -0.241373
H      -2.452344    -2.124540    -0.753568
H      -0.997115    -1.124639    -0.822989
C      -0.589344    -1.367863     4.179975
H      -0.538605    -0.275261     4.163490
H      -1.647000    -1.632298     4.069222
C      -0.073096    -1.891740     5.519996
H      -0.606107    -1.403347     6.340625
H      -0.226772    -2.969494     5.626061
H       0.992711    -1.687900     5.653699
O       2.457850    -1.921144     2.046755
C       3.148782    -1.277535     0.982601
H       3.491519    -0.282513     1.279816
H       4.032124    -1.900264     0.808772
C       2.333710    -1.195993    -0.292883
C       2.081844     0.021937    -0.916865
C       1.822799    -2.360623    -0.866306
C       1.342675     0.076505    -2.093554
H       2.442577     0.942070    -0.467682
C       1.096349    -2.312645    -2.049660
H       2.012852    -3.316780    -0.386134
C       0.853308    -1.089475    -2.668494
H       1.137753     1.033866    -2.560507
H       0.714699    -3.230199    -2.487910
H       0.270585    -1.037982    -3.583349
C      -0.479234    -1.338125     1.728071
O      -0.065702    -0.191519     1.383860
C       1.083320     0.147346     2.211234
C       1.526436     1.463726     2.172493
O       1.048733     2.422637     1.563763
O       2.657998     1.603679     2.951449
C       3.186893     2.922612     3.003286
H       4.060381     2.869709     3.655456
H       3.481396     3.269057     2.008399
H       2.454925     3.623716     3.413638
72
     -1725.761398     -1725.227666   4.95   7.45
C       0.324552     2.231988     1.467224
C       0.308325     2.677136     0.134338
C      -0.920096     2.699736    -0.545650
C      -2.058869     2.290749     0.103182
C      -2.017773     1.864804     1.450704
C      -0.828718     1.827856     2.153836
C       2.415237     2.764749     0.895425
C       1.663927     3.025849    -0.211354
H      -0.979472     3.018848    -1.581198
H      -3.019330     2.284778    -0.400230
H      -0.778629     1.481827     3.177173
H       3.481363     2.884233     1.037918
N       1.622255     2.277845     1.916872
C       2.056873     1.975203     3.261227
H       3.147145     1.999889     3.296802
H       1.666807     2.703588     3.980159
H       1.724302     0.975288     3.556003
O      -3.221279     1.492464     1.969287
C      -3.289433     1.255133     3.365392
H      -2.649833     0.420157     3.666174
H      -3.011316     2.155859     3.926542
H      -4.328202     1.001258     3.578035
N       2.343014     1.073920    -2.098097
C       3.604823     0.800513    -1.506908
O       4.504284     1.580094    -1.679208
C       3.743005    -0.454557    -0.669140
H       4.308722    -0.152110     0.215068
H       4.400164    -1.126793    -1.229326
C       2.423658    -1.122789    -0.281217
H       2.601218    -2.119586     0.129750
H       1.931490    -0.535405     0.495659
C       1.495086    -1.207406    -1.496238
C       0.009422    -1.557917    -1.221624
H      -0.208192    -2.601881    -1.477080
C       2.185530     3.501336    -1.534688
H       3.222457     3.819239    -1.416826
H       1.617121     4.369498    -1.885044
C       2.113843     2.425820    -2.637772
H       1.135552     2.407344    -3.113698
H       2.870363     2.609264    -3.401373
C       2.085591    -2.127064    -2.599711
H       3.095963    -1.780934    -2.841396
H       2.198752    -3.118543    -2.145685
C       1.280792    -2.238031    -3.894966
H       1.830206    -2.857288    -4.610397
H       0.304965    -2.700888    -3.735814
H       1.114024    -1.262251    -4.361194
O      -0.228128    -1.395366     0.186172
C      -1.587748    -1.584102     0.526034
H      -2.176524    -0.712870     0.210391
H      -1.992642    -2.454733    -0.007714
C      -1.736412    -1.800898     2.012606
C      -2.977789    -2.189554     2.516749
C      -0.678489    -1.622294     2.897451
C      -3.160841    -2.393495     3.877229
H      -3.809948    -2.333673     1.832140
C      -0.859187    -1.824079     4.262906
H       0.289231    -1.326828     2.509727
C      -2.098771    -2.208850     4.757836
H      -4.133110    -2.697711     4.252442
H      -0.023302    -1.687718     4.942970
H      -2.236903    -2.368003     5.822502
C       1.351720     0.180664    -2.040816
O       0.189664     0.468660    -2.441915
C      -0.721022    -0.623126    -2.110779
C      -1.726630    -0.833374    -3.063222
O      -2.019775    -0.139626    -4.028739
O      -2.423548    -1.992136    -2.768951
C      -3.484725    -2.284529    -3.669707
H      -4.227302    -1.481933    -3.673563
H      -3.111049    -2.414919    -4.689161
H      -3.936458    -3.212333    -3.313524
72
     -1725.756684     -1725.227661   7.90   7.45
C      -0.632045    -3.745474    -0.323175
C      -1.752226    -3.032450     0.145246
C      -2.930281    -3.067882    -0.616412
C      -2.957921    -3.784603    -1.788591
C      -1.820764    -4.493294    -2.237388
C      -0.641388    -4.486787    -1.513729
C      -0.056684    -2.740890     1.586729
C      -1.358775    -2.397386     1.377358
H      -3.816790    -2.530315    -0.296821
H      -3.852800    -3.828284    -2.398977
H       0.237996    -5.027044    -1.838720
H       0.609997    -2.423407     2.379292
N       0.394602    -3.557384     0.568189
C       1.725261    -4.110839     0.467715
H       1.712638    -5.201333     0.565815
H       2.185772    -3.847038    -0.490004
H       2.335691    -3.693495     1.269886
O      -1.994940    -5.162465    -3.412905
C      -0.900770    -5.899205    -3.921719
H      -0.594624    -6.691376    -3.227180
H      -1.244747    -6.351094    -4.852548
H      -0.043144    -5.247982    -4.131729
N      -1.870582     0.249276     0.453960
C      -2.462013     0.393496    -0.839903
O      -3.628635     0.155009    -0.989434
C      -1.565437     0.860531    -1.967583
H      -2.203200     1.442976    -2.634767
H      -1.281139    -0.042209    -2.520734
C      -0.334065     1.643787    -1.516403
H       0.322303     1.851326    -2.362392
H      -0.634948     2.613577    -1.113322
C       0.401446     0.847091    -0.442995
C       1.490639     1.577555     0.398834
H       2.483711     1.366723     0.003287
C      -2.155684    -1.491014     2.267067
H      -1.523346    -1.203935     3.109026
H      -3.021276    -2.017201     2.684627
C      -2.701507    -0.218438     1.581137
H      -3.687467    -0.383215     1.155236
H      -2.774682     0.596409     2.305314
C       0.982657    -0.500806    -0.963638
H       1.540526    -0.950247    -0.137777
H       0.167920    -1.194908    -1.191632
C       1.892400    -0.351989    -2.182362
H       2.690282     0.376087    -2.009454
H       2.365856    -1.310864    -2.412440
H       1.339228    -0.040271    -3.073345
O       1.368307     3.004524     0.294390
C       0.457259     3.607575     1.184595
H      -0.532437     3.120941     1.132583
H       0.802314     3.487064     2.219014
C       0.285750     5.069046     0.846889
C       0.775308     5.616589    -0.334360
C      -0.413092     5.887383     1.734648
C       0.566643     6.961984    -0.623224
H       1.326859     4.988961    -1.023940
C      -0.621383     7.228755     1.447478
H      -0.795714     5.467492     2.661859
C      -0.131365     7.770875     0.263255
H       0.955108     7.377992    -1.547888
H      -1.166831     7.853365     2.148251
H      -0.292492     8.819816     0.035490
C      -0.573610     0.494483     0.637727
O      -0.078981     0.479866     1.802197
C       1.308575     0.970325     1.740561
C       2.200159     0.174653     2.480370
O       1.937150    -0.743608     3.254065
O       3.497074     0.564097     2.248467
C       4.477388    -0.156476     2.985108
H       5.439818     0.273127     2.702637
H       4.317414    -0.045751     4.060872
H       4.453732    -1.221802     2.738320
72
     -1725.760889     -1725.227640   5.27   7.46
C      -1.416328     0.242553     1.834168
C      -0.257185     0.139187     2.625370
C       0.219246    -1.141483     2.945862
C      -0.452421    -2.248708     2.480267
C      -1.625680    -2.114855     1.702110
C      -2.127008    -0.871376     1.372467
C      -0.713728     2.306156     2.295437
C       0.170939     1.480872     2.924809
H       1.103458    -1.268354     3.564909
H      -0.117176    -3.252861     2.717337
H      -3.005579    -0.752102     0.753313
H      -0.722124     3.384526     2.220244
N      -1.668478     1.573186     1.625719
C      -2.781664     2.122232     0.883525
H      -2.923758     1.557808    -0.041772
H      -3.708545     2.089208     1.467116
H      -2.546986     3.151532     0.612540
O      -2.195056    -3.293856     1.315559
C      -3.493383    -3.236126     0.748944
H      -3.499908    -2.686015    -0.196878
H      -3.787981    -4.269701     0.563541
H      -4.202631    -2.775852     1.447936
N       2.794103     1.059679     1.737690
C       3.440671    -0.123814     2.177982
O       3.921127    -0.148961     3.280576
C       3.499542    -1.302677     1.229743
H       3.315254    -2.182536     1.850066
H       4.542650    -1.375992     0.914109
C       2.532166    -1.264817     0.042450
H       2.838392    -1.997442    -0.710508
H       1.542396    -1.551575     0.399976
C       2.423525     0.127803    -0.577770
C       1.132791     0.432944    -1.414891
H       1.311839     0.254055    -2.480205
C       1.422018     1.872034     3.655238
H       1.711598     1.084503     4.356127
H       1.262700     2.779531     4.245919
C       2.595865     2.153149     2.707386
H       2.416754     3.058730     2.128057
H       3.528416     2.262403     3.260665
C       3.627513     0.565994    -1.462493
H       3.667471    -0.145858    -2.295439
H       3.351333     1.532249    -1.896331
C       5.011834     0.679692    -0.825332
H       5.006515     1.292239     0.081850
H       5.448423    -0.291970    -0.585397
H       5.688824     1.165261    -1.533515
O       0.023505    -0.375081    -0.997191
C      -0.168831    -1.594839    -1.682264
H       0.523806    -1.670192    -2.533425
H       0.047738    -2.433759    -1.007636
C      -1.588105    -1.742805    -2.188724
C      -2.042691    -3.003751    -2.571997
C      -2.442780    -0.651342    -2.297403
C      -3.334115    -3.174327    -3.052588
H      -1.382036    -3.862994    -2.484796
C      -3.739772    -0.822365    -2.772516
H      -2.080659     0.328690    -2.013087
C      -4.189771    -2.081247    -3.150668
H      -3.675311    -4.161952    -3.347163
H      -4.400619     0.035706    -2.853791
H      -5.200447    -2.210605    -3.524769
C       2.244705     1.130793     0.521019
O       1.507345     2.103111     0.205975
C       0.933634     1.870221    -1.112075
C      -0.129936     2.735032    -1.413770
O      -0.503120     3.726854    -0.797625
O      -0.737833     2.346471    -2.588240
C      -1.784428     3.201204    -3.028200
H      -1.419824     4.220151    -3.183386
H      -2.138957     2.782418    -3.971756
H      -2.603246     3.234011    -2.302396
72
     -1725.760081     -1725.227617   5.77   7.48
C      -1.706960     0.371269    -2.102563
C      -1.430220    -1.006161    -2.181211
C      -0.711532    -1.477778    -3.291570
C      -0.293686    -0.590639    -4.254815
C      -0.576829     0.790175    -4.146405
C      -1.293923     1.290254    -3.076816
C      -2.604954    -0.614448    -0.313980
C      -2.017092    -1.625302    -1.020974
H      -0.483126    -2.533670    -3.398458
H       0.267361    -0.924255    -5.120808
H      -1.517273     2.343865    -2.975260
H      -3.132492    -0.628583     0.629691
N      -2.416109     0.594273    -0.950298
C      -2.941160     1.867684    -0.502979
H      -3.769763     2.198972    -1.137996
H      -3.285663     1.759213     0.526112
H      -2.154764     2.628321    -0.522990
O      -0.076717     1.555697    -5.157523
C      -0.204394     2.960506    -5.038499
H       0.308701     3.385731    -5.901736
H      -1.257173     3.268998    -5.058425
H       0.270740     3.322688    -4.119060
N      -0.269111    -3.024090     1.088508
C       0.819483    -3.790076     0.589442
O       0.590505    -4.821369     0.015678
C       2.224258    -3.261591     0.807294
H       2.757006    -3.450608    -0.127325
H       2.679850    -3.924784     1.549266
C       2.324386    -1.790630     1.218185
H       3.327797    -1.565222     1.587004
H       2.162700    -1.153428     0.347870
C       1.286519    -1.461312     2.294533
C       1.004583     0.054233     2.559554
H       1.540919     0.388110     3.450546
C      -2.011154    -3.095811    -0.702496
H      -1.319910    -3.615181    -1.371407
H      -2.998340    -3.535771    -0.886234
C      -1.640667    -3.444378     0.738604
H      -2.312155    -2.965541     1.451143
H      -1.682718    -4.523462     0.886839
C       1.620660    -2.202299     3.620264
H       1.762247    -3.265199     3.399249
H       2.596844    -1.820823     3.940799
C       0.610708    -2.066481     4.758705
H      -0.375513    -2.447760     4.476161
H       0.954980    -2.646714     5.619769
H       0.483322    -1.030033     5.072983
O       1.553848     0.872012     1.511495
C       0.705329     1.099210     0.392810
H       0.261301     0.162744     0.028919
H      -0.118587     1.761085     0.682509
C       1.522354     1.726837    -0.704889
C       1.984968     3.036007    -0.574305
C       1.830100     1.012977    -1.856483
C       2.740033     3.619993    -1.580663
H       1.752282     3.593373     0.328652
C       2.583090     1.595348    -2.871079
H       1.456684     0.000822    -1.976385
C       3.040431     2.898639    -2.734151
H       3.097470     4.639022    -1.468168
H       2.799562     1.031470    -3.772885
H       3.630090     3.355050    -3.523301
C      -0.050554    -1.914412     1.801387
O      -0.999090    -1.142179     2.106165
C      -0.467706     0.050408     2.746964
C      -1.421699     1.053990     2.946312
O      -2.634083     0.995410     2.743861
O      -0.827300     2.192455     3.433515
C      -1.724215     3.260699     3.711211
H      -2.474175     2.961363     4.448201
H      -1.110686     4.071143     4.108139
H      -2.239617     3.589946     2.803798
72
     -1725.759746     -1725.227451   5.98   7.58
C      -1.681587     2.681333    -0.330802
C      -0.782769     2.618603    -1.416032
C      -1.048974     1.711921    -2.444857
C      -2.158050     0.891995    -2.372324
C      -3.031768     0.970574    -1.270844
C      -2.816648     1.878153    -0.246238
C      -0.039061     4.143983     0.050532
C       0.267599     3.572941    -1.147855
H      -0.379212     1.612366    -3.292451
H      -2.321066     0.167912    -3.159129
H      -3.506567     1.916430     0.588955
H       0.498172     4.907172     0.598706
N      -1.211484     3.617596     0.558232
C      -1.875809     4.023431     1.774911
H      -1.263290     4.769734     2.283286
H      -2.854791     4.464320     1.559898
H      -2.013153     3.170892     2.447225
O      -4.122135     0.160231    -1.121130
C      -4.313723    -0.872053    -2.070481
H      -3.442795    -1.537914    -2.114991
H      -5.185488    -1.434141    -1.732893
H      -4.510740    -0.466885    -3.070145
N       2.605271     1.981964    -0.744125
C       3.201860     2.671186     0.342751
O       3.731578     3.731522     0.136709
C       3.134651     2.026079     1.711999
H       2.990300     2.846781     2.417527
H       4.135690     1.630393     1.912364
C       2.051664     0.957080     1.869644
H       2.178630     0.420746     2.813494
H       1.069143     1.430193     1.896857
C       2.095606    -0.022811     0.693756
C       0.858580    -0.940649     0.490329
H       1.024337    -1.946478     0.890536
C       1.492133     3.861865    -1.964573
H       2.005071     4.729251    -1.545241
H       1.219350     4.114522    -2.995178
C       2.482289     2.685361    -2.034004
H       2.166326     1.942636    -2.764037
H       3.476258     3.040779    -2.306777
C       3.406133    -0.857807     0.705489
H       4.258073    -0.170738     0.737693
H       3.411296    -1.401577     1.657512
C       3.608689    -1.839541    -0.449176
H       2.849414    -2.623437    -0.460957
H       3.584291    -1.340160    -1.422569
H       4.586642    -2.319553    -0.347026
O      -0.234607    -0.337745     1.209347
C      -1.443149    -1.071932     1.108762
H      -2.214385    -0.409816     1.511168
H      -1.687694    -1.262535     0.059013
C      -1.422983    -2.370943     1.886196
C      -0.773396    -2.452606     3.116240
C      -2.084132    -3.493551     1.397590
C      -0.785762    -3.636191     3.843888
H      -0.254787    -1.579953     3.501548
C      -2.102773    -4.678274     2.124553
H      -2.579861    -3.440982     0.432675
C      -1.452922    -4.752476     3.350591
H      -0.275210    -3.687129     4.800884
H      -2.623518    -5.545832     1.730643
H      -1.464452    -5.676811     3.919510
C       2.036327     0.784626    -0.567907
O       1.365625     0.247067    -1.490964
C       0.722300    -0.947113    -0.982267
C       0.297366    -1.846364    -1.955488
O       0.349680    -1.728569    -3.176808
O      -0.233410    -2.978263    -1.361771
C      -0.658334    -3.979412    -2.275485
H      -1.438540    -3.600727    -2.942641
H       0.175816    -4.333075    -2.887838
H      -1.047129    -4.797597    -1.666010
72
     -1725.756690     -1725.227355   7.90   7.64
C      -1.460147    -2.014530    -1.803705
C      -2.137522    -0.789840    -1.928316
C      -1.579031     0.197000    -2.757147
C      -0.403517    -0.059638    -3.418569
C       0.244229    -1.308187    -3.294347
C      -0.272583    -2.307860    -2.491078
C      -3.278638    -2.105129    -0.515223
C      -3.315676    -0.873794    -1.098946
H      -2.041808     1.172396    -2.861245
H       0.062806     0.698357    -4.036659
H       0.212070    -3.268827    -2.378220
H      -3.980740    -2.554860     0.174690
N      -2.162406    -2.805421    -0.928156
C      -1.819708    -4.158158    -0.555174
H      -1.822677    -4.820786    -1.426981
H      -0.831948    -4.195383    -0.085018
H      -2.556164    -4.526241     0.160735
O       1.403452    -1.422336    -4.007496
C       2.106175    -2.645552    -3.933452
H       2.434165    -2.858611    -2.908020
H       1.497090    -3.480983    -4.300631
H       2.982183    -2.533346    -4.573391
N      -2.985675     1.084655     0.969298
C      -3.499848     0.386232     2.089641
O      -4.688572     0.216610     2.171124
C      -2.523897    -0.105916     3.137064
H      -2.885245    -1.094401     3.429502
H      -2.680636     0.534453     4.007968
C      -1.052063    -0.163792     2.716216
H      -0.411981    -0.261144     3.597848
H      -0.889141    -1.051121     2.103406
C      -0.636987     1.057165     1.895352
C       0.608886     0.902558     0.971827
H       1.526373     1.235579     1.466302
C      -4.383897     0.157603    -0.883964
H      -5.206138    -0.293045    -0.325253
H      -4.791953     0.492980    -1.843980
C      -3.906589     1.411783    -0.133931
H      -3.372377     2.091716    -0.794547
H      -4.756353     1.941516     0.297611
C      -0.411635     2.366030     2.710007
H       0.422390     2.159290     3.390227
H      -0.047724     3.112443     1.996801
C      -1.579671     2.956845     3.498811
H      -1.304834     3.956794     3.845939
H      -2.482979     3.067668     2.889903
H      -1.829250     2.371600     4.386458
O       0.733342    -0.497603     0.655223
C       1.851318    -0.789105    -0.165662
H       1.718355    -1.835004    -0.456424
H       1.826848    -0.186150    -1.079339
C       3.178569    -0.620482     0.542856
C       3.324730    -1.006004     1.874221
C       4.280027    -0.109533    -0.136237
C       4.551630    -0.882469     2.513981
H       2.467852    -1.403934     2.409611
C       5.510822     0.011311     0.499349
H       4.168221     0.207566    -1.168827
C       5.649533    -0.375141     1.826639
H       4.652688    -1.185535     3.551727
H       6.361796     0.411688    -0.043253
H       6.608873    -0.280081     2.325426
C      -1.676224     1.323206     0.848516
O      -1.208433     1.806349    -0.219919
C       0.239749     1.779427    -0.158319
C       0.893162     2.557510    -1.112060
O       0.399116     3.254014    -1.992750
O       2.262702     2.464150    -0.946086
C       3.020136     3.227773    -1.874973
H       2.776064     4.290968    -1.801922
H       4.067815     3.065507    -1.613760
H       2.831499     2.899203    -2.901292
72
     -1725.757509     -1725.227242   7.39   7.71
C      -2.507437    -1.543416    -1.053507
C      -1.641908    -2.640002    -0.893742
C      -1.750691    -3.714558    -1.790229
C      -2.688983    -3.667924    -2.791108
C      -3.549461    -2.554808    -2.931079
C      -3.475068    -1.477044    -2.067751
C      -1.178221    -1.122674     0.690309
C      -0.796417    -2.350305     0.235411
H      -1.096865    -4.576666    -1.705112
H      -2.795906    -4.479671    -3.501686
H      -4.129232    -0.620054    -2.157307
H      -0.776466    -0.530871     1.501607
N      -2.208814    -0.620851    -0.082446
C      -2.898424     0.630876     0.140109
H      -3.020530     1.168979    -0.804006
H      -3.884493     0.476536     0.590436
H      -2.302830     1.247937     0.809379
O      -4.430883    -2.646855    -3.967884
C      -5.327900    -1.573268    -4.170671
H      -5.984252    -1.430809    -3.303161
H      -4.792944    -0.638478    -4.379745
H      -5.932539    -1.841911    -5.037459
N       1.684458    -1.768181    -0.883163
C       1.219704    -1.549867    -2.220612
O       1.129169    -2.481522    -2.968390
C       0.838012    -0.138009    -2.613145
H      -0.213919    -0.215126    -2.906838
H       1.384757     0.070094    -3.534417
C       1.011541     0.960115    -1.554122
H       1.160661     1.928643    -2.039652
H       0.097169     1.037618    -0.966811
C       2.164877     0.681188    -0.585973
C       2.105662     1.383460     0.803883
H       2.708940     2.297962     0.810018
C       0.380048    -3.145823     0.716617
H       0.112412    -4.195290     0.877455
H       0.716705    -2.750920     1.678086
C       1.554705    -3.108312    -0.284739
H       2.496550    -3.361151     0.205465
H       1.396061    -3.786736    -1.120104
C       3.588949     0.950041    -1.153273
H       3.631239     2.023580    -1.369839
H       4.294149     0.772335    -0.334495
C       4.038958     0.164034    -2.383723
H       5.089560     0.389361    -2.587304
H       3.968022    -0.918694    -2.238038
H       3.475934     0.429298    -3.280974
O       0.737876     1.738352     1.082021
C       0.590733     2.337782     2.363058
H       0.961790     1.655973     3.136506
H       1.189257     3.259169     2.411234
C      -0.869314     2.641709     2.571672
C      -1.483998     3.662225     1.846607
C      -1.636960     1.883421     3.450127
C      -2.840935     3.914536     1.991620
H      -0.890480     4.253034     1.154766
C      -2.998175     2.132395     3.600236
H      -1.165896     1.086395     4.018619
C      -3.602635     3.146615     2.868823
H      -3.308082     4.710076     1.419470
H      -3.585143     1.533021     4.289250
H      -4.663856     3.343162     2.983412
C       2.089557    -0.747360    -0.139147
O       2.441707    -0.939927     1.062818
C       2.665908     0.354908     1.710047
C       3.775067     0.381136     2.570356
O       4.464605    -0.553893     2.952686
O       4.008736     1.675423     2.998163
C       5.106227     1.807588     3.893567
H       4.945288     1.216678     4.799316
H       6.037579     1.476717     3.425720
H       5.167082     2.868601     4.142781
72
     -1725.753277     -1725.227069  10.04   7.82
C       4.004052    -0.713869     3.303137
C       3.133818    -0.206503     2.316652
C       1.860194     0.221518     2.698250
C       1.480789     0.129783     4.025925
C       2.366518    -0.386842     4.990869
C       3.639783    -0.814189     4.644456
C       5.072332    -0.766967     1.339689
C       3.844032    -0.251286     1.062420
H       1.151692     0.633931     1.986279
H       0.490908     0.469635     4.299427
H       4.299836    -1.204574     5.410407
H       5.902920    -0.962843     0.674148
N       5.186293    -1.052493     2.688872
C       6.345392    -1.601462     3.350963
H       6.107025    -2.556327     3.831319
H       7.130093    -1.772810     2.612155
H       6.728077    -0.910961     4.110063
O       2.049422    -0.502900     6.316232
C       0.762822    -0.085511     6.728126
H       0.718927    -0.261394     7.803857
H       0.603343     0.981153     6.528643
H      -0.025230    -0.666421     6.233569
N       1.465067    -0.367138    -1.872286
C       1.923462    -0.468092    -3.213405
O       3.020431    -0.912029    -3.422976
C       0.982503    -0.025068    -4.316065
H       1.042794    -0.800315    -5.083420
H       1.437367     0.866623    -4.758101
C      -0.466078     0.219652    -3.887547
H      -1.008520     0.757052    -4.669205
H      -0.979064    -0.731092    -3.740460
C      -0.511570     1.011554    -2.576992
C      -1.863242     1.038442    -1.815194
H      -2.403732     1.976712    -1.988518
C       3.279832     0.150587    -0.263502
H       4.070013     0.302342    -1.003997
H       2.747151     1.102940    -0.154581
C       2.298635    -0.906845    -0.781712
H       2.825512    -1.775021    -1.174243
H       1.626012    -1.231731     0.011064
C       0.056876     2.444457    -2.772762
H       1.062391     2.363033    -3.199246
H      -0.565351     2.917769    -3.541152
C       0.117314     3.340462    -1.535911
H      -0.876559     3.577466    -1.152251
H       0.687486     2.885155    -0.720919
H       0.606847     4.283508    -1.797598
O      -2.651329    -0.049797    -2.317743
C      -3.894663    -0.188507    -1.648138
H      -3.718681    -0.259489    -0.566618
H      -4.524590     0.694740    -1.826735
C      -4.580978    -1.429999    -2.155006
C      -5.870454    -1.375646    -2.671058
C      -3.927580    -2.661099    -2.095006
C      -6.504926    -2.531050    -3.118482
H      -6.385145    -0.420158    -2.727754
C      -4.554835    -3.814092    -2.543207
H      -2.919007    -2.708161    -1.695552
C      -5.848072    -3.752028    -3.055447
H      -7.512531    -2.474019    -3.518631
H      -4.035463    -4.766252    -2.492926
H      -6.339500    -4.654564    -3.405079
C       0.335285     0.281557    -1.580860
O      -0.119814     0.280673    -0.401413
C      -1.444123     0.907057    -0.399374
C      -1.699436     1.684462     0.732477
O      -1.031508     1.782133     1.758294
O      -2.884724     2.378014     0.580199
C      -3.250336     3.178654     1.697079
H      -3.377189     2.565593     2.593581
H      -2.492431     3.939937     1.902380
H      -4.196586     3.652949     1.430541
72
     -1725.755190     -1725.226779   8.84   8.00
C       5.212133    -1.337982    -0.439612
C       3.808164    -1.310617    -0.320435
C       3.094313    -0.314845    -0.989612
C       3.774989     0.623766    -1.742658
C       5.178766     0.578404    -1.841952
C       5.917073    -0.402128    -1.194510
C       4.589264    -3.041759     0.869187
C       3.431325    -2.414711     0.525676
H       2.013087    -0.246188    -0.944680
H       3.196790     1.384691    -2.248814
H       6.996505    -0.411093    -1.292617
H       4.742251    -3.913165     1.492431
N       5.675356    -2.404564     0.294464
C       7.060140    -2.788519     0.428762
H       7.495191    -3.036361    -0.545273
H       7.648026    -1.983680     0.882622
H       7.125569    -3.668557     1.070824
O       5.906625     1.478056    -2.570707
C       5.200271     2.497377    -3.251028
H       4.642598     3.133422    -2.552950
H       5.954263     3.096685    -3.763241
H       4.504696     2.079593    -3.988883
N       0.069432    -1.720248     2.093204
C      -0.571194    -2.645498     2.960596
O       0.095752    -3.466452     3.531240
C      -2.072266    -2.528232     3.134231
H      -2.254311    -2.640532     4.205473
H      -2.499964    -3.419357     2.664569
C      -2.696043    -1.238325     2.597163
H      -3.783705    -1.332927     2.550469
H      -2.475996    -0.408643     3.269493
C      -2.138089    -0.908887     1.209239
C      -2.377425     0.527635     0.675876
H      -3.212334     0.563114    -0.031355
C       2.030411    -2.727367     0.948129
H       1.947311    -3.741217     1.348293
H       1.372204    -2.667598     0.072849
C       1.541630    -1.723685     2.000168
H       1.929964    -1.967423     2.987864
H       1.851166    -0.712331     1.740593
C      -2.574544    -1.976958     0.168176
H      -2.275486    -2.963994     0.536785
H      -3.670762    -1.969031     0.165455
C      -2.057053    -1.806134    -1.259802
H      -2.376108    -2.661259    -1.863515
H      -2.446199    -0.902327    -1.731598
H      -0.964981    -1.758895    -1.302261
O      -2.695084     1.352527     1.810822
C      -2.942843     2.703641     1.457661
H      -2.963768     3.248648     2.406841
H      -2.114262     3.095069     0.855852
C      -4.253425     2.894595     0.722991
C      -5.406619     2.246465     1.163912
C      -4.331313     3.729447    -0.386558
C      -6.616166     2.434685     0.508894
H      -5.348786     1.588401     2.026004
C      -5.542265     3.924285    -1.042496
H      -3.432205     4.218986    -0.748657
C      -6.687576     3.277831    -0.595982
H      -7.507006     1.923890     0.861737
H      -5.588898     4.579801    -1.906834
H      -7.633277     3.427120    -1.107632
C      -0.643528    -0.903227     1.313799
O      -0.071357    -0.010510     0.624671
C      -1.089411     0.850618     0.017434
C      -0.770459     1.287049    -1.268913
O       0.291670     1.168696    -1.876534
O      -1.850157     1.936945    -1.833663
C      -1.623685     2.452916    -3.138162
H      -1.381260     1.653242    -3.843899
H      -2.554260     2.942160    -3.431885
H      -0.802862     3.175463    -3.137734
72
     -1725.757895     -1725.226607   7.14   8.11
C       3.610252    -2.039372     0.927487
C       2.256222    -1.706703     0.759767
C       1.736009    -1.627593    -0.542290
C       2.570325    -1.856538    -1.610780
C       3.932505    -2.175904    -1.418925
C       4.476587    -2.278332    -0.150366
C       2.713454    -1.750580     2.953279
C       1.698701    -1.521141     2.075198
H       0.693219    -1.394774    -0.732772
H       2.191104    -1.804564    -2.624875
H       5.516483    -2.526184     0.015180
H       2.711984    -1.709614     4.034517
N       3.876620    -2.068213     2.274964
C       5.153239    -2.375613     2.875276
H       5.919326    -1.659023     2.560528
H       5.056944    -2.321966     3.960880
H       5.481275    -3.385363     2.606842
O       4.640293    -2.371614    -2.570413
C       6.009495    -2.698867    -2.454329
H       6.383502    -2.811287    -3.472607
H       6.570471    -1.902154    -1.949672
H       6.151345    -3.641929    -1.911565
N      -1.256206     0.839022     1.942171
C      -1.810143     1.558046     3.037303
O      -1.180801     1.650140     4.056312
C      -3.178107     2.182487     2.844711
H      -3.132862     3.149204     3.350517
H      -3.875519     1.571905     3.427203
C      -3.627236     2.336019     1.389507
H      -4.684500     2.610103     1.345930
H      -3.070353     3.140290     0.910829
C      -3.388548     1.039444     0.613505
C      -3.380755     1.126989    -0.944068
H      -4.360464     0.880953    -1.362074
C       0.300683    -1.070652     2.368995
H       0.055291    -1.201527     3.426946
H      -0.409408    -1.671398     1.788768
C       0.151739     0.402796     1.983400
H       0.662321     1.047447     2.695921
H       0.568533     0.585066     0.994295
C      -4.359638    -0.070338     1.107217
H      -4.256250    -0.155000     2.194148
H      -5.369630     0.315062     0.925116
C      -4.225810    -1.463304     0.493053
H      -4.436079    -1.462800    -0.577036
H      -3.224216    -1.880210     0.632843
H      -4.937419    -2.137743     0.979315
O      -3.108362     2.502182    -1.323732
C      -2.002654     2.733890    -2.186511
H      -1.997851     2.027773    -3.021393
H      -2.180281     3.733922    -2.595015
C      -0.663925     2.716514    -1.475246
C       0.366854     1.876280    -1.886933
C      -0.446172     3.560817    -0.386203
C       1.596079     1.888487    -1.234863
H       0.201662     1.184285    -2.706870
C       0.778795     3.579392     0.267807
H      -1.241411     4.227109    -0.063482
C       1.807252     2.745591    -0.161226
H       2.382412     1.213095    -1.557467
H       0.933653     4.249048     1.108421
H       2.767676     2.758184     0.345300
C      -1.969528     0.614737     0.840144
O      -1.443536     0.035529    -0.154088
C      -2.360898     0.120671    -1.280103
C      -1.998389    -0.610102    -2.406337
O      -1.016948    -1.334187    -2.562346
O      -2.923401    -0.423592    -3.414718
C      -2.645479    -1.140444    -4.611121
H      -2.620899    -2.217805    -4.425843
H      -3.454743    -0.896794    -5.301746
H      -1.683881    -0.839261    -5.036584
72
     -1725.758444     -1725.226571   6.80   8.13
C      -0.016167     3.444767     1.179869
C       0.564348     2.572137     0.235951
C       1.742183     1.901894     0.577239
C       2.303176     2.102664     1.825558
C       1.705597     2.984198     2.749062
C       0.539381     3.667372     2.438219
C      -1.307853     3.437537    -0.645274
C      -0.281351     2.588371    -0.931883
H       2.223702     1.208742    -0.106368
H       3.209438     1.566657     2.076577
H       0.105261     4.341305     3.167774
H      -2.159732     3.722193    -1.248526
N      -1.163059     3.960627     0.627457
C      -2.039079     4.920725     1.256921
H      -1.518882     5.866045     1.443529
H      -2.886435     5.113953     0.597281
H      -2.420872     4.535243     2.207613
O       2.213167     3.228899     3.993112
C       3.427979     2.599375     4.353235
H       3.326443     1.507432     4.364353
H       4.241302     2.881325     3.673888
H       3.661330     2.948859     5.359749
N      -1.642630     0.043902    -1.282453
C      -3.032229     0.078595    -0.976054
O      -3.757812     0.819716    -1.583009
C      -3.551542    -0.851448     0.102651
H      -4.424039    -1.337429    -0.341753
H      -3.948940    -0.195099     0.878738
C      -2.578172    -1.895764     0.664033
H      -2.914005    -2.224347     1.652001
H      -2.576906    -2.777150     0.023597
C      -1.143824    -1.376857     0.749197
C       0.000264    -2.442936     0.716809
H       0.288542    -2.740576     1.727868
C      -0.055750     1.794202    -2.185796
H       0.916944     1.304980    -2.120746
H      -0.013464     2.449537    -3.062019
C      -1.138894     0.743736    -2.483814
H      -2.018401     1.196826    -2.935008
H      -0.746201    -0.015372    -3.162041
C      -0.857398    -0.457264     1.970977
H      -0.868488    -1.113783     2.848184
H       0.168093    -0.089897     1.874085
C      -1.800980     0.719275     2.210696
H      -2.785673     0.393885     2.557158
H      -1.378937     1.361830     2.987672
H      -1.928050     1.342963     1.321000
O      -0.488494    -3.636049     0.053908
C       0.293119    -4.142426    -1.017015
H       1.358822    -4.126619    -0.771404
H      -0.014275    -5.188812    -1.116297
C       0.044123    -3.422794    -2.326741
C       1.094219    -2.917330    -3.086297
C      -1.260225    -3.269056    -2.797091
C       0.850259    -2.294348    -4.306009
H       2.110832    -2.994056    -2.713616
C      -1.509657    -2.647643    -4.013594
H      -2.086272    -3.661630    -2.210828
C      -0.450698    -2.165159    -4.777506
H       1.681786    -1.908900    -4.888285
H      -2.530317    -2.544584    -4.369325
H      -0.640113    -1.687586    -5.734239
C      -0.801021    -0.632795    -0.506527
O       0.418737    -0.726045    -0.835386
C       1.064880    -1.686302     0.039775
C       2.455313    -1.674253     0.026359
O       3.200022    -0.924356    -0.604215
O       2.953696    -2.660997     0.851843
C       4.373072    -2.712544     0.918999
H       4.611990    -3.525862     1.606505
H       4.806897    -2.911472    -0.064993
H       4.781922    -1.770224     1.294670
72
     -1725.757389     -1725.226175   7.46   8.38
C      -3.036869    -2.769765    -1.065191
C      -1.938795    -1.976306    -0.676023
C      -2.156828    -0.918579     0.208693
C      -3.432160    -0.669757     0.679607
C      -4.512293    -1.477524     0.275214
C      -4.330613    -2.538008    -0.601248
C      -1.213727    -3.544640    -2.102427
C      -0.777895    -2.491634    -1.358630
H      -1.355354    -0.269743     0.538599
H      -3.566847     0.159512     1.360869
H      -5.182328    -3.140453    -0.895310
H      -0.657397    -4.199197    -2.760541
N      -2.575673    -3.727548    -1.937239
C      -3.383996    -4.743420    -2.567476
H      -4.167449    -4.293619    -3.186593
H      -2.748729    -5.358826    -3.206850
H      -3.854464    -5.390579    -1.819661
O      -5.795226    -1.281910     0.704979
C      -6.031864    -0.213692     1.601952
H      -5.769647     0.751964     1.153113
H      -7.100602    -0.233741     1.819660
H      -5.467757    -0.340516     2.533773
N       2.361303    -1.305993     0.380961
C       3.664823    -1.717848    -0.016048
O       3.823546    -2.831981    -0.435820
C       4.788478    -0.711223     0.122288
H       5.460803    -0.901709    -0.716360
H       5.341282    -0.994297     1.024054
C       4.344173     0.752675     0.160059
H       5.184508     1.399209     0.425073
H       4.001611     1.061687    -0.827982
C       3.198110     0.941323     1.157766
C       2.361201     2.249112     1.038477
H       2.690324     3.002811     1.760592
C       0.607696    -1.937691    -1.247471
H       0.571364    -0.857042    -1.414963
H       1.263238    -2.358512    -2.015309
C       1.210799    -2.198354     0.135230
H       0.478684    -2.004963     0.919167
H       1.569092    -3.221541     0.233195
C       3.691826     0.725845     2.615494
H       4.176111    -0.254425     2.675028
H       4.480651     1.469181     2.779668
C       2.649910     0.828228     3.729266
H       3.126854     0.605304     4.688490
H       2.213428     1.826009     3.793666
H       1.830680     0.116122     3.592999
O       2.586713     2.789678    -0.284356
C       1.454556     3.332774    -0.954572
H       0.756062     3.784022    -0.245798
H       1.853939     4.131116    -1.588974
C       0.747325     2.314797    -1.823966
C       1.433086     1.719755    -2.883583
C      -0.585307     1.972909    -1.612806
C       0.796028     0.819821    -3.727324
H       2.475098     1.977950    -3.053247
C      -1.227943     1.070643    -2.455175
H      -1.126456     2.402999    -0.775668
C      -0.541827     0.497790    -3.517636
H       1.341455     0.371616    -4.552652
H      -2.262078     0.802250    -2.265009
H      -1.041959    -0.214091    -4.166796
C       2.141293    -0.070745     0.832225
O       0.958291     0.349115     0.988801
C       1.003624     1.759939     1.336319
C      -0.168222     2.287667     1.864693
O      -1.249696     1.726909     2.038903
O       0.012524     3.619165     2.191672
C      -1.134138     4.254585     2.743093
H      -1.451042     3.760413     3.665605
H      -0.835729     5.283421     2.952294
H      -1.969582     4.241560     2.037167
72
     -1725.757866     -1725.226038   7.16   8.47
C       3.908049    -1.737230     0.595461
C       2.509458    -1.563056     0.570504
C       1.874552    -1.385759    -0.659206
C       2.626174    -1.361229    -1.819352
C       4.023891    -1.523492    -1.767210
C       4.684038    -1.718498    -0.561830
C       3.155109    -1.826330     2.699811
C       2.048814    -1.618863     1.935035
H       0.801483    -1.266088    -0.744082
H       2.104795    -1.222564    -2.757007
H       5.760524    -1.844552    -0.556238
H       3.241779    -1.922607     3.774190
N       4.287096    -1.904076     1.906392
C       5.638620    -2.119432     2.365180
H       6.283592    -1.276063     2.096612
H       5.634472    -2.219198     3.451912
H       6.057701    -3.034764     1.934221
O       4.820822    -1.504426    -2.877646
C       4.195261    -1.311374    -4.131972
H       3.675484    -0.346590    -4.175618
H       4.995156    -1.325853    -4.873495
H       3.480805    -2.113856    -4.351058
N      -1.165901     0.347420     2.177514
C      -1.793896     0.807515     3.368434
O      -1.169144     0.811864     4.394305
C      -3.229753     1.281578     3.265019
H      -3.300828     2.148424     3.925212
H      -3.842395     0.501060     3.727547
C      -3.702890     1.619024     1.849160
H      -4.785439     1.769852     1.836752
H      -3.248014     2.551284     1.516847
C      -3.317034     0.505155     0.874074
C      -3.328855     0.850037    -0.647187
H      -4.276939     0.569066    -1.113328
C       0.633913    -1.384426     2.367269
H       0.480966    -1.663533     3.413505
H      -0.040966    -1.999524     1.760192
C       0.286666     0.093468     2.167084
H       0.721873     0.707571     2.953045
H       0.661049     0.448222     1.208749
C      -4.147703    -0.776895     1.165306
H      -4.027689    -1.027404     2.224576
H      -5.197139    -0.487228     1.036614
C      -3.856337    -2.024298     0.331784
H      -2.811516    -2.338143     0.411684
H      -4.479585    -2.848218     0.692966
H      -4.074893    -1.872326    -0.725786
O      -3.211307     2.290498    -0.788206
C      -2.152332     2.782701    -1.599285
H      -2.087971     2.232767    -2.542187
H      -2.442962     3.812254    -1.831722
C      -0.806660     2.789831    -0.900950
C       0.299280     2.145090    -1.447768
C      -0.660033     3.456559     0.315761
C       1.530784     2.175721    -0.800975
H       0.193734     1.587397    -2.372999
C       0.567546     3.494798     0.964122
H      -1.515226     3.970248     0.746356
C       1.669957     2.858084     0.401714
H       2.376949     1.649322    -1.231663
H       0.665953     4.025715     1.906238
H       2.631911     2.885317     0.904672
C      -1.855672     0.219009     1.045648
O      -1.272998    -0.125390    -0.024128
C      -2.204181     0.034226    -1.132672
C      -1.771547    -0.448556    -2.361824
O      -0.712160    -1.014736    -2.632530
O      -2.725122    -0.206396    -3.331367
C      -2.383962    -0.677786    -4.628944
H      -2.235867    -1.761272    -4.626210
H      -3.224865    -0.416272    -5.273709
H      -1.468478    -0.202782    -4.993315
72
     -1725.755988     -1725.225591   8.34   8.75
C      -1.335172    -1.955423     1.829402
C      -0.883367    -2.966587     0.960065
C      -1.838974    -3.772090     0.321748
C      -3.175722    -3.548345     0.548969
C      -3.604841    -2.526033     1.425833
C      -2.694697    -1.714928     2.079487
C       0.893971    -1.872909     1.779699
C       0.556063    -2.896181     0.945364
H      -1.536314    -4.561991    -0.357971
H      -3.936269    -4.152210     0.067193
H      -3.004072    -0.930441     2.757450
H       1.876198    -1.480974     2.007665
N      -0.237890    -1.299820     2.325511
C      -0.258377    -0.202607     3.263253
H      -0.876750     0.616344     2.883828
H      -0.641487    -0.520027     4.238973
H       0.758572     0.170478     3.384781
O      -4.958155    -2.424181     1.560527
C      -5.462966    -1.442868     2.444659
H      -5.180320    -0.432226     2.124757
H      -6.548832    -1.537561     2.415670
H      -5.112736    -1.611498     3.470532
N       0.711736    -2.136238    -1.724539
C      -0.619481    -2.077506    -2.237330
O      -1.086863    -3.045103    -2.771711
C      -1.392386    -0.788151    -2.051773
H      -2.284094    -1.087318    -1.491541
H      -1.749434    -0.511136    -3.045412
C      -0.676451     0.362200    -1.332536
H      -1.111141     1.321265    -1.625053
H      -0.830834     0.259149    -0.257988
C       0.834055     0.371736    -1.585472
C       1.718889     1.141576    -0.551599
H       1.959386     2.133551    -0.939025
C       1.515380    -3.673292     0.094132
H       1.422831    -4.749175     0.276224
H       2.531621    -3.386653     0.371172
C       1.319828    -3.444863    -1.427356
H       2.278478    -3.502661    -1.946817
H       0.646633    -4.178202    -1.864902
C       1.267980     0.886618    -2.988350
H       0.915485     1.923539    -3.045006
H       2.362034     0.930750    -2.978182
C       0.807357     0.120335    -4.227001
H       1.290311     0.548749    -5.109806
H       1.088393    -0.937076    -4.192154
H      -0.270289     0.186284    -4.388792
O       1.018912     1.314536     0.696970
C       0.993797     2.660460     1.157854
H       0.641161     2.607363     2.191815
H       2.009557     3.070907     1.172274
C       0.078740     3.548448     0.342058
C      -1.303666     3.374167     0.400093
C       0.594253     4.533054    -0.495849
C      -2.151705     4.162620    -0.364443
H      -1.716655     2.606397     1.049148
C      -0.250722     5.328033    -1.264698
H       1.669510     4.682781    -0.546833
C      -1.625249     5.143125    -1.201402
H      -3.225857     4.015904    -0.308066
H       0.167834     6.091637    -1.912673
H      -2.287078     5.760982    -1.799720
C       1.348767    -1.018947    -1.383054
O       2.483179    -1.081931    -0.835758
C       2.927201     0.271235    -0.469438
C       3.846530     0.227357     0.605871
O       4.393144    -0.751237     1.095126
O       4.101294     1.499759     1.063857
C       5.032624     1.564427     2.138072
H       5.134637     2.622569     2.385959
H       4.671764     1.006240     3.006632
H       6.000743     1.153808     1.839636
72
     -1725.753525     -1725.225282   9.89   8.94
C      -0.327639     4.898187    -0.020788
C       0.742218     4.407652     0.764845
C       1.293648     5.248052     1.731891
C       0.794463     6.528709     1.902889
C      -0.269340     6.990956     1.104129
C      -0.842428     6.182880     0.134383
C       0.099722     2.801953    -0.665310
C       0.999839     3.060932     0.325216
H       2.114635     4.908343     2.356447
H       1.233121     7.168466     2.657377
H      -1.660095     6.566381    -0.465186
H      -0.073356     1.894864    -1.232153
N      -0.706294     3.901717    -0.882839
C      -1.778844     3.967807    -1.849696
H      -1.895897     2.981714    -2.300936
H      -2.720195     4.243860    -1.364415
H      -1.559154     4.696861    -2.636631
O      -0.808939     8.243203     1.219288
C      -0.268316     9.114133     2.191730
H      -0.380035     8.706218     3.204019
H       0.791737     9.322467     2.000753
H      -0.835498    10.042745     2.114964
N       1.632772    -0.198972     1.897724
C       2.666293    -0.801010     2.667955
O       3.366654    -0.107590     3.354361
C       2.808476    -2.308951     2.593668
H       2.939889    -2.642053     3.625753
H       3.765085    -2.496626     2.096762
C       1.651632    -3.047828     1.916327
H       1.936948    -4.079481     1.696526
H       0.791463    -3.089343     2.585186
C       1.239422    -2.330749     0.626964
C      -0.127632    -2.718917     0.006356
H      -0.009956    -3.418522    -0.827341
C       1.966609     2.068266     0.895294
H       2.879900     2.555380     1.248761
H       2.274087     1.380110     0.101535
C       1.342416     1.241870     2.042941
H       1.719316     1.537779     3.019384
H       0.257935     1.346038     2.037583
C       2.378623    -2.394025    -0.428241
H       3.289994    -1.983947     0.019898
H       2.573534    -3.458870    -0.600717
C       2.130197    -1.697032    -1.765376
H       3.036368    -1.756341    -2.375943
H       1.319793    -2.164730    -2.327053
H       1.881784    -0.639068    -1.642686
O      -0.897709    -3.352141     1.041236
C      -2.180664    -3.765187     0.598490
H      -2.724223    -4.036201     1.509148
H      -2.703887    -2.927237     0.123120
C      -2.129801    -4.948450    -0.345354
C      -1.299574    -6.033565    -0.066884
C      -2.919122    -4.979236    -1.489945
C      -1.264128    -7.131195    -0.916234
H      -0.676558    -6.010649     0.822463
C      -2.890047    -6.079276    -2.340680
H      -3.550521    -4.127383    -1.724248
C      -2.062893    -7.157949    -2.055546
H      -0.613020    -7.969795    -0.688646
H      -3.512596    -6.090774    -3.230197
H      -2.037340    -8.016591    -2.719236
C       0.966939    -0.900701     0.979193
O      -0.003459    -0.379164     0.357836
C      -0.662031    -1.411311    -0.448277
C      -1.111401    -0.966750    -1.690506
O      -1.160022     0.185306    -2.125134
O      -1.552514    -2.031347    -2.447623
C      -2.066660    -1.690364    -3.727846
H      -1.302716    -1.211930    -4.347212
H      -2.382270    -2.630906    -4.182929
H      -2.918741    -1.010693    -3.640588
72
     -1725.755256     -1725.225249   8.80   8.96
C      -1.513503     2.843543    -2.069787
C      -0.382758     2.355816    -1.382654
C      -0.044474     1.008211    -1.526908
C      -0.826169     0.183206    -2.313927
C      -1.962375     0.693828    -2.974263
C      -2.317910     2.028686    -2.863227
C      -0.614036     4.534635    -0.924240
C       0.173966     3.460302    -0.646040
H       0.823749     0.588539    -1.029153
H      -0.544913    -0.855844    -2.414341
H      -3.193597     2.392961    -3.387759
H      -0.551490     5.548648    -0.553131
N      -1.634485     4.180995    -1.784174
C      -2.661414     5.059493    -2.295081
H      -3.655377     4.721265    -1.985443
H      -2.498345     6.063046    -1.899266
H      -2.627213     5.106109    -3.388310
O      -2.780672    -0.068985    -3.756307
C      -2.433785    -1.427679    -3.951298
H      -3.201743    -1.843189    -4.604706
H      -1.453844    -1.524162    -4.431219
H      -2.424663    -1.979961    -3.004364
N      -0.164826     1.933202     1.825204
C      -1.580625     2.077871     1.669176
O      -2.093882     3.154459     1.794677
C      -2.283568     0.801196     1.271329
H      -1.979517     0.598741     0.238994
H      -3.353445     1.009456     1.272497
C      -1.943471    -0.405989     2.159628
H      -2.542655    -0.350896     3.071550
H      -2.223241    -1.321363     1.638351
C      -0.452151    -0.457222     2.536319
C       0.427919    -1.610115     1.999385
H       0.388961    -2.502979     2.627015
C       1.274041     3.372856     0.365941
H       1.843912     4.305999     0.412798
H       1.979449     2.582225     0.093159
C       0.725615     3.104654     1.774557
H       1.537610     2.934428     2.484748
H       0.122119     3.944991     2.118198
C      -0.262048    -0.308858     4.080668
H       0.803938    -0.181128     4.291609
H      -0.768031     0.614919     4.385778
C      -0.801134    -1.484429     4.896731
H      -0.711978    -1.264956     5.964496
H      -1.855137    -1.687417     4.688185
H      -0.236701    -2.400259     4.705477
O      -0.083029    -1.935816     0.687282
C       0.489092    -3.121283     0.133524
H       1.339430    -3.444225     0.741561
H      -0.266192    -3.917168     0.150831
C       0.948697    -2.884300    -1.282586
C       2.013972    -2.019194    -1.537522
C       0.331233    -3.527645    -2.350037
C       2.434131    -1.787958    -2.839872
H       2.510930    -1.522671    -0.709825
C       0.760808    -3.309446    -3.656151
H      -0.492299    -4.210750    -2.158056
C       1.808473    -2.432389    -3.903574
H       3.258073    -1.106236    -3.027131
H       0.276373    -3.827044    -4.478814
H       2.144957    -2.256233    -4.920594
C       0.321900     0.704461     1.982761
O       1.544571     0.446930     1.781183
C       1.762692    -0.974273     2.011826
C       3.094625    -1.390685     1.950803
O       4.096409    -0.705198     1.786212
O       3.176147    -2.761978     2.123838
C       4.501884    -3.278840     2.088096
H       4.978156    -3.073134     1.125487
H       5.113685    -2.838079     2.879444
H       4.409173    -4.355700     2.240447
72
     -1725.751655     -1725.225038  11.06   9.10
C      -3.298819     0.427698    -4.795006
C      -3.326212     0.181791    -3.412258
C      -4.536073     0.350653    -2.720415
C      -5.653498     0.753884    -3.413654
C      -5.601971     0.997452    -4.804362
C      -4.428678     0.839047    -5.519209
C      -1.248979    -0.193232    -4.161670
C      -1.997071    -0.218140    -3.025255
H      -4.595405     0.166686    -1.651716
H      -6.605361     0.895221    -2.914126
H      -4.372178     1.020754    -6.584212
H      -0.201430    -0.425118    -4.301806
N      -2.021752     0.194514    -5.241921
C      -1.567776     0.326792    -6.606533
H      -2.109813    -0.355250    -7.270217
H      -1.699996     1.352263    -6.967510
H      -0.505834     0.080319    -6.652291
O      -6.787749     1.391860    -5.355261
C      -6.815566     1.656344    -6.743005
H      -7.838752     1.952989    -6.975993
H      -6.133778     2.473951    -7.008856
H      -6.557375     0.763637    -7.326445
N      -1.255384     0.393538     0.642735
C      -2.363310     0.065855     1.469222
O      -3.476557     0.164294     1.024801
C      -2.075535    -0.399002     2.881951
H      -2.824602    -1.163026     3.099894
H      -2.309568     0.447767     3.535258
C      -0.657943    -0.924612     3.113747
H      -0.474526    -1.063949     4.182052
H      -0.540018    -1.899750     2.640025
C       0.376879     0.039979     2.525865
C       1.814209    -0.506591     2.324954
H       2.485024    -0.185788     3.128308
C      -1.552659    -0.543229    -1.633842
H      -0.563984    -1.012393    -1.642986
H      -2.249685    -1.254031    -1.175276
C      -1.501950     0.721433    -0.773007
H      -0.703989     1.385163    -1.104956
H      -2.447059     1.259477    -0.812638
C       0.388305     1.382127     3.309174
H      -0.627872     1.790207     3.312643
H       0.621327     1.124681     4.349073
C       1.351471     2.463503     2.820706
H       1.191689     2.719233     1.769354
H       1.199649     3.372851     3.410234
H       2.394812     2.164719     2.935739
O       1.728242    -1.943172     2.341175
C       2.986784    -2.570819     2.158079
H       2.757261    -3.626820     1.983289
H       3.478913    -2.173210     1.262753
C       3.900024    -2.432065     3.358455
C       5.243113    -2.109512     3.197107
C       3.405187    -2.643985     4.644839
C       6.084652    -2.009596     4.300146
H       5.629218    -1.919265     2.200274
C       4.240906    -2.540458     5.748507
H       2.355100    -2.888563     4.775864
C       5.585789    -2.225512     5.578133
H       7.131574    -1.758352     4.159530
H       3.843325    -2.707456     6.745006
H       6.240574    -2.146250     6.440331
C      -0.001721     0.300172     1.099353
O       0.972943     0.392932     0.302227
C       2.212765     0.071862     1.018127
C       3.283407     0.911939     0.676790
O       3.351809     1.732484    -0.228827
O       4.347613     0.685244     1.528428
C       5.505365     1.462323     1.252486
H       5.881208     1.260757     0.245683
H       5.293009     2.532002     1.334327
H       6.248272     1.168751     1.996614
72
     -1725.752499     -1725.225019  10.53   9.11
C      -2.607063     0.128718     3.135322
C      -2.237693     1.131869     2.215719
C      -1.124906     1.926691     2.498258
C      -0.410820     1.709286     3.662665
C      -0.799612     0.699037     4.565412
C      -1.902322    -0.103607     4.314690
C      -4.001520     0.019443     1.390950
C      -3.145841     1.039739     1.101608
H      -0.772820     2.684095     1.805187
H       0.461332     2.319980     3.854879
H      -2.174318    -0.874220     5.026671
H      -4.821779    -0.384374     0.812096
N      -3.691011    -0.538193     2.618125
C      -4.404329    -1.612804     3.268403
H      -5.193008    -1.968309     2.603577
H      -3.733554    -2.449243     3.488776
H      -4.862251    -1.272325     4.202832
O      -0.132449     0.431307     5.726802
C       0.985362     1.235001     6.052676
H       1.777816     1.143529     5.299914
H       0.703584     2.289740     6.155925
H       1.353849     0.864692     7.010144
N      -2.009842    -0.115385    -1.297431
C      -2.388372    -1.408283    -1.777059
O      -3.546629    -1.689068    -1.917796
C      -1.216220    -2.279360    -2.159631
H      -0.739495    -1.805032    -3.025262
H      -1.611663    -3.248019    -2.465791
C      -0.193024    -2.414285    -1.027258
H      -0.609223    -3.072263    -0.259655
H       0.711515    -2.888775    -1.409668
C       0.156201    -1.057678    -0.395706
C       1.490369    -0.380859    -0.791167
H       2.342233    -0.721831    -0.196709
C      -3.072882     1.860497    -0.152809
H      -2.224465     2.543275    -0.079756
H      -3.963007     2.485963    -0.277498
C      -2.947683     1.016362    -1.427534
H      -3.899291     0.560772    -1.696164
H      -2.616852     1.640106    -2.262730
C       0.020413    -1.113191     1.151671
H       0.187672    -0.116359     1.561289
H      -1.014760    -1.381642     1.387659
C       0.973151    -2.099640     1.827527
H       0.840095    -3.125126     1.470205
H       2.019836    -1.823063     1.674342
H       0.788098    -2.096032     2.905654
O       1.689025    -0.728044    -2.174864
C       2.803857    -0.079405    -2.765959
H       2.749504     0.996551    -2.554108
H       3.740549    -0.460565    -2.334978
C       2.769929    -0.328478    -4.250955
C       1.623086    -0.015500    -4.981139
C       3.870562    -0.854306    -4.916830
C       1.580745    -0.224717    -6.351497
H       0.761123     0.396044    -4.464483
C       3.833523    -1.062669    -6.292680
H       4.765969    -1.107990    -4.355724
C       2.688835    -0.748638    -7.012046
H       0.682217     0.022423    -6.908662
H       4.700608    -1.473613    -6.800432
H       2.656885    -0.911546    -8.084720
C      -0.766814     0.045263    -0.847468
O      -0.244331     1.199853    -0.791713
C       1.186383     1.045964    -0.557106
C       1.794173     2.060212     0.181784
O       1.302368     3.109424     0.589980
O       3.120528     1.748269     0.411039
C       3.840790     2.736498     1.135225
H       3.848372     3.689251     0.598636
H       3.400883     2.899773     2.123456
H       4.858412     2.354814     1.235885
72
     -1725.749300     -1725.224956  12.54   9.15
C      -4.565049     0.902841     3.124588
C      -4.116112     0.595399     1.822673
C      -4.873655     1.027462     0.733078
C      -6.038065     1.745333     0.950511
C      -6.462962     2.040211     2.260601
C      -5.733776     1.623106     3.363380
C      -2.661137    -0.253753     3.300855
C      -2.889949    -0.151097     1.964111
H      -4.560544     0.807572    -0.283613
H      -6.618995     2.076265     0.099630
H      -6.086361     1.865136     4.359249
H      -1.843703    -0.736469     3.820716
N      -3.663982     0.376165     4.017137
C      -3.758858     0.465955     5.455171
H      -2.901009    -0.040540     5.900389
H      -3.754010     1.510476     5.784237
H      -4.673082    -0.014586     5.819408
O      -7.601020     2.744168     2.541373
C      -8.387995     3.201606     1.459693
H      -8.764372     2.367478     0.854822
H      -9.231598     3.731691     1.903553
H      -7.826682     3.891057     0.817124
N      -0.600532     0.023102    -1.053812
C      -1.189923     0.142778    -2.339906
O      -2.325139     0.527376    -2.435798
C      -0.329918    -0.201710    -3.541154
H      -0.467834     0.622083    -4.245906
H      -0.802004    -1.071697    -4.007115
C       1.154869    -0.437737    -3.250439
H       1.635653    -0.926123    -4.101442
H       1.664907     0.514317    -3.100597
C       1.323866    -1.291223    -1.988590
C       2.736034    -1.339154    -1.346312
H       3.257139    -2.271799    -1.593274
C      -2.034690    -0.657607     0.847103
H      -2.646554    -1.200896     0.117147
H      -1.284041    -1.354039     1.233294
C      -1.331151     0.500470     0.134361
H      -2.044360     1.244698    -0.212868
H      -0.611513     0.982572     0.796793
C       0.747007    -2.717535    -2.203106
H      -0.294758    -2.624987    -2.528415
H       1.296623    -3.145907    -3.049401
C       0.806893    -3.674022    -1.012954
H       0.313356    -3.265277    -0.126546
H       0.299977    -4.607768    -1.274903
H       1.833545    -3.921219    -0.736768
O       3.482436    -0.238183    -1.882050
C       4.780021    -0.129222    -1.319008
H       4.698001    -0.101886    -0.224376
H       5.386680    -1.006135    -1.587449
C       5.427534     1.129770    -1.833958
C       6.666620     1.092774    -2.462762
C       4.789947     2.359331    -1.667536
C       7.266886     2.263548    -2.917363
H       7.168366     0.138965    -2.602667
C       5.382918     3.527774    -2.122297
H       3.820601     2.392956    -1.179535
C       6.625932     3.482838    -2.748048
H       8.235246     2.219861    -3.406240
H       4.876034     4.478571    -1.988415
H       7.090660     4.397393    -3.102901
C       0.564255    -0.610581    -0.893483
O       1.121992    -0.634827     0.237812
C       2.448506    -1.250217     0.108345
C       2.721492    -2.152940     1.147862
O       2.078846    -2.343562     2.173320
O       3.885842    -2.846520     0.883282
C       4.265652    -3.770080     1.896264
H       3.497737    -4.535192     2.041305
H       5.194317    -4.229486     1.552927
H       4.428948    -3.259124     2.848886
72
     -1725.748597     -1725.224917  12.98   9.17
C       4.300663    -2.041135    -1.530450
C       3.098624    -1.490657    -1.041083
C       1.896830    -1.848194    -1.656656
C       1.911092    -2.733839    -2.718910
C       3.124957    -3.273017    -3.185424
C       4.335995    -2.934156    -2.599985
C       4.799979    -0.683958     0.174951
C       3.445899    -0.621162     0.055881
H       0.941387    -1.449601    -1.331177
H       0.966905    -2.994093    -3.177806
H       5.254248    -3.364329    -2.982760
H       5.453492    -0.180697     0.875558
N       5.332961    -1.536655    -0.775626
C       6.731011    -1.845489    -0.958041
H       7.316098    -1.302499    -0.213879
H       6.915860    -2.917257    -0.829768
H       7.072692    -1.545687    -1.954417
O       3.200992    -4.151861    -4.230162
C       1.993246    -4.529545    -4.862076
H       1.481430    -3.663798    -5.299607
H       2.272430    -5.223745    -5.655867
H       1.314253    -5.031638    -4.162197
N       0.482916    -0.192905     2.366091
C       0.554222     0.685544     3.486287
O       1.517350     0.662386     4.202344
C      -0.594032     1.663863     3.582556
H      -0.448466     2.381607     2.766094
H      -0.491598     2.196672     4.528171
C      -1.974988     1.013272     3.437956
H      -2.237065     0.511294     4.372663
H      -2.721293     1.790872     3.271888
C      -2.024779     0.004264     2.280079
C      -2.725444     0.436024     0.967676
H      -3.810886     0.290810     0.995499
C       2.467221     0.136833     0.897374
H       1.746208     0.645552     0.246963
H       2.968135     0.905439     1.493427
C       1.704423    -0.813761     1.828952
H       1.401645    -1.711834     1.290145
H       2.317598    -1.105110     2.681571
C      -2.619567    -1.359124     2.743716
H      -3.599213    -1.127335     3.176813
H      -2.801688    -1.973362     1.858471
C      -1.772395    -2.136894     3.750232
H      -0.845597    -2.506124     3.300485
H      -1.503634    -1.539854     4.627377
H      -2.328009    -3.008860     4.105479
O      -2.428926     1.841836     0.837566
C      -2.860254     2.398287    -0.396026
H      -2.294119     1.961534    -1.226981
H      -3.921447     2.158361    -0.558737
C      -2.663346     3.891416    -0.347475
C      -1.941783     4.547334    -1.338435
C      -3.219212     4.638402     0.690819
C      -1.780052     5.929279    -1.300526
H      -1.498441     3.973057    -2.147356
C      -3.056675     6.015099     0.734790
H      -3.780556     4.130939     1.469724
C      -2.336859     6.665465    -0.263973
H      -1.215050     6.428647    -2.081585
H      -3.492888     6.585322     1.549249
H      -2.210597     7.743059    -0.230893
C      -0.670280    -0.281103     1.703952
O      -0.703448    -0.645792     0.492423
C      -2.059670    -0.444209    -0.011761
C      -2.313945    -0.945610    -1.287099
O      -1.568834    -1.596112    -2.013927
O      -3.602381    -0.627482    -1.674782
C      -3.970744    -1.122559    -2.955794
H      -3.320871    -0.718501    -3.737272
H      -3.911304    -2.214030    -2.986109
H      -5.000432    -0.798901    -3.118596
72
     -1725.757367     -1725.224860   7.48   9.21
C      -2.023278     0.910990    -1.239293
C      -1.247106     2.081110    -1.084602
C      -1.370486     2.810824     0.099436
C      -2.238516     2.379375     1.087113
C      -3.017817     1.218964     0.896787
C      -2.923746     0.478588    -0.269329
C      -0.755386     1.146585    -3.058693
C      -0.455491     2.223223    -2.279117
H      -0.798245     3.721717     0.252997
H      -2.331550     2.956438     1.998259
H      -3.527285    -0.413605    -0.379324
H      -0.340616     0.843428    -4.010197
N      -1.691466     0.342434    -2.443280
C      -2.208470    -0.900563    -2.975026
H      -3.196286    -0.765547    -3.428446
H      -1.506021    -1.284605    -3.715773
H      -2.284429    -1.641627    -2.174794
O      -3.906627     0.752608     1.818818
C      -3.942301     1.368179     3.091999
H      -2.958028     1.339438     3.573677
H      -4.291389     2.406261     3.028779
H      -4.647287     0.786209     3.685915
N       2.093865     2.175276    -0.867819
C       2.087244     3.009766     0.277752
O       2.134089     4.202932     0.131253
C       2.000635     2.351177     1.643264
H       1.224487     2.901206     2.180499
H       2.940924     2.594456     2.146978
C       1.712946     0.845892     1.657136
H       1.980928     0.414417     2.624198
H       0.642573     0.684124     1.517916
C       2.482936     0.141343     0.533003
C       2.072530    -1.337589     0.220667
H       2.885548    -2.006956     0.514331
C       0.580817     3.277739    -2.529480
H       0.359865     4.169516    -1.937595
H       0.582474     3.586367    -3.579604
C       1.997929     2.795868    -2.202368
H       2.321420     2.040131    -2.918887
H       2.706137     3.624951    -2.217559
C       4.016761     0.245824     0.738480
H       4.280188     1.278421     0.988902
H       4.252435    -0.357831     1.621911
C       4.860384    -0.209127    -0.452441
H       4.629850    -1.233579    -0.751185
H       4.700751     0.432867    -1.325686
H       5.922866    -0.156892    -0.199297
O       0.991719    -1.772028     1.063421
C      -0.313051    -1.710350     0.520827
H      -0.501562    -0.722709     0.078605
H      -0.433996    -2.449709    -0.277928
C      -1.320974    -1.979586     1.610956
C      -1.131720    -1.508836     2.908587
C      -2.483423    -2.687063     1.318374
C      -2.088315    -1.739373     3.889191
H      -0.221687    -0.974068     3.154751
C      -3.446650    -2.913616     2.294329
H      -2.633864    -3.073468     0.313411
C      -3.251217    -2.438557     3.585007
H      -1.922346    -1.375198     4.898966
H      -4.348300    -3.465229     2.046676
H      -3.997904    -2.618545     4.352065
C       2.112529     0.844293    -0.730296
O       1.823736     0.082993    -1.689550
C       1.871936    -1.299652    -1.252606
C       1.402973    -2.207664    -2.207681
O       1.012715    -1.970767    -3.349263
O       1.425916    -3.488035    -1.702974
C       0.992063    -4.491783    -2.612252
H       1.077868    -5.438924    -2.076981
H      -0.045082    -4.325308    -2.918794
H       1.619880    -4.507540    -3.507122
72
     -1725.751122     -1725.224562  11.40   9.39
C      -2.273683     2.009012    -4.587684
C      -1.981552     1.422980    -3.339796
C      -0.970363     1.980675    -2.554786
C      -0.274829     3.081878    -3.017684
C      -0.583049     3.646368    -4.269984
C      -1.586354     3.120843    -5.071678
C      -3.647374     0.268214    -4.295990
C      -2.876954     0.305338    -3.174811
H      -0.703219     1.579471    -1.583944
H       0.505821     3.488273    -2.389404
H      -1.800310     3.579176    -6.030340
H      -4.439346    -0.418642    -4.564741
N      -3.297349     1.290960    -5.160151
C      -3.897563     1.568399    -6.442959
H      -4.345223     2.567768    -6.459014
H      -3.155788     1.501748    -7.245923
H      -4.682294     0.834891    -6.635719
O       0.070003     4.734125    -4.780452
C       1.104398     5.303437    -4.001272
H       1.912256     4.584187    -3.820329
H       1.490271     6.143857    -4.579919
H       0.726993     5.667227    -3.037993
N      -1.397358    -2.147962    -0.710773
C      -1.963714    -3.415008    -0.420491
O      -2.698121    -3.929170    -1.221656
C      -1.595638    -4.058786     0.901641
H      -1.472121    -5.122982     0.690489
H      -2.483129    -3.977316     1.538949
C      -0.360842    -3.471970     1.587121
H      -0.265464    -3.885403     2.592487
H       0.540011    -3.748934     1.034691
C      -0.461232    -1.947325     1.622008
C       0.829608    -1.123539     1.942055
H       0.901085    -0.864563     3.001266
C      -2.879263    -0.625688    -2.002966
H      -3.778943    -1.247345    -1.987629
H      -2.871880    -0.039044    -1.076205
C      -1.638787    -1.526825    -2.026576
H      -1.751593    -2.333941    -2.748339
H      -0.749794    -0.950691    -2.280629
C      -1.647558    -1.421177     2.478834
H      -1.613341    -0.328496     2.441351
H      -2.594873    -1.721826     2.016904
C      -1.622002    -1.891711     3.933585
H      -2.412621    -1.392522     4.500769
H      -1.788938    -2.969490     4.020530
H      -0.671533    -1.656113     4.420492
O       2.001154    -1.878978     1.566475
C       2.632349    -2.547394     2.644751
H       1.910856    -3.149851     3.215203
H       3.339770    -3.242019     2.179019
C       3.372106    -1.626047     3.592376
C       3.343238    -1.853557     4.965474
C       4.121380    -0.561452     3.096620
C       4.058760    -1.036185     5.834336
H       2.756566    -2.678083     5.363352
C       4.835058     0.255870     3.961911
H       4.125782    -0.368190     2.029912
C       4.808359     0.020099     5.333114
H       4.028782    -1.226077     6.902769
H       5.416720     1.082605     3.564919
H       5.368329     0.660056     6.007909
C      -0.698518    -1.482330     0.215018
O      -0.156037    -0.375695    -0.059037
C       0.612153     0.065195     1.100144
C       1.203073     1.324178     0.968986
O       1.071145     2.131424     0.052742
O       1.974617     1.604704     2.073598
C       2.627391     2.865822     2.043031
H       3.299703     2.941745     1.183225
H       1.903271     3.683616     1.989295
H       3.197543     2.928192     2.971529
72
     -1725.756301     -1725.224464   8.15   9.46
C       2.086115    -2.481410    -1.782815
C       2.275656    -1.200955    -1.222735
C       2.364088    -0.101823    -2.079665
C       2.268416    -0.291506    -3.446558
C       2.083692    -1.582703    -3.980378
C       1.988990    -2.693545    -3.156283
C       2.159701    -2.699437     0.441428
C       2.315282    -1.365436     0.208620
H       2.466709     0.906168    -1.690774
H       2.327368     0.569803    -4.098845
H       1.845984    -3.673779    -3.595985
H       2.124794    -3.238252     1.379059
N       2.015251    -3.385692    -0.751649
C       1.896024    -4.817654    -0.899636
H       2.767042    -5.234785    -1.416113
H       1.827162    -5.272571     0.089619
H       0.994881    -5.076798    -1.464284
O       1.980321    -1.835700    -5.318935
C       2.086336    -0.745601    -6.213685
H       3.058519    -0.246001    -6.123839
H       1.989232    -1.166819    -7.215068
H       1.286017    -0.013439    -6.050525
N       0.120171    -0.742061     1.977713
C      -0.440398    -1.954455     2.469888
O       0.220743    -2.679659     3.164480
C      -1.872170    -2.273043     2.089178
H      -2.314097    -2.745141     2.969005
H      -1.811553    -3.054103     1.323982
C      -2.698918    -1.078707     1.614620
H      -3.649438    -1.415826     1.193823
H      -2.936342    -0.431367     2.456540
C      -1.918146    -0.278619     0.571907
C      -2.403749     1.170895     0.270905
H      -3.038600     1.199025    -0.617305
C       2.458534    -0.253862     1.209134
H       2.317793     0.698084     0.694445
H       3.468433    -0.227687     1.633337
C       1.480910    -0.338765     2.390410
H       1.792833    -1.080850     3.121441
H       1.399035     0.630187     2.885521
C      -1.749434    -1.117602    -0.730856
H      -1.127028    -1.989649    -0.499575
H      -2.746777    -1.502820    -0.974528
C      -1.159123    -0.415933    -1.950374
H      -0.181906     0.018527    -1.742070
H      -1.021830    -1.146232    -2.753842
H      -1.812867     0.375809    -2.321630
O      -3.232358     1.621080     1.373582
C      -2.851012     2.822044     2.023604
H      -2.587492     3.595499     1.295701
H      -3.750380     3.145633     2.557985
C      -1.717578     2.641001     3.013725
C      -0.583022     3.444671     2.966628
C      -1.802113     1.662578     4.004360
C       0.440248     3.285115     3.895014
H      -0.492577     4.192269     2.185177
C      -0.779453     1.490091     4.927737
H      -2.691984     1.043291     4.064710
C       0.345301     2.308103     4.879054
H       1.315516     3.926090     3.846661
H      -0.864359     0.723441     5.691682
H       1.142046     2.185849     5.606631
C      -0.563266     0.027134     1.131263
O      -0.091800     1.143860     0.770764
C      -1.129850     1.888869     0.059610
C      -0.642467     2.639562    -1.016020
O       0.526906     2.836713    -1.332861
O      -1.685740     3.187187    -1.731058
C      -1.288312     3.966978    -2.851763
H      -2.211032     4.322110    -3.313911
H      -0.673277     4.815435    -2.540104
H      -0.715600     3.367182    -3.565276
72
     -1725.753986     -1725.224413   9.60   9.49
C      -1.968660     0.710913     3.480369
C      -1.925901    -0.487371     2.735507
C      -2.837096    -0.650955     1.690276
C      -3.747702     0.347836     1.406002
C      -3.772985     1.529301     2.171226
C      -2.890920     1.723085     3.224720
C      -0.318390    -0.554012     4.296876
C      -0.861739    -1.289605     3.288194
H      -2.828903    -1.537414     1.065946
H      -4.404976     0.217336     0.558288
H      -2.931769     2.645183     3.793042
H       0.502526    -0.802330     4.956509
N      -0.971910     0.657449     4.425051
C      -0.714915     1.664994     5.427685
H      -1.573772     1.782591     6.096847
H       0.149752     1.364042     6.021234
H      -0.496807     2.630742     4.961166
O      -4.636210     2.557462     1.927351
C      -5.500231     2.440467     0.811121
H      -6.063763     3.373394     0.768523
H      -4.933941     2.309862    -0.118559
H      -6.195581     1.601349     0.930478
N       0.930484    -1.572221     1.054720
C       2.188074    -1.438763     1.702911
O       2.498893    -2.250711     2.533941
C       3.076369    -0.284450     1.294754
H       4.101398    -0.647807     1.390153
H       2.951261     0.487789     2.060887
C       2.793579     0.259012    -0.104938
H       3.359241     1.176592    -0.282382
H       3.125075    -0.462785    -0.853975
C       1.297596     0.531419    -0.270991
C       0.780728     0.733811    -1.728505
H       0.672249     1.794970    -1.951872
C      -0.431330    -2.658996     2.860181
H      -1.272277    -3.359215     2.925162
H       0.343364    -3.020681     3.536438
C       0.087633    -2.728299     1.415175
H       0.688010    -3.628749     1.273975
H      -0.732631    -2.745358     0.700928
C       0.848758     1.705081     0.649763
H       0.988809     1.402977     1.693755
H       1.553184     2.524536     0.462909
C      -0.582837     2.205628     0.478314
H      -1.317531     1.415237     0.639041
H      -0.779225     2.988142     1.217326
H      -0.755149     2.631521    -0.511507
O       1.751651     0.284383    -2.693113
C       1.690158    -1.083150    -3.028310
H       1.636368    -1.714096    -2.124873
H       0.777540    -1.293441    -3.600423
C       2.912524    -1.485183    -3.818693
C       3.970631    -0.610802    -4.042797
C       2.988558    -2.784007    -4.323350
C       5.088155    -1.030432    -4.759051
H       3.914895     0.401418    -3.660873
C       4.101521    -3.202668    -5.037695
H       2.164396    -3.473109    -4.154435
C       5.158377    -2.324065    -5.257264
H       5.907066    -0.337784    -4.928196
H       4.146036    -4.216222    -5.424306
H       6.030771    -2.648457    -5.815655
C       0.540959    -0.701276     0.116259
O      -0.489950    -0.919071    -0.584331
C      -0.519665     0.029806    -1.700242
C      -1.805002     0.421803    -2.094011
O      -2.887535    -0.025077    -1.729446
O      -1.722354     1.441403    -3.020024
C      -2.976144     1.899716    -3.506413
H      -2.749726     2.685396    -4.229256
H      -3.527916     1.090535    -3.992379
H      -3.591150     2.301379    -2.695140
72
     -1725.750284     -1725.224374  11.92   9.51
C      -1.663179    -0.058949    -4.266610
C      -2.370759     0.647375    -3.273810
C      -3.569498     1.281009    -3.634797
C      -4.019030     1.196108    -4.931656
C      -3.291854     0.479373    -5.907801
C      -2.105409    -0.158367    -5.594152
C      -0.517383    -0.220289    -2.357111
C      -1.618478     0.527380    -2.053849
H      -4.144649     1.837448    -2.900870
H      -4.941391     1.674928    -5.240682
H      -1.534345    -0.712270    -6.327694
H       0.321490    -0.520736    -1.742389
N      -0.534299    -0.578274    -3.689749
C       0.493874    -1.352532    -4.348490
H       0.103213    -2.313397    -4.699270
H       0.906587    -0.804312    -5.201211
H       1.296285    -1.535727    -3.632597
O      -3.857455     0.478696    -7.152132
C      -3.184046    -0.218436    -8.179475
H      -3.093796    -1.286959    -7.946413
H      -3.789721    -0.097478    -9.078354
H      -2.185034     0.198731    -8.358818
N      -0.467139     2.482301     0.864270
C      -1.033580     3.335989     1.851156
O      -1.934503     4.070917     1.550113
C      -0.446987     3.273552     3.248024
H      -1.290007     3.408414     3.928372
H       0.170736     4.171429     3.353000
C       0.336396     2.000852     3.580740
H       0.879851     2.125622     4.520712
H      -0.351118     1.165936     3.718279
C       1.312383     1.657447     2.450595
C       1.885146     0.212456     2.423284
H       2.894911     0.168740     2.849321
C      -1.902550     1.163514    -0.723800
H      -1.691377     0.445457     0.074411
H      -2.960579     1.423066    -0.631673
C      -1.037536     2.423977    -0.497744
H      -0.195404     2.424498    -1.189645
H      -1.602708     3.343054    -0.634836
C       2.449065     2.712873     2.357414
H       1.993373     3.704296     2.264815
H       2.959377     2.697229     3.327434
C       3.470825     2.531553     1.234822
H       2.999167     2.514521     0.247820
H       4.176030     3.367924     1.250704
H       4.042108     1.608171     1.343902
O       1.010824    -0.596533     3.224608
C       1.363770    -1.971914     3.226069
H       1.381913    -2.348232     2.195113
H       2.369890    -2.106799     3.647225
C       0.348940    -2.727084     4.044498
C      -1.003934    -2.660578     3.711084
C       0.738911    -3.506712     5.126915
C      -1.946634    -3.361602     4.448241
H      -1.314120    -2.050612     2.868124
C      -0.203502    -4.214874     5.867241
H       1.789983    -3.559897     5.397782
C      -1.547665    -4.143203     5.529262
H      -2.996962    -3.300594     4.180055
H       0.115167    -4.820438     6.710041
H      -2.285119    -4.692909     6.105660
C       0.537332     1.656986     1.168914
O       0.883838     0.757680     0.351564
C       1.881856    -0.096988     0.976462
C       2.665157    -0.831401     0.093320
O       2.560027    -0.911122    -1.131692
O       3.645475    -1.522468     0.776923
C       4.494308    -2.316994    -0.042356
H       3.921724    -3.075886    -0.582981
H       5.027620    -1.699967    -0.770751
H       5.204195    -2.794970     0.635111
72
     -1725.756683     -1725.224174   7.91   9.64
C      -1.286007     1.883003    -1.340562
C      -0.024080     1.512275    -1.831130
C       0.081824     0.345264    -2.605869
C      -1.051527    -0.381686    -2.875062
C      -2.314921     0.018093    -2.382328
C      -2.454490     1.155039    -1.608976
C       0.200380     3.403916    -0.647808
C       0.916731     2.506771    -1.385502
H       1.039414    -0.007300    -2.974631
H      -1.002125    -1.291363    -3.463410
H      -3.409441     1.462332    -1.205624
H       0.528153     4.295762    -0.129084
N      -1.131177     3.030626    -0.600096
C      -2.198308     3.776455     0.025555
H      -2.852896     4.241171    -0.719749
H      -2.800311     3.121349     0.662889
H      -1.766100     4.560906     0.648843
O      -3.344620    -0.808234    -2.718905
C      -4.643089    -0.446480    -2.285546
H      -4.696499    -0.391062    -1.193708
H      -4.951440     0.512351    -2.721480
H      -5.310192    -1.233198    -2.639710
N       2.719068     1.709478     0.689835
C       2.149494     2.387135     1.812860
O       2.466481     3.517824     2.062369
C       1.088573     1.595868     2.537914
H       0.238917     1.544581     1.847388
H       0.788275     2.173052     3.412434
C       1.533486     0.177043     2.906394
H       2.220597     0.222427     3.755338
H       0.666499    -0.402983     3.224148
C       2.215071    -0.529283     1.724805
C       1.399434    -1.596205     0.954115
H       1.460084    -2.586837     1.418389
C       2.391027     2.497931    -1.675174
H       2.683681     3.367784    -2.272354
H       2.617769     1.617781    -2.279212
C       3.283822     2.494628    -0.419310
H       4.270992     2.092280    -0.658757
H       3.410175     3.498168    -0.016551
C       3.579087    -1.153292     2.146125
H       3.359014    -1.809947     2.995517
H       3.928817    -1.793742     1.332385
C       4.670575    -0.153840     2.525833
H       5.535382    -0.686366     2.930267
H       5.018380     0.414264     1.657418
H       4.342338     0.563549     3.284643
O       0.034429    -1.138094     1.002050
C      -0.882273    -1.999409     0.349244
H      -0.780533    -1.906028    -0.738233
H      -0.666928    -3.044199     0.609137
C      -2.295131    -1.662122     0.765835
C      -2.621386    -0.438697     1.342037
C      -3.308310    -2.596584     0.556561
C      -3.932866    -0.157911     1.710056
H      -1.843557     0.298216     1.500656
C      -4.618477    -2.321551     0.925671
H      -3.066131    -3.555105     0.104488
C      -4.935536    -1.098276     1.507478
H      -4.170841     0.798870     2.165973
H      -5.393540    -3.063528     0.760084
H      -5.957703    -0.880543     1.801002
C       2.498183     0.399162     0.579287
O       2.544318    -0.188419    -0.538612
C       2.062566    -1.554282    -0.368780
C       2.043366    -2.323381    -1.535329
O       2.464217    -2.021697    -2.647499
O       1.484842    -3.560663    -1.283491
C       1.453573    -4.429725    -2.408789
H       0.862002    -4.000379    -3.222755
H       2.463015    -4.625155    -2.780499
H       0.996377    -5.357783    -2.060503
72
     -1725.757887     -1725.224122   7.15   9.67
C      -1.826218    -1.268217    -1.353639
C      -2.082719     0.062834    -1.739434
C      -2.940267     0.840346    -0.945503
C      -3.503342     0.291792     0.181438
C      -3.239190    -1.050403     0.544420
C      -2.410717    -1.849675    -0.217774
C      -0.660645    -0.846472    -3.205023
C      -1.338526     0.306910    -2.944357
H      -3.165095     1.868893    -1.215776
H      -4.171151     0.864138     0.816208
H      -2.191703    -2.869381     0.064500
H       0.042103    -1.071531    -3.995825
N      -0.945241    -1.805186    -2.257530
C      -0.333631    -3.119731    -2.229126
H      -0.540424    -3.655093    -3.160341
H       0.747484    -3.028006    -2.088104
H      -0.753246    -3.696811    -1.405041
O      -3.846394    -1.460116     1.693786
C      -3.630085    -2.797012     2.112562
H      -4.193003    -2.916502     3.038860
H      -4.006416    -3.509306     1.367858
H      -2.568662    -2.989774     2.305294
N       0.002560     2.776328    -1.871250
C      -0.793306     3.863058    -1.427318
O      -1.411109     4.503908    -2.236771
C      -0.836630     4.161878     0.060654
H      -1.890674     4.326838     0.295932
H      -0.350896     5.135356     0.178050
C      -0.223161     3.102212     0.980960
H      -0.034076     3.516546     1.973597
H      -0.933437     2.283329     1.105065
C       1.076489     2.556952     0.377926
C       1.667355     1.265311     1.035002
H       2.581717     1.511814     1.579201
C      -1.245104     1.599480    -3.698254
H      -2.146690     2.199798    -3.548462
H      -1.166443     1.412119    -4.773914
C      -0.019441     2.424453    -3.303827
H       0.897007     1.867249    -3.503927
H       0.008641     3.365335    -3.854302
C       2.164122     3.659850     0.274679
H       1.732940     4.549180    -0.196418
H       2.415928     3.943929     1.302593
C       3.428879     3.259743    -0.485293
H       3.922695     2.395941    -0.036548
H       3.210988     3.009889    -1.529305
H       4.137858     4.092443    -0.489584
O       0.820973     0.757897     2.080341
C      -0.218693    -0.143548     1.722283
H      -1.145182     0.236860     2.166746
H      -0.354002    -0.168038     0.638163
C       0.035132    -1.537696     2.244278
C       0.452545    -2.561928     1.400890
C      -0.165868    -1.819209     3.594533
C       0.652969    -3.847197     1.893084
H       0.626733    -2.350605     0.351934
C       0.038222    -3.098916     4.092978
H      -0.487679    -1.022794     4.260381
C       0.445415    -4.119944     3.239422
H       0.980201    -4.637266     1.223196
H      -0.120332    -3.301525     5.147791
H       0.606137    -5.122174     3.624454
C       0.743912     2.081252    -0.998151
O       1.232690     0.959971    -1.296874
C       1.926221     0.413012    -0.150809
C       2.604512    -0.783636    -0.387914
O       2.602344    -1.458896    -1.417709
O       3.318433    -1.158049     0.723492
C       4.048707    -2.370302     0.583780
H       4.556618    -2.524176     1.537157
H       3.380227    -3.210520     0.375905
H       4.780638    -2.297203    -0.225289
72
     -1725.749831     -1725.223949  12.20   9.78
C      -1.326348    -4.545024    -2.072475
C      -1.373417    -3.277610    -1.457805
C      -1.028395    -2.152448    -2.209290
C      -0.640778    -2.303430    -3.527515
C      -0.597712    -3.581181    -4.117060
C      -0.941040    -4.718920    -3.400551
C      -1.995206    -4.820849     0.043957
C      -1.805301    -3.480662    -0.097523
H      -1.051346    -1.150588    -1.795956
H      -0.374890    -1.414349    -4.082644
H      -0.898907    -5.688267    -3.883722
H      -2.316978    -5.382942     0.910969
N      -1.711662    -5.479218    -1.139732
C      -1.804112    -6.901064    -1.369691
H      -0.831649    -7.316428    -1.654588
H      -2.133197    -7.390233    -0.451324
H      -2.527996    -7.124543    -2.160535
O      -0.222494    -3.793040    -5.414730
C       0.140709    -2.663690    -6.185556
H       1.004583    -2.144400    -5.753415
H       0.403708    -3.044617    -7.173351
H      -0.692334    -1.956451    -6.277849
N      -0.674281    -0.573946     2.032101
C      -0.853052    -0.510278     3.440660
O      -0.990240    -1.531734     4.058474
C      -0.851767     0.861093     4.089478
H      -0.300569     0.746882     5.025232
H      -1.890867     1.062448     4.372759
C      -0.280726     1.987075     3.226494
H      -0.469504     2.957761     3.686797
H       0.804085     1.885896     3.150215
C      -0.892373     1.920454     1.828533
C      -0.230499     2.770886     0.699770
H      -0.771368     3.705383     0.551581
C      -1.948653    -2.398706     0.926497
H      -2.505515    -2.745811     1.801336
H      -2.511560    -1.563700     0.491559
C      -0.572249    -1.887787     1.369503
H      -0.105858    -2.571906     2.076338
H       0.086624    -1.767762     0.510077
C      -2.432286     2.149871     1.808068
H      -2.745996     2.122846     0.760016
H      -2.935512     1.313846     2.307251
C      -2.872650     3.464939     2.450475
H      -3.943866     3.617492     2.291725
H      -2.697288     3.471857     3.530170
H      -2.349722     4.322645     2.018645
O       1.092100     3.198414     1.086187
C       2.141897     2.315790     0.759441
H       1.914453     1.287246     1.086299
H       2.279545     2.270248    -0.328568
C       3.422661     2.755874     1.428261
C       3.454809     3.787106     2.360963
C       4.607299     2.088085     1.115481
C       4.653706     4.143100     2.972310
H       2.540849     4.316075     2.602671
C       5.802448     2.442531     1.724160
H       4.591571     1.282421     0.385216
C       5.828566     3.473921     2.658200
H       4.665916     4.950925     3.697735
H       6.716114     1.913863     1.470310
H       6.761931     3.753780     3.136303
C      -0.668054     0.540861     1.295771
O      -0.447032     0.497723     0.051936
C      -0.363255     1.863324    -0.456304
C      -0.308743     1.976102    -1.847277
O      -0.383311     1.078979    -2.682919
O      -0.164262     3.296148    -2.213565
C      -0.127492     3.518937    -3.617538
H      -1.051427     3.178518    -4.093638
H      -0.013884     4.596577    -3.746643
H       0.714047     2.993662    -4.078159
72
     -1725.754693     -1725.223639   9.15   9.97
C       2.356283    -0.126270     2.707487
C       0.972599    -0.075038     2.998002
C       0.419567    -1.112748     3.750114
C       1.215332    -2.164939     4.169916
C       2.587966    -2.194348     3.855372
C       3.174345    -1.172716     3.124622
C       1.524180     1.715656     1.764785
C       0.461541     1.123009     2.375481
H      -0.632172    -1.113778     4.015545
H       0.767484    -2.961403     4.749667
H       4.234858    -1.215790     2.904969
H       1.540972     2.596099     1.137071
N       2.675844     0.983564     1.967251
C       3.980878     1.305439     1.437115
H       3.883972     2.165167     0.772626
H       4.685841     1.552759     2.237615
H       4.381295     0.467421     0.858427
O       3.428079    -3.200791     4.237569
C       2.894229    -4.261164     5.006911
H       2.112632    -4.801276     4.458833
H       3.726258    -4.937715     5.205596
H       2.486719    -3.900174     5.959014
N      -1.701122    -0.467405     1.182700
C      -2.107183    -1.778960     1.579503
O      -2.647604    -1.939221     2.640555
C      -1.852585    -2.917333     0.614870
H      -2.701500    -3.593981     0.728983
H      -0.979154    -3.454301     0.998712
C      -1.662606    -2.487837    -0.837929
H      -1.344370    -3.334851    -1.450275
H      -2.607814    -2.131706    -1.249717
C      -0.625029    -1.365841    -0.912127
C      -0.558273    -0.559808    -2.236206
H       0.254069    -0.905891    -2.883764
C      -0.933683     1.675050     2.343957
H      -0.953824     2.475444     1.601964
H      -1.190006     2.133530     3.306310
C      -2.067485     0.674596     2.047147
H      -2.444351     0.221324     2.959719
H      -2.899277     1.196457     1.566436
C       0.773680    -1.891591    -0.475620
H       0.734236    -2.150083     0.588214
H       0.931814    -2.829619    -1.021199
C       1.963912    -0.962895    -0.698474
H       2.860436    -1.431157    -0.280184
H       2.147471    -0.773096    -1.758110
H       1.827581    -0.003184    -0.200403
O      -1.803285    -0.765072    -2.928259
C      -1.970648     0.090636    -4.048896
H      -1.004485     0.291591    -4.526609
H      -2.586774    -0.470822    -4.760543
C      -2.656261     1.397644    -3.714047
C      -2.255108     2.581063    -4.326396
C      -3.734392     1.426223    -2.831318
C      -2.920820     3.773934    -4.067167
H      -1.401067     2.572904    -4.998026
C      -4.398313     2.616254    -2.567600
H      -4.047515     0.508105    -2.344142
C      -3.996116     3.795139    -3.188081
H      -2.595325     4.689739    -4.551586
H      -5.236118     2.625012    -1.876499
H      -4.516474     4.725542    -2.983025
C      -1.066971    -0.276412     0.024343
O      -0.856070     0.895281    -0.404028
C      -0.319782     0.818645    -1.754852
C       0.659610     1.767084    -2.050877
O       1.061741     2.696519    -1.354024
O       1.172002     1.544127    -3.314671
C       2.155524     2.482283    -3.731671
H       3.025842     2.462584    -3.069524
H       2.445873     2.186154    -4.741294
H       1.748897     3.497233    -3.740259
72
     -1725.755978     -1725.223544   8.35  10.03
C      -0.711966     3.563883     0.091838
C       0.087508     2.995004     1.111100
C      -0.213899     3.299830     2.437358
C      -1.275691     4.139896     2.733064
C      -2.051299     4.695353     1.697474
C      -1.777804     4.415764     0.366518
C       0.805709     2.240821    -0.872430
C       1.061511     2.155211     0.460790
H       0.375342     2.882753     3.248885
H      -1.496011     4.366938     3.767985
H      -2.391910     4.860576    -0.408074
H       1.252416     1.705398    -1.697215
N      -0.257661     3.089592    -1.111823
C      -0.820024     3.372963    -2.413833
H      -0.566918     4.384618    -2.748520
H      -0.429273     2.643327    -3.123702
H      -1.909409     3.274381    -2.384964
O      -3.110297     5.532063     1.915054
C      -3.422236     5.879612     3.249316
H      -2.585212     6.395198     3.735968
H      -4.276626     6.555372     3.193691
H      -3.698019     4.997930     3.840963
N       1.715276    -1.275958     1.460462
C       2.272605    -2.146499     2.444787
O       2.584768    -1.704615     3.516099
C       2.426615    -3.609089     2.077765
H       2.188662    -4.164165     2.987308
H       3.494156    -3.770323     1.897550
C       1.568330    -4.072757     0.900013
H       1.853387    -5.082906     0.595331
H       0.519653    -4.111515     1.195471
C       1.715392    -3.106625    -0.275542
C       0.626392    -3.164596    -1.387277
H       0.931460    -3.806588    -2.218085
C       2.027362     1.220688     1.125222
H       2.662086     1.748006     1.844532
H       2.697844     0.797908     0.372089
C       1.269734     0.081186     1.844297
H       1.380118     0.130396     2.924660
H       0.210112     0.132376     1.600212
C       3.143095    -3.203856    -0.883671
H       3.869043    -3.035011    -0.081346
H       3.265420    -4.248915    -1.191489
C       3.486553    -2.284534    -2.055442
H       2.885047    -2.502041    -2.939108
H       3.344546    -1.228738    -1.808020
H       4.538794    -2.424719    -2.321348
O      -0.571561    -3.742925    -0.812721
C      -1.788764    -3.043494    -1.042535
H      -1.859700    -2.707697    -2.081133
H      -2.571819    -3.789567    -0.873671
C      -1.995146    -1.874901    -0.099294
C      -2.224415    -0.588656    -0.579122
C      -1.959489    -2.078010     1.280085
C      -2.421226     0.471937     0.297986
H      -2.222602    -0.406918    -1.649449
C      -2.170276    -1.024228     2.161002
H      -1.783137    -3.078549     1.665685
C      -2.401844     0.257706     1.670514
H      -2.580308     1.473191    -0.088257
H      -2.149491    -1.202018     3.232292
H      -2.549123     1.091965     2.349789
C       1.463172    -1.716170     0.229440
O       0.912421    -0.955320    -0.621006
C       0.542859    -1.748764    -1.780257
C       0.288058    -1.066618    -2.960579
O       0.317355     0.146824    -3.176821
O      -0.040010    -1.962066    -3.960735
C      -0.319573    -1.370339    -5.223126
H      -0.557721    -2.196595    -5.895310
H      -1.168526    -0.683898    -5.156906
H       0.546188    -0.818488    -5.599785
72
     -1725.748163     -1725.223420  13.25  10.11
C       0.256197     4.221748     3.985155
C       0.743534     2.971542     3.549706
C       1.964233     2.515892     4.050092
C       2.666702     3.296603     4.953252
C       2.158758     4.542237     5.370164
C       0.948217     5.020687     4.893169
C      -1.221088     3.362124     2.545785
C      -0.226695     2.437929     2.624573
H       2.368689     1.557031     3.739185
H       3.612255     2.935649     5.336098
H       0.583033     5.982932     5.232802
H      -2.131403     3.343382     1.960891
N      -0.946862     4.445922     3.361979
C      -1.777478     5.613674     3.538108
H      -2.667572     5.514427     2.914679
H      -2.094430     5.716819     4.581319
H      -1.244895     6.522849     3.239594
O       2.803850     5.358463     6.257541
C       4.047227     4.930699     6.776751
H       4.381021     5.721481     7.449762
H       3.947381     3.995366     7.341084
H       4.790562     4.796468     5.981309
N       1.272011    -0.087091     0.228884
C       2.216830    -0.926793     0.875156
O       2.812173    -0.508707     1.833192
C       2.441592    -2.312248     0.311028
H       2.603971    -2.957983     1.176708
H       3.402571    -2.262282    -0.206460
C       1.331737    -2.868017    -0.587331
H       1.707086    -3.723495    -1.156382
H       0.514308    -3.234201     0.034536
C       0.765523    -1.816100    -1.541448
C      -0.690126    -2.025579    -2.048910
H      -0.714400    -2.574002    -2.995166
C      -0.104991     1.144047     1.883628
H      -1.054565     0.878154     1.409513
H       0.151947     0.337518     2.579887
C       0.985551     1.235505     0.813210
H       0.681335     1.898214     0.003424
H       1.918629     1.601700     1.236459
C       1.637374    -1.537432    -2.802204
H       1.637501    -2.467440    -3.381824
H       1.099482    -0.800115    -3.405618
C       3.076468    -1.065153    -2.598790
H       3.143248    -0.207409    -1.921042
H       3.728956    -1.856406    -2.222154
H       3.488104    -0.745671    -3.560311
O      -1.390505    -2.774119    -1.041236
C      -2.747524    -3.015154    -1.381170
H      -3.207241    -3.401914    -0.466373
H      -3.239264    -2.071265    -1.643961
C      -2.904003    -4.016187    -2.506094
C      -2.223220    -5.232708    -2.460364
C      -3.727814    -3.744699    -3.592765
C      -2.370172    -6.162456    -3.480176
H      -1.571809    -5.445970    -1.617763
C      -3.880472    -4.675716    -4.615382
H      -4.240523    -2.789141    -3.647491
C      -3.203299    -5.886595    -4.560764
H      -1.834724    -7.105816    -3.432950
H      -4.526919    -4.450357    -5.458061
H      -3.319975    -6.613693    -5.358355
C       0.559929    -0.521787    -0.814640
O      -0.407102     0.168657    -1.247699
C      -1.174527    -0.633113    -2.209969
C      -1.553903     0.082854    -3.357468
O      -1.474326     1.286115    -3.565052
O      -2.097654    -0.776838    -4.291922
C      -2.533003    -0.147155    -5.490185
H      -3.308467     0.595373    -5.283095
H      -1.703187     0.352329    -5.997874
H      -2.933849    -0.943588    -6.120174
72
     -1725.748459     -1725.223231  13.07  10.23
C       3.460602     0.214195    -3.743962
C       2.300697     0.293971    -2.957161
C       2.241046     1.258318    -1.936596
C       3.320104     2.085603    -1.734620
C       4.479435     1.982578    -2.534815
C       4.572076     1.049479    -3.552692
C       2.022179    -1.330819    -4.476386
C       1.387942    -0.708618    -3.444541
H       1.366388     1.374906    -1.303795
H       3.298446     2.838378    -0.955502
H       5.451201     0.958720    -4.176540
H       1.680582    -2.138922    -5.109738
N       3.277533    -0.784185    -4.670489
C       4.232384    -1.185013    -5.676520
H       5.162820    -1.536294    -5.217984
H       3.808289    -2.001376    -6.263368
H       4.462488    -0.355609    -6.353680
O       5.470925     2.867348    -2.218840
C       6.660873     2.821753    -2.978026
H       6.468854     3.033027    -4.037627
H       7.312512     3.595609    -2.570634
H       7.157428     1.847376    -2.887023
N      -1.095395    -1.691427    -0.774093
C      -1.984430    -2.800673    -0.724177
O      -1.867141    -3.700755    -1.509918
C      -2.957180    -2.748835     0.431230
H      -2.368222    -2.883636     1.345732
H      -3.634423    -3.596835     0.328717
C      -3.717492    -1.418962     0.509797
H      -4.461427    -1.393989    -0.291442
H      -4.255519    -1.365459     1.456934
C      -2.779913    -0.209028     0.373074
C      -2.375775     0.571605     1.645986
H      -3.098903     1.337250     1.938752
C       0.039372    -1.003451    -2.867212
H      -0.571564    -1.593443    -3.556669
H      -0.490713    -0.059226    -2.692270
C       0.163340    -1.751502    -1.534668
H       0.398669    -2.803433    -1.690611
H       0.942421    -1.304857    -0.916012
C      -3.278956     0.773967    -0.729555
H      -2.524320     1.552699    -0.874346
H      -3.352928     0.213191    -1.669176
C      -4.626479     1.423319    -0.411619
H      -4.947055     2.047055    -1.251019
H      -5.409936     0.681465    -0.233167
H      -4.564488     2.067820     0.468619
O      -2.282476    -0.432443     2.674858
C      -1.755442     0.055777     3.898341
H      -0.838233     0.623675     3.694569
H      -2.472741     0.734983     4.380225
C      -1.461127    -1.119531     4.792984
C      -0.653983    -2.158931     4.329471
C      -1.968319    -1.184443     6.085151
C      -0.360790    -3.241270     5.145651
H      -0.254962    -2.111651     3.320667
C      -1.673672    -2.267368     6.908678
H      -2.603792    -0.383172     6.452654
C      -0.869911    -3.297434     6.440356
H       0.268248    -4.044208     4.773518
H      -2.076097    -2.305207     7.916211
H      -0.639797    -4.143661     7.079982
C      -1.399496    -0.601401    -0.067938
O      -0.503683     0.227643     0.272679
C      -1.080833     1.154574     1.241157
C      -0.554096     2.446509     1.222268
O       0.386974     2.876662     0.562971
O      -1.242533     3.251966     2.109037
C      -0.768538     4.590941     2.178058
H      -0.848160     5.088024     1.207141
H      -1.399750     5.095839     2.911488
H       0.276857     4.620845     2.497479
72
     -1725.754415     -1725.223090   9.33  10.32
C      -3.572147    -1.670377    -0.439921
C      -2.494909    -0.845884    -0.829075
C      -1.197338    -1.279867    -0.560524
C      -0.989687    -2.484776     0.086048
C      -2.083651    -3.282041     0.476198
C      -3.386906    -2.884985     0.217202
C      -4.408363     0.154749    -1.414941
C      -3.059378     0.326348    -1.448937
H      -0.336060    -0.686128    -0.841501
H       0.027071    -2.795368     0.287561
H      -4.208946    -3.520251     0.525675
H      -5.193858     0.815140    -1.756726
N      -4.735054    -1.044597    -0.812819
C      -6.069963    -1.554500    -0.597878
H      -6.790434    -0.843323    -1.004553
H      -6.206850    -2.516264    -1.102583
H      -6.272718    -1.681854     0.470285
O      -1.951254    -4.477130     1.123449
C      -0.644824    -4.953633     1.385074
H      -0.769764    -5.910263     1.893502
H      -0.081596    -5.108025     0.456945
H      -0.090358    -4.267780     2.036961
N      -1.574245     1.924280     0.484686
C      -2.422301     1.367707     1.489069
O      -3.592847     1.632134     1.481151
C      -1.803793     0.439956     2.515189
H      -2.319023    -0.513928     2.361951
H      -2.158537     0.811331     3.478711
C      -0.279959     0.222558     2.492326
H       0.088973     0.100212     3.515063
H      -0.059003    -0.700081     1.961111
C       0.489474     1.357192     1.812400
C       1.846310     1.003715     1.133162
H       2.682881     1.092960     1.832737
C      -2.309274     1.555926    -1.863647
H      -2.822975     2.071341    -2.680825
H      -1.313914     1.289691    -2.233192
C      -2.170690     2.555662    -0.705949
H      -1.539080     3.399714    -0.987405
H      -3.147164     2.922944    -0.393923
C       0.750824     2.581783     2.739695
H       1.441635     2.226976     3.513121
H       1.299591     3.323222     2.151318
C      -0.459711     3.233036     3.403915
H      -0.957913     2.564123     4.109771
H      -0.130634     4.109762     3.968666
H      -1.200256     3.581888     2.677244
O       1.766516    -0.374027     0.692134
C       3.004151    -0.979107     0.369657
H       3.819449    -0.489432     0.916976
H       2.944820    -2.012384     0.734828
C       3.352244    -1.010334    -1.106135
C       2.478935    -0.583733    -2.097170
C       4.602410    -1.505658    -1.476400
C       2.849689    -0.643238    -3.437355
H       1.515710    -0.173993    -1.823464
C       4.973583    -1.571517    -2.811650
H       5.295295    -1.841457    -0.707874
C       4.094472    -1.138149    -3.799846
H       2.160649    -0.292538    -4.199609
H       5.950277    -1.960817    -3.082816
H       4.381036    -1.185038    -4.845902
C      -0.251550     1.846946     0.605967
O       0.502341     2.241335    -0.331649
C       1.892957     2.020348     0.063911
C       2.838101     2.352133    -0.921965
O       2.647498     2.925142    -1.984142
O       4.094978     1.966213    -0.511721
C       5.115874     2.160657    -1.485749
H       5.211312     3.217710    -1.745708
H       6.038266     1.799413    -1.028035
H       4.899601     1.588238    -2.392073
72
     -1725.755318     -1725.222976   8.76  10.39
C       0.396415     2.255764     1.565243
C       1.639162     1.985108     0.951732
C       2.725751     1.669425     1.769370
C       2.569186     1.634330     3.144067
C       1.318997     1.921975     3.727880
C       0.220726     2.236099     2.945769
C       0.138143     2.463944    -0.642740
C       1.450821     2.127531    -0.470994
H       3.699134     1.452878     1.340309
H       3.421474     1.387729     3.763929
H      -0.733372     2.432508     3.419900
H      -0.431789     2.643186    -1.544111
N      -0.509523     2.533582     0.574378
C      -1.909987     2.845064     0.770958
H      -2.403558     2.859910    -0.201589
H      -2.383520     2.074752     1.388828
H      -2.032303     3.816995     1.260548
O       1.096809     1.899644     5.076380
C       2.193821     1.644563     5.930506
H       2.613846     0.645207     5.760905
H       2.983917     2.394820     5.803622
H       1.804470     1.701476     6.947774
N       1.812237    -0.137544    -2.571755
C       2.885152    -1.043559    -2.358236
O       4.013224    -0.644942    -2.478299
C       2.563517    -2.478562    -1.992992
H       3.230084    -2.720687    -1.161436
H       2.922972    -3.073020    -2.835703
C       1.106464    -2.801802    -1.639834
H       0.917042    -3.869820    -1.779069
H       0.930090    -2.594954    -0.583529
C       0.108444    -1.990663    -2.463219
C      -1.316358    -1.786096    -1.843572
H      -1.991078    -2.575457    -2.177430
C       2.530364     2.010449    -1.511631
H       3.398549     1.500468    -1.085671
H       2.882561     3.005069    -1.810400
C       2.132169     1.287215    -2.795853
H       1.256974     1.741759    -3.259364
H       2.957918     1.310217    -3.507152
C      -0.117036    -2.514478    -3.914132
H      -0.555774    -3.512760    -3.807931
H      -0.892930    -1.881536    -4.355182
C       1.084908    -2.582207    -4.854651
H       1.791355    -3.368129    -4.578642
H       0.734537    -2.809643    -5.865049
H       1.627293    -1.632844    -4.911847
O      -1.309644    -1.929517    -0.414143
C      -0.904389    -0.791645     0.333524
H       0.176096    -0.606288     0.239640
H      -1.416186     0.100257    -0.039133
C      -1.260998    -1.012960     1.778019
C      -2.597497    -1.194472     2.133597
C      -0.287317    -1.018125     2.768126
C      -2.952079    -1.379854     3.461414
H      -3.354249    -1.195649     1.354311
C      -0.639947    -1.200490     4.101738
H       0.753140    -0.859605     2.499511
C      -1.970905    -1.381584     4.450413
H      -3.994341    -1.523151     3.729800
H       0.127952    -1.190435     4.868872
H      -2.246886    -1.523226     5.490680
C       0.546763    -0.563337    -2.550065
O      -0.411236     0.256393    -2.610390
C      -1.670719    -0.460115    -2.409120
C      -2.761383     0.393825    -2.179412
O      -2.797332     1.617671    -2.285377
O      -3.864046    -0.330191    -1.803334
C      -5.033084     0.443897    -1.563006
H      -5.321044     1.006310    -2.455037
H      -5.815384    -0.269786    -1.299790
H      -4.876578     1.149115    -0.740921
72
     -1725.755083     -1725.222854   8.91  10.47
C       1.334735     0.135241    -3.251853
C       0.254455     1.028668    -3.131594
C      -0.584335     1.213657    -4.240201
C      -0.333399     0.525121    -5.404689
C       0.760819    -0.362782    -5.501162
C       1.611998    -0.571232    -4.430639
C       1.337349     0.947096    -1.174004
C       0.273350     1.544461    -1.786816
H      -1.432426     1.889913    -4.187786
H      -0.964293     0.645669    -6.278247
H       2.456947    -1.245120    -4.484929
H       1.712079     1.014118    -0.164340
N       1.982840     0.095839    -2.048797
C       3.135869    -0.714115    -1.717218
H       2.960043    -1.753932    -2.004288
H       4.035651    -0.348230    -2.223754
H       3.283279    -0.679123    -0.637377
O       0.892075    -0.976194    -6.714644
C       1.970774    -1.872902    -6.883701
H       1.898301    -2.248526    -7.904965
H       2.935901    -1.367772    -6.752082
H       1.904421    -2.715506    -6.183763
N      -1.244954     2.613031     1.200525
C      -2.538522     3.171910     1.384635
O      -2.884467     4.080575     0.677537
C      -3.417124     2.609265     2.481795
H      -4.424356     2.577653     2.060765
H      -3.443522     3.386103     3.249511
C      -3.023581     1.243347     3.056595
H      -3.501110     1.097983     4.029945
H      -3.395012     0.456225     2.400866
C      -1.509396     1.073835     3.189282
C      -0.952710    -0.381232     3.165253
H      -0.876430    -0.806328     4.171893
C      -0.706541     2.560014    -1.264539
H      -1.718791     2.137588    -1.247633
H      -0.751962     3.390764    -1.977175
C      -0.398879     3.157070     0.115833
H       0.639012     2.994322     0.402623
H      -0.589599     4.228765     0.115990
C      -0.879952     1.772350     4.431463
H      -1.288532     1.255022     5.306759
H       0.189987     1.544391     4.412166
C      -1.077233     3.278373     4.594745
H      -0.443143     3.635115     5.410965
H      -0.790147     3.838644     3.698907
H      -2.105555     3.540987     4.853456
O      -1.885550    -1.167424     2.400207
C      -1.428445    -2.473493     2.086847
H      -0.746705    -2.840739     2.861079
H      -2.319831    -3.111913     2.095401
C      -0.767451    -2.572509     0.728609
C      -1.191637    -1.777642    -0.334184
C       0.221745    -3.525096     0.504233
C      -0.652790    -1.948564    -1.601777
H      -1.952790    -1.022642    -0.165539
C       0.764578    -3.698159    -0.764207
H       0.570172    -4.138610     1.330373
C       0.321308    -2.915149    -1.821993
H      -0.988302    -1.320578    -2.419867
H       1.531665    -4.450320    -0.925136
H       0.737410    -3.044954    -2.816293
C      -0.827606     1.598554     1.960312
O       0.231589     0.977068     1.666602
C       0.374443    -0.165560     2.553004
C       1.563953    -0.876737     2.396097
O       2.509689    -0.605668     1.658999
O       1.594824    -1.972591     3.231205
C       2.787945    -2.743663     3.148417
H       2.659078    -3.572146     3.847379
H       2.939400    -3.124367     2.134218
H       3.659402    -2.147220     3.430701
72
     -1725.755847     -1725.222840   8.43  10.48
C      -0.825791    -3.266892    -0.520255
C       0.329326    -2.933917    -1.262363
C       0.449611    -3.428762    -2.560336
C      -0.550309    -4.225649    -3.093969
C      -1.687016    -4.548074    -2.327306
C      -1.835292    -4.077465    -1.031997
C       0.455229    -1.946717     0.742945
C       1.143255    -2.084761    -0.427133
H       1.319684    -3.191819    -3.165577
H      -0.444092    -4.598738    -4.104230
H      -2.719008    -4.344525    -0.464101
H       0.674555    -1.383091     1.636969
N      -0.734318    -2.646398     0.695344
C      -1.711758    -2.696950     1.762000
H      -2.708845    -2.495836     1.363441
H      -1.712162    -3.675741     2.254225
H      -1.471681    -1.919902     2.488686
O      -2.709625    -5.330125    -2.788563
C      -2.604918    -5.862947    -4.093604
H      -1.724947    -6.510222    -4.193640
H      -3.506603    -6.456257    -4.250909
H      -2.558928    -5.069570    -4.849831
N       3.066931     0.760473    -0.072999
C       3.940429     1.373305    -1.013756
O       4.803866     0.712413    -1.526060
C       3.738831     2.844479    -1.317587
H       3.926981     2.953242    -2.387560
H       4.558349     3.367446    -0.814134
C       2.373207     3.416951    -0.932881
H       2.389409     4.508340    -0.987734
H       1.615852     3.073818    -1.637677
C       1.978451     2.966622     0.477378
C       0.483474     3.117902     0.873554
H       0.309647     4.017770     1.475408
C       2.505046    -1.580948    -0.821581
H       2.451164    -1.052102    -1.780878
H       3.151728    -2.447535    -1.003791
C       3.229302    -0.686237     0.189797
H       2.891492    -0.871839     1.208793
H       4.302439    -0.863821     0.147029
C       2.910341     3.608125     1.542581
H       3.948505     3.392799     1.269221
H       2.784150     4.692425     1.442719
C       2.688114     3.194645     2.997029
H       2.801089     2.115412     3.137855
H       3.430060     3.690077     3.630355
H       1.696416     3.472569     3.357366
O      -0.255584     3.251194    -0.355852
C      -1.660826     3.140752    -0.203928
H      -1.977554     3.530458     0.769389
H      -2.093916     3.783118    -0.979661
C      -2.180347     1.730636    -0.387425
C      -1.574080     0.854247    -1.285714
C      -3.327388     1.319616     0.284376
C      -2.117152    -0.400698    -1.522431
H      -0.671202     1.160998    -1.803595
C      -3.877002     0.064731     0.045685
H      -3.796111     1.988811     1.000520
C      -3.277233    -0.794941    -0.865144
H      -1.631558    -1.077818    -2.217624
H      -4.778459    -0.238466     0.570737
H      -3.701289    -1.774820    -1.059366
C       2.114927     1.474282     0.534471
O       1.218341     0.902091     1.212245
C       0.248180     1.883246     1.650260
C      -0.643119     1.430912     2.618857
O      -0.701471     0.311272     3.125301
O      -1.507415     2.436961     2.998633
C      -2.474367     2.049605     3.967594
H      -1.993815     1.725606     4.894371
H      -3.086127     2.934663     4.152241
H      -3.097067     1.231569     3.593813
72
     -1725.747327     -1725.222825  13.78  10.48
C       3.446392    -4.266220    -0.593498
C       2.766662    -3.216896    -1.247653
C       2.348834    -3.407459    -2.565572
C       2.604716    -4.613547    -3.196796
C       3.283455    -5.645704    -2.520242
C       3.713345    -5.486041    -1.211925
C       3.280151    -2.551611     0.829931
C       2.674147    -2.124463    -0.310142
H       1.825315    -2.620915    -3.101582
H       2.276986    -4.752492    -4.218698
H       4.233539    -6.298431    -0.717846
H       3.419822    -2.029483     1.767701
N       3.753714    -3.843117     0.676439
C       4.455066    -4.619376     1.671620
H       3.906265    -5.535857     1.912992
H       5.457808    -4.889731     1.324025
H       4.553053    -4.025422     2.581745
O       3.565443    -6.857718    -3.086955
C       3.151311    -7.084952    -4.419419
H       3.471531    -8.098013    -4.666108
H       2.060982    -7.017123    -4.518900
H       3.623242    -6.378639    -5.113465
N      -0.173228     0.273905    -1.023984
C      -0.474877     0.491560    -2.396043
O      -0.144348    -0.329579    -3.209220
C      -1.207066     1.769517    -2.753676
H      -1.926157     1.497146    -3.529126
H      -0.466923     2.416963    -3.237563
C      -1.877079     2.474454    -1.574787
H      -2.246116     3.457314    -1.878108
H      -2.737320     1.898857    -1.228852
C      -0.875234     2.612566    -0.428903
C      -1.425400     2.946858     0.982293
H      -1.416562     4.024268     1.177964
C       2.001599    -0.811683    -0.553901
H       2.346480    -0.382398    -1.501924
H       2.253667    -0.103354     0.240621
C       0.481029    -0.982382    -0.615953
H       0.195426    -1.737713    -1.344791
H       0.081745    -1.262602     0.358967
C       0.306086     3.586242    -0.769051
H      -0.029023     4.235471    -1.584990
H       0.456191     4.238835     0.094162
C       1.658643     2.958934    -1.123542
H       2.064701     2.390130    -0.282075
H       1.615732     2.306509    -2.001807
H       2.374228     3.754272    -1.349129
O      -2.768322     2.461469     1.036278
C      -3.349371     2.593559     2.322977
H      -2.819131     1.954985     3.038380
H      -3.243742     3.634075     2.669092
C      -4.807342     2.220811     2.242558
C      -5.363201     1.335573     3.159431
C      -5.624820     2.778532     1.260135
C      -6.716374     1.015180     3.105486
H      -4.730640     0.888420     3.921388
C      -6.973343     2.458460     1.200416
H      -5.194297     3.464025     0.536671
C      -7.524097     1.576534     2.126044
H      -7.137098     0.323430     3.828803
H      -7.599099     2.898165     0.429763
H      -8.579597     1.327314     2.080247
C      -0.329463     1.250373    -0.129520
O      -0.039140     1.052640     1.083276
C      -0.476293     2.227046     1.878485
C       0.615943     2.788395     2.576125
O       1.733584     2.312464     2.735421
O       0.265290     4.003908     3.120011
C       1.297872     4.639918     3.864459
H       2.171445     4.839168     3.237374
H       0.872968     5.577297     4.227524
H       1.610296     4.017386     4.706938
72
     -1725.755083     -1725.222823   8.91  10.49
C      -2.088557     2.348844     1.579493
C      -1.000715     2.027333     2.411901
C      -1.213737     1.975164     3.797072
C      -2.466514     2.236583     4.302336
C      -3.541163     2.561689     3.445350
C      -3.371111     2.624885     2.073830
C      -0.313563     1.971097     0.282080
C       0.135363     1.789809     1.558824
H      -0.402409     1.725458     4.474363
H      -2.663080     2.202825     5.368116
H      -4.180672     2.874416     1.400514
H       0.181258     1.871396    -0.671621
N      -1.652669     2.307764     0.284404
C      -2.448754     2.546459    -0.900803
H      -2.714725     3.605184    -0.992531
H      -1.871522     2.236677    -1.772500
H      -3.362896     1.948366    -0.866491
O      -4.726287     2.799192     4.081843
C      -5.843287     3.136545     3.285127
H      -5.669930     4.063594     2.724339
H      -6.093027     2.330222     2.583867
H      -6.676096     3.283690     3.973679
N       3.070890     0.096110     0.617512
C       3.998255    -0.593425     1.444608
O       4.420788    -0.043772     2.426794
C       4.429982    -1.986315     1.037488
H       4.477943    -2.559272     1.966038
H       5.465166    -1.876169     0.706088
C       3.564623    -2.706683    -0.003307
H       4.131857    -3.525012    -0.456254
H       2.703480    -3.154424     0.492135
C       3.047886    -1.766126    -1.092990
C       1.733980    -2.177801    -1.822256
H       1.934099    -2.769435    -2.722123
C       1.509277     1.447345     2.068125
H       1.495802     0.472981     2.571923
H       1.776976     2.171048     2.845719
C       2.641014     1.449870     1.030932
H       2.358561     1.989382     0.128107
H       3.532529     1.918119     1.444260
C       4.084935    -1.419565    -2.202744
H       4.287576    -2.359005    -2.729145
H       3.573545    -0.770327    -2.919733
C       5.406505    -0.776797    -1.785636
H       6.063959    -1.473074    -1.259994
H       5.941899    -0.448206    -2.680583
H       5.262657     0.107786    -1.156610
O       0.982952    -2.984376    -0.895407
C      -0.344030    -3.267169    -1.310354
H      -0.409559    -3.296496    -2.403019
H      -0.566530    -4.272873    -0.934495
C      -1.368837    -2.299480    -0.758202
C      -2.532236    -2.034861    -1.474283
C      -1.207811    -1.727314     0.501947
C      -3.529511    -1.230256    -0.934283
H      -2.659655    -2.463725    -2.464306
C      -2.201730    -0.924658     1.044393
H      -0.297767    -1.916947     1.062020
C      -3.369171    -0.680523     0.330859
H      -4.434962    -1.037956    -1.502830
H      -2.062488    -0.481524     2.024422
H      -4.143507    -0.053285     0.761670
C       2.573636    -0.483123    -0.476937
O       1.608196     0.046659    -1.094741
C       1.163699    -0.853729    -2.145196
C       0.164537    -0.335972    -2.969151
O      -0.316015     0.795319    -2.947245
O      -0.237855    -1.269782    -3.899377
C      -1.244066    -0.813243    -4.796069
H      -1.465524    -1.656260    -5.453198
H      -2.144203    -0.509507    -4.253883
H      -0.887657     0.036650    -5.383884
72
     -1725.753005     -1725.222627  10.21  10.61
C       1.870366     2.173413    -1.424266
C       1.274122     1.540671    -2.536978
C       2.024398     1.409628    -3.706666
C       3.319293     1.890904    -3.753572
C       3.890480     2.514910    -2.625590
C       3.173849     2.663232    -1.448967
C      -0.198118     1.564334    -0.844699
C      -0.058219     1.159236    -2.138540
H       1.605303     0.925209    -4.582908
H       3.890137     1.778686    -4.665848
H       3.640564     3.143718    -0.597061
H      -1.040940     1.452965    -0.176467
N       0.955349     2.182649    -0.401311
C       1.154230     2.778414     0.900498
H       1.524567     3.802351     0.797323
H       0.201270     2.805972     1.425184
H       1.867303     2.203219     1.500386
O       5.163018     3.009356    -2.603768
C       5.948302     2.886682    -3.773733
H       5.495630     3.419371    -4.618864
H       6.912127     3.339629    -3.538393
H       6.100361     1.835382    -4.046854
N       0.023971    -1.652265    -1.925383
C       1.460276    -1.686893    -1.829899
O       2.124850    -1.802240    -2.818195
C       1.965432    -1.494457    -0.421954
H       1.688082    -0.473439    -0.136506
H       3.052850    -1.562143    -0.447796
C       1.353794    -2.496590     0.567356
H       1.846056    -3.463144     0.433011
H       1.554955    -2.165032     1.586169
C      -0.162676    -2.665636     0.362575
C      -1.126878    -2.102140     1.433002
H      -1.283689    -2.786967     2.268404
C      -1.053959     0.363161    -2.925782
H      -1.216777     0.800526    -3.916656
H      -2.016218     0.376635    -2.409163
C      -0.610868    -1.100080    -3.131599
H      -1.463313    -1.731149    -3.391426
H       0.140468    -1.186555    -3.915372
C      -0.522561    -4.147117     0.031844
H      -1.576465    -4.193423    -0.257760
H       0.070044    -4.441108    -0.842718
C      -0.267257    -5.124858     1.179482
H      -0.928000    -4.930983     2.027989
H      -0.460272    -6.147933     0.844512
H       0.764937    -5.083818     1.538437
O      -0.515699    -0.884799     1.929985
C      -1.095843    -0.416477     3.146641
H      -2.038052    -0.940561     3.334445
H      -0.410312    -0.638191     3.974791
C      -1.362265     1.067116     3.093023
C      -0.706394     1.940181     3.954811
C      -2.305280     1.580378     2.200276
C      -0.978487     3.305193     3.928008
H       0.025414     1.549184     4.656452
C      -2.573217     2.942146     2.165495
H      -2.833245     0.907531     1.531708
C      -1.910311     3.809313     3.030346
H      -0.459588     3.973381     4.608215
H      -3.306537     3.329002     1.464511
H      -2.123979     4.873158     3.004349
C      -0.672908    -1.893115    -0.822855
O      -1.886030    -1.545740    -0.713229
C      -2.348992    -1.894794     0.627763
C      -3.682795    -1.569728     0.893797
O      -4.524145    -1.125014     0.122990
O      -3.986961    -1.843195     2.216494
C      -5.337911    -1.574163     2.575073
H      -6.027314    -2.168837     1.970298
H      -5.430126    -1.847820     3.627676
H      -5.579194    -0.516428     2.437455
72
     -1725.754146     -1725.222568   9.50  10.65
C       0.259421    -1.180024    -2.147345
C       0.952681    -2.169468    -1.424774
C       0.249877    -3.296309    -0.992778
C      -1.102521    -3.396971    -1.241338
C      -1.779529    -2.371168    -1.929329
C      -1.103289    -1.267572    -2.419198
C       2.376557    -0.512627    -1.922846
C       2.311699    -1.716017    -1.282651
H       0.747817    -4.086664    -0.439195
H      -1.644619    -4.251572    -0.861449
H      -1.641462    -0.495096    -2.952528
H       3.219753     0.153652    -2.051976
N       1.147414    -0.176551    -2.452613
C       0.834820     1.012693    -3.212495
H       0.000872     1.551156    -2.757149
H       1.707405     1.667916    -3.221263
H       0.577163     0.762752    -4.247001
O      -3.129743    -2.384414    -2.144560
C      -3.886999    -3.375265    -1.468604
H      -3.686659    -3.353806    -0.391503
H      -4.934350    -3.133705    -1.657119
H      -3.674044    -4.376770    -1.862022
N       2.841052    -0.938074     1.478471
C       3.962027    -0.066335     1.519365
O       5.064650    -0.534376     1.409952
C       3.720715     1.420942     1.674387
H       4.346457     1.893752     0.912760
H       4.168449     1.697373     2.630840
C       2.267183     1.883562     1.555544
H       2.151531     2.881101     1.989779
H       1.992270     1.959004     0.501544
C       1.300334     0.904379     2.216412
C      -0.191564     0.997235     1.772541
H      -0.754993     1.631604     2.462349
C       3.379442    -2.381895    -0.470344
H       4.350675    -1.917084    -0.654195
H       3.472782    -3.438998    -0.742945
C       3.071980    -2.325588     1.033723
H       2.170679    -2.887433     1.273382
H       3.905148    -2.719676     1.615814
C       1.293586     0.917082     3.775683
H       1.013386     1.934971     4.071172
H       0.466610     0.268237     4.080012
C       2.555960     0.497068     4.529076
H       2.313967     0.388645     5.589934
H       2.943860    -0.469419     4.191801
H       3.358165     1.234519     4.462168
O      -0.301916     1.555783     0.449457
C      -1.134447     2.703472     0.354238
H      -1.945438     2.631151     1.089594
H      -0.558741     3.616145     0.568106
C      -1.730257     2.773860    -1.027295
C      -2.575618     1.750656    -1.455577
C      -1.462058     3.836050    -1.882837
C      -3.140294     1.789144    -2.721642
H      -2.767261     0.914024    -0.792101
C      -2.026952     3.878238    -3.154944
H      -0.803080     4.636176    -1.556153
C      -2.865488     2.854456    -3.576191
H      -3.791844     0.982163    -3.044145
H      -1.810828     4.712043    -3.815642
H      -3.307796     2.885848    -4.567133
C       1.611509    -0.486342     1.748744
O       0.592377    -1.223269     1.628622
C      -0.601479    -0.419860     1.867028
C      -1.835758    -1.031852     1.625517
O      -2.108956    -2.212371     1.459659
O      -2.827457    -0.057925     1.634769
C      -4.138093    -0.547447     1.389227
H      -4.804836     0.312035     1.484429
H      -4.217692    -0.968679     0.381264
H      -4.414216    -1.318263     2.113526
72
     -1725.751014     -1725.222467  11.46  10.71
C      -3.482025     0.902188    -2.082918
C      -2.794611     1.664327    -1.115952
C      -3.321603     1.740841     0.174721
C      -4.497014     1.075445     0.473311
C      -5.168957     0.327255    -0.514331
C      -4.670154     0.229840    -1.804090
C      -1.644967     1.744809    -3.039900
C      -1.613540     2.191526    -1.752357
H      -2.802990     2.280811     0.960296
H      -4.888759     1.132946     1.480311
H      -5.207603    -0.354663    -2.541729
H      -0.943748     1.909553    -3.847117
N      -2.765380     0.961051    -3.252866
C      -3.161835     0.367684    -4.508916
H      -4.095897     0.806749    -4.875181
H      -2.379888     0.545858    -5.248539
H      -3.299277    -0.712954    -4.402364
O      -6.333153    -0.349385    -0.283313
C      -6.903210    -0.274556     1.008817
H      -7.151709     0.759081     1.278398
H      -7.818605    -0.866237     0.969250
H      -6.233122    -0.696207     1.768063
N       1.112204     1.210222    -1.448156
C       1.498965     0.547576    -2.646882
O       1.559755     1.163768    -3.677410
C       1.840709    -0.927430    -2.560543
H       2.715449    -1.064874    -3.200125
H       1.019112    -1.453412    -3.056948
C       2.083014    -1.463354    -1.149841
H       2.110230    -2.555301    -1.155343
H       3.056710    -1.127475    -0.788159
C       0.980803    -0.972794    -0.207831
C       1.239945    -1.127223     1.323730
H       0.695616    -1.984991     1.717671
C      -0.568405     3.036787    -1.082284
H      -0.692854     2.957210    -0.000751
H      -0.697006     4.097074    -1.327483
C       0.871963     2.668934    -1.458792
H       1.123501     2.995762    -2.465035
H       1.572092     3.128195    -0.757004
C      -0.398272    -1.568654    -0.621665
H      -0.661680    -1.180621    -1.611905
H      -0.244216    -2.648005    -0.739111
C      -1.568291    -1.311560     0.324170
H      -1.711611    -0.249584     0.521876
H      -2.492009    -1.679581    -0.132423
H      -1.440236    -1.820955     1.281394
O       2.617403    -1.450802     1.585566
C       3.489801    -0.353454     1.732375
H       3.341168     0.385777     0.927610
H       3.280625     0.174887     2.671153
C       4.926523    -0.817640     1.696097
C       5.271400    -2.143294     1.455696
C       5.940154     0.120775     1.894444
C       6.609939    -2.523526     1.412678
H       4.489434    -2.878383     1.308383
C       7.274092    -0.257416     1.852445
H       5.678607     1.159017     2.084988
C       7.613567    -1.585194     1.609633
H       6.866015    -3.561930     1.225237
H       8.051538     0.484080     2.008989
H       8.656348    -1.884498     1.575937
C       0.916007     0.516264    -0.322842
O       0.712545     1.122828     0.764859
C       0.729526     0.153102     1.872906
C      -0.309587     0.392963     2.789495
O      -1.057094     1.364125     2.839057
O      -0.406201    -0.638185     3.692610
C      -1.436407    -0.480407     4.660735
H      -2.416902    -0.400492     4.182173
H      -1.395258    -1.370213     5.290959
H      -1.270684     0.415939     5.264082
72
     -1725.751671     -1725.222169  11.05  10.90
C       1.082295     2.009840    -2.839095
C       1.384600     2.954116    -1.833020
C       1.057743     4.292374    -2.057722
C       0.448836     4.663896    -3.241771
C       0.153368     3.699326    -4.226800
C       0.465374     2.362202    -4.037110
C       2.016297     0.921327    -1.126445
C       1.987185     2.228544    -0.742288
H       1.269500     5.048503    -1.308419
H       0.198496     5.704418    -3.401259
H       0.221720     1.643670    -4.810940
H       2.361109     0.055732    -0.576304
N       1.481290     0.774041    -2.392583
C       1.345127    -0.468138    -3.117544
H       0.299925    -0.792158    -3.164091
H       1.732283    -0.360577    -4.134791
H       1.925800    -1.237612    -2.607799
O      -0.448539     3.997980    -5.414386
C      -0.794389     5.346006    -5.670330
H      -1.513319     5.722763    -4.932786
H       0.091185     5.992888    -5.678113
H      -1.255181     5.355798    -6.658731
N       0.010516     2.259674     1.251237
C      -1.064057     2.717256     0.408049
O      -1.320350     3.884978     0.348101
C      -1.706441     1.615763    -0.396189
H      -0.946113     1.281937    -1.111418
H      -2.533012     2.053482    -0.955795
C      -2.163250     0.434776     0.467838
H      -3.091736     0.709105     0.975779
H      -2.382840    -0.418245    -0.173230
C      -1.111656     0.029379     1.522596
C      -0.361131    -1.310515     1.324344
H      -0.864963    -2.141193     1.828143
C       2.381631     2.758664     0.602802
H       3.009760     3.650175     0.504719
H       2.975769     2.005303     1.123192
C       1.166780     3.141047     1.480931
H       1.429535     3.095902     2.539765
H       0.807810     4.144036     1.255617
C      -1.784418     0.099713     2.929868
H      -2.173421     1.119506     3.044009
H      -2.659701    -0.557598     2.868302
C      -0.960494    -0.272360     4.160131
H      -0.675302    -1.325907     4.156342
H      -0.047401     0.321268     4.253748
H      -1.564105    -0.095972     5.055904
O      -0.343847    -1.575668    -0.096332
C       0.214999    -2.845098    -0.396249
H       0.342964    -2.857633    -1.482745
H       1.203842    -2.941986     0.067836
C      -0.670627    -3.999684     0.023635
C      -2.025578    -3.999295    -0.306227
C      -0.147085    -5.078628     0.727136
C      -2.840663    -5.061730     0.058923
H      -2.441723    -3.157650    -0.852418
C      -0.959914    -6.147667     1.090617
H       0.902125    -5.073588     1.005727
C      -2.307791    -6.141593     0.757097
H      -3.894257    -5.049884    -0.202877
H      -0.538303    -6.983995     1.639624
H      -2.944029    -6.973768     1.041579
C       0.061674     0.965614     1.545218
O       1.148356     0.420789     1.899635
C       0.975478    -1.031539     1.906032
C       1.712354    -1.681273     2.906941
O       2.574074    -1.213291     3.639554
O       1.353020    -3.013540     2.974649
C       2.056550    -3.766198     3.955519
H       1.896059    -3.357100     4.956726
H       1.659756    -4.781648     3.897319
H       3.130448    -3.769055     3.750619
72
     -1725.748026     -1725.222128  13.34  10.92
C       3.332137     3.328580    -0.636990
C       3.642440     2.191164     0.145808
C       4.558746     2.334049     1.187597
C       5.141815     3.566210     1.433468
C       4.815954     4.680099     0.635800
C       3.908769     4.575069    -0.407256
C       2.140202     1.606955    -1.415335
C       2.867034     1.098046    -0.380483
H       4.822408     1.485729     1.812389
H       5.850825     3.660578     2.245466
H       3.677998     5.449942    -1.004292
H       1.401218     1.132587    -2.049526
N       2.411222     2.950418    -1.579656
C       1.799394     3.805752    -2.571638
H       1.337489     4.677148    -2.097244
H       2.534504     4.150834    -3.306228
H       1.023063     3.236151    -3.084142
O       5.354974     5.924005     0.822482
C       6.286120     6.095278     1.871285
H       6.584610     7.144088     1.842638
H       5.837482     5.874789     2.847873
H       7.172405     5.464343     1.729801
N       0.779810    -1.591272     0.981519
C       0.982792    -2.801107     1.704649
O       1.905018    -2.878939     2.469609
C       0.002460    -3.933820     1.465651
H      -0.174734    -4.385250     2.443990
H       0.545272    -4.683824     0.879633
C      -1.303274    -3.528974     0.780432
H      -1.874813    -4.411681     0.491008
H      -1.931153    -2.968671     1.476432
C      -0.994829    -2.660004    -0.436286
C      -2.167672    -1.873515    -1.096624
H      -2.543777    -2.405174    -1.969909
C       2.754806    -0.298538     0.150759
H       3.706952    -0.649531     0.558948
H       2.509123    -0.970965    -0.677225
C       1.651492    -0.424060     1.227320
H       2.059638    -0.547231     2.227886
H       1.010384     0.456823     1.214128
C      -0.191510    -3.400020    -1.547031
H      -0.068191    -2.696250    -2.376370
H       0.815860    -3.631400    -1.182222
C      -0.857423    -4.681659    -2.047003
H      -0.303964    -5.080862    -2.901628
H      -0.877141    -5.459308    -1.277991
H      -1.885666    -4.504179    -2.373702
O      -3.303981    -1.798903    -0.218955
C      -3.293206    -0.738186     0.709109
H      -2.335337    -0.695812     1.255648
H      -3.390556     0.223285     0.189650
C      -4.405945    -0.911121     1.714943
C      -5.149507    -2.083446     1.800932
C      -4.675671     0.129230     2.604565
C      -6.146190    -2.212964     2.763862
H      -4.951912    -2.891884     1.107409
C      -5.669130     0.000976     3.564484
H      -4.100987     1.050264     2.541614
C      -6.408612    -1.174977     3.647513
H      -6.720827    -3.132526     2.819834
H      -5.867791     0.819341     4.249683
H      -7.186560    -1.278683     4.397265
C      -0.131042    -1.523918     0.008976
O      -0.334932    -0.439263    -0.609079
C      -1.509518    -0.602749    -1.476144
C      -1.422248     0.083172    -2.691899
O      -0.571318     0.898068    -3.048391
O      -2.474647    -0.253734    -3.509923
C      -2.488088     0.406639    -4.769325
H      -2.548771     1.491047    -4.642653
H      -1.589199     0.173873    -5.347222
H      -3.374289     0.039864    -5.289684
72
     -1725.748192     -1725.221997  13.23  11.00
C      -2.435908    -1.802250     3.594544
C      -1.044260    -1.665826     3.766646
C      -0.390538    -2.550604     4.637155
C      -1.116228    -3.516217     5.294809
C      -2.511530    -3.630215     5.107553
C      -3.193862    -2.778765     4.257360
C      -1.746565    -0.109277     2.311509
C      -0.624739    -0.568581     2.937225
H       0.681422    -2.480299     4.795964
H      -0.639824    -4.214445     5.973801
H      -4.262305    -2.850545     4.101535
H      -1.866833     0.675990     1.574981
N      -2.845866    -0.847711     2.700656
C      -4.193216    -0.642311     2.218047
H      -4.165912     0.122181     1.440578
H      -4.594775    -1.564183     1.785749
H      -4.856888    -0.308812     3.022644
O      -3.102101    -4.632332     5.825277
C      -4.496944    -4.805839     5.686460
H      -5.046135    -3.912096     6.008670
H      -4.770038    -5.044876     4.650845
H      -4.766061    -5.643671     6.330715
N       2.098799     0.170467     0.584800
C       3.508841     0.349935     0.645501
O       4.134834    -0.210671     1.503319
C       4.152809     1.234861    -0.405277
H       5.038548     0.692001    -0.743363
H       4.528548     2.110563     0.132387
C       3.256851     1.628327    -1.582888
H       3.703682     2.453839    -2.141670
H       3.170690     0.791221    -2.277813
C       1.865033     2.027626    -1.085910
C       0.727040     2.120065    -2.149297
H       0.542634     3.161060    -2.417727
C       0.768099    -0.074140     2.688196
H       1.397029    -0.186458     3.575807
H       0.730004     0.998550     2.473814
C       1.432130    -0.788518     1.488980
H       2.191726    -1.502054     1.800172
H       0.680502    -1.309877     0.897109
C       1.935926     3.328739    -0.236508
H       2.659682     3.177963     0.571749
H       2.361114     4.097093    -0.892308
C       0.624027     3.832868     0.363873
H       0.138922     3.079935     0.991537
H       0.827062     4.705740     0.991705
H      -0.090877     4.134254    -0.403699
O       1.126743     1.513386    -3.390294
C       0.882981     0.129260    -3.503277
H       1.212770    -0.409188    -2.599285
H      -0.194038    -0.060541    -3.594179
C       1.620217    -0.437882    -4.693046
C       2.479696     0.332483    -5.468897
C       1.443998    -1.785047    -5.011609
C       3.153708    -0.237044    -6.545683
H       2.615382     1.380846    -5.232219
C       2.114714    -2.353095    -6.084742
H       0.772066    -2.393780    -4.411076
C       2.975125    -1.577895    -6.856696
H       3.821074     0.375423    -7.144401
H       1.967126    -3.402567    -6.320375
H       3.501638    -2.019204    -7.697004
C       1.349902     0.919148    -0.227489
O       0.111175     0.694010    -0.344961
C      -0.423627     1.515702    -1.437639
C      -1.722357     1.980575    -1.208916
O      -2.495894     1.670091    -0.302981
O      -2.086930     2.883368    -2.179851
C      -3.404746     3.402717    -2.050452
H      -4.147408     2.601647    -2.097411
H      -3.528220     3.936793    -1.103985
H      -3.539642     4.088090    -2.888751
72
     -1725.746278     -1725.221978  14.43  11.02
C       2.933290    -5.195735    -0.522184
C       2.723393    -3.989005     0.177597
C       3.150947    -3.898674     1.503189
C       3.763856    -4.988524     2.099105
C       3.959497    -6.182797     1.378662
C       3.548232    -6.302232     0.060130
C       1.918020    -3.759617    -1.900649
C       2.069431    -3.080177    -0.732472
H       3.008571    -2.984260     2.072029
H       4.092215    -4.909867     3.127167
H       3.712899    -7.233981    -0.468397
H       1.472908    -3.434165    -2.831791
N       2.435268    -5.038855    -1.792397
C       2.456233    -6.041840    -2.830837
H       1.988984    -5.634141    -3.728734
H       3.483320    -6.332470    -3.075710
H       1.900136    -6.934510    -2.525545
O       4.556591    -7.292191     1.909944
C       4.994621    -7.236999     3.252985
H       4.160038    -7.054750     3.941124
H       5.430268    -8.213483     3.468336
H       5.757967    -6.462289     3.395808
N       0.131565    -0.383640     1.093626
C       0.921899     0.133261     2.159380
O       1.597981    -0.609635     2.818643
C       0.900330     1.638663     2.281440
H       1.481662     2.024706     1.435645
H       1.420630     1.898889     3.203615
C      -0.513009     2.227245     2.234249
H      -1.018238     2.003610     3.178470
H      -0.451750     3.313149     2.147073
C      -1.337715     1.660095     1.069607
C      -1.464219     2.486421    -0.229776
H      -2.265797     3.225924    -0.196303
C       1.621830    -1.691453    -0.402936
H       1.340783    -1.146245    -1.308825
H       2.442240    -1.139146     0.070080
C       0.429887    -1.720690     0.558280
H      -0.465972    -2.084888     0.054497
H       0.636192    -2.361094     1.414872
C      -2.746590     1.198127     1.550424
H      -3.256265     0.691316     0.726107
H      -2.602720     0.456419     2.345177
C      -3.621708     2.342206     2.065255
H      -3.848503     3.061990     1.274708
H      -4.573983     1.946430     2.429971
H      -3.150920     2.882517     2.891815
O      -0.194238     3.150043    -0.380439
C      -0.135004     3.963367    -1.544110
H       0.913047     4.264850    -1.630733
H      -0.401537     3.368080    -2.425157
C      -1.027288     5.180848    -1.444184
C      -2.013694     5.426151    -2.392604
C      -0.879238     6.067067    -0.377160
C      -2.834133     6.545434    -2.287106
H      -2.153987     4.725206    -3.209897
C      -1.696932     7.182293    -0.266411
H      -0.116272     5.874604     0.372096
C      -2.676632     7.425860    -1.225469
H      -3.600701     6.724754    -3.034697
H      -1.571378     7.864623     0.568696
H      -3.316544     8.298660    -1.140799
C      -0.708429     0.440729     0.462687
O      -1.050077     0.229825    -0.736691
C      -1.722001     1.439003    -1.249241
C      -2.903711     1.151101    -1.958020
O      -3.310752     0.064967    -2.346382
O      -3.598179     2.315946    -2.216024
C      -4.800501     2.135176    -2.953919
H      -5.500646     1.489494    -2.416558
H      -5.228829     3.131353    -3.080237
H      -4.596632     1.686949    -3.930098
72
     -1725.745439     -1725.221756  14.96  11.16
C       4.205731     2.727982    -1.254879
C       3.519948     2.065819    -0.214630
C       4.141568     1.947423     1.029157
C       5.408004     2.476473     1.214587
C       6.070866     3.132787     0.159163
C       5.479582     3.267435    -1.087443
C       2.225138     2.058032    -2.043364
C       2.246486     1.647411    -0.747050
H       3.643361     1.444317     1.853016
H       5.882270     2.380262     2.182478
H       6.014993     3.777110    -1.880028
H       1.451046     1.932026    -2.789475
N       3.399895     2.714772    -2.366755
C       3.729561     3.293564    -3.647812
H       3.896110     4.372451    -3.560395
H       4.628689     2.830565    -4.067983
H       2.900520     3.126496    -4.337355
O       7.320175     3.675662     0.278043
C       7.979958     3.568206     1.523717
H       8.141443     2.520115     1.804318
H       8.946078     4.058181     1.396452
H       7.421078     4.074783     2.320165
N       0.676142    -1.344150     0.973830
C       0.831489    -1.410343     2.384423
O       1.787276    -0.891496     2.897568
C      -0.231344    -2.160036     3.160703
H      -0.260303    -1.702193     4.150795
H       0.145340    -3.180454     3.299179
C      -1.605995    -2.166256     2.491091
H      -2.299005    -2.799590     3.050667
H      -2.022543    -1.158064     2.480907
C      -1.470018    -2.670494     1.054336
C      -2.628341    -2.357039     0.068915
H      -3.402842    -3.130798     0.066556
C       1.202628     0.865013    -0.015936
H       0.258820     0.879789    -0.568855
H       1.013829     1.308585     0.968546
C       1.652182    -0.585683     0.173062
H       1.752831    -1.085701    -0.790360
H       2.603114    -0.639236     0.699089
C      -1.113679    -4.194706     0.982340
H      -1.373828    -4.639525     1.948547
H      -1.774389    -4.651594     0.243516
C       0.328685    -4.558450     0.617591
H       1.062680    -4.172087     1.331730
H       0.433597    -5.646515     0.600092
H       0.592493    -4.191621    -0.379291
O      -3.201074    -1.115451     0.521402
C      -4.203230    -0.599148    -0.339981
H      -3.759661    -0.255005    -1.281529
H      -4.924380    -1.391229    -0.589125
C      -4.902428     0.540376     0.357366
C      -5.369595     0.387782     1.662373
C      -5.113999     1.748468    -0.297797
C      -6.038335     1.424526     2.296905
H      -5.201484    -0.550958     2.180957
C      -5.788003     2.789231     0.334110
H      -4.745172     1.880305    -1.311419
C      -6.251801     2.629112     1.632589
H      -6.396152     1.294192     3.313695
H      -5.947117     3.726654    -0.189948
H      -6.776379     3.439674     2.128622
C      -0.396113    -1.871641     0.377194
O      -0.589419    -1.698887    -0.858131
C      -1.883613    -2.293880    -1.206864
C      -2.221969    -2.171759    -2.563499
O      -1.520855    -1.773785    -3.483297
O      -3.511431    -2.619600    -2.773951
C      -3.929103    -2.584238    -4.133616
H      -4.952757    -2.962986    -4.144288
H      -3.898989    -1.565319    -4.529935
H      -3.288261    -3.215659    -4.754802
72
     -1725.752848     -1725.221423  10.31  11.36
C      -3.785392    -2.242462    -0.036278
C      -2.833810    -1.218014     0.142180
C      -2.188591    -0.695631    -0.979346
C      -2.475901    -1.204184    -2.232517
C      -3.420768    -2.237316    -2.383371
C      -4.091808    -2.767640    -1.290121
C      -3.654824    -1.783157     2.148956
C      -2.763407    -0.943357     1.555518
H      -1.462509     0.104478    -0.906836
H      -1.959169    -0.778051    -3.082009
H      -4.816582    -3.559369    -1.440472
H      -3.902628    -1.896980     3.196198
N      -4.283657    -2.573015     1.201740
C      -5.288993    -3.576673     1.457797
H      -6.223691    -3.335988     0.940525
H      -4.949397    -4.565061     1.130496
H      -5.487538    -3.616816     2.530141
O      -3.744634    -2.783668    -3.593680
C      -3.090471    -2.275026    -4.740632
H      -3.484548    -2.838545    -5.587419
H      -3.302126    -1.208518    -4.882594
H      -2.005139    -2.420434    -4.679775
N       0.654097     0.478166     2.302064
C       1.488762     0.449052     3.465434
O       1.092873    -0.080042     4.465387
C       2.875252     1.002985     3.247107
H       3.389222     0.262729     2.625172
H       3.371431     1.037820     4.217100
C       2.903648     2.364885     2.544906
H       2.651292     3.137620     3.276338
H       3.917767     2.568019     2.197153
C       1.923027     2.452572     1.365981
C       2.482681     2.317774    -0.077170
H       2.925730     3.235163    -0.465794
C      -1.806989     0.020070     2.188247
H      -2.064250     0.220290     3.232255
H      -1.846468     0.975872     1.652711
C      -0.386531    -0.547323     2.105074
H      -0.224343    -1.312208     2.862651
H      -0.208429    -0.991489     1.125935
C       1.016289     3.711665     1.492016
H       0.243370     3.669390     0.720146
H       0.511284     3.662166     2.464353
C       1.780636     5.030766     1.374389
H       2.590161     5.105965     2.106116
H       2.212636     5.156820     0.378557
H       1.101875     5.871428     1.544284
O       3.536424     1.314823     0.024693
C       3.582899     0.307527    -0.983832
H       3.253763     0.700915    -1.948445
H       4.640894     0.040475    -1.072343
C       2.784262    -0.924530    -0.604680
C       1.666621    -1.329648    -1.329161
C       3.164151    -1.669767     0.512611
C       0.938766    -2.451414    -0.942214
H       1.336988    -0.752408    -2.186861
C       2.440908    -2.787527     0.905591
H       4.048054    -1.374083     1.071869
C       1.323799    -3.182296     0.174736
H       0.057594    -2.739549    -1.507090
H       2.751372    -3.355269     1.777486
H       0.756245    -4.057573     0.476120
C       0.982872     1.280070     1.298267
O       0.499848     1.101366     0.137727
C       1.263941     1.924610    -0.799493
C       0.844740     1.890905    -2.126098
O      -0.140405     1.327516    -2.602642
O       1.714228     2.611173    -2.919831
C       1.353661     2.667615    -4.294558
H       0.373059     3.134057    -4.423048
H       2.122066     3.270769    -4.781150
H       1.323810     1.667515    -4.736563
72
     -1725.745576     -1725.220517  14.87  11.93
C       2.468805     2.043769    -4.867044
C       1.862382     2.424415    -3.658502
C       2.091679     3.719197    -3.166703
C       2.903062     4.572072    -3.878091
C       3.504264     4.166760    -5.090660
C       3.299100     2.900236    -5.606887
C       1.268094     0.314817    -4.120519
C       1.092813     1.297513    -3.195707
H       1.637087     4.049150    -2.237214
H       3.103768     5.579192    -3.530287
H       3.751323     2.574188    -6.534046
H       0.862555    -0.688031    -4.144997
N       2.097102     0.750404    -5.139034
C       2.500157    -0.018663    -6.293097
H       3.588629    -0.134302    -6.328335
H       2.050628    -1.011026    -6.232367
H       2.164001     0.456846    -7.220637
O       4.282886     5.119227    -5.683640
C       4.920105     4.787597    -6.900423
H       4.189558     4.544469    -7.682199
H       5.484084     5.671681    -7.199609
H       5.611255     3.944781    -6.774090
N       0.487618     1.329954     0.547053
C       0.197204     2.631901     1.026962
O       0.661349     3.587075     0.461451
C      -0.698467     2.748643     2.242889
H      -1.306226     3.640916     2.078873
H      -0.040024     2.982811     3.085728
C      -1.569521     1.523812     2.528209
H      -2.034373     1.623542     3.512575
H      -2.374703     1.459484     1.793586
C      -0.739356     0.238483     2.459515
C      -1.522872    -1.108171     2.324461
H      -1.580440    -1.630353     3.284101
C       0.307184     1.238898    -1.923541
H      -0.343702     0.359257    -1.910537
H      -0.334312     2.123701    -1.839252
C       1.241423     1.191398    -0.711847
H       1.781352     0.245582    -0.675122
H       1.960965     2.007295    -0.740137
C       0.287686     0.179015     3.623206
H       0.893440     1.091210     3.599180
H      -0.296252     0.221411     4.550545
C       1.220532    -1.031189     3.660546
H       1.791158    -1.143646     2.734265
H       1.936711    -0.908580     4.478804
H       0.677701    -1.962375     3.831688
O      -2.863376    -0.859201     1.858186
C      -3.854204    -0.928544     2.865365
H      -3.598478    -0.284230     3.720184
H      -4.760879    -0.517493     2.408091
C      -4.126922    -2.334170     3.363338
C      -4.532885    -2.544750     4.678870
C      -4.009760    -3.424620     2.505396
C      -4.828370    -3.825482     5.131847
H      -4.617951    -1.700286     5.358738
C      -4.300567    -4.705049     2.958337
H      -3.670854    -3.266299     1.488150
C      -4.713795    -4.909742     4.270303
H      -5.145825    -3.975543     6.159123
H      -4.201600    -5.549051     2.282209
H      -4.942370    -5.911476     4.620811
C      -0.012200     0.242676     1.148939
O       0.074780    -0.884601     0.589604
C      -0.709622    -1.862272     1.346613
C      -0.080002    -3.113647     1.446867
O       0.908536    -3.516319     0.847530
O      -0.748276    -3.906517     2.355277
C      -0.239597    -5.226981     2.483861
H      -0.262475    -5.749449     1.523607
H       0.791252    -5.221498     2.849514
H      -0.891971    -5.729819     3.200133
72
     -1725.747971     -1725.220503  13.37  11.94
C      -0.678592     1.515584    -5.031941
C      -0.385624     0.952438    -3.779633
C      -1.324965     1.085369    -2.742769
C      -2.494564     1.766385    -2.983318
C      -2.765375     2.328989    -4.250244
C      -1.866780     2.214216    -5.296339
C       1.321207     0.529001    -5.170261
C       0.905579     0.322212    -3.890262
H      -1.159022     0.664178    -1.755796
H      -3.235451     1.881566    -2.201014
H      -2.058759     2.636957    -6.273459
H       2.235665     0.216806    -5.657197
N       0.374100     1.249617    -5.874340
C       0.466699     1.649115    -7.258721
H       0.428020     2.739176    -7.356719
H       1.417082     1.300472    -7.666054
H      -0.344516     1.211400    -7.850153
O      -3.964387     2.976831    -4.342171
C      -4.301957     3.564895    -5.581028
H      -4.364889     2.813035    -6.377902
H      -5.281438     4.024471    -5.443715
H      -3.577951     4.337854    -5.868451
N       2.527586    -0.028622    -0.497362
C       3.873920    -0.364451    -0.194580
O       4.701655    -0.377909    -1.064382
C       4.129074    -0.569173     1.280861
H       4.016881     0.415501     1.750160
H       5.165553    -0.886359     1.395900
C       3.155833    -1.560850     1.931404
H       3.463364    -2.576949     1.670395
H       3.219688    -1.470850     3.015484
C       1.696612    -1.340260     1.480966
C       0.702217    -0.738569     2.502720
H       0.201154    -1.502615     3.105539
C       1.629185    -0.372699    -2.780582
H       2.454172    -0.981725    -3.161329
H       0.937731    -1.051871    -2.267129
C       2.173727     0.634865    -1.761896
H       3.071449     1.127158    -2.134025
H       1.425396     1.394640    -1.534666
C       1.171789    -2.679698     0.870458
H       1.858870    -2.944474     0.056346
H       1.320353    -3.435001     1.650812
C      -0.267933    -2.756573     0.368338
H      -0.502972    -1.988995    -0.373026
H      -0.425449    -3.732528    -0.101717
H      -0.987747    -2.661587     1.182821
O       1.492768     0.110737     3.359307
C       0.717213     0.775734     4.345523
H       1.386647     1.525129     4.779217
H      -0.122833     1.297215     3.872118
C       0.210652    -0.157007     5.424808
C      -1.123041    -0.135606     5.817701
C       1.084497    -1.048726     6.046468
C      -1.579053    -0.983552     6.821992
H      -1.813444     0.539443     5.321280
C       0.632571    -1.899242     7.045662
H       2.126470    -1.073692     5.740449
C      -0.702489    -1.866560     7.438371
H      -2.622999    -0.955913     7.119065
H       1.322886    -2.589029     7.521593
H      -1.056720    -2.530248     8.220985
C       1.585371    -0.296360     0.410922
O       0.487722     0.332263     0.413709
C      -0.243759    -0.003579     1.631664
C      -1.630275    -0.040607     1.475631
O      -2.295098     0.288073     0.497410
O      -2.229410    -0.511941     2.626288
C      -3.649226    -0.563604     2.580786
H      -3.966351    -0.936949     3.556352
H      -4.072411     0.428625     2.402056
H      -3.995875    -1.235578     1.790617
72
     -1725.744821     -1725.220352  15.35  12.04
C      -0.332514     4.985720    -2.199727
C      -0.934051     4.043741    -1.338400
C      -2.326618     4.006017    -1.254348
C      -3.082286     4.883920    -2.013738
C      -2.456557     5.813562    -2.867010
C      -1.075624     5.877273    -2.970817
C       1.291615     3.812652    -1.209897
C       0.133236     3.302807    -0.711806
H      -2.825006     3.296024    -0.600488
H      -4.161413     4.847426    -1.942071
H      -0.623183     6.603562    -3.635984
H       2.313491     3.528255    -0.994668
N       1.029095     4.831298    -2.109163
C       2.010162     5.607740    -2.830059
H       1.884358     5.492080    -3.911783
H       1.932911     6.670552    -2.577390
H       3.008137     5.259521    -2.559056
O      -3.145275     6.705281    -3.641597
C      -4.557749     6.688912    -3.584371
H      -4.896356     7.466039    -4.270725
H      -4.962228     5.721649    -3.907022
H      -4.922252     6.915755    -2.574929
N      -0.868383    -0.144344     0.508571
C      -2.200584    -0.344131     0.956692
O      -3.056749     0.433355     0.628227
C      -2.479490    -1.561869     1.818808
H      -3.370425    -2.027100     1.389543
H      -2.789966    -1.171540     2.792463
C      -1.331854    -2.568409     1.945166
H      -1.511953    -3.247070     2.782025
H      -1.280758    -3.186798     1.047289
C       0.000365    -1.838138     2.141339
C       1.308142    -2.668554     1.948857
H       1.739082    -2.927663     2.916754
C      -0.028967     2.171379     0.252014
H      -0.723533     2.451125     1.053104
H       0.932583     1.931872     0.716341
C      -0.571781     0.928345    -0.457998
H      -1.499693     1.144438    -0.982720
H       0.156531     0.542722    -1.172229
C       0.016393    -1.078680     3.497831
H      -0.858161    -0.420427     3.539371
H      -0.130986    -1.838009     4.274495
C       1.266011    -0.256280     3.809133
H       2.152010    -0.883033     3.924961
H       1.480542     0.482400     3.031364
H       1.117389     0.284762     4.748580
O       1.020906    -3.946245     1.351126
C       1.029607    -3.981927    -0.057963
H       0.477100    -3.127893    -0.482613
H       2.056828    -3.894651    -0.433838
C       0.393311    -5.259004    -0.553516
C      -0.156620    -6.198039     0.312399
C       0.345116    -5.495544    -1.928005
C      -0.746981    -7.354741    -0.189344
H      -0.116312    -6.024275     1.380879
C      -0.242202    -6.648106    -2.428797
H       0.774385    -4.766969    -2.611829
C      -0.792541    -7.583640    -1.557533
H      -1.171747    -8.080568     0.497484
H      -0.271700    -6.818082    -3.500693
H      -1.253043    -8.486498    -1.945972
C       0.138999    -0.851097     1.030167
O       1.304514    -0.735242     0.562870
C       2.180093    -1.742391     1.185184
C       3.434246    -1.197016     1.521761
O       3.886299    -0.104610     1.202745
O       4.152871    -2.082079     2.291485
C       5.448399    -1.625477     2.662399
H       5.389587    -0.705095     3.250275
H       5.889668    -2.426066     3.258332
H       6.061557    -1.432877     1.778062
72
     -1725.745831     -1725.219447  14.72  12.60
C      -0.691432     4.547248     0.659045
C      -0.444231     3.739616     1.786784
C      -1.013664     4.114576     3.012723
C      -1.788149     5.249035     3.082885
C      -2.018265     6.043717     1.938226
C      -1.476227     5.708448     0.710466
C       0.600732     2.843587     0.015166
C       0.392760     2.655089     1.350073
H      -0.848972     3.518292     3.905272
H      -2.241756     5.564934     4.015599
H      -1.640919     6.305075    -0.177173
H       1.137361     2.235520    -0.702775
N      -0.049986     3.982854    -0.412693
C      -0.057595     4.468365    -1.774647
H       0.448292     3.733990    -2.402715
H      -1.083350     4.588420    -2.137070
H       0.463089     5.428098    -1.857499
O      -2.804010     7.140778     2.155452
C      -3.077273     7.981603     1.053954
H      -3.612295     7.442995     0.261572
H      -3.710842     8.784566     1.432491
H      -2.156687     8.412811     0.640695
N       0.506740    -0.987897     1.824403
C       0.739624    -1.908145     2.882305
O       0.487846    -1.579608     4.009808
C       1.281527    -3.279276     2.530066
H       0.626912    -3.987160     3.045076
H       2.242656    -3.347889     3.042764
C       1.392976    -3.626606     1.039342
H       2.126154    -4.424690     0.895029
H       0.438573    -4.019364     0.685583
C       1.767252    -2.419235     0.181094
C       1.392264    -2.477025    -1.339414
H       2.243047    -2.828118    -1.923484
C       0.861879     1.469480     2.137295
H       1.070783     1.734914     3.177647
H       1.808136     1.121302     1.711797
C      -0.154613     0.305743     2.092366
H      -0.694871     0.189550     3.028976
H      -0.872983     0.465337     1.288731
C       3.271029    -2.011769     0.239665
H       3.827527    -2.848292    -0.196815
H       3.393966    -1.169549    -0.448776
C       3.875627    -1.651247     1.596316
H       3.289124    -0.900381     2.135654
H       3.998340    -2.521498     2.244621
H       4.871538    -1.226653     1.442498
O       0.367258    -3.448941    -1.601628
C      -0.957269    -3.013443    -1.394095
H      -1.082028    -2.585052    -0.384030
H      -1.209257    -2.213150    -2.101121
C      -1.916586    -4.170270    -1.538804
C      -1.477933    -5.487179    -1.627927
C      -3.287019    -3.909505    -1.553547
C      -2.397430    -6.527218    -1.728177
H      -0.415038    -5.696438    -1.626135
C      -4.204072    -4.945783    -1.653706
H      -3.637733    -2.882300    -1.487574
C      -3.759991    -6.261757    -1.740393
H      -2.042728    -7.550998    -1.798603
H      -5.267527    -4.727563    -1.664261
H      -4.474719    -7.074828    -1.818835
C       0.955030    -1.235646     0.593273
O       0.676100    -0.442561    -0.354038
C       1.072894    -1.060249    -1.621970
C       1.491661    -0.158794    -2.603374
O       1.451617     1.071534    -2.575569
O       1.978562    -0.833288    -3.698600
C       2.418423    -0.001949    -4.765152
H       2.765207    -0.678434    -5.547975
H       1.600882     0.619536    -5.140833
H       3.234065     0.652733    -4.445308
72
     -1725.746349     -1725.218454  14.39  13.23
C       0.854028    -3.262982    -2.907188
C       0.459269    -1.910607    -2.971660
C      -0.839591    -1.610544    -3.387732
C      -1.697502    -2.636631    -3.741907
C      -1.271283    -3.979052    -3.686611
C       0.007383    -4.309775    -3.265846
C       2.563525    -2.004477    -2.202690
C       1.574689    -1.120715    -2.514968
H      -1.198289    -0.586172    -3.408534
H      -2.703196    -2.392414    -4.057552
H       0.303943    -5.351542    -3.226886
H       3.554831    -1.824392    -1.809628
N       2.142955    -3.302611    -2.434921
C       2.932844    -4.497868    -2.251483
H       2.438223    -5.189921    -1.562450
H       3.100502    -5.009632    -3.205097
H       3.900453    -4.222114    -1.829743
O      -2.068118    -5.035712    -4.027997
C      -3.383130    -4.763343    -4.470959
H      -3.832546    -5.731647    -4.694931
H      -3.973362    -4.262439    -3.693847
H      -3.381620    -4.146977    -5.378230
N       1.754073     0.376204     0.090845
C       2.607163    -0.381411     0.946510
O       3.718018    -0.662426     0.586149
C       2.052685    -0.778484     2.300237
H       2.905996    -0.785733     2.981033
H       1.719595    -1.818424     2.208343
C       0.919740     0.115593     2.801945
H       0.500111    -0.281766     3.728745
H       1.300175     1.114213     3.029719
C      -0.161218     0.201182     1.726332
C      -1.224068     1.342078     1.854116
H      -2.124293     0.966330     2.337965
C       1.593042     0.376249    -2.421573
H       0.567948     0.748430    -2.465249
H       2.112351     0.816239    -3.281178
C       2.283067     0.930900    -1.175373
H       3.347569     0.707351    -1.168642
H       2.154270     2.015156    -1.134050
C      -0.911502    -1.161905     1.532447
H      -0.769285    -1.743249     2.449990
H      -1.980446    -0.943495     1.475550
C      -0.542107    -1.999579     0.309699
H      -1.126536    -2.923668     0.312966
H      -0.781210    -1.473042    -0.616172
H       0.513657    -2.285049     0.271242
O      -0.773736     2.392539     2.721832
C       0.011602     3.399534     2.126199
H       0.899957     2.970858     1.628871
H      -0.561753     3.913108     1.344443
C       0.483701     4.378221     3.174385
C       0.384687     4.105909     4.534929
C       1.068092     5.576248     2.763611
C       0.865638     5.017969     5.469477
H      -0.077003     3.181833     4.861365
C       1.547957     6.486197     3.694872
H       1.144755     5.798601     1.702016
C       1.448741     6.207700     5.054491
H       0.781170     4.794789     6.528724
H       2.000064     7.414818     3.360228
H       1.822983     6.917281     5.785615
C       0.492152     0.628726     0.446391
O      -0.228533     1.360064    -0.289664
C      -1.477467     1.692365     0.432819
C      -2.607717     1.375957    -0.351058
O      -2.634017     1.073701    -1.538934
O      -3.756762     1.464777     0.395230
C      -4.953459     1.183341    -0.321077
H      -4.946672     0.162847    -0.714421
H      -5.767460     1.305475     0.395315
H      -5.079722     1.877017    -1.156401
72
     -1725.742904     -1725.218392  16.55  13.27
C       1.760380     0.617970     5.133905
C       1.011984    -0.116382     4.199163
C       0.509413    -1.372561     4.573842
C       0.767052    -1.846864     5.838912
C       1.524370    -1.091579     6.762046
C       2.033005     0.150688     6.429080
C       1.633715     1.816559     3.253446
C       0.941212     0.673630     2.996172
H      -0.076295    -1.966951     3.878557
H       0.396050    -2.812156     6.164647
H       2.614177     0.742057     7.124041
H       1.819284     2.668543     2.612785
N       2.134881     1.799317     4.542956
C       2.914602     2.843974     5.164639
H       3.053658     3.656000     4.449216
H       2.404322     3.244438     6.047051
H       3.901233     2.474043     5.463139
O       1.698473    -1.690403     7.976986
C       2.447428    -0.996587     8.953861
H       1.976896    -0.040421     9.215260
H       2.467452    -1.638728     9.835021
H       3.475662    -0.815355     8.616405
N       0.308836    -1.426658    -0.099002
C      -0.743027    -2.348882     0.157277
O      -0.804135    -2.913530     1.216459
C      -1.767369    -2.443353    -0.949597
H      -2.336050    -1.505670    -0.928229
H      -2.444196    -3.261321    -0.701490
C      -1.136518    -2.621360    -2.333585
H      -0.745084    -3.639412    -2.414925
H      -1.902445    -2.504239    -3.100313
C       0.004382    -1.616370    -2.588084
C      -0.303410    -0.375860    -3.461581
H      -0.107248    -0.550062    -4.525934
C       0.270252     0.265391     1.722672
H       0.179129     1.115873     1.040615
H      -0.743140    -0.094706     1.934798
C       1.054862    -0.853415     1.030921
H       2.005012    -0.479452     0.647907
H       1.253697    -1.672432     1.721290
C       1.242601    -2.405361    -3.116762
H       1.483768    -3.160972    -2.358920
H       0.884865    -2.955931    -3.994944
C       2.507311    -1.634034    -3.485859
H       2.889141    -1.027950    -2.660438
H       3.288396    -2.349761    -3.760883
H       2.348142    -0.973267    -4.339597
O      -1.706386    -0.108261    -3.275519
C      -2.126495     1.096428    -3.900676
H      -1.603203     1.949298    -3.452948
H      -1.864850     1.068225    -4.969065
C      -3.616724     1.230164    -3.729534
C      -4.158615     2.267461    -2.979096
C      -4.475461     0.304935    -4.322211
C      -5.536584     2.385849    -2.823574
H      -3.495905     2.989189    -2.509598
C      -5.849283     0.416486    -4.167415
H      -4.057914    -0.509497    -4.907579
C      -6.383919     1.460378    -3.417030
H      -5.946169     3.201319    -2.235484
H      -6.507262    -0.311020    -4.632706
H      -7.458977     1.549120    -3.296068
C       0.409709    -0.910036    -1.330220
O       0.862408     0.256035    -1.512343
C       0.600254     0.648398    -2.891731
C       1.558765     1.500485    -3.453084
O       2.511639     2.039169    -2.905973
O       1.288716     1.692326    -4.795690
C       2.196746     2.563620    -5.458776
H       3.217955     2.174411    -5.417555
H       1.857764     2.620997    -6.494759
H       2.187054     3.558025    -5.004294
72
     -1725.745730     -1725.216990  14.78  14.15
C      -4.172189     1.930266     0.932209
C      -2.848252     2.187210     1.346600
C      -2.451746     1.756544     2.613375
C      -3.354209     1.098392     3.430654
C      -4.672502     0.860062     2.993089
C      -5.097449     1.272284     1.739832
C      -3.114223     2.987890    -0.729790
C      -2.186371     2.865742     0.260320
H      -1.438644     1.926049     2.965198
H      -3.034762     0.770233     4.411147
H      -6.116802     1.073521     1.430058
H      -3.021468     3.423641    -1.715101
N      -4.317517     2.425923    -0.339267
C      -5.536693     2.404208    -1.114272
H      -5.891318     1.378123    -1.254272
H      -6.324763     2.986032    -0.624678
H      -5.341079     2.839777    -2.095039
O      -5.611280     0.217805     3.750035
C      -5.239929    -0.226524     5.040245
H      -4.939652     0.610446     5.682469
H      -6.126144    -0.702299     5.461922
H      -4.424797    -0.959049     4.993976
N      -0.135619     1.841455    -1.676729
C      -0.797265     1.651786    -2.916845
O      -1.363767     2.571249    -3.447850
C      -0.743053     0.261811    -3.516917
H      -0.793270     0.400063    -4.598275
H      -1.672441    -0.239648    -3.221574
C       0.477391    -0.557356    -3.094324
H       0.412539    -1.566053    -3.510637
H       1.389210    -0.095178    -3.480263
C       0.535350    -0.604962    -1.568548
C       1.886931    -1.004811    -0.891671
H       1.970035    -2.082441    -0.734135
C      -0.755230     3.317878     0.262360
H      -0.201047     2.752943     1.015236
H      -0.676354     4.370964     0.557491
C      -0.042483     3.193307    -1.084981
H      -0.462021     3.866734    -1.829189
H       1.018383     3.423977    -0.963714
C      -0.625234    -1.465137    -0.963815
H      -1.137354    -1.971372    -1.788976
H      -0.168082    -2.253924    -0.362437
C      -1.647261    -0.729119    -0.100070
H      -2.195319     0.040812    -0.652536
H      -2.384266    -1.440571     0.281956
H      -1.173267    -0.255502     0.762695
O       2.986000    -0.559992    -1.716228
C       3.628978    -1.595088    -2.442381
H       2.893103    -2.229037    -2.958306
H       4.220680    -1.086449    -3.210985
C       4.532462    -2.460334    -1.590446
C       5.487388    -1.867844    -0.765777
C       4.443663    -3.847692    -1.634311
C       6.343250    -2.651615    -0.006615
H       5.544432    -0.785311    -0.713466
C       5.300732    -4.637423    -0.872972
H       3.697250    -4.320134    -2.268288
C       6.253282    -4.040126    -0.058936
H       7.083625    -2.179300     0.632337
H       5.220957    -5.719148    -0.917310
H       6.923845    -4.652758     0.535688
C       0.469751     0.812588    -1.069561
O       1.120682     1.006332    -0.007165
C       1.765648    -0.251456     0.372794
C       2.639534    -0.112947     1.473072
O       2.743276     0.840542     2.230207
O       3.365175    -1.264644     1.641753
C       4.290636    -1.234623     2.720931
H       3.777894    -1.072601     3.672646
H       4.785867    -2.206716     2.715524
H       5.027175    -0.437403     2.582830
72
     -1725.746513     -1725.216017  14.29  14.76
C       2.352804    -2.372366     2.428242
C       2.360633    -2.056522     1.053971
C       3.579323    -1.748649     0.450021
C       4.741375    -1.743210     1.202277
C       4.701701    -2.051015     2.576914
C       3.508709    -2.370964     3.205966
C       0.254906    -2.514589     1.663338
C       0.998512    -2.142820     0.585595
H       3.626685    -1.500638    -0.605938
H       5.680073    -1.500287     0.721704
H       3.509660    -2.605889     4.263920
H      -0.800267    -2.727226     1.745242
N       1.058412    -2.649974     2.785105
C       0.621114    -3.061601     4.098954
H      -0.453800    -3.245312     4.074342
H       1.123941    -3.984277     4.406515
H       0.824772    -2.284246     4.842710
O       5.808394    -2.058830     3.377803
C       7.058812    -1.749373     2.794407
H       7.322287    -2.464617     2.005687
H       7.069497    -0.733203     2.381458
H       7.791792    -1.816867     3.599210
N      -1.883416    -1.304767    -0.728284
C      -2.773728    -1.700940     0.306145
O      -2.870560    -2.856998     0.622562
C      -3.469814    -0.548341     0.992389
H      -2.687385     0.007927     1.520244
H      -4.149080    -0.970323     1.733328
C      -4.194257     0.394837     0.022476
H      -5.147537    -0.051628    -0.271044
H      -4.420075     1.330042     0.534707
C      -3.352690     0.686612    -1.228817
C      -2.746513     2.103156    -1.385108
H      -3.443112     2.811776    -1.843674
C       0.589827    -1.839049    -0.825548
H       1.249876    -2.393270    -1.504040
H       0.769835    -0.779309    -1.036623
C      -0.833921    -2.210311    -1.238649
H      -0.904612    -2.190002    -2.329059
H      -1.106337    -3.207825    -0.894455
C      -4.131525     0.334654    -2.533152
H      -5.054584     0.924018    -2.499108
H      -3.554227     0.700780    -3.386377
C      -4.461070    -1.144993    -2.724189
H      -3.561215    -1.740807    -2.906714
H      -4.979810    -1.578479    -1.863263
H      -5.110994    -1.270291    -3.594299
O      -2.452828     2.544981    -0.037349
C      -1.371535     3.461995     0.076561
H      -1.300595     4.094125    -0.813252
H      -1.617261     4.103765     0.929842
C      -0.055911     2.760721     0.330084
C       1.089645     3.097088    -0.381043
C       0.027096     1.774527     1.313160
C       2.299907     2.465994    -0.112572
H       1.030873     3.842923    -1.168279
C       1.230370     1.140447     1.582502
H      -0.862549     1.510995     1.877280
C       2.374908     1.489789     0.871952
H       3.185506     2.737178    -0.679597
H       1.279215     0.369280     2.344750
H       3.315241     0.992219     1.084252
C      -2.074313    -0.100234    -1.277026
O      -1.168555     0.462767    -1.954810
C      -1.592993     1.817763    -2.255863
C      -0.820965     2.504968    -3.194971
O       0.139612     2.096508    -3.833527
O      -1.297292     3.795807    -3.343430
C      -0.595397     4.572274    -4.306331
H      -0.659096     4.116459    -5.298086
H      -1.076040     5.552212    -4.312311
H       0.460544     4.671458    -4.038829
72
     -1725.744540     -1725.213929  15.53  16.07
C       3.041326    -0.996861    -0.765098
C       2.637409     0.049844    -1.619564
C       2.880362    -0.091227    -2.994415
C       3.482232    -1.234496    -3.468453
C       3.873646    -2.267529    -2.589795
C       3.666448    -2.162588    -1.226037
C       2.115418     0.593010     0.491956
C       2.043163     1.063169    -0.784391
H       2.603322     0.691552    -3.693974
H       3.679178    -1.369132    -4.526173
H       3.963482    -2.938997    -0.533119
H       1.754691     1.034642     1.411276
N       2.707706    -0.649591     0.517344
C       2.906778    -1.443146     1.710175
H       3.971971    -1.565060     1.933744
H       2.425284    -0.929203     2.543088
H       2.442040    -2.426014     1.598561
O       4.459915    -3.342142    -3.195905
C       4.900612    -4.400992    -2.371095
H       5.660779    -4.061919    -1.656217
H       4.065827    -4.856335    -1.823184
H       5.339857    -5.144548    -3.037062
N      -0.992659     2.067446    -1.721280
C      -1.966748     1.901401    -2.753365
O      -1.709225     2.253083    -3.872865
C      -3.235220     1.203338    -2.330741
H      -2.980847     0.163688    -2.100423
H      -3.908666     1.209786    -3.187618
C      -3.863590     1.863135    -1.103380
H      -4.297190     2.821769    -1.402228
H      -4.675657     1.242822    -0.723208
C      -2.828511     2.096415     0.010557
C      -2.821796     1.091132     1.183094
H      -3.528470     1.354527     1.977204
C       1.516504     2.408626    -1.189819
H       2.316074     2.973519    -1.685976
H       1.252669     2.986419    -0.300474
C       0.371586     2.415436    -2.201205
H       0.273066     3.411894    -2.638215
H       0.587045     1.728283    -3.019462
C      -2.970414     3.571048     0.503853
H      -2.810776     4.212649    -0.371851
H      -4.026369     3.685210     0.776126
C      -2.099235     4.061462     1.658219
H      -1.030845     3.946558     1.457480
H      -2.293860     5.126773     1.816889
H      -2.321261     3.538316     2.589538
O      -3.214538    -0.173298     0.597054
C      -2.900441    -1.314262     1.374869
H      -2.768712    -1.040383     2.427255
H      -3.766829    -1.983660     1.312412
C      -1.676619    -2.064558     0.884984
C      -1.018029    -1.729970    -0.292590
C      -1.226302    -3.165005     1.613770
C       0.061076    -2.481026    -0.744053
H      -1.349645    -0.874662    -0.867893
C      -0.154908    -3.924687     1.163418
H      -1.726755    -3.435398     2.540401
C       0.488974    -3.586844    -0.022695
H       0.570585    -2.195727    -1.658956
H       0.175686    -4.785238     1.737761
H       1.326339    -4.177824    -0.380572
C      -1.406011     1.903847    -0.457662
O      -0.633184     1.536655     0.474986
C      -1.420075     1.163789     1.627870
C      -0.760898     1.069066     2.848837
O       0.433540     1.230846     3.097455
O      -1.660000     0.753315     3.848799
C      -1.087191     0.624008     5.144466
H      -0.339206    -0.173636     5.164602
H      -0.610568     1.556657     5.457974
H      -1.913344     0.380831     5.814996
