72
     -1725.815711     -1725.276710   0.00   0.00
C      -0.122301    -1.386727    -1.309966
C      -0.818916    -1.717334    -0.136901
C      -2.157080    -2.031179    -0.205154
C      -2.834089    -1.980367    -1.428599
C      -2.129042    -1.641059    -2.581015
C      -0.760619    -1.361071    -2.536308
C       1.483841    -1.324706     0.350882
C       0.147391    -1.761911     1.015140
H      -2.704479    -2.315977     0.690510
H      -3.890028    -2.213176    -1.462234
H      -0.252301    -1.085666    -3.451535
H       2.271938    -2.071586     0.490029
N       1.210025    -1.112119    -1.054896
C       2.234013    -1.340230    -2.051981
H       3.200472    -1.048810    -1.638734
H       2.284366    -2.394117    -2.364246
H       2.038188    -0.726931    -2.935579
O      -2.693218    -1.548889    -3.819433
C      -4.073736    -1.832025    -3.941719
H      -4.315868    -1.706001    -4.997743
H      -4.298836    -2.861899    -3.639089
H      -4.678653    -1.138023    -3.345525
N      -0.716642    -1.454816     3.219096
C      -2.087061    -1.213388     3.240755
O      -2.860849    -2.015585     3.722511
C      -2.608606     0.111735     2.674235
H      -2.762245     0.762289     3.542278
H      -3.605375    -0.115982     2.291902
C      -1.746622     0.817583     1.612927
H      -1.885142     0.353203     0.639412
H      -2.058710     1.858605     1.510360
C      -0.296649     0.705252     2.054279
C       0.846582     1.116768     1.093568
H       1.356299     2.010123     1.473738
C       0.166034    -3.128814     1.759832
H       1.161148    -3.577207     1.719647
H      -0.525853    -3.820826     1.276595
C      -0.251676    -2.846552     3.226480
H      -1.057920    -3.486768     3.578518
H       0.597398    -2.928730     3.907679
C      -0.066678     1.445391     3.399987
H      -0.582619     0.920392     4.207979
H       0.996114     1.387191     3.642932
C      -0.502912     2.911712     3.382744
H      -1.590095     3.021469     3.337286
H      -0.163654     3.415265     4.292573
H      -0.081655     3.454554     2.529844
O       0.347452     1.367809    -0.186460
C       1.270742     1.958774    -1.077246
H       1.522126     2.972434    -0.725290
H       2.202822     1.380499    -1.107103
C       0.675591     2.022206    -2.463368
C       1.516705     2.187608    -3.562059
C      -0.696682     1.931454    -2.670856
C       0.996594     2.258193    -4.848120
H       2.591368     2.257517    -3.410497
C      -1.219469     1.996765    -3.957390
H      -1.353944     1.783962    -1.822631
C      -0.376246     2.160464    -5.049130
H       1.663717     2.387241    -5.694928
H      -2.291056     1.906042    -4.105636
H      -0.785547     2.210096    -6.053254
C       0.052100    -0.770000     2.232834
O       1.462026    -0.661895     2.535873
C       1.836264    -0.117889     1.254152
C       3.303928     0.266577     1.279555
O       4.123262    -0.108158     0.478824
O       3.576455     1.098213     2.288251
C       4.944133     1.520571     2.393346
H       4.980192     2.181208     3.258327
H       5.594813     0.656390     2.541115
H       5.248977     2.050854     1.488624
72
     -1725.815322     -1725.276270   0.24   0.28
C      -0.759772    -2.514106     0.019672
C      -0.575748    -2.053377     1.332724
C      -1.539936    -2.298987     2.283667
C      -2.715261    -2.975860     1.941751
C      -2.885029    -3.422948     0.633492
C      -1.904760    -3.202686    -0.340281
C       1.342968    -1.551375     0.004989
C       0.792451    -1.442468     1.454671
H      -1.399056    -1.970154     3.310674
H      -3.467481    -3.152555     2.698724
H      -2.076958    -3.570739    -1.344510
H       2.282935    -2.112464    -0.030861
N       0.320479    -2.200990    -0.790887
C       0.696859    -3.055992    -1.896764
H       0.958626    -4.073499    -1.568834
H      -0.127073    -3.130532    -2.611738
H       1.554009    -2.615912    -2.407678
O      -3.984923    -4.098239     0.196565
C      -5.016248    -4.360272     1.129850
H      -5.437804    -3.430583     1.530538
H      -5.789278    -4.900096     0.581758
H      -4.656636    -4.983166     1.957646
N       1.134275     0.161494     3.185783
C      -0.023405     0.418337     3.914898
O      -0.116066     0.097782     5.082659
C      -1.181085     1.150728     3.226792
H      -1.095858     2.196219     3.542924
H      -2.083241     0.767093     3.707049
C      -1.275068     1.054273     1.693451
H      -1.723965     0.109536     1.395916
H      -1.924801     1.843018     1.309607
C       0.135958     1.171798     1.141393
C       0.420235     0.890564    -0.354912
H       0.747370     1.811433    -0.847467
C       1.666258    -2.086411     2.570336
H       2.588236    -2.494625     2.150459
H       1.123239    -2.911002     3.035503
C       1.979906    -0.965405     3.595831
H       1.736033    -1.235183     4.621343
H       3.025615    -0.656475     3.543456
C       0.748773     2.559094     1.477488
H       0.891292     2.652913     2.557068
H       1.749649     2.601889     1.043301
C      -0.075182     3.742482     0.966777
H      -0.293641     3.659313    -0.102901
H      -1.029036     3.842299     1.492538
H       0.476904     4.675031     1.117076
O      -0.716522     0.391455    -1.001407
C      -0.600804     0.272817    -2.411604
H       0.207927    -0.415526    -2.674238
H      -1.542806    -0.181644    -2.730155
C      -0.391954     1.600494    -3.107951
C       0.650264     1.766530    -4.013724
C      -1.240723     2.674790    -2.846463
C       0.841881     2.986995    -4.654528
H       1.319285     0.933937    -4.214435
C      -1.049713     3.894679    -3.479723
H      -2.052262     2.548508    -2.135369
C      -0.006541     4.053384    -4.388014
H       1.655756     3.103360    -5.363767
H      -1.716819     4.724656    -3.268239
H       0.141803     5.006154    -4.886194
C       1.004288     0.083626     1.767526
O       2.235023     0.282856     1.035870
C       1.685911    -0.063190    -0.250378
C       2.691694     0.202871    -1.349695
O       2.887882    -0.538970    -2.281554
O       3.289703     1.383981    -1.199517
C       4.204572     1.759326    -2.239330
H       4.625087     2.713926    -1.926623
H       4.989394     1.007858    -2.345089
H       3.672909     1.867931    -3.186938
72
     -1725.815033     -1725.275828   0.43   0.55
C      -1.078126    -0.844666    -1.174823
C      -0.759129    -1.719177    -0.134512
C      -1.775789    -2.356519     0.556119
C      -3.101545    -2.099425     0.234870
C      -3.406429    -1.219536    -0.806856
C      -2.398393    -0.587917    -1.533830
C       1.229984    -0.886387    -1.142829
C       0.735854    -1.875547    -0.053502
H      -1.545037    -3.058275     1.354246
H      -3.916987    -2.576898     0.765585
H      -2.626373     0.120869    -2.317675
H       1.858911    -1.386001    -1.886813
N       0.057995    -0.300238    -1.752601
C       0.091430     0.159171    -3.119893
H       1.064458     0.616085    -3.321039
H      -0.067229    -0.651657    -3.846948
H      -0.671546     0.925373    -3.280606
O      -4.734219    -1.029869    -1.044223
C      -5.103904    -0.268756    -2.181013
H      -4.752546     0.765704    -2.105243
H      -4.714367    -0.721060    -3.101274
H      -6.194099    -0.279420    -2.207603
N       1.716588    -2.584363     2.006699
C       0.782229    -2.769320     3.021335
O       0.554418    -3.872286     3.475006
C       0.062771    -1.540967     3.589301
H       0.594453    -1.289251     4.513530
H      -0.918256    -1.905482     3.899807
C      -0.058903    -0.306734     2.678232
H      -0.864710    -0.442491     1.960761
H      -0.314358     0.572743     3.272453
C       1.269332    -0.135111     1.958740
C       1.401891     0.880815     0.794298
H       2.055143     1.713775     1.075843
C       1.213776    -3.350600    -0.199051
H       1.851531    -3.467738    -1.078117
H       0.349738    -4.004173    -0.330897
C       1.990986    -3.701321     1.096190
H       1.660950    -4.627420     1.562198
H       3.066584    -3.750521     0.916669
C       2.411888     0.146292     2.970846
H       2.594391    -0.739544     3.584773
H       3.335679     0.307064     2.411673
C       2.153440     1.351407     3.877269
H       1.876027     2.242014     3.303757
H       1.354890     1.163319     4.600466
H       3.055700     1.594238     4.446031
O       0.137824     1.364817     0.443977
C       0.128839     2.489663    -0.409589
H       0.602026     3.343746     0.099567
H       0.711705     2.296800    -1.316116
C      -1.297026     2.824642    -0.775198
C      -2.366586     2.391553     0.002516
C      -1.553791     3.599383    -1.904586
C      -3.669944     2.729040    -0.342179
H      -2.175460     1.773127     0.870974
C      -2.855586     3.941374    -2.249968
H      -0.725213     3.940559    -2.520593
C      -3.919356     3.506984    -1.466671
H      -4.494159     2.375289     0.270320
H      -3.039432     4.549538    -3.130376
H      -4.937501     3.775388    -1.731908
C       1.580415    -1.419352     1.196363
O       2.790038    -1.022072     0.510423
C       2.164814     0.009171    -0.281130
C       3.218766     0.765011    -1.071089
O       3.303369     1.966062    -1.124305
O       4.026217    -0.066814    -1.733148
C       5.053808     0.557877    -2.515996
H       5.607605    -0.258774    -2.976747
H       4.612534     1.204245    -3.277679
H       5.707002     1.152548    -1.874208
72
     -1725.814261     -1725.275595   0.91   0.70
C      -1.217007    -0.367180    -1.276762
C      -1.024259    -1.431394    -0.381080
C      -2.104766    -1.963399     0.284544
C      -3.382659    -1.422400     0.105454
C      -3.552426    -0.358922    -0.777659
C      -2.472934     0.168138    -1.492366
C       1.041317    -0.838531    -1.409169
C       0.417724    -1.861926    -0.423439
H      -1.976952    -2.805208     0.961285
H      -4.218675    -1.842109     0.648818
H      -2.643573     1.010319    -2.151021
H       1.531197    -1.336747    -2.251939
N      -0.023683     0.029016    -1.857423
C       0.034216     0.656034    -3.155791
H      -0.286521    -0.014911    -3.967128
H      -0.596950     1.547752    -3.171217
H       1.061704     0.972631    -3.357037
O      -4.749172     0.250249    -1.014358
C      -5.887786    -0.236414    -0.330414
H      -6.725305     0.378937    -0.661409
H      -6.087343    -1.285059    -0.582212
H      -5.773216    -0.139343     0.756059
N       1.325539    -3.005708     1.466310
C       0.408117    -3.149337     2.503093
O      -0.012830    -4.241713     2.825473
C      -0.040920    -1.897500     3.264801
H       0.563506    -1.876317     4.178317
H      -1.061275    -2.112857     3.587555
C       0.042585    -0.549943     2.526468
H      -0.801338    -0.433319     1.850699
H      -0.014922     0.272391     3.242171
C       1.350280    -0.531866     1.751403
C       1.629139     0.590381     0.717539
H       2.443093     1.239850     1.057449
C       0.607800    -3.364653    -0.783998
H       1.184130    -3.472540    -1.705560
H      -0.365924    -3.828831    -0.949454
C       1.349330    -4.022255     0.408873
H       0.865667    -4.925441     0.774996
H       2.388733    -4.244490     0.160309
C       2.563581    -0.604921     2.716668
H       2.595832    -1.582993     3.203767
H       3.478865    -0.545202     2.124559
C       2.576427     0.495482     3.779554
H       2.452182     1.490313     3.339209
H       1.785756     0.363397     4.523516
H       3.530149     0.489533     4.315199
O       0.469959     1.345047     0.514829
C       0.646914     2.556189    -0.192296
H       1.262969     3.245091     0.406671
H       1.182654     2.383772    -1.131319
C      -0.703071     3.168447    -0.477790
C      -1.816572     2.866592     0.300165
C      -0.842375     4.063066    -1.536673
C      -3.049632     3.442658     0.019146
H      -1.719422     2.157225     1.113340
C      -2.073238     4.643423    -1.818162
H       0.021393     4.306585    -2.150841
C      -3.182862     4.331600    -1.040431
H      -3.913075     3.183390     0.623880
H      -2.166052     5.339020    -2.646720
H      -4.146931     4.779234    -1.260583
C       1.381693    -1.737543     0.816642
O       2.615787    -1.479390     0.108812
C       2.165406    -0.254067    -0.506613
C       3.315222     0.390970    -1.261786
O       3.649498     1.543103    -1.148345
O       3.897789    -0.472384    -2.097372
C       4.996800     0.047409    -2.859487
H       5.344390    -0.781473    -3.474350
H       4.666912     0.880482    -3.483865
H       5.789404     0.390556    -2.191506
72
     -1725.813875     -1725.274782   1.15   1.21
C       0.396544    -1.630879     2.008321
C       0.333336    -0.301984     2.438091
C      -0.578646     0.058343     3.412171
C      -1.468712    -0.883451     3.914057
C      -1.425165    -2.197440     3.443638
C      -0.487462    -2.595278     2.488267
C       2.066445    -0.559187     0.816060
C       1.407323     0.493256     1.746457
H      -0.616191     1.079946     3.782797
H      -2.202630    -0.626569     4.668644
H      -0.438496    -3.614493     2.130241
H       3.150366    -0.613741     0.965121
N       1.438799    -1.816287     1.129578
C       1.703829    -3.030370     0.408768
H       1.684582    -3.888181     1.088461
H       0.987831    -3.211166    -0.402948
H       2.705592    -2.978025    -0.026125
O      -2.344500    -3.042105     3.990051
C      -2.345805    -4.391747     3.567495
H      -1.393160    -4.883948     3.798181
H      -3.147095    -4.881147     4.122108
H      -2.546992    -4.474364     2.492422
N       1.058593     2.839054     1.489273
C      -0.158473     3.251354     2.026077
O      -0.203772     3.972649     3.001940
C      -1.455805     2.809157     1.338787
H      -1.765254     3.661533     0.723941
H      -2.191338     2.739123     2.142310
C      -1.419048     1.521486     0.495447
H      -1.504097     0.642834     1.130316
H      -2.272626     1.501820    -0.184047
C      -0.105270     1.509439    -0.266419
C       0.357799     0.235175    -1.026513
H       0.349018     0.429509    -2.100688
C       2.358667     1.252052     2.713970
H       3.390659     0.918380     2.585328
H       2.072043     1.045133     3.746552
C       2.220156     2.760851     2.382403
H       2.037686     3.382070     3.256722
H       3.095857     3.134728     1.848686
C      -0.041410     2.704420    -1.259362
H      -0.005159     3.643405    -0.701079
H       0.906142     2.652047    -1.799506
C      -1.191030     2.756565    -2.266609
H      -2.155832     2.947921    -1.789177
H      -1.018229     3.564474    -2.983704
H      -1.285063     1.828336    -2.835245
O      -0.421999    -0.897513    -0.741666
C      -0.786858    -1.681947    -1.872117
H       0.105079    -1.984892    -2.430516
H      -1.254037    -2.575165    -1.448317
C      -1.757143    -0.971179    -2.788854
C      -1.435007    -0.734578    -4.120989
C      -2.984873    -0.526715    -2.299009
C      -2.324874    -0.063905    -4.955595
H      -0.474977    -1.068166    -4.505334
C      -3.873018     0.145399    -3.126395
H      -3.237910    -0.708650    -1.258498
C      -3.543694     0.378454    -4.459410
H      -2.061704     0.114466    -5.993502
H      -4.826488     0.486366    -2.735023
H      -4.238550     0.902386    -5.108051
C       1.051668     1.636303     0.722804
O       2.177012     1.486255    -0.176038
C       1.855760     0.137364    -0.565712
C       2.790534    -0.364310    -1.646423
O       2.431304    -1.017326    -2.595811
O       4.060884    -0.043503    -1.401695
C       5.017196    -0.510121    -2.364793
H       5.984842    -0.159673    -2.008890
H       4.998134    -1.600544    -2.422209
H       4.794705    -0.093499    -3.349219
72
     -1725.814639     -1725.274742   0.67   1.23
C      -1.471834    -0.153432    -1.322099
C      -1.398054    -1.308702    -0.522532
C      -2.466936    -1.660290     0.265673
C      -3.599765    -0.837648     0.330698
C      -3.636966     0.325698    -0.432845
C      -2.580462     0.673978    -1.281497
C       0.603640    -1.061261    -1.807415
C      -0.084134    -1.996646    -0.778300
H      -2.441077    -2.570427     0.860311
H      -4.425322    -1.119728     0.970093
H      -2.651297     1.584608    -1.862883
H       0.904196    -1.601018    -2.711021
N      -0.357917    -0.033183    -2.115557
C      -0.059372     1.121152    -2.922029
H      -0.907251     1.358434    -3.572986
H       0.179277     2.001846    -2.313948
H       0.797325     0.897228    -3.563151
O      -4.680156     1.206290    -0.425959
C      -5.803429     0.896534     0.377252
H      -6.514616     1.710094     0.228840
H      -6.265126    -0.049071     0.068700
H      -5.533266     0.839608     1.438631
N       0.786597    -3.350929     0.979841
C      -0.045456    -3.340758     2.096078
O      -0.644480    -4.337158     2.445891
C      -0.169604    -2.048866     2.913423
H       0.496756    -2.182423     3.772657
H      -1.183433    -2.066403     3.317376
C       0.128410    -0.716148     2.202499
H      -0.735687    -0.389075     1.628714
H       0.322055     0.056101     2.950396
C       1.323842    -0.937970     1.291304
C       1.738440     0.134113     0.238021
H       2.715572     0.549880     0.498082
C      -0.217338    -3.490746    -1.185450
H       0.237253    -3.666364    -2.162608
H      -1.272402    -3.759500    -1.259750
C       0.501489    -4.317853    -0.087239
H      -0.107747    -5.122865     0.318182
H       1.446571    -4.726707    -0.449097
C       2.586144    -1.297226     2.122160
H       2.442022    -2.262254     2.614438
H       3.420684    -1.445106     1.433828
C       2.975291    -0.251198     3.168334
H       3.105446     0.742804     2.728683
H       2.235452    -0.166212     3.969494
H       3.926008    -0.526345     3.634144
O       0.826025     1.178734     0.034287
C       1.119065     2.354619     0.776348
H       1.159000     2.122278     1.850583
H       2.100459     2.746281     0.476782
C       0.038820     3.368404     0.503771
C      -1.294959     3.035425     0.734789
C       0.346044     4.632492     0.014643
C      -2.305407     3.947849     0.472038
H      -1.541611     2.044751     1.100767
C      -0.664022     5.556539    -0.238820
H       1.382641     4.897752    -0.175169
C      -1.990561     5.214456    -0.013302
H      -3.340225     3.664468     0.636230
H      -0.412218     6.541568    -0.619233
H      -2.780176     5.930920    -0.217350
C       1.018129    -2.096151     0.341068
O       2.192909    -2.053674    -0.503903
C       1.924195    -0.741432    -1.038248
C       3.068427    -0.272274    -1.920363
O       3.617802     0.793306    -1.804603
O       3.371233    -1.171887    -2.859364
C       4.441029    -0.808305    -3.743860
H       4.547550    -1.644067    -4.433921
H       4.194172     0.109058    -4.282548
H       5.362329    -0.655971    -3.177999
72
     -1725.814798     -1725.274144   0.57   1.61
C       1.097983    -1.553489     0.884708
C       0.630030    -0.667164     1.872583
C      -0.244620    -1.115411     2.831988
C      -0.725751    -2.431659     2.792168
C      -0.283490    -3.283920     1.784199
C       0.646632    -2.861630     0.828417
C       2.195602     0.438630     0.432039
C       1.299195     0.665950     1.681817
H      -0.586286    -0.452935     3.623838
H      -1.427987    -2.763712     3.544816
H       0.969181    -3.556837     0.063628
H       3.246556     0.670281     0.630769
N       2.030206    -0.951649     0.083201
C       2.622538    -1.576970    -1.071931
H       3.405551    -0.926949    -1.463761
H       3.075032    -2.535787    -0.794669
H       1.881580    -1.751530    -1.861883
O      -0.704708    -4.575211     1.641703
C      -1.615628    -5.084055     2.597579
H      -1.187730    -5.061807     3.607032
H      -2.558392    -4.523755     2.590311
H      -1.808331    -6.118608     2.310657
N       0.102691     2.565316     2.478494
C      -1.131087     2.216245     3.018790
O      -1.359803     2.340733     4.204679
C      -2.228122     1.701405     2.079620
H      -2.879356     2.562260     1.892423
H      -2.816068     1.008451     2.684073
C      -1.793860     1.056537     0.750964
H      -1.494673     0.022949     0.910559
H      -2.645478     1.039578     0.067517
C      -0.634773     1.871547     0.201199
C       0.207419     1.362498    -1.010132
H       0.052385     2.032182    -1.861239
C       2.013440     1.206363     2.951806
H       3.067708     1.400733     2.744935
H       1.964905     0.461709     3.748089
C       1.281979     2.514863     3.351904
H       0.953402     2.528979     4.389018
H       1.899381     3.393792     3.157574
C      -1.086120     3.322099    -0.125444
H      -1.345737     3.844939     0.798342
H      -0.229697     3.860807    -0.536072
C      -2.257867     3.416721    -1.104382
H      -2.059447     2.883391    -2.039779
H      -3.186050     3.017494    -0.685282
H      -2.443540     4.463359    -1.362259
O      -0.011922     0.038437    -1.413572
C      -1.017173    -0.106295    -2.408314
H      -1.960540     0.337379    -2.060941
H      -0.713452     0.420544    -3.323981
C      -1.204393    -1.575035    -2.683265
C      -0.998720    -2.102488    -3.952454
C      -1.578753    -2.427269    -1.645752
C      -1.165950    -3.464625    -4.186464
H      -0.701540    -1.446219    -4.766138
C      -1.734588    -3.786474    -1.870915
H      -1.725731    -2.023803    -0.649882
C      -1.530786    -4.308142    -3.145783
H      -1.004107    -3.865865    -5.182014
H      -2.004469    -4.439372    -1.046912
H      -1.654468    -5.371680    -3.324713
C       0.472692     1.932394     1.254251
O       1.500985     2.619016     0.504527
C       1.668630     1.578978    -0.482390
C       2.655460     2.060601    -1.536396
O       3.715116     1.541636    -1.774321
O       2.197492     3.142843    -2.173963
C       3.068405     3.686090    -3.176622
H       2.544474     4.550237    -3.582666
H       4.017708     3.986265    -2.728585
H       3.256838     2.946106    -3.957339
72
     -1725.813951     -1725.274049   1.10   1.67
C      -0.720049    -2.002792    -1.590885
C      -0.878478    -2.514846    -0.299046
C      -2.045533    -3.172801     0.038579
C      -3.079925    -3.271070    -0.885439
C      -2.925387    -2.721701    -2.159805
C      -1.741292    -2.084758    -2.537389
C       1.299624    -1.540443    -0.546872
C       0.386611    -2.276521     0.475302
H      -2.170351    -3.608059     1.027088
H      -4.010616    -3.771064    -0.645252
H      -1.606588    -1.671149    -3.527458
H       2.249191    -2.062809    -0.702755
N       0.533498    -1.479190    -1.768967
C       0.981594    -0.860549    -2.987895
H       0.405108     0.046223    -3.211691
H       2.031515    -0.586498    -2.882364
H       0.884557    -1.551971    -3.833861
O      -3.997261    -2.865293    -2.989473
C      -3.900922    -2.343081    -4.300237
H      -4.852832    -2.564047    -4.784215
H      -3.744198    -1.257551    -4.287993
H      -3.089384    -2.821078    -4.862372
N       0.125763    -2.092706     2.833490
C      -1.208393    -2.193322     3.217493
O      -1.607210    -3.136799     3.869611
C      -2.177002    -1.066726     2.835721
H      -2.282041    -0.455942     3.739090
H      -3.140779    -1.559685     2.696299
C      -1.819153    -0.182986     1.626343
H      -2.106742    -0.670271     0.696989
H      -2.385298     0.749493     1.682891
C      -0.320159     0.061434     1.665256
C       0.420521     0.717393     0.461082
H       0.821241     1.684062     0.773718
C       0.979722    -3.550319     1.138347
H       2.015729    -3.697244     0.826513
H       0.412087    -4.428467     0.825803
C       0.895791    -3.332832     2.672894
H       0.382789    -4.135961     3.198047
H       1.885304    -3.190825     3.111314
C       0.076715     0.857720     2.939909
H      -0.130212     0.257235     3.828995
H       1.159136     1.000899     2.927579
C      -0.609004     2.217526     3.080852
H      -0.428804     2.861874     2.214431
H      -1.691266     2.129196     3.212274
H      -0.218120     2.741145     3.958230
O      -0.319567     0.882316    -0.722923
C      -0.905057     2.164834    -0.868146
H      -1.545524     2.083478    -1.751207
H      -1.551699     2.399517    -0.012546
C       0.114280     3.270480    -1.063772
C       1.244844     3.058898    -1.851644
C      -0.073667     4.516993    -0.475542
C       2.166064     4.078791    -2.048802
H       1.406668     2.089388    -2.309966
C       0.847825     5.540742    -0.671287
H      -0.948624     4.693142     0.144752
C       1.970614     5.323716    -1.459034
H       3.039117     3.902506    -2.669917
H       0.686286     6.508309    -0.206638
H       2.690402     6.120934    -1.615075
C       0.406775    -1.284238     1.691866
O       1.778788    -0.840079     1.583410
C       1.630164    -0.260626     0.271039
C       2.910149     0.454289    -0.126130
O       3.512803     0.260395    -1.151455
O       3.268223     1.354984     0.790565
C       4.440710     2.123871     0.485054
H       4.276350     2.715857    -0.417377
H       4.595675     2.773781     1.345035
H       5.298901     1.464873     0.339568
72
     -1725.812879     -1725.273113   1.78   2.26
C      -2.259272    -0.119822    -0.598689
C      -1.515746    -1.304254    -0.571225
C      -1.828608    -2.283964     0.351604
C      -2.826760    -2.062763     1.293233
C      -3.529276    -0.856409     1.285881
C      -3.264505     0.130513     0.334081
C      -0.713894     0.128145    -2.297880
C      -0.497355    -1.278598    -1.681061
H      -1.284086    -3.225301     0.361923
H      -3.078207    -2.806400     2.040029
H      -3.817589     1.059443     0.310950
H      -0.850522     0.084479    -3.382821
N      -1.881874     0.676220    -1.655571
C      -2.281692     2.046319    -1.837903
H      -2.055702     2.349285    -2.864368
H      -3.361787     2.144720    -1.697809
H      -1.766785     2.731491    -1.152618
O      -4.475284    -0.726133     2.258876
C      -5.242150     0.462223     2.290279
H      -5.813924     0.593662     1.363664
H      -5.933262     0.353352     3.126767
H      -4.609807     1.343095     2.455801
N       1.486745    -2.601726    -1.489832
C       1.512106    -3.358511    -0.322393
O       1.439595    -4.570213    -0.354006
C       1.675424    -2.630489     1.014535
H       2.739744    -2.707838     1.263623
H       1.154150    -3.253295     1.744083
C       1.206052    -1.166795     1.096841
H       0.129680    -1.121679     1.233496
H       1.646104    -0.695090     1.975432
C       1.617771    -0.471100    -0.190654
C       1.095166     0.951496    -0.573636
H       1.920972     1.665719    -0.540886
C      -0.590641    -2.486783    -2.654682
H      -0.881399    -2.163183    -3.656688
H      -1.354738    -3.180803    -2.299524
C       0.805083    -3.159109    -2.663671
H       0.764659    -4.242286    -2.571792
H       1.374228    -2.889743    -3.555187
C       3.167283    -0.435705    -0.307612
H       3.550199    -1.455219    -0.400676
H       3.436218     0.060648    -1.242067
C       3.872333     0.266632     0.853596
H       4.948115     0.317021     0.661386
H       3.516399     1.292708     0.985467
H       3.734160    -0.252829     1.805602
O       0.011972     1.463535     0.157491
C       0.309756     2.403336     1.178858
H       1.206104     2.978621     0.918795
H      -0.535758     3.099513     1.191770
C       0.453629     1.758344     2.538419
C       1.589284     1.950687     3.314901
C      -0.572033     0.947014     3.023468
C       1.709044     1.335458     4.558823
H       2.393269     2.581744     2.945872
C      -0.454448     0.328974     4.258642
H      -1.454921     0.781007     2.413996
C       0.688656     0.521736     5.031164
H       2.601198     1.494099     5.156569
H      -1.255579    -0.308136     4.620316
H       0.779358     0.039837     5.999627
C       1.052930    -1.247667    -1.379439
O       1.483819    -0.402661    -2.473173
C       0.705567     0.738412    -2.073839
C       1.002573     1.946704    -2.941662
O       1.215520     3.050653    -2.508515
O       0.959056     1.648325    -4.242330
C       1.212478     2.740543    -5.137581
H       2.212231     3.144564    -4.965681
H       1.134245     2.321948    -6.139940
H       0.474731     3.532281    -4.990449
72
     -1725.810916     -1725.270600   3.01   3.83
C      -1.346122     0.431067     1.221686
C      -1.986933    -0.152639     0.128279
C      -2.911584    -1.162462     0.338549
C      -3.159894    -1.618739     1.625119
C      -2.497046    -1.037912     2.710204
C      -1.587401     0.001563     2.524472
C      -0.585077     1.632897    -0.595731
C      -1.580179     0.566260    -1.128568
H      -3.450180    -1.602664    -0.496741
H      -3.871295    -2.413346     1.817834
H      -1.051088     0.442408     3.353279
H      -0.907547     2.649073    -0.842732
N      -0.487256     1.452023     0.839454
C      -0.263652     2.596269     1.699930
H      -1.197092     3.129037     1.936101
H       0.199380     2.276187     2.636879
H       0.416700     3.286338     1.199747
O      -2.807183    -1.556641     3.930911
C      -2.250043    -0.936991     5.076448
H      -1.156119    -0.995528     5.074025
H      -2.558042     0.113466     5.146459
H      -2.640495    -1.485127     5.934598
N      -1.682585    -0.650612    -3.180776
C      -2.129111    -1.947198    -2.919995
O      -3.187665    -2.344960    -3.360139
C      -1.259951    -2.889539    -2.074353
H      -0.878200    -3.633964    -2.779125
H      -1.972719    -3.427709    -1.446190
C      -0.122583    -2.290147    -1.219575
H      -0.490671    -2.030076    -0.230863
H       0.666038    -3.035654    -1.080947
C       0.426306    -1.062078    -1.937651
C       1.339594    -0.074600    -1.162076
H       2.342497    -0.060218    -1.607608
C      -2.779209     1.094938    -1.969092
H      -2.724758     2.180015    -2.080846
H      -3.716078     0.863436    -1.459234
C      -2.702322     0.393413    -3.351940
H      -3.638295    -0.071484    -3.654294
H      -2.371252     1.080837    -4.132068
C       1.159182    -1.583865    -3.206402
H       2.026628    -2.136414    -2.821478
H       0.525929    -2.334120    -3.685568
C       1.631186    -0.622038    -4.297294
H       2.282283     0.166321    -3.917985
H       2.193717    -1.193660    -5.043324
H       0.790457    -0.143905    -4.801412
O       1.420838    -0.454454     0.180827
C       2.341020     0.275528     0.962434
H       3.367280     0.059116     0.623932
H       2.177737     1.354445     0.850760
C       2.181609    -0.108638     2.414284
C       2.657637     0.743755     3.408435
C       1.589568    -1.312392     2.783289
C       2.546724     0.400472     4.750103
H       3.119149     1.688232     3.130338
C       1.479673    -1.659403     4.124831
H       1.202896    -1.971974     2.016069
C       1.957037    -0.805864     5.112396
H       2.924071     1.073631     5.513696
H       1.019117    -2.604442     4.397624
H       1.874513    -1.079808     6.159728
C      -0.729358    -0.126695    -2.259434
O      -0.011263     1.038517    -2.730001
C       0.645257     1.315679    -1.478800
C       1.603953     2.484819    -1.642466
O       1.570500     3.486712    -0.972612
O       2.507849     2.268421    -2.599674
C       3.450294     3.329278    -2.817192
H       4.095916     2.985976    -3.624200
H       2.927895     4.243955    -3.104046
H       4.029812     3.513871    -1.910288
72
     -1725.810162     -1725.270473   3.48   3.91
C      -0.862887    -1.118159    -1.090029
C      -0.406831    -1.838892     0.015039
C      -1.276150    -2.685906     0.681784
C      -2.598995    -2.784989     0.274150
C      -3.045010    -2.048882    -0.826878
C      -2.180774    -1.210282    -1.529320
C       1.379303    -0.590030    -0.942172
C       1.070038    -1.607030     0.189818
H      -0.931210    -3.278980     1.525239
H      -3.302452    -3.433844     0.782800
H      -2.524543    -0.611494    -2.361333
H       2.154485    -0.963764    -1.618895
N       0.141728    -0.340197    -1.646248
C       0.158555     0.015732    -3.044942
H       0.256910    -0.858358    -3.706485
H      -0.755669     0.552641    -3.310272
H       1.001863     0.686189    -3.233882
O      -4.358210    -2.213088    -1.147375
C      -4.839693    -1.581340    -2.320734
H      -5.890641    -1.860893    -2.402502
H      -4.757324    -0.491276    -2.253609
H      -4.300664    -1.934633    -3.208343
N       2.043187    -1.916923     2.353681
C       1.067307    -2.298541     3.273172
O       1.088291    -3.395387     3.792512
C      -0.035762    -1.300086     3.647624
H       0.221451    -0.949777     4.651789
H      -0.930975    -1.912109     3.775258
C      -0.309483    -0.116986     2.696229
H      -1.010113    -0.413334     1.919670
H      -0.775663     0.702721     3.250973
C       1.013021     0.330485     2.084625
C       1.000440     1.284525     0.861269
H       1.419007     2.261830     1.123276
C       1.911626    -2.917893     0.188556
H       2.612426    -2.930868    -0.649236
H       1.248496    -3.777289     0.075181
C       2.667072    -2.970024     1.542764
H       2.565393    -3.922597     2.058256
H       3.725602    -2.734777     1.420325
C       1.859444     0.955452     3.230020
H       1.262870     1.805945     3.585214
H       1.893989     0.250365     4.064251
C       3.290663     1.437366     2.978553
H       3.368164     2.133186     2.138571
H       3.641079     1.965172     3.871962
H       3.970181     0.608003     2.784779
O      -0.312077     1.443118     0.402553
C      -0.504468     2.470233    -0.547233
H      -0.280999     3.445548    -0.087388
H       0.179521     2.353259    -1.394016
C      -1.933468     2.435701    -1.032517
C      -2.946016     1.868712    -0.264213
C      -2.257457     3.001611    -2.263748
C      -4.259762     1.873358    -0.717036
H      -2.698532     1.410467     0.685656
C      -3.570147     3.006531    -2.720015
H      -1.473775     3.445648    -2.872801
C      -4.577357     2.443134    -1.944639
H      -5.038890     1.427463    -0.105711
H      -3.807239     3.454884    -3.679992
H      -5.604989     2.450928    -2.295157
C       1.685022    -0.876687     1.447097
O       2.806296    -0.243160     0.795713
C       2.014581     0.555663    -0.105000
C       2.921978     1.489535    -0.887371
O       2.752659     2.677507    -0.997466
O       3.925310     0.825843    -1.466782
C       4.837882     1.625859    -2.232337
H       5.310154     2.374459    -1.592951
H       5.579768     0.930728    -2.622637
H       4.312470     2.128676    -3.047088
72
     -1725.809867     -1725.269901   3.67   4.27
C       0.086503    -0.379988    -2.031981
C       0.059388    -1.606034    -1.339335
C      -0.943287    -2.508671    -1.596948
C      -1.981897    -2.181826    -2.480852
C      -1.968227    -0.942623    -3.114721
C      -0.923499    -0.033970    -2.914252
C       2.010841    -0.349238    -0.739241
C       1.267909    -1.681655    -0.446407
H      -0.953420    -3.480961    -1.110711
H      -2.773439    -2.897408    -2.657793
H      -0.940824     0.914526    -3.436132
H       3.030912    -0.516147    -1.098483
N       1.214778     0.331206    -1.731158
C       1.512142     1.636769    -2.263118
H       0.816773     2.394409    -1.882291
H       2.526152     1.914773    -1.973765
H       1.456605     1.623756    -3.357786
O      -2.941969    -0.514272    -3.970182
C      -4.017599    -1.392618    -4.243112
H      -4.668330    -0.865214    -4.941738
H      -3.665598    -2.321914    -4.706852
H      -4.579997    -1.630995    -3.332312
N       1.000743    -2.980611     1.533608
C      -0.299732    -3.484957     1.563999
O      -0.512146    -4.677963     1.500498
C      -1.484301    -2.515893     1.695921
H      -1.870155    -2.676227     2.706837
H      -2.246420    -2.923204     1.029099
C      -1.260535    -1.013462     1.418178
H      -1.443993    -0.792732     0.369624
H      -1.982013    -0.434676     2.003074
C       0.168064    -0.656801     1.811340
C       0.799993     0.695022     1.345399
H       1.043486     1.294801     2.228229
C       2.096997    -2.987449    -0.595363
H       3.136783    -2.755111    -0.833566
H       1.696817    -3.588706    -1.413482
C       1.999259    -3.735818     0.762547
H       1.665206    -4.766787     0.666803
H       2.948197    -3.712535     1.300776
C       0.235877    -0.754419     3.363456
H      -0.396883     0.065958     3.729152
H      -0.271004    -1.671195     3.673402
C       1.577101    -0.705344     4.096918
H       2.163446     0.182932     3.857473
H       1.382556    -0.700077     5.174733
H       2.189561    -1.578106     3.867837
O       0.039609     1.463533     0.452809
C      -0.846727     2.379698     1.080757
H      -1.473619     1.856477     1.817251
H      -0.271539     3.148427     1.615610
C      -1.708225     3.008865     0.016528
C      -1.785168     4.389124    -0.125886
C      -2.437641     2.195455    -0.849533
C      -2.581633     4.953046    -1.118909
H      -1.215330     5.031860     0.539929
C      -3.221567     2.751947    -1.848710
H      -2.372297     1.117796    -0.754483
C      -3.297797     4.135820    -1.983206
H      -2.635511     6.032492    -1.219961
H      -3.766684     2.102210    -2.526543
H      -3.913379     4.574257    -2.762466
C       1.124432    -1.621229     1.119986
O       2.398468    -1.006846     1.424639
C       2.142696     0.214280     0.702339
C       3.319367     1.166669     0.883649
O       4.038215     1.539068    -0.007210
O       3.462887     1.547935     2.156347
C       4.561437     2.433441     2.418354
H       4.446362     3.358453     1.849657
H       4.528839     2.632379     3.488624
H       5.503980     1.956296     2.143104
72
     -1725.809938     -1725.269832   3.62   4.32
C      -0.709554    -1.828757     0.029558
C      -0.628121    -1.303764     1.333070
C      -1.758979    -1.239571     2.110519
C      -3.002866    -1.614997     1.584852
C      -3.072628    -2.080150     0.274696
C      -1.923771    -2.211599    -0.513058
C       1.538624    -1.353026     0.321075
C       0.806988    -0.962593     1.633686
H      -1.706652    -0.883735     3.136507
H      -3.886137    -1.539353     2.204565
H      -2.018992    -2.587260    -1.524033
H       2.352096    -2.062292     0.504275
N       0.535495    -1.926363    -0.539252
C       0.774731    -2.289097    -1.911551
H       0.436519    -1.514672    -2.610113
H       1.846744    -2.446371    -2.057674
H       0.266243    -3.229269    -2.149365
O      -4.234194    -2.445342    -0.342191
C      -5.433670    -2.370024     0.405229
H      -6.227209    -2.708394    -0.262195
H      -5.396763    -3.023832     1.284830
H      -5.641822    -1.341853     0.724907
N       1.197176     0.779101     3.220388
C      -0.028791     1.255106     3.684637
O      -0.362335     1.109092     4.842328
C      -0.962837     1.996805     2.717576
H      -0.901949     3.048326     3.013605
H      -1.966045     1.673283     3.001634
C      -0.743710     1.835044     1.198435
H      -1.304991     0.982116     0.825177
H      -1.126592     2.723223     0.685791
C       0.746683     1.660086     0.939101
C       1.242705     1.143524    -0.445727
H       1.825839     1.922770    -0.943259
C       1.352647    -1.591666     2.946594
H       2.212449    -2.232453     2.740556
H       0.580992    -2.212949     3.404342
C       1.751623    -0.413537     3.875554
H       1.336749    -0.492850     4.878020
H       2.835360    -0.303784     3.939110
C       1.421833     3.026925     1.251873
H       0.993347     3.727179     0.522027
H       1.072938     3.371657     2.228610
C       2.945109     3.174883     1.231789
H       3.192474     4.234848     1.353813
H       3.416020     2.620148     2.042937
H       3.397200     2.839475     0.294608
O       0.245216     0.684376    -1.318206
C      -0.189607     1.655826    -2.259588
H      -0.536104     2.559612    -1.736161
H       0.647924     1.941586    -2.909888
C      -1.310528     1.058693    -3.070442
C      -1.252300     1.020727    -4.458541
C      -2.422894     0.522413    -2.423432
C      -2.291676     0.457962    -5.194295
H      -0.385578     1.429023    -4.971385
C      -3.454419    -0.051402    -3.150984
H      -2.467625     0.533756    -1.340197
C      -3.392081    -0.081399    -4.541726
H      -2.235846     0.435521    -6.278161
H      -4.302226    -0.484418    -2.629424
H      -4.199800    -0.527587    -5.113531
C       1.275224     0.532426     1.817698
O       2.619081     0.398230     1.303676
C       2.221191     0.007628    -0.023956
C       3.431267    -0.104726    -0.935284
O       3.526687     0.442953    -2.003622
O       4.366888    -0.905818    -0.419600
C       5.547111    -1.074154    -1.218072
H       5.291655    -1.505196    -2.188456
H       6.039231    -0.111475    -1.370883
H       6.189230    -1.748593    -0.653383
72
     -1725.808719     -1725.269732   4.39   4.38
C      -0.576686    -2.408974     0.887775
C      -0.523003    -1.472514     1.926287
C      -1.583232    -1.368513     2.806661
C      -2.724419    -2.138397     2.615303
C      -2.787124    -3.030577     1.543089
C      -1.711631    -3.187368     0.666094
C       1.524237    -1.454754     0.694613
C       0.810274    -0.776985     1.894515
H      -1.539131    -0.680285     3.646857
H      -3.575483    -2.068190     3.282167
H      -1.745588    -3.889600    -0.155432
H       2.483428    -1.896625     0.986669
N       0.616295    -2.460224     0.207201
C       0.865605    -3.240012    -0.973843
H       0.495088    -4.261271    -0.840072
H       0.401949    -2.809201    -1.869939
H       1.944396    -3.301416    -1.141883
O      -3.951920    -3.729229     1.433957
C      -4.076341    -4.659183     0.375529
H      -5.070553    -5.096419     0.473107
H      -3.991228    -4.167456    -0.601197
H      -3.323125    -5.452992     0.450152
N       0.878427     1.453211     2.741938
C      -0.397249     1.805596     3.184839
O      -0.614797     2.021762     4.359285
C      -1.538805     1.940673     2.166896
H      -1.725252     3.016333     2.093090
H      -2.411695     1.530802     2.678885
C      -1.375682     1.308853     0.767543
H      -1.749615     0.287872     0.762470
H      -1.971194     1.871962     0.044293
C       0.096770     1.357467     0.383959
C       0.622370     0.508598    -0.809337
H       0.999867     1.181803    -1.578891
C       1.571026    -0.779912     3.249912
H       2.545362    -1.262170     3.146428
H       1.000776    -1.344210     3.989884
C       1.733254     0.705201     3.673975
H       1.405674     0.903102     4.692336
H       2.762923     1.044947     3.551485
C       0.437942     2.854975     0.125431
H      -0.169430     3.131187    -0.746933
H       0.052318     3.449098     0.958139
C       1.881814     3.297496    -0.122497
H       2.363723     2.751113    -0.937832
H       1.878479     4.357970    -0.396705
H       2.501059     3.177582     0.766667
O      -0.329836    -0.357043    -1.374156
C      -0.504545    -0.204721    -2.781658
H       0.445559    -0.382029    -3.297799
H      -1.207113    -0.994282    -3.060690
C      -1.060298     1.151459    -3.155193
C      -0.287388     2.069896    -3.858742
C      -2.349425     1.512159    -2.765583
C      -0.788130     3.332019    -4.163012
H       0.719249     1.797162    -4.164161
C      -2.853143     2.769624    -3.066175
H      -2.958029     0.798881    -2.216656
C      -2.070731     3.684759    -3.765345
H      -0.173522     4.039194    -4.711135
H      -3.858307     3.038653    -2.756766
H      -2.463728     4.668560    -4.001361
C       0.928183     0.746717     1.504484
O       2.234466     0.705511     0.885749
C       1.858617    -0.199867    -0.167401
C       2.997136    -0.410499    -1.144449
O       2.864394    -0.399329    -2.343590
O       4.153162    -0.651204    -0.525080
C       5.279515    -0.890014    -1.381740
H       5.098751    -1.762886    -2.012708
H       5.462822    -0.019615    -2.015028
H       6.122465    -1.064232    -0.714672
72
     -1725.809556     -1725.269726   3.86   4.38
C      -0.327175    -2.317305    -1.221207
C       0.345880    -2.617907    -0.021706
C      -0.014031    -3.729609     0.699857
C      -1.087402    -4.528668     0.281023
C      -1.769599    -4.192888    -0.884831
C      -1.393732    -3.085857    -1.656231
C       1.366063    -0.731249    -1.100728
C       1.436578    -1.604878     0.180635
H       0.521571    -4.002500     1.605566
H      -1.363887    -5.395551     0.865617
H      -1.938308    -2.869547    -2.567320
H       2.289394    -0.781994    -1.688204
N       0.237460    -1.238064    -1.845228
C      -0.148177    -0.781346    -3.154280
H      -0.095798    -1.596000    -3.888192
H      -1.170979    -0.385960    -3.145852
H       0.529669     0.013442    -3.466953
O      -2.827769    -4.897824    -1.375906
C      -3.260415    -6.033984    -0.651491
H      -3.584675    -5.762566     0.360346
H      -4.107532    -6.440507    -1.205266
H      -2.470573    -6.792171    -0.589040
N       1.877543    -1.130846     2.465620
C       0.974675    -1.858468     3.243551
O       1.359346    -2.722878     4.003593
C      -0.530998    -1.559828     3.146742
H      -0.791696    -1.110067     4.109141
H      -1.002324    -2.544400     3.151610
C      -1.058746    -0.706678     1.971381
H      -1.353028    -1.341957     1.138369
H      -1.954107    -0.165069     2.293158
C       0.037737     0.266362     1.560513
C      -0.062958     1.039247     0.208128
H      -0.042173     2.110740     0.421387
C       2.819315    -2.210959     0.541903
H       3.593824    -1.803255    -0.110373
H       2.801685    -3.293095     0.402321
C       3.097294    -1.823997     2.022377
H       3.268640    -2.681069     2.670704
H       3.942646    -1.138614     2.103453
C       0.188995     1.289189     2.724830
H      -0.742385     1.871712     2.718292
H       0.181669     0.743041     3.670899
C       1.374560     2.255149     2.763124
H       1.463224     2.858899     1.858681
H       1.242445     2.935224     3.611453
H       2.317209     1.723465     2.898839
O      -1.177838     0.751295    -0.599584
C      -2.214302     1.716176    -0.505312
H      -3.066895     1.269321    -1.024350
H      -2.507222     1.872225     0.542051
C      -1.849681     3.041828    -1.143135
C      -1.252751     3.070896    -2.402784
C      -2.113619     4.243212    -0.494139
C      -0.939835     4.280889    -3.006070
H      -1.028084     2.138804    -2.909772
C      -1.798018     5.458316    -1.094546
H      -2.568077     4.233054     0.493091
C      -1.212745     5.479664    -2.353455
H      -0.481000     4.289284    -3.990087
H      -2.011397     6.387811    -0.576137
H      -0.968704     6.426036    -2.825818
C       1.321791    -0.515256     1.305089
O       2.146728     0.500190     0.688815
C       1.301514     0.684323    -0.464446
C       1.838156     1.798276    -1.348528
O       2.031673     1.689950    -2.532933
O       2.038212     2.923052    -0.661765
C       2.501892     4.047466    -1.424455
H       1.766872     4.313006    -2.185459
H       2.617940     4.858103    -0.706695
H       3.456442     3.813172    -1.899880
72
     -1725.808958     -1725.268816   4.24   4.95
C      -1.293457    -0.856361    -1.031755
C      -0.827756    -1.687394    -0.011736
C      -1.735358    -2.293218     0.840678
C      -3.093261    -2.041390     0.703639
C      -3.545036    -1.199729    -0.316071
C      -2.651710    -0.601692    -1.203302
C       0.992534    -0.923959    -1.345988
C       0.660636    -1.860106    -0.150393
H      -1.395421    -2.976758     1.614364
H      -3.824187    -2.497136     1.361447
H      -2.987729     0.076678    -1.975334
H       1.501665    -1.458949    -2.153870
N      -0.257941    -0.354770    -1.806507
C      -0.445900    -0.048470    -3.209019
H      -1.208134     0.726686    -3.324038
H       0.492014     0.331999    -3.615332
H      -0.755075    -0.929104    -3.792022
O      -4.893980    -1.017859    -0.370092
C      -5.420547    -0.279132    -1.458294
H      -6.503338    -0.282830    -1.327969
H      -5.057373     0.754031    -1.456582
H      -5.168935    -0.753178    -2.415003
N       1.935106    -2.506214     1.761699
C       1.094539    -2.676718     2.858522
O       0.951512    -3.765459     3.375732
C       0.350683    -1.465592     3.432413
H       0.796803    -1.299601     4.414134
H      -0.654559    -1.839299     3.638955
C       0.279800    -0.160312     2.610219
H      -0.632090    -0.151289     2.016145
H       0.228463     0.699598     3.285705
C       1.491917    -0.049519     1.698015
C       1.436838     0.911047     0.474115
H       2.121403     1.753369     0.628525
C       1.098971    -3.347368    -0.302942
H       1.557999    -3.522257    -1.278627
H       0.222465    -3.994091    -0.232297
C       2.097505    -3.640310     0.844985
H       1.884465    -4.563556     1.379426
H       3.128855    -3.655056     0.488636
C       2.770809     0.386495     2.473416
H       3.589908     0.430419     1.752002
H       2.574971     1.423048     2.778144
C       3.260558    -0.376139     3.706691
H       4.218883     0.052248     4.016682
H       2.584577    -0.279482     4.558805
H       3.426466    -1.435873     3.509256
O       0.142382     1.395623     0.275342
C       0.043941     2.450763    -0.658861
H       0.585274     3.330693    -0.274908
H       0.505083     2.169099    -1.613203
C      -1.408893     2.793924    -0.880231
C      -1.800912     3.408154    -2.067062
C      -2.367567     2.532849     0.094123
C      -3.128062     3.763620    -2.277076
H      -1.060393     3.611862    -2.836611
C      -3.694649     2.888179    -0.112343
H      -2.072471     2.035864     1.010418
C      -4.079406     3.507094    -1.296402
H      -3.418313     4.246067    -3.205379
H      -4.432026     2.678211     0.656805
H      -5.115814     3.789562    -1.454517
C       1.685736    -1.364058     0.945854
O       2.778123    -1.003050     0.072863
C       2.040990    -0.011880    -0.669854
C       2.975969     0.714666    -1.617884
O       2.779038     0.849319    -2.799649
O       4.034670     1.217432    -0.978595
C       4.974897     1.929110    -1.797291
H       5.760322     2.260225    -1.119526
H       5.381773     1.267865    -2.564894
H       4.491747     2.783354    -2.276293
72
     -1725.807258     -1725.267984   5.30   5.48
C      -1.051643     0.948488    -1.082556
C      -1.023556    -0.416348    -1.375622
C      -2.213713    -1.110901    -1.502427
C      -3.423700    -0.457409    -1.310599
C      -3.436878     0.908616    -1.019639
C      -2.250629     1.633446    -0.910499
C       1.192139     0.448854    -1.301692
C       0.398436    -0.843962    -1.623257
H      -2.210956    -2.168888    -1.754215
H      -4.370148    -0.978434    -1.396728
H      -2.251952     2.681022    -0.642881
H       1.831428     0.750476    -2.137737
N       0.226839     1.475620    -0.981066
C       0.519495     2.865999    -1.230144
H       1.569576     3.059846    -0.994102
H       0.338476     3.160946    -2.274900
H      -0.086629     3.502017    -0.579692
O      -4.671069     1.459542    -0.848723
C      -4.757769     2.868875    -0.727061
H      -4.249911     3.227286     0.174159
H      -4.335304     3.366231    -1.608754
H      -5.821571     3.099190    -0.658206
N       0.968344    -3.147127    -1.420884
C      -0.080013    -3.969608    -1.032494
O      -0.513269    -4.828746    -1.773902
C      -0.680690    -3.796933     0.367192
H      -0.316136    -4.643839     0.954657
H      -1.750011    -3.975439     0.234427
C      -0.431493    -2.468153     1.102000
H      -1.163755    -1.726404     0.788658
H      -0.560282    -2.608527     2.179521
C       0.971391    -1.980533     0.780477
C       1.355002    -0.514802     1.129959
H       2.055705    -0.482881     1.969904
C       0.620423    -1.441982    -3.044691
H       1.321765    -0.832231    -3.618894
H      -0.326133    -1.452786    -3.587931
C       1.167711    -2.877625    -2.846603
H       0.636907    -3.629242    -3.427266
H       2.234786    -2.934929    -3.071216
C       2.064356    -2.871518     1.460042
H       2.966226    -2.263409     1.565875
H       1.704473    -3.046059     2.482453
C       2.531978    -4.200116     0.856604
H       3.012958    -4.049460    -0.110475
H       3.273295    -4.636122     1.534308
H       1.742824    -4.941505     0.728389
O       0.212528     0.223064     1.453168
C       0.458929     1.456534     2.097646
H       0.963697     1.273411     3.059195
H       1.128920     2.082175     1.498673
C      -0.850556     2.170581     2.326125
C      -0.864270     3.555491     2.473368
C      -2.050313     1.471108     2.417964
C      -2.053616     4.231868     2.718935
H       0.066795     4.112098     2.398941
C      -3.241512     2.144135     2.658304
H      -2.049976     0.396302     2.281974
C      -3.247092     3.525616     2.815255
H      -2.047219     5.311035     2.838255
H      -4.170875     1.585265     2.715236
H      -4.177485     4.050309     3.010668
C       1.144277    -1.913051    -0.732051
O       2.480936    -1.358896    -0.793543
C       2.128400    -0.096066    -0.186085
C       3.374707     0.735975     0.051634
O       3.621152     1.317329     1.078411
O       4.151489     0.780127    -1.032840
C       5.351295     1.556867    -0.905694
H       5.980215     1.150990    -0.110742
H       5.852722     1.480125    -1.869329
H       5.109518     2.597078    -0.677237
72
     -1725.807110     -1725.267957   5.40   5.49
C       0.348929    -1.168761    -1.525262
C      -0.043280    -1.859497    -0.363200
C      -1.174746    -2.638327    -0.387952
C      -1.984158    -2.678380    -1.531472
C      -1.611003    -1.941468    -2.651529
C      -0.429762    -1.191997    -2.668708
C       2.017504    -0.710729     0.012817
C       0.995245    -1.647383     0.706947
H      -1.459471    -3.228926     0.478959
H      -2.880879    -3.283250    -1.526984
H      -0.169180    -0.642312    -3.564308
H       3.033713    -1.116069     0.049853
N       1.569135    -0.564060    -1.348351
C       2.158006     0.363901    -2.278146
H       1.626542     1.322723    -2.303217
H       3.196944     0.546930    -1.990575
H       2.164648    -0.065115    -3.284990
O      -2.338884    -1.891043    -3.805456
C      -3.523731    -2.661765    -3.875276
H      -3.311630    -3.730420    -3.750616
H      -4.252384    -2.345409    -3.119154
H      -3.937698    -2.490363    -4.869744
N       0.299881    -1.832894     2.980052
C      -1.050509    -2.175685     3.000362
O      -1.420519    -3.244344     3.441007
C      -2.092348    -1.180542     2.474349
H      -2.657941    -0.876267     3.356236
H      -2.783737    -1.794392     1.893806
C      -1.632701     0.041206     1.647871
H      -1.695151    -0.189882     0.585311
H      -2.312837     0.878936     1.835666
C      -0.205872     0.414618     2.016082
C       0.652109     1.280456     1.031972
H       0.853047     2.254361     1.485563
C       1.565900    -2.963712     1.307226
H       2.638234    -3.045980     1.117684
H       1.082022    -3.820352     0.834775
C       1.269304    -2.924813     2.828332
H       0.831853    -3.845347     3.208307
H       2.161633    -2.678536     3.405880
C      -0.141218     1.187587     3.367638
H       0.912728     1.354993     3.601630
H      -0.566899     2.176658     3.152664
C      -0.829548     0.654321     4.626101
H      -0.574895     1.314286     5.461269
H      -1.918689     0.659230     4.543587
H      -0.501347    -0.350516     4.894564
O       0.119910     1.474276    -0.250360
C      -0.594105     2.696298    -0.390666
H      -1.423364     2.731635     0.331818
H       0.076037     3.540529    -0.180857
C      -1.122331     2.781520    -1.798590
C      -0.791553     3.849479    -2.624497
C      -1.946227     1.771771    -2.292851
C      -1.278602     3.913072    -3.927097
H      -0.144015     4.637554    -2.249626
C      -2.423770     1.824057    -3.593531
H      -2.194751     0.927189    -1.659575
C      -2.092632     2.899223    -4.413987
H      -1.014823     4.752938    -4.562248
H      -3.045663     1.017807    -3.969255
H      -2.467440     2.942834    -5.431859
C       0.670107    -0.838120     2.026540
O       1.970800    -0.246925     2.245678
C       1.994134     0.489613     1.005992
C       3.215278     1.389005     0.929480
O       3.176038     2.557642     0.640667
O       4.340756     0.719028     1.187709
C       5.549196     1.490455     1.127213
H       5.680172     1.914682     0.129435
H       5.516977     2.299095     1.860190
H       6.353501     0.793674     1.358703
72
     -1725.804938     -1725.267942   6.76   5.50
C       1.225836    -1.535857    -1.548668
C       1.509025    -1.684285    -0.179988
C       1.459905    -2.934003     0.391362
C       1.100275    -4.050905    -0.372165
C       0.819697    -3.885115    -1.725392
C       0.886215    -2.624132    -2.330471
C       1.770196     0.590377    -0.829532
C       1.961442    -0.361219     0.380141
H       1.702902    -3.068473     1.442935
H       1.057682    -5.025030     0.096140
H       0.659106    -2.541495    -3.386632
H       2.691384     1.133046    -1.067261
N       1.330640    -0.213514    -1.946305
C       1.640996     0.170184    -3.301452
H       1.552244     1.255605    -3.398690
H       2.655821    -0.125996    -3.608103
H       0.928159    -0.282192    -3.995734
O       0.467565    -4.902212    -2.560947
C       0.385983    -6.206994    -2.018553
H      -0.370449    -6.263607    -1.226611
H       0.094773    -6.858991    -2.842880
H       1.353939    -6.535125    -1.621133
N       1.836200     0.027153     2.728810
C       1.304536    -1.028704     3.455754
O       1.976611    -1.636958     4.264590
C      -0.163388    -1.415095     3.241719
H      -0.693766    -1.070144     4.133048
H      -0.173929    -2.505544     3.304937
C      -0.863450    -0.933451     1.958013
H      -0.675814    -1.632084     1.145149
H      -1.946699    -0.909285     2.112355
C      -0.340175     0.444277     1.587364
C      -0.623818     0.991828     0.160494
H      -1.365554     1.793939     0.190789
C       3.395992    -0.410973     0.986243
H       4.078353     0.234822     0.428588
H       3.783591    -1.429365     0.923407
C       3.275903     0.048254     2.460717
H       3.778158    -0.612812     3.163944
H       3.644309     1.067336     2.594784
C      -0.862956     1.548402     2.563467
H      -0.794391     2.506982     2.042851
H      -1.936741     1.349786     2.676889
C      -0.242022     1.779054     3.944710
H      -0.274598     0.910701     4.603457
H       0.796463     2.102169     3.864272
H      -0.803509     2.577722     4.440598
O      -1.081083    -0.038153    -0.668319
C      -1.776969     0.380686    -1.832259
H      -1.187065     1.108709    -2.397130
H      -1.875890    -0.525390    -2.436717
C      -3.140429     0.953131    -1.509761
C      -3.524457     2.199886    -1.990918
C      -4.028773     0.229158    -0.714759
C      -4.785009     2.711774    -1.696501
H      -2.825964     2.780489    -2.585893
C      -5.284299     0.738509    -0.416231
H      -3.726522    -0.739903    -0.327959
C      -5.667405     1.982418    -0.911301
H      -5.073506     3.685792    -2.079260
H      -5.968231     0.165220     0.202154
H      -6.650187     2.381305    -0.680378
C       1.181702     0.406228     1.521878
O       1.436321     1.763041     1.089450
C       0.789377     1.616130    -0.193330
C       0.736981     2.942431    -0.922917
O      -0.196300     3.315761    -1.589356
O       1.872818     3.628814    -0.786247
C       1.927121     4.884686    -1.477496
H       1.139663     5.549216    -1.115970
H       2.909854     5.297950    -1.255408
H       1.805616     4.734037    -2.552384
72
     -1725.806930     -1725.267745   5.51   5.63
C      -1.166355     0.899965    -1.284553
C      -0.895065    -0.439128    -1.584326
C      -1.937513    -1.342667    -1.664785
C      -3.238525    -0.932496    -1.393378
C      -3.490304     0.401817    -1.069710
C      -2.459446     1.339769    -1.016284
C       1.125871     0.826039    -1.571891
C       0.577601    -0.594932    -1.861316
H      -1.750309    -2.379406    -1.934404
H      -4.072569    -1.622796    -1.440201
H      -2.646803     2.371248    -0.752568
H       1.731182     1.207900    -2.399960
N      -0.023484     1.665539    -1.345989
C       0.086559     3.002512    -0.822766
H      -0.721307     3.628376    -1.213002
H       0.059430     3.027665     0.273770
H       1.030703     3.440411    -1.158046
O      -4.794787     0.708808    -0.815746
C      -5.135031     2.074414    -0.651641
H      -4.655612     2.505041     0.234676
H      -4.859510     2.658383    -1.538170
H      -6.217886     2.101124    -0.524199
N       1.581395    -2.743126    -1.621540
C       0.678287    -3.726036    -1.238917
O       0.410910    -4.655810    -1.972741
C       0.024308    -3.641674     0.146098
H       0.493088    -4.428181     0.742502
H      -1.003156    -3.976065    -0.013158
C       0.051949    -2.293455     0.890706
H      -0.801546    -1.688719     0.590767
H      -0.039517    -2.472347     1.967035
C       1.342627    -1.563002     0.562770
C       1.465406    -0.036821     0.880830
H       2.165533     0.118426     1.704293
C       0.888000    -1.175996    -3.270601
H       1.420189    -0.447320    -3.886060
H      -0.048133    -1.414004    -3.778876
C       1.737272    -2.451871    -3.049462
H       1.394946    -3.307727    -3.627263
H       2.794018    -2.272448    -3.256831
C       2.575398    -2.222992     1.264458
H       3.372170    -1.476226     1.304765
H       2.266385    -2.384014     2.306142
C       3.231485    -3.501396     0.733421
H       2.561853    -4.359675     0.672612
H       3.668397    -3.344111    -0.253075
H       4.040703    -3.775635     1.418058
O       0.261061     0.619795     1.178964
C       0.051111     0.795363     2.573870
H       0.183191    -0.164751     3.094866
H       0.795155     1.498087     2.972491
C      -1.344501     1.313022     2.806118
C      -1.561516     2.475120     3.538060
C      -2.441477     0.611187     2.308474
C      -2.855142     2.928509     3.779989
H      -0.712566     3.032381     3.924821
C      -3.732036     1.059046     2.546723
H      -2.282484    -0.285096     1.719311
C      -3.942199     2.219792     3.286363
H      -3.011111     3.835714     4.355417
H      -4.575039     0.503048     2.148032
H      -4.952474     2.569790     3.475637
C       1.513576    -1.487994    -0.950707
O       2.722825    -0.691901    -1.015917
C       2.132808     0.488654    -0.431759
C       3.175851     1.562363    -0.184776
O       3.273010     2.181458     0.844322
O       3.943794     1.766462    -1.256778
C       4.947977     2.781846    -1.116247
H       5.468923     2.812677    -2.072096
H       4.485600     3.746551    -0.896537
H       5.636856     2.521511    -0.310087
72
     -1725.807279     -1725.267340   5.29   5.88
C       0.802278    -2.465579    -0.142162
C       0.297693    -2.146552     1.128916
C      -0.570962    -3.013490     1.751957
C      -0.991355    -4.181906     1.107959
C      -0.494115    -4.475112    -0.159395
C       0.416938    -3.623608    -0.793788
C       1.883401    -0.504785     0.433985
C       0.970694    -0.897247     1.628469
H      -0.932500    -2.806649     2.755869
H      -1.682670    -4.846316     1.608674
H       0.786270    -3.894724    -1.775469
H       2.935128    -0.434994     0.731328
N       1.699533    -1.510460    -0.593507
C       2.801098    -1.871927    -1.460527
H       3.476750    -2.605346    -0.994829
H       2.421353    -2.302572    -2.391111
H       3.366952    -0.972658    -1.706178
O      -0.831819    -5.586530    -0.871647
C      -1.745855    -6.495731    -0.287499
H      -1.878705    -7.298563    -1.013576
H      -1.351441    -6.913330     0.646647
H      -2.713946    -6.018847    -0.092691
N      -0.164731     0.403765     3.271174
C      -1.373887    -0.215171     3.580528
O      -1.583104    -0.662240     4.689754
C      -2.465133    -0.321392     2.508721
H      -3.270232     0.323720     2.863832
H      -2.850033    -1.337733     2.616346
C      -2.113405    -0.033671     1.032242
H      -1.872914    -0.964148     0.521340
H      -2.983312     0.391969     0.521802
C      -0.932825     0.921624     0.953703
C      -0.109541     1.012466    -0.364125
H      -0.237024     2.005904    -0.803083
C       1.681300    -1.079113     3.002471
H       2.755777    -0.904726     2.911682
H       1.543424    -2.103315     3.353798
C       1.033683    -0.062993     3.977881
H       0.737893    -0.502702     4.927927
H       1.685920     0.792804     4.159288
C      -1.353297     2.393996     1.243680
H      -0.445874     3.001969     1.220667
H      -1.944748     2.693921     0.368459
C      -2.152907     2.768283     2.493647
H      -3.166592     2.361742     2.481912
H      -1.661844     2.460563     3.417743
H      -2.251989     3.857968     2.524507
O      -0.512283     0.044428    -1.291502
C       0.050080     0.187767    -2.587373
H       1.138284     0.082142    -2.546871
H      -0.345805    -0.657610    -3.156863
C      -0.312754     1.493887    -3.261613
C      -1.632339     1.942487    -3.272195
C       0.668275     2.261727    -3.879988
C      -1.965218     3.137393    -3.894685
H      -2.398403     1.348907    -2.781622
C       0.336947     3.457435    -4.510197
H       1.700782     1.923021    -3.862338
C      -0.979995     3.897685    -4.518689
H      -2.996306     3.477228    -3.896738
H       1.110468     4.045121    -4.995290
H      -1.240304     4.830360    -5.008901
C       0.177120     0.443004     1.886702
O       1.224118     1.378229     1.551497
C       1.374713     0.934154     0.188615
C       2.315135     1.845293    -0.571433
O       3.166380     1.454177    -1.332517
O       2.049240     3.131481    -0.348103
C       2.837675     4.071880    -1.092582
H       2.646612     3.958195    -2.161648
H       2.518179     5.055087    -0.750412
H       3.900081     3.919957    -0.892575
72
     -1725.807111     -1725.267309   5.40   5.90
C      -0.235224    -0.871749    -2.437321
C      -0.618177    -1.881460    -1.553680
C      -1.765753    -2.613504    -1.809415
C      -2.553934    -2.309691    -2.909911
C      -2.170042    -1.283948    -3.777435
C      -0.999768    -0.556961    -3.559523
C       1.469443    -0.948189    -0.880808
C       0.447561    -2.057346    -0.507417
H      -2.052784    -3.435473    -1.159032
H      -3.461762    -2.859928    -3.127643
H      -0.690927     0.232916    -4.230490
H       2.467170    -1.359577    -1.066383
N       0.958455    -0.274274    -2.059039
C       1.880411     0.249729    -3.044845
H       2.743282     0.672755    -2.529376
H       2.226036    -0.522774    -3.748397
H       1.404309     1.047857    -3.621321
O      -3.007511    -1.066147    -4.829479
C      -2.675862    -0.039884    -5.744910
H      -3.469598    -0.033727    -6.492507
H      -2.636079     0.938671    -5.251113
H      -1.716305    -0.238421    -6.237672
N      -0.177304    -3.019134     1.582299
C      -1.535588    -3.327060     1.552495
O      -1.918731    -4.476993     1.621956
C      -2.565480    -2.196230     1.444897
H      -3.093150    -2.206005     2.399804
H      -3.292566    -2.563056     0.717245
C      -2.098191    -0.773135     1.066183
H      -2.198701    -0.624652    -0.007367
H      -2.742556    -0.032098     1.550037
C      -0.650311    -0.570700     1.485037
C       0.181922     0.572282     0.833819
H       0.434186     1.315329     1.595410
C       1.008434    -3.508059    -0.426040
H       2.074273    -3.528464    -0.664441
H       0.496830    -4.139533    -1.154803
C       0.752360    -4.005437     1.019744
H       0.294699    -4.991358     1.064027
H       1.666801    -4.000715     1.615154
C      -0.516125    -0.315372     3.016567
H       0.550142    -0.235446     3.240806
H      -0.937226     0.686883     3.171307
C      -1.156177    -1.250725     4.044817
H      -0.831952    -2.286290     3.934072
H      -0.855297    -0.920220     5.044034
H      -2.247662    -1.219443     4.019945
O      -0.521101     1.196831    -0.203137
C       0.086476     2.375212    -0.711497
H       1.061029     2.144456    -1.152120
H      -0.575064     2.702429    -1.518390
C       0.237866     3.471000     0.322141
C       1.444625     4.149471     0.455342
C      -0.828717     3.814453     1.151074
C       1.584065     5.165014     1.396570
H       2.283417     3.875866    -0.179193
C      -0.691147     4.822727     2.094753
H      -1.769032     3.279298     1.054899
C       0.516927     5.503510     2.218050
H       2.529076     5.692081     1.486935
H      -1.528525     5.081903     2.735258
H       0.623944     6.294672     2.953269
C       0.188022    -1.759592     1.021313
O       1.510773    -1.303801     1.377244
C       1.522939    -0.189028     0.464104
C       2.747670     0.673045     0.685286
O       3.415713     1.138010    -0.206118
O       2.962779     0.908701     1.978623
C       4.056392     1.787781     2.281125
H       4.985937     1.395883     1.863799
H       3.862432     2.781877     1.873143
H       4.107936     1.824962     3.368241
72
     -1725.807111     -1725.267302   5.40   5.90
C      -1.380836    -2.080052     0.723273
C      -0.718112    -1.563284     1.837227
C      -1.399181    -1.430452     3.035829
C      -2.744015    -1.762573     3.112407
C      -3.401625    -2.261513     1.985235
C      -2.727028    -2.437258     0.777027
C       0.796761    -1.788551     0.010746
C       0.736037    -1.370961     1.506019
H      -0.886374    -1.076059     3.926002
H      -3.302919    -1.658911     4.035019
H      -3.226306    -2.830629    -0.097869
H       1.513433    -2.599441    -0.156694
N      -0.541826    -2.190695    -0.376312
C      -0.722234    -3.243081    -1.354228
H       0.039729    -3.139064    -2.127403
H      -0.646905    -4.246824    -0.909164
H      -1.703001    -3.153431    -1.829718
O      -4.718335    -2.561706     2.163562
C      -5.442047    -3.070834     1.059845
H      -5.460135    -2.354885     0.229135
H      -5.022628    -4.022477     0.711353
H      -6.459621    -3.235090     1.415557
N       1.976791     0.221673     2.773726
C       1.139336     0.792275     3.729811
O       1.339376     0.627611     4.915862
C      -0.046082     1.654258     3.279360
H       0.198400     2.663619     3.613756
H      -0.869632     1.336064     3.922191
C      -0.483241     1.634648     1.797650
H      -1.283434     0.910171     1.658025
H      -0.889420     2.612532     1.519809
C       0.699126     1.280006     0.909442
C       0.442007     0.758298    -0.534374
H       0.824301     1.486009    -1.255514
C       1.700026    -2.125513     2.468992
H       2.287078    -2.871299     1.928243
H       1.119805    -2.652274     3.228898
C       2.618012    -1.054320     3.111733
H       2.691701    -1.139814     4.193718
H       3.618304    -1.067205     2.675856
C       1.664060     2.487879     0.712547
H       2.506928     2.136445     0.112819
H       1.108038     3.189860     0.077069
C       2.214802     3.276672     1.902654
H       2.930752     4.013410     1.524729
H       1.439825     3.835652     2.431705
H       2.744364     2.647004     2.618800
O      -0.921249     0.547374    -0.772400
C      -1.255061     0.266033    -2.123382
H      -0.781287    -0.664778    -2.449527
H      -2.336475     0.103980    -2.114081
C      -0.898720     1.384719    -3.079320
C      -0.235216     1.107312    -4.269761
C      -1.231701     2.704612    -2.779841
C       0.083968     2.131628    -5.156060
H       0.038727     0.081446    -4.501349
C      -0.909624     3.729202    -3.658817
H      -1.741613     2.924392    -1.846283
C      -0.252273     3.444261    -4.852447
H       0.596348     1.902048    -6.085450
H      -1.173759     4.753685    -3.415316
H      -0.003437     4.244630    -5.541964
C       1.414244     0.054635     1.473651
O       2.378797    -0.191870     0.428347
C       1.405031    -0.500386    -0.588137
C       2.069606    -0.652833    -1.939864
O       1.796585    -1.521521    -2.732269
O       2.945924     0.322399    -2.175663
C       3.566328     0.306934    -3.469932
H       2.814366     0.453378    -4.248027
H       4.274466     1.134184    -3.463280
H       4.081974    -0.641347    -3.633188
72
     -1725.807220     -1725.266625   5.33   6.33
C       0.103410    -2.401778     0.664024
C      -0.987528    -2.107175    -0.162882
C      -1.120157    -2.758405    -1.373792
C      -0.134194    -3.641562    -1.801257
C       0.978754    -3.881922    -0.993559
C       1.113745    -3.272551     0.255823
C      -1.155710    -0.897171     1.896638
C      -1.872707    -1.112210     0.535695
H      -1.986073    -2.580928    -2.006350
H      -0.206537    -4.156540    -2.751772
H       1.959769    -3.470963     0.899555
H      -1.804145    -1.126844     2.747470
N      -0.004449    -1.766219     1.871904
C       0.957619    -1.862162     2.937430
H       0.531277    -1.422654     3.840056
H       1.194261    -2.912139     3.143534
H       1.887437    -1.330378     2.698746
O       1.895504    -4.750717    -1.506776
C       3.031017    -5.062163    -0.723382
H       3.633547    -4.168727    -0.518474
H       2.745406    -5.532776     0.225298
H       3.620219    -5.766266    -1.311793
N      -3.104028     0.357950    -0.880353
C      -2.812201     0.042667    -2.207982
O      -3.668295    -0.389645    -2.951853
C      -1.389629     0.263124    -2.739882
H      -1.472921     1.116394    -3.419828
H      -1.201561    -0.598294    -3.383618
C      -0.228707     0.461842    -1.740507
H       0.237436    -0.491138    -1.503770
H       0.538647     1.083510    -2.206134
C      -0.775608     1.140003    -0.490197
C       0.056148     1.177985     0.834692
H       0.269574     2.221447     1.079376
C      -3.373943    -1.509175     0.592255
H      -3.724430    -1.545195     1.625787
H      -3.508486    -2.503646     0.163003
C      -4.149638    -0.433401    -0.215955
H      -4.810362    -0.852090    -0.972079
H      -4.721301     0.224515     0.440571
C      -1.127004     2.597638    -0.912824
H      -0.158321     3.064626    -1.134854
H      -1.655929     2.557534    -1.867962
C      -1.924953     3.520271     0.010014
H      -2.945310     3.161067     0.149214
H      -1.476167     3.632026     0.998231
H      -1.974091     4.512825    -0.450897
O       1.251366     0.440073     0.874542
C       2.455069     1.186728     0.763208
H       2.367128     2.130254     1.316824
H       3.217055     0.578076     1.259197
C       2.860337     1.447090    -0.668568
C       2.905589     2.737243    -1.182408
C       3.181526     0.373730    -1.499324
C       3.264498     2.959530    -2.509375
H       2.657164     3.579664    -0.542156
C       3.538451     0.589840    -2.821377
H       3.125907    -0.638367    -1.106843
C       3.580878     1.886104    -3.330210
H       3.297555     3.972208    -2.898589
H       3.783979    -0.252105    -3.461119
H       3.861951     2.055461    -4.364761
C      -1.989920     0.367003     0.009761
O      -2.237338     1.025814     1.274901
C      -0.986080     0.646540     1.877669
C      -0.876722     1.266258     3.265798
O      -0.844189     0.637904     4.292622
O      -0.815671     2.600641     3.216275
C      -0.734170     3.265452     4.485450
H      -0.701197     4.329932     4.257376
H      -1.610076     3.028034     5.092354
H       0.167526     2.956307     5.018162
72
     -1725.807341     -1725.266310   5.25   6.53
C      -1.215384    -1.021266    -1.319295
C      -0.573461    -1.869198    -0.396776
C      -1.327091    -2.629778     0.463505
C      -2.723288    -2.503207     0.485842
C      -3.337147    -1.619524    -0.396939
C      -2.593088    -0.881974    -1.323769
C       1.039067    -0.801856    -1.812271
C       0.910412    -1.817055    -0.642613
H      -0.852428    -3.335873     1.140030
H      -3.299646    -3.097269     1.182148
H      -3.108800    -0.213631    -2.001683
H       1.573134    -1.224153    -2.668964
N      -0.312107    -0.444402    -2.170436
C      -0.656913     0.547031    -3.157518
H      -1.452373     0.170871    -3.810550
H      -0.994804     1.481464    -2.692260
H       0.220536     0.757605    -3.769731
O      -4.684889    -1.403083    -0.441411
C      -5.504447    -2.148638     0.438821
H      -5.410088    -3.225614     0.254929
H      -5.262667    -1.936721     1.487355
H      -6.529540    -1.836852     0.234507
N       2.322594    -2.316214     1.209092
C       1.527093    -2.623833     2.309736
O       1.533988    -3.734331     2.799614
C       0.638668    -1.537552     2.927655
H       1.070443    -1.348907     3.911630
H      -0.308085    -2.043383     3.126631
C       0.393065    -0.221541     2.156780
H      -0.533740    -0.297744     1.589428
H       0.266493     0.594486     2.875940
C       1.556319     0.060568     1.218946
C       1.369678     1.045104     0.012435
H       1.990234     1.930064     0.179028
C       1.564825    -3.209727    -0.868172
H       2.036178    -3.260971    -1.851752
H       0.798116    -3.985489    -0.829362
C       2.611374    -3.398765     0.260234
H       2.527068    -4.353563     0.774606
H       3.629942    -3.273670    -0.110627
C       2.793068     0.625629     1.981112
H       3.595712     0.752942     1.250978
H       2.499792     1.637676     2.291470
C       3.368130    -0.082156     3.209993
H       4.275690     0.447422     3.516229
H       2.688976    -0.059903     4.065078
H       3.647604    -1.117042     3.009796
O       0.059652     1.453193    -0.272734
C      -0.331714     2.637065     0.412196
H      -0.222271     2.498950     1.497498
H       0.316955     3.471432     0.110743
C      -1.766245     2.935991     0.065427
C      -2.120709     4.122558    -0.565610
C      -2.758416     2.004450     0.366120
C      -3.449315     4.379638    -0.891986
H      -1.353070     4.852431    -0.808624
C      -4.081473     2.250178     0.031992
H      -2.487458     1.069582     0.844175
C      -4.430337     3.442620    -0.596571
H      -3.714835     5.310385    -1.383395
H      -4.837886     1.503840     0.252814
H      -5.465957     3.637770    -0.857017
C       1.895988    -1.202083     0.426454
O       2.894675    -0.681443    -0.476964
C       2.003586     0.224526    -1.162902
C       2.817103     1.051429    -2.149101
O       2.670799     1.035062    -3.343704
O       3.725204     1.805400    -1.521327
C       4.559705     2.606117    -2.371066
H       5.124479     1.968112    -3.053680
H       3.952384     3.304639    -2.950556
H       5.230937     3.142177    -1.701600
72
     -1725.807405     -1725.266300   5.21   6.53
C       0.435647    -1.118904    -1.657981
C      -0.602963    -1.667778    -0.896777
C      -1.856772    -1.806561    -1.459557
C      -2.099900    -1.338393    -2.747461
C      -1.062044    -0.762842    -3.481893
C       0.223585    -0.652448    -2.953124
C       1.433616    -1.654829     0.359750
C      -0.054453    -2.101145     0.436952
H      -2.662629    -2.280905    -0.905516
H      -3.076899    -1.426757    -3.207842
H       1.030118    -0.198227    -3.511713
H       2.122937    -2.477085     0.573335
N       1.626053    -1.155268    -0.980169
C       2.831631    -0.512504    -1.438105
H       2.719599     0.578614    -1.480499
H       3.644515    -0.754502    -0.753166
H       3.101904    -0.877690    -2.435201
O      -1.394877    -0.328661    -4.732511
C      -0.342432     0.044651    -5.604783
H      -0.811742     0.270285    -6.563124
H       0.186576     0.933491    -5.242876
H       0.371480    -0.777778    -5.734250
N      -1.562361    -2.266993     2.279630
C      -2.852244    -1.962706     1.854776
O      -3.733480    -2.797056     1.871491
C      -3.171609    -0.542387     1.374629
H      -3.847011    -0.135424     2.128543
H      -3.792325    -0.688977     0.488305
C      -2.015647     0.433786     1.063819
H      -1.774873     0.383440     0.003575
H      -2.345234     1.456498     1.275524
C      -0.788939     0.077284     1.888645
C       0.626916     0.585394     1.446229
H       0.987859     1.317383     2.173873
C      -0.303740    -3.602246     0.761776
H       0.639824    -4.145894     0.844037
H      -0.876679    -4.058707    -0.047468
C      -1.094500    -3.645885     2.093469
H      -1.953329    -4.312925     2.066215
H      -0.452809    -3.911189     2.935230
C      -0.921736     0.557651     3.364951
H      -0.020059     0.241426     3.894108
H      -0.876765     1.654108     3.313846
C      -2.135041     0.184706     4.219826
H      -1.962996     0.550029     5.237085
H      -3.057432     0.653703     3.870606
H      -2.291063    -0.892805     4.283000
O       0.713839     1.136355     0.158740
C       0.500509     2.542100     0.132111
H      -0.428053     2.792440     0.664698
H       1.329311     3.050785     0.644177
C       0.408571     2.997114    -1.300724
C       1.336710     3.886137    -1.830779
C      -0.624424     2.531764    -2.113000
C       1.234300     4.312353    -3.151908
H       2.147601     4.251502    -1.206409
C      -0.731533     2.953980    -3.429283
H      -1.343236     1.823124    -1.716290
C       0.199058     3.848002    -3.952161
H       1.963996     5.008381    -3.553617
H      -1.541488     2.580282    -4.048185
H       0.115174     4.181608    -4.981990
C      -0.522660    -1.423857     1.787224
O       0.718108    -1.514793     2.520303
C       1.487367    -0.719149     1.593482
C       2.876442    -0.508110     2.180841
O       3.896543    -0.932360     1.703160
O       2.825672     0.208489     3.308471
C       4.086451     0.435985     3.955486
H       3.857881     1.021363     4.844972
H       4.546927    -0.515666     4.227985
H       4.759254     0.985188     3.293487
72
     -1725.805092     -1725.265133   6.66   7.26
C      -1.480875    -1.116190     1.664538
C      -1.176900     0.238972     1.834274
C      -2.187074     1.177701     1.755813
C      -3.479075     0.786728     1.422208
C      -3.756160    -0.562189     1.194292
C      -2.765435    -1.537585     1.323931
C       0.792884    -1.089599     2.090453
C       0.285965     0.378084     2.162474
H      -1.980921     2.227955     1.944214
H      -4.286398     1.504655     1.339196
H      -2.976568    -2.587170     1.171496
H       1.335598    -1.386736     2.992464
N      -0.384743    -1.904497     1.908721
C      -0.336543    -3.324345     1.676778
H      -1.200452    -3.808591     2.142894
H      -0.327427    -3.572514     0.606683
H       0.570026    -3.727506     2.129229
O      -5.046902    -0.843655     0.855285
C      -5.409599    -2.198965     0.676829
H      -4.854016    -2.658277    -0.150019
H      -5.244272    -2.780363     1.592028
H      -6.473633    -2.197946     0.437895
N       1.380563     2.441096     1.664065
C       0.446301     3.348913     1.172856
O       0.162358     4.354296     1.791299
C      -0.215464     3.082530    -0.181995
H       0.190225     3.846815    -0.847019
H      -1.260318     3.363843    -0.034797
C      -0.124340     1.676442    -0.814681
H      -1.003893     1.097098    -0.544003
H      -0.132850     1.770033    -1.903742
C       1.136923     0.967514    -0.346566
C       1.262279    -0.595240    -0.439461
H       2.008299    -0.844609    -1.196941
C       0.570044     1.143788     3.485461
H       1.025534     0.487743     4.230587
H      -0.370882     1.509929     3.900815
C       1.503977     2.324097     3.122096
H       1.211642     3.265216     3.582425
H       2.545089     2.104864     3.364260
C       2.395104     1.481752    -1.110457
H       3.262319     0.944154    -0.720489
H       2.255231     1.135423    -2.143336
C       2.740399     2.971831    -1.162594
H       3.708826     3.082671    -1.660726
H       2.020618     3.550881    -1.744791
H       2.830291     3.417872    -0.171302
O       0.092802    -1.328778    -0.691679
C      -0.070843    -1.829482    -2.010815
H       0.892723    -2.174414    -2.407263
H      -0.721024    -2.703061    -1.905694
C      -0.704314    -0.830544    -2.950094
C      -0.009826    -0.327831    -4.043268
C      -2.005629    -0.389916    -2.709675
C      -0.601614     0.606327    -4.889908
H       1.004334    -0.666770    -4.238380
C      -2.597256     0.542704    -3.547510
H      -2.545114    -0.765956    -1.844172
C      -1.895374     1.043480    -4.641880
H      -0.049984     0.989993    -5.742404
H      -3.608748     0.883090    -3.348745
H      -2.360042     1.771554    -5.299264
C       1.279663     1.106984     1.168648
O       2.457141     0.302635     1.396353
C       1.860960    -0.939877     0.975358
C       2.934417    -2.018379     0.967734
O       2.938534    -2.990008     1.678663
O       3.887309    -1.752940     0.067502
C       4.963105    -2.700735     0.005841
H       5.637895    -2.328499    -0.763765
H       5.471750    -2.756531     0.970315
H       4.583385    -3.689960    -0.258534
