72
     -1725.816507     -1725.276320   0.00   0.00
C      -0.784397    -1.186343     1.255774
C      -1.535427    -1.237224     0.081243
C      -2.899849    -1.005236     0.131548
C      -3.506977    -0.695778     1.340273
C      -2.742873    -0.645919     2.509646
C      -1.372082    -0.896567     2.484871
C       0.740344    -1.780654    -0.373227
C      -0.653281    -1.675073    -1.055222
H      -3.503497    -1.063336    -0.771195
H      -4.571272    -0.502632     1.408122
H      -0.766288    -0.825373     3.377628
H       1.175776    -2.778259    -0.488835
N       0.557501    -1.452638     1.026344
C       1.384694    -2.081044     2.034904
H       2.396164    -2.191709     1.641954
H       1.430934    -1.451220     2.927208
H       1.006984    -3.072285     2.327779
O      -3.430223    -0.337725     3.644584
C      -2.733207    -0.389438     4.876919
H      -2.336062    -1.394814     5.063413
H      -1.914298     0.337215     4.906962
H      -3.465224    -0.142515     5.646713
N      -1.299709    -1.103157    -3.281714
C      -2.466574    -0.347137    -3.339962
O      -3.482644    -0.793387    -3.832578
C      -2.440155     1.087040    -2.800148
H      -3.452693     1.271894    -2.436559
H      -2.315459     1.729740    -3.678612
C      -1.387905     1.421963    -1.728494
H      -1.272773     2.504265    -1.643816
H      -1.710901     1.065071    -0.753270
C      -0.088880     0.747337    -2.137940
C       1.110028     0.700443    -1.158510
H       1.932171     1.320448    -1.535848
C      -1.162399    -2.956002    -1.779314
H      -2.078152    -3.308452    -1.301395
H      -0.425299    -3.759064    -1.709775
C      -1.413826    -2.565851    -3.259001
H      -0.653364    -2.987095    -3.919291
H      -2.400232    -2.849119    -3.620428
C       0.430420     1.312676    -3.487731
H       1.390754     0.841823    -3.706880
H      -0.236752     1.012357    -4.299738
C       0.597365     2.833393    -3.499515
H       1.116159     3.147158    -4.409927
H      -0.362417     3.357163    -3.476047
H       1.186383     3.187736    -2.646840
O       0.725992     1.146164     0.108080
C       1.787451     1.338663     1.019348
H       2.407579     0.436938     1.090047
H       2.432728     2.158115     0.663265
C       1.227046     1.676260     2.379638
C      -0.039394     2.235826     2.519166
C       1.995921     1.450342     3.518895
C      -0.525022     2.570965     3.777179
H      -0.650360     2.393989     1.638666
C       1.511801     1.782352     4.778535
H       2.984930     1.009427     3.420789
C       0.248570     2.347910     4.910504
H      -1.514933     3.007723     3.870911
H       2.123728     1.603944     5.657424
H      -0.129749     2.614827     5.892610
C      -0.339292    -0.750468    -2.289244
O       1.005766    -1.205322    -2.565715
C       1.545153    -0.823917    -1.284871
C       3.047100    -1.035305    -1.281938
O       3.646822    -1.662951    -0.445400
O       3.633740    -0.412877    -2.307142
C       5.060333    -0.550762    -2.384123
H       5.360723     0.010760    -3.267510
H       5.530832    -0.141939    -1.487386
H       5.331958    -1.603338    -2.485800
72
     -1725.815182     -1725.276200   0.83   0.08
C      -1.875514    -0.893826     1.615431
C      -1.919320    -1.674039     0.460157
C      -3.137655    -1.938926    -0.142957
C      -4.303710    -1.402737     0.383449
C      -4.247618    -0.617355     1.538046
C      -3.034219    -0.357222     2.174919
C       0.318180    -1.532047     1.271818
C      -0.541731    -2.192716     0.157931
H      -3.189623    -2.565741    -1.029970
H      -5.269661    -1.585748    -0.072363
H      -2.983235     0.247909     3.069711
H       0.848990    -2.279071     1.871490
N      -0.582012    -0.749789     2.097034
C      -0.319821    -0.609619     3.513939
H      -0.805246     0.290572     3.901285
H      -0.681128    -1.471719     4.094963
H       0.755397    -0.506089     3.664134
O      -5.446351    -0.144062     1.979243
C      -5.458935     0.660927     3.142409
H      -4.867856     1.574242     3.002862
H      -6.501879     0.929816     3.312537
H      -5.080334     0.111602     4.012972
N      -0.054508    -2.800549    -2.096319
C      -1.120875    -2.567356    -2.960130
O      -1.706593    -3.484713    -3.498930
C      -1.529437    -1.119129    -3.253397
H      -2.605263    -1.160294    -3.434005
H      -1.073548    -0.875632    -4.219365
C      -1.175554    -0.051460    -2.202497
H      -1.230773     0.943255    -2.648702
H      -1.893056    -0.066111    -1.385420
C       0.221978    -0.360125    -1.691209
C       0.794848     0.391846    -0.464237
H       1.646372     1.005885    -0.773120
C      -0.466102    -3.744476     0.060962
H      -1.445457    -4.175783     0.275904
H       0.237596    -4.143338     0.794979
C      -0.004098    -4.080871    -1.381239
H       1.022783    -4.450990    -1.396357
H      -0.650501    -4.794277    -1.888345
C       1.267889    -0.246674    -2.834176
H       2.253620    -0.455872    -2.413840
H       1.093349    -1.027059    -3.579216
C       1.290848     1.119504    -3.522030
H       2.133306     1.173555    -4.218006
H       0.381260     1.309502    -4.098896
H       1.405129     1.938498    -2.804377
O      -0.176655     1.204154     0.132338
C       0.306617     2.065405     1.152456
H      -0.584948     2.569043     1.535767
H       0.740717     1.484809     1.971903
C       1.312269     3.080023     0.652014
C       1.023409     3.869094    -0.460113
C       2.537035     3.235517     1.292280
C       1.944467     4.797369    -0.924407
H       0.069296     3.745391    -0.964646
C       3.461188     4.169049     0.832564
H       2.769580     2.616741     2.154886
C       3.167443     4.950575    -0.276918
H       1.708970     5.406386    -1.791727
H       4.412076     4.285410     1.343651
H       3.887241     5.678539    -0.637352
C       0.243324    -1.783911    -1.141550
O       1.585173    -1.833438    -0.605370
C       1.370826    -0.815829     0.391462
C       2.671031    -0.457986     1.078611
O       2.780126    -0.274900     2.266885
O       3.667653    -0.307548     0.207392
C       4.924753     0.109418     0.759654
H       4.829747     1.102653     1.203325
H       5.260287    -0.599216     1.519315
H       5.618439     0.131557    -0.079501
72
     -1725.814261     -1725.275587   1.41   0.46
C      -1.573909    -0.873889     0.073606
C      -0.933128    -1.002631    -1.169289
C      -1.602499    -0.649593    -2.318587
C      -2.897808    -0.124934    -2.250281
C      -3.512563     0.007060    -1.007560
C      -2.862869    -0.383663     0.166801
C       0.487474    -1.790990     0.572956
C       0.413424    -1.645769    -0.970193
H      -1.130619    -0.768290    -3.291315
H      -3.403732     0.162734    -3.162208
H      -3.366784    -0.242330     1.114591
H       0.657327    -2.830048     0.872921
N      -0.753713    -1.283890     1.111527
C      -1.276938    -1.789141     2.357800
H      -0.450819    -1.948015     3.056909
H      -1.954450    -1.057975     2.805168
H      -1.817019    -2.740610     2.238098
O      -4.763599     0.518838    -0.827782
C      -5.483713     0.928311    -1.974442
H      -6.444224     1.297228    -1.612543
H      -4.963024     1.733441    -2.507006
H      -5.653305     0.089585    -2.660488
N       2.106113    -1.288215    -2.616548
C       1.690118    -0.448790    -3.645871
O       1.548172    -0.862829    -4.778497
C       1.445753     1.031464    -3.332713
H       0.663158     1.342693    -4.027230
H       2.354258     1.553704    -3.652357
C       1.088957     1.399971    -1.881877
H       1.229884     2.470788    -1.722946
H       0.040326     1.191707    -1.683211
C       1.977530     0.572840    -0.966783
C       1.707185     0.537615     0.560223
H       2.515122     1.031901     1.110484
C       0.605326    -2.954246    -1.792023
H      -0.299819    -3.164866    -2.364145
H       0.781522    -3.805426    -1.130570
C       1.820938    -2.723000    -2.726920
H       2.696594    -3.280826    -2.389901
H       1.618871    -2.964792    -3.768280
C       3.472599     0.931564    -1.179483
H       4.070072     0.349419    -0.475182
H       3.797252     0.608854    -2.172152
C       3.784453     2.418445    -0.998623
H       3.392356     2.805997    -0.052529
H       4.866626     2.577925    -0.996269
H       3.368093     3.030895    -1.803381
O       0.488319     1.162872     0.839042
C       0.243762     1.440843     2.203285
H       0.383087     0.543206     2.814301
H       0.968431     2.188606     2.561854
C      -1.166740     1.954738     2.362146
C      -1.846600     2.549195     1.303545
C      -1.804737     1.842484     3.595570
C      -3.144687     3.015617     1.472893
H      -1.363245     2.622594     0.336657
C      -3.101455     2.310988     3.769088
H      -1.282549     1.380136     4.429927
C      -3.776808     2.897669     2.704633
H      -3.668616     3.460628     0.632703
H      -3.585413     2.216543     4.736476
H      -4.791595     3.260173     2.835285
C       1.767577    -0.904581    -1.285502
O       2.589796    -1.506176    -0.259495
C       1.806498    -1.013657     0.848146
C       2.491913    -1.369179     2.156665
O       2.718940    -0.588489     3.046051
O       2.788371    -2.669748     2.216574
C       3.437927    -3.103103     3.420361
H       2.802681    -2.908321     4.287083
H       3.602623    -4.172286     3.295292
H       4.387554    -2.578970     3.545520
72
     -1725.813875     -1725.274785   1.65   0.96
C      -2.370455    -1.072458     0.285008
C      -1.566049    -1.837046    -0.565285
C      -2.009379    -2.134973    -1.840070
C      -3.219537    -1.623474    -2.292803
C      -3.992676    -0.823631    -1.448843
C      -3.584998    -0.540359    -0.143528
C      -0.512563    -1.594130     1.563561
C      -0.329321    -2.265882     0.176877
H      -1.411771    -2.758178    -2.501074
H      -3.586045    -1.829894    -3.291346
H      -4.185659     0.066208     0.520296
H      -0.431762    -2.318239     2.381618
N      -1.816545    -0.984489     1.541315
C      -2.324508    -0.171940     2.611612
H      -2.144691     0.899629     2.457886
H      -3.400713    -0.331299     2.732355
H      -1.841505    -0.467571     3.546874
O      -5.156281    -0.362971    -1.988306
C      -5.993753     0.442188    -1.181802
H      -6.334434    -0.101059    -0.291953
H      -5.485945     1.364058    -0.872981
H      -6.855408     0.695915    -1.800144
N       1.623620    -2.745700    -1.106205
C       1.412054    -2.569102    -2.471286
O       1.423469    -3.511560    -3.236968
C       1.199834    -1.148367    -3.007440
H       0.543958    -1.267803    -3.871804
H       2.171230    -0.840397    -3.409787
C       0.658922    -0.086174    -2.032848
H       0.865517     0.911448    -2.423699
H      -0.421087    -0.166890    -1.935969
C       1.337157    -0.306197    -0.691882
C       0.841851     0.440574     0.578133
H       1.607458     1.146014     0.906610
C      -0.090727    -3.802105     0.179751
H      -0.899740    -4.299379    -0.358218
H      -0.084579    -4.192492     1.199777
C       1.276607    -4.041692    -0.512056
H       2.048505    -4.311351     0.211094
H       1.239365    -4.793391    -1.297679
C       2.869775    -0.072854    -0.812790
H       3.318725    -0.222093     0.171348
H       3.308701    -0.843707    -1.451396
C       3.263327     1.307830    -1.339777
H       2.827833     2.116115    -0.747477
H       4.350640     1.422249    -1.301570
H       2.957703     1.460816    -2.378329
O      -0.375799     1.114142     0.388847
C      -0.428729     2.432252     0.923796
H      -1.473906     2.733348     0.811339
H      -0.180302     2.421720     1.990242
C       0.473992     3.398257     0.189646
C       0.312834     3.603010    -1.180361
C       1.484229     4.078957     0.860768
C       1.149637     4.470810    -1.867230
H      -0.474221     3.071089    -1.707046
C       2.323662     4.953497     0.176103
H       1.622155     3.914604     1.925955
C       2.158928     5.149236    -1.188431
H       1.014880     4.623505    -2.933560
H       3.108352     5.478901     0.711396
H       2.812847     5.829829    -1.724385
C       1.098288    -1.744588    -0.236760
O       1.707927    -1.704188     1.076072
C       0.790458    -0.735039     1.617886
C       1.186063    -0.321500     3.019994
O       1.136088     0.814408     3.424996
O       1.548154    -1.363187     3.768578
C       1.908891    -1.059878     5.124194
H       1.066962    -0.602999     5.648692
H       2.172798    -2.014552     5.576709
H       2.759699    -0.375834     5.143763
72
     -1725.814639     -1725.274760   1.17   0.98
C      -1.560836    -0.099077     1.221382
C      -1.618569    -1.120434     0.255511
C      -2.675728    -1.169798    -0.620478
C      -3.657480    -0.169736    -0.602652
C      -3.560076     0.858702     0.330398
C      -2.519580     0.898022     1.265031
C       0.308709    -1.400635     1.643303
C      -0.449558    -2.047262     0.454215
H      -2.755305    -1.974248    -1.347899
H      -4.473642    -0.213635    -1.311091
H      -2.483388     1.712372     1.977632
H       0.460428    -2.109594     2.463384
N      -0.496250    -0.283578     2.068425
C      -0.072092     0.673991     3.055935
H      -0.912565     0.951329     3.700622
H       0.694190     0.218824     3.688985
H       0.342689     1.582025     2.602323
O      -4.448144     1.891829     0.418286
C      -5.551204     1.894650    -0.468329
H      -6.132876     2.784447    -0.224169
H      -5.224491     1.950083    -1.513766
H      -6.175931     1.004124    -0.329703
N       0.309086    -3.254406    -1.456418
C      -0.435964    -2.942306    -2.590383
O      -1.160717    -3.762990    -3.115006
C      -0.300612    -1.541921    -3.201167
H      -1.275868    -1.331202    -3.643669
H       0.390960    -1.656721    -4.043013
C       0.157239    -0.396330    -2.280106
H       0.519071     0.434315    -2.890291
H      -0.679920    -0.017998    -1.697956
C       1.240361    -0.945156    -1.366772
C       1.749467    -0.123327    -0.143656
H       2.794921     0.157876    -0.296064
C      -0.843682    -3.541776     0.618302
H      -1.930543    -3.639347     0.607183
H      -0.487354    -3.932074     1.573827
C      -0.194544    -4.306529    -0.565198
H       0.648230    -4.915559    -0.233385
H      -0.895657    -4.930582    -1.115271
C       2.481597    -1.383281    -2.191498
H       3.235455    -1.767198    -1.501259
H       2.219259    -2.228075    -2.833284
C       3.098745    -0.274370    -3.045630
H       4.022503    -0.632211    -3.509492
H       2.435683     0.048944    -3.853255
H       3.355193     0.608780    -2.451866
O       1.002297     1.017020     0.182828
C       1.525651     2.223925    -0.354507
H       2.534867     2.398564     0.042042
H       1.598639     2.148650    -1.449299
C       0.603826     3.351998     0.028466
C      -0.747818     3.283008    -0.305476
C       1.074415     4.461646     0.720398
C      -1.616256     4.302095     0.054838
H      -1.123542     2.411780    -0.830840
C       0.208794     5.493375     1.073362
H       2.125245     4.520062     0.991085
C      -1.137510     5.413502     0.743722
H      -2.669878     4.221954    -0.193296
H       0.587766     6.356106     1.612321
H      -1.815530     6.213421     1.024556
C       0.693881    -2.163180    -0.621409
O       1.802831    -2.441112     0.266811
C       1.710622    -1.195326     0.987398
C       2.854467    -1.057507     1.977406
O       3.571631    -0.092678     2.051255
O       2.949342    -2.122986     2.776449
C       4.002992    -2.076074     3.749386
H       3.930804    -3.010099     4.304739
H       4.971790    -1.997422     3.251949
H       3.869465    -1.219685     4.413801
72
     -1725.814097     -1725.274404   1.51   1.20
C      -0.769024    -2.364651     0.901893
C       0.579044    -2.201453     1.269921
C       1.481717    -3.204768     1.015150
C       1.079509    -4.363495     0.336473
C      -0.250008    -4.491974    -0.056336
C      -1.193822    -3.497136     0.227474
C      -0.712766    -0.301188     1.965822
C       0.729044    -0.884400     1.977964
H       2.519524    -3.109371     1.325395
H       1.804873    -5.139420     0.132994
H      -2.222155    -3.644950    -0.079438
H      -1.075654    -0.077967     2.974534
N      -1.527888    -1.308611     1.330806
C      -2.941567    -1.191930     1.090952
H      -3.316201    -0.300246     1.594225
H      -3.158640    -1.106248     0.018537
H      -3.474345    -2.066555     1.483304
O      -0.743782    -5.573330    -0.723905
C       0.151761    -6.622301    -1.040046
H      -0.437020    -7.373084    -1.568508
H       0.962442    -6.272860    -1.690730
H       0.579612    -7.068728    -0.134322
N       2.880970     0.115950     1.814349
C       3.742963    -0.644461     1.029121
O       4.711854    -1.196635     1.509694
C       3.475236    -0.750169    -0.477639
H       3.834691    -1.741820    -0.758209
H       4.165192    -0.039150    -0.945204
C       2.037667    -0.512819    -0.976135
H       2.061138    -0.280318    -2.043201
H       1.438805    -1.414237    -0.863652
C       1.452659     0.627919    -0.161013
C      -0.065282     0.973336    -0.235063
H      -0.182753     1.969130    -0.668003
C       1.423141    -0.979715     3.364494
H       1.577932    -2.026700     3.630536
H       0.796208    -0.530600     4.137344
C       2.769177    -0.216646     3.240440
H       2.757918     0.710082     3.817106
H       3.633374    -0.809993     3.532112
C       2.238873     1.945413    -0.410929
H       1.789405     2.730220     0.200939
H       3.263142     1.838307    -0.045830
C       2.270646     2.401591    -1.870385
H       2.811259     1.703362    -2.515811
H       1.265372     2.529748    -2.284267
H       2.775495     3.369163    -1.945840
O      -0.886551     0.065914    -0.926671
C      -1.129752     0.415149    -2.278555
H      -0.187045     0.529249    -2.829605
H      -1.655241    -0.445994    -2.701516
C      -1.972185     1.666797    -2.431388
C      -1.699793     2.583447    -3.441659
C      -3.043644     1.906862    -1.572312
C      -2.484685     3.721394    -3.598490
H      -0.864331     2.410146    -4.114958
C      -3.828774     3.041497    -1.726614
H      -3.261813     1.203470    -0.776158
C      -3.551848     3.953028    -2.740696
H      -2.260234     4.426517    -4.392600
H      -4.664183     3.213096    -1.054501
H      -4.167143     4.838916    -2.861659
C       1.550346     0.284020     1.326558
O       0.827312     1.398093     1.898263
C      -0.435950     1.068547     1.284451
C      -1.452591     2.158507     1.577333
O      -2.540540     1.968356     2.059016
O      -1.002544     3.356721     1.200780
C      -1.910927     4.451552     1.388807
H      -2.188972     4.536947     2.441117
H      -1.371092     5.338353     1.059973
H      -2.807553     4.303125     0.783970
72
     -1725.813951     -1725.274061   1.60   1.42
C      -2.416167    -1.100331    -0.106873
C      -1.624812    -1.928463    -0.909451
C      -2.072392    -2.297753    -2.163323
C      -3.276912    -1.798173    -2.646029
C      -4.040073    -0.940859    -1.850869
C      -3.627398    -0.582687    -0.565655
C      -0.579196    -1.590091     1.222971
C      -0.396074    -2.319723    -0.138770
H      -1.486124    -2.969613    -2.785468
H      -3.647589    -2.061101    -3.629562
H      -4.220036     0.067251     0.063485
H      -0.553395    -2.283967     2.069565
N      -1.858711    -0.927593     1.132711
C      -2.433946    -0.110009     2.167079
H      -3.452741    -0.440688     2.403505
H      -1.824217    -0.194023     3.066934
H      -2.471235     0.945425     1.868212
O      -5.200189    -0.501607    -2.415735
C      -6.027100     0.359475    -1.657549
H      -6.887553     0.584876    -2.288428
H      -6.371052    -0.125700    -0.735933
H      -5.508592     1.292541    -1.405311
N       1.520509    -2.827581    -1.454671
C       1.275655    -2.659554    -2.814584
O       1.268673    -3.605858    -3.575456
C       1.048116    -1.243081    -3.357739
H       0.354679    -1.369491    -4.191096
H       2.002958    -0.947507    -3.806154
C       0.555583    -0.162205    -2.377549
H       0.765899     0.824710    -2.795881
H      -0.522736    -0.225744    -2.246987
C       1.272298    -0.381482    -1.056018
C       0.839327     0.382523     0.231526
H       1.651416     1.042856     0.543383
C      -0.143737    -3.851364    -0.072775
H      -0.984202    -4.384351    -0.520634
H      -0.057371    -4.180806     0.964603
C       1.177074    -4.117876    -0.843241
H       1.982189    -4.411237    -0.167042
H       1.078698    -4.864335    -1.628797
C       2.804946    -0.179414    -1.218723
H       3.275459    -0.355135    -0.249174
H       3.209106    -0.945557    -1.884726
C       3.214430     1.201252    -1.733723
H       4.305163     1.284441    -1.745618
H       2.864472     1.388838    -2.752891
H       2.836859     2.007504    -1.096749
O      -0.356052     1.119037     0.158112
C      -0.174835     2.492077    -0.143023
H       0.375113     2.617369    -1.084898
H      -1.185062     2.881885    -0.298288
C       0.516468     3.262631     0.965166
C       1.441989     4.256454     0.663731
C       0.219922     2.998630     2.301595
C       2.061336     4.980974     1.677146
H       1.685310     4.468622    -0.374114
C       0.836404     3.720188     3.315004
H      -0.494521     2.221441     2.550100
C       1.759611     4.714242     3.006099
H       2.780285     5.754314     1.425676
H       0.591629     3.508686     4.351553
H       2.239784     5.278969     3.798890
C       1.022787    -1.814330    -0.582022
O       1.650832    -1.769945     0.719908
C       0.750739    -0.786926     1.270977
C       1.216609    -0.379813     2.658208
O       0.526696    -0.401572     3.645955
O       2.482400     0.041218     2.641697
C       3.004169     0.498686     3.897783
H       4.040833     0.768855     3.702070
H       2.440962     1.367576     4.243715
H       2.946634    -0.295999     4.644172
72
     -1725.812879     -1725.273120   2.28   2.01
C       1.622973    -0.355192    -1.648132
C       2.008278     0.278584    -0.462257
C       2.427346     1.594800    -0.498143
C       2.395797     2.305096    -1.692462
C       1.963223     1.674876    -2.860614
C       1.579484     0.332194    -2.860081
C       1.378449    -1.976249    -0.020455
C       1.937194    -0.707093     0.674788
H       2.764809     2.090559     0.409090
H       2.700187     3.343657    -1.744056
H       1.261241    -0.167373    -3.764795
H       1.988843    -2.860658     0.186677
N       1.356250    -1.687627    -1.432318
C       0.723303    -2.564442    -2.381446
H       1.195339    -2.460523    -3.362432
H       0.864337    -3.599876    -2.058256
H      -0.353181    -2.375059    -2.479016
O       1.950416     2.458633    -3.976043
C       1.548613     1.872983    -5.199495
H       0.513257     1.513977    -5.151124
H       1.621247     2.661207    -5.949580
H       2.208528     1.043635    -5.481482
N       1.648433     0.093142     2.910895
C       1.611632     1.482473     2.979137
O       2.499038     2.111607     3.518748
C       0.399141     2.209085     2.390943
H       0.779315     3.178074     2.061729
H      -0.258276     2.420765     3.241710
C      -0.382140     1.506983     1.265705
H      -1.360279     1.975740     1.158033
H       0.124975     1.637696     0.314371
C      -0.491930     0.033289     1.622513
C      -0.999172    -1.036277     0.601576
H      -1.966483    -1.424344     0.928473
C       3.271586    -0.871830     1.454929
H       4.010317    -0.170536     1.062364
H       3.677312    -1.878644     1.332480
C       2.957618    -0.568932     2.941481
H       2.868739    -1.485491     3.527397
H       3.681569     0.093671     3.410745
C      -1.327827    -0.141803     2.921185
H      -1.385074    -1.205683     3.159456
H      -0.798178     0.314935     3.761167
C      -2.743693     0.430874     2.842876
H      -3.290294     0.201671     3.762376
H      -2.751786     1.517160     2.719739
H      -3.310869     0.002519     2.011167
O      -1.085280    -0.656786    -0.746973
C      -2.371781    -0.314793    -1.239968
H      -2.383642    -0.647902    -2.283342
H      -3.147053    -0.876811    -0.705997
C      -2.640696     1.171590    -1.181395
C      -1.735370     2.054984    -1.769196
C      -3.768376     1.679330    -0.548808
C      -1.950374     3.423150    -1.711324
H      -0.844699     1.664235    -2.251388
C      -3.990624     3.053258    -0.492973
H      -4.479817     0.998930    -0.088678
C      -3.080699     3.927054    -1.071729
H      -1.232902     4.100511    -2.164032
H      -4.876022     3.437765     0.003649
H      -3.250315     4.998395    -1.028920
C       0.909472    -0.527581     1.860888
O       0.596380    -1.919407     2.107360
C       0.061939    -2.169401     0.796226
C      -0.530813    -3.561947     0.692506
O      -1.609450    -3.800361     0.211505
O       0.302767    -4.494018     1.160551
C      -0.173275    -5.845435     1.085127
H      -1.089353    -5.955461     1.669064
H      -0.373272    -6.121161     0.047463
H       0.623654    -6.460388     1.500823
72
     -1725.810337     -1725.270788   3.87   3.47
C      -1.358528     0.007289     1.332343
C      -1.566547    -1.093027     0.484249
C      -2.817605    -1.318681    -0.042693
C      -3.865650    -0.428290     0.216489
C      -3.636966     0.668095     1.044488
C      -2.385755     0.885203     1.629122
C       0.664308    -1.112568     1.336040
C      -0.303292    -1.906242     0.417489
H      -3.007649    -2.188137    -0.666913
H      -4.838063    -0.610695    -0.220883
H      -2.247113     1.748028     2.267928
H       1.017777    -1.718794     2.176095
N      -0.058011     0.054379     1.801136
C       0.260264     0.670305     3.072223
H       0.045668     1.742176     3.036061
H      -0.310968     0.227469     3.901608
H       1.324324     0.538757     3.272288
O      -4.582577     1.601757     1.351222
C      -5.885472     1.421523     0.828965
H      -6.326621     0.478905     1.174690
H      -6.479388     2.256108     1.203559
H      -5.883603     1.441052    -0.267598
N       0.031929    -3.190118    -1.563092
C      -1.038696    -2.965904    -2.430595
O      -1.800332    -3.862187    -2.729428
C      -1.249971    -1.565877    -3.026314
H      -2.332257    -1.422674    -3.007496
H      -0.991020    -1.665026    -4.084441
C      -0.528305    -0.362403    -2.382555
H      -0.364993     0.415511    -3.133941
H      -1.146333     0.074943    -1.602851
C       0.802291    -0.845019    -1.816840
C       1.588400     0.065593    -0.835262
H       2.559447     0.329873    -1.272008
C      -0.502459    -3.411319     0.759468
H      -1.534744    -3.588232     1.066212
H       0.143321    -3.704343     1.589821
C      -0.144865    -4.212649    -0.522177
H       0.792640    -4.758472    -0.403949
H      -0.925876    -4.902947    -0.834014
C       1.698784    -1.203443    -3.036545
H       1.099604    -1.772554    -3.751009
H       1.903322    -0.242176    -3.526412
C       3.018067    -1.953438    -2.848133
H       2.853130    -2.968023    -2.483225
H       3.521379    -2.019499    -3.818667
H       3.695528    -1.457078    -2.152113
O       0.863504     1.229362    -0.559552
C       1.567476     2.205368     0.176084
H       2.013386     1.761221     1.076739
H       2.393120     2.606782    -0.432879
C       0.634649     3.319208     0.589394
C      -0.690706     3.356208     0.173347
C       1.111180     4.328143     1.426126
C      -1.534064     4.376756     0.601024
H      -1.068825     2.572333    -0.469682
C       0.274449     5.353363     1.845087
H       2.147018     4.307988     1.757058
C      -1.055633     5.378103     1.435474
H      -2.572861     4.377604     0.284460
H       0.658400     6.132585     2.496240
H      -1.713594     6.175243     1.767020
C       0.542415    -2.033854    -0.903123
O       1.846618    -2.203085    -0.299637
C       1.860459    -0.926493     0.369627
C       3.197761    -0.736879     1.071394
O       3.322819    -0.542215     2.254324
O       4.225045    -0.793148     0.221097
C       5.526277    -0.633158     0.805894
H       6.230455    -0.712715    -0.021022
H       5.607253     0.342149     1.290262
H       5.706878    -1.418027     1.542907
72
     -1725.807572     -1725.270005   5.61   3.96
C      -1.335001    -2.132173    -1.005427
C      -0.255685    -1.816547    -1.839702
C      -0.468811    -1.635506    -3.192468
C      -1.758933    -1.702874    -3.708133
C      -2.833054    -1.972131    -2.858253
C      -2.639704    -2.198666    -1.493579
C       0.513793    -2.233430     0.391723
C       1.001966    -1.804669    -1.017954
H       0.362155    -1.433362    -3.863270
H      -1.956698    -1.555812    -4.763217
H      -3.462720    -2.425310    -0.829735
H       0.984941    -3.162625     0.728512
N      -0.917044    -2.382483     0.273995
C      -1.777703    -2.811226     1.344268
H      -2.465050    -2.013198     1.650892
H      -2.367598    -3.686656     1.045230
H      -1.164781    -3.087003     2.203322
O      -4.056344    -2.007556    -3.458160
C      -5.186128    -2.284744    -2.653680
H      -5.113638    -3.276459    -2.190706
H      -5.315818    -1.526855    -1.871480
H      -6.046515    -2.262264    -3.323313
N       2.650539    -0.266596    -1.772782
C       2.137140     0.420264    -2.874914
O       2.645661     0.310648    -3.971469
C       0.916121     1.336927    -2.699096
H       0.302269     1.141963    -3.580526
H       1.303532     2.350688    -2.836255
C       0.071048     1.234283    -1.409606
H      -0.368278     2.209750    -1.186992
H      -0.751745     0.535598    -1.544928
C       0.985327     0.800376    -0.271859
C       0.384825     0.299151     1.076988
H       0.752231     0.949843     1.871704
C       2.179506    -2.613167    -1.627042
H       1.832096    -3.184817    -2.489369
H       2.573759    -3.321451    -0.895751
C       3.268740    -1.577318    -2.024348
H       4.157409    -1.673485    -1.398323
H       3.560019    -1.633307    -3.071307
C       1.932778     2.003789     0.012305
H       2.296098     2.391171    -0.942590
H       1.279179     2.786071     0.420371
C       3.145904     1.840773     0.929697
H       2.885635     1.463999     1.920373
H       3.883404     1.160760     0.500916
H       3.619626     2.820088     1.057149
O      -1.019351     0.242751     1.134072
C      -1.598155     1.022913     2.172643
H      -2.653772     0.739303     2.184302
H      -1.162816     0.747847     3.143060
C      -1.457205     2.511634     1.943258
C      -0.701124     3.303907     2.800483
C      -2.075782     3.106689     0.844382
C      -0.557152     4.668129     2.564787
H      -0.214580     2.852057     3.660647
C      -1.935093     4.465643     0.604450
H      -2.667106     2.492918     0.170722
C      -1.172166     5.250588     1.465262
H       0.036787     5.273598     3.242050
H      -2.421500     4.916921    -0.254643
H      -1.061903     6.313937     1.278327
C       1.739006    -0.455126    -0.692852
O       2.346961    -0.849138     0.560759
C       1.102972    -1.084168     1.250793
C       1.384767    -1.475196     2.695033
O       1.066430    -2.524787     3.193123
O       2.020032    -0.505873     3.361314
C       2.340923    -0.801048     4.728433
H       2.992839    -1.675159     4.782294
H       2.852179     0.082962     5.107122
H       1.430353    -0.995752     5.298954
72
     -1725.807572     -1725.270001   5.61   3.97
C      -2.263484    -1.389664    -0.533675
C      -1.319153    -1.623543    -1.540696
C      -1.673513    -1.444022    -2.863715
C      -2.941367    -0.971103    -3.185827
C      -3.858798    -0.696966    -2.170099
C      -3.539044    -0.908058    -0.826881
C      -0.412588    -2.208081     0.599772
C      -0.049016    -2.114956    -0.906376
H      -0.968728    -1.662382    -3.661800
H      -3.243342    -0.812075    -4.214156
H      -4.248295    -0.715557    -0.033586
H      -0.324319    -3.229179     0.984971
N      -1.769100    -1.724804     0.698206
C      -2.524478    -1.674634     1.921695
H      -3.470692    -2.220644     1.820044
H      -1.942224    -2.141262     2.717269
H      -2.745715    -0.640974     2.214803
O      -5.068766    -0.229223    -2.588163
C      -6.047141     0.059499    -1.608441
H      -5.704451     0.840740    -0.919037
H      -6.922334     0.417129    -2.151871
H      -6.317317    -0.836875    -1.036938
N       1.930033    -1.494475    -2.068956
C       1.565918    -0.715620    -3.169346
O       1.776894    -1.097354    -4.301959
C       0.896565     0.649902    -2.947112
H       0.111504     0.692862    -3.704461
H       1.643163     1.383902    -3.264043
C       0.331274     0.998523    -1.551985
H       0.390377     2.078732    -1.397858
H      -0.718643     0.722018    -1.483586
C       1.164741     0.274125    -0.503544
C       0.659946     0.161451     0.967410
H       1.402013     0.630384     1.615020
C       0.549995    -3.388709    -1.562114
H      -0.153071    -3.799193    -2.288948
H       0.733067    -4.155681    -0.807046
C       1.883886    -2.955423    -2.233133
H       2.745490    -3.394037    -1.727026
H       1.932986    -3.191493    -3.294247
C       2.564354     0.958003    -0.507124
H       2.880434     1.093932    -1.544190
H       2.384623     1.968516    -0.116953
C       3.738359     0.334273     0.249533
H       3.524789     0.164958     1.306348
H       4.032055    -0.622118    -0.185480
H       4.594380     1.014568     0.185183
O      -0.602749     0.726134     1.222143
C      -0.604541     1.737555     2.221805
H      -1.660822     1.943680     2.413330
H      -0.160188     1.355203     3.150916
C       0.106217     3.000408     1.787294
C       1.264734     3.430537     2.425275
C      -0.389430     3.742867     0.716152
C       1.924702     4.579879     2.000026
H       1.660656     2.860865     3.261634
C       0.264645     4.888672     0.287863
H      -1.293608     3.411550     0.213270
C       1.426811     5.309431     0.929366
H       2.828354     4.902802     2.507150
H      -0.131204     5.457830    -0.547389
H       1.938911     6.205963     0.595005
C       1.232167    -1.205797    -0.859684
O       1.830535    -1.754320     0.339261
C       0.747920    -1.384379     1.216756
C       1.091346    -1.777345     2.647063
O       0.455420    -2.553396     3.313709
O       2.182814    -1.146159     3.091338
C       2.587605    -1.474404     4.428317
H       1.797273    -1.220335     5.137800
H       2.809508    -2.540714     4.503868
H       3.481658    -0.881945     4.617848
72
     -1725.809757     -1725.269951   4.24   4.00
C      -2.527962    -0.486489     0.497636
C      -2.089469    -1.353675    -0.515680
C      -2.903990    -1.605127    -1.596528
C      -4.142671    -0.966038    -1.712905
C      -4.555864    -0.095185    -0.707527
C      -3.755413     0.146591     0.414363
C      -0.505468    -1.300089     1.269578
C      -0.768850    -1.949383    -0.115916
H      -2.597605    -2.304534    -2.370180
H      -4.765772    -1.166952    -2.573978
H      -4.117820     0.825101     1.177112
H      -0.419982    -2.053473     2.060225
N      -1.607755    -0.394138     1.531549
C      -2.054634    -0.175798     2.892367
H      -2.746170    -0.960555     3.234696
H      -1.186329    -0.156500     3.551383
H      -2.567157     0.786994     2.970021
O      -5.742592     0.573667    -0.719902
C      -6.606596     0.371345    -1.822798
H      -6.134458     0.683127    -2.762151
H      -6.914697    -0.678164    -1.900966
H      -7.483877     0.991821    -1.636517
N       0.669364    -2.617373    -1.894655
C       0.048638    -2.314597    -3.107896
O      -0.279731    -3.192803    -3.878777
C      -0.213635    -0.847338    -3.479956
H      -1.202471    -0.856879    -3.942943
H       0.483422    -0.632804    -4.295291
C      -0.135345     0.231400    -2.377621
H       0.149701     1.190171    -2.820444
H      -1.108378     0.374418    -1.914952
C       0.900304    -0.207462    -1.349214
C       0.965859     0.507812     0.026655
H       1.950557     0.971425     0.148748
C      -0.733377    -3.504163    -0.169626
H      -1.724524    -3.890071    -0.414307
H      -0.449760    -3.914865     0.801699
C       0.311294    -3.889973    -1.252792
H       1.208377    -4.322340    -0.806548
H      -0.078029    -4.569425    -2.008164
C       2.286773    -0.117046    -2.049654
H       2.199249    -0.546138    -3.050586
H       2.452253     0.957532    -2.204479
C       3.533754    -0.719824    -1.401043
H       4.402565    -0.469754    -2.019516
H       3.716629    -0.339461    -0.395294
H       3.465684    -1.806522    -1.336205
O      -0.029695     1.488567     0.125602
C       0.015202     2.284900     1.299015
H      -0.842857     2.957181     1.210238
H      -0.137320     1.667061     2.188622
C       1.293939     3.082438     1.444514
C       1.964740     3.117904     2.662503
C       1.810617     3.795982     0.364542
C       3.131339     3.863238     2.804875
H       1.572225     2.554190     3.504448
C       2.977873     4.534193     0.501223
H       1.292328     3.763132    -0.589453
C       3.640785     4.571819     1.724707
H       3.642213     3.889565     3.762724
H       3.371626     5.085396    -0.347147
H       4.551258     5.152494     1.833572
C       0.563220    -1.616703    -0.883839
O       1.481940    -1.767863     0.221773
C       0.909773    -0.719528     1.025513
C       1.726227    -0.493341     2.282779
O       1.241366    -0.295881     3.370593
O       3.035248    -0.486519     2.042968
C       3.878673    -0.208810     3.170959
H       4.898634    -0.297400     2.800005
H       3.692208     0.801733     3.539091
H       3.694386    -0.930218     3.969154
72
     -1725.808719     -1725.269854   4.89   4.06
C      -2.497720    -0.827903     0.019796
C      -1.799574    -1.312981    -1.091777
C      -2.325674    -1.137580    -2.357645
C      -3.503345    -0.419485    -2.528148
C      -4.162346     0.106034    -1.414976
C      -3.675708    -0.096122    -0.121651
C      -0.658278    -1.907415     0.921408
C      -0.566254    -2.034923    -0.622682
H      -1.821149    -1.548762    -3.228230
H      -3.931704    -0.255543    -3.509768
H      -4.190302     0.291743     0.746656
H      -0.638668    -2.886020     1.413892
N      -1.891552    -1.215039     1.190930
C      -2.292604    -0.804277     2.508320
H      -3.375681    -0.910412     2.626440
H      -1.816319    -1.454600     3.247214
H      -2.011701     0.232585     2.730948
O      -5.300275     0.804289    -1.687615
C      -6.022951     1.353589    -0.602904
H      -6.375987     0.570901     0.079592
H      -5.417248     2.077480    -0.044212
H      -6.881840     1.863965    -1.039911
N       1.295559    -2.060504    -2.115756
C       0.947748    -1.376665    -3.281508
O       0.871778    -1.953512    -4.346811
C       0.675662     0.133163    -3.218015
H      -0.160854     0.289249    -3.902086
H       1.538678     0.596180    -3.705926
C       0.395096     0.788660    -1.848481
H       0.710654     1.834830    -1.876230
H      -0.670484     0.782595    -1.632232
C       1.177245     0.034251    -0.782311
C       0.847337     0.242837     0.723817
H       1.719081     0.672372     1.217255
C      -0.403458    -3.471000    -1.194559
H      -1.265851    -3.718851    -1.815867
H      -0.355562    -4.206027    -0.388303
C       0.910029    -3.475324    -2.023092
H       1.703947    -4.019887    -1.509487
H       0.787490    -3.875966    -3.027094
C       2.680736     0.364949    -1.018803
H       2.903776     0.233195    -2.080871
H       2.761046     1.443336    -0.826811
C       3.774751    -0.356536    -0.228458
H       3.635943    -0.290600     0.854099
H       3.834125    -1.413194    -0.490005
H       4.738096     0.108804    -0.463484
O      -0.273495     1.054457     0.968936
C      -0.024854     2.156598     1.839709
H      -1.002875     2.623680     1.981787
H       0.334766     1.793731     2.809000
C       0.953844     3.150348     1.254708
C       2.214505     3.325298     1.816837
C       0.614639     3.881422     0.117059
C       3.126958     4.209658     1.249698
H       2.487384     2.757480     2.702333
C       1.521120     4.764133    -0.452494
H      -0.368646     3.749605    -0.325948
C       2.782717     4.928713     0.113011
H       4.107612     4.335106     1.697871
H       1.245195     5.327176    -1.338673
H       3.492536     5.619149    -0.331364
C       0.874407    -1.454103    -0.896018
O       1.533471    -1.959405     0.287711
C       0.714453    -1.232719     1.221182
C       1.197663    -1.426667     2.643917
O       1.314244    -0.529629     3.442305
O       1.438335    -2.708171     2.922804
C       1.874313    -2.981625     4.262477
H       2.809395    -2.457065     4.469146
H       1.116242    -2.663236     4.981262
H       2.020377    -4.059808     4.308087
72
     -1725.809938     -1725.269830   4.12   4.07
C      -1.420755    -0.221676     1.334572
C      -1.939016    -0.332366     0.030528
C      -2.947232     0.509300    -0.372590
C      -3.402452     1.527596     0.476144
C      -2.839395     1.656722     1.742661
C      -1.855177     0.771210     2.195276
C      -0.280433    -2.013535     0.410167
C      -1.265053    -1.483652    -0.667055
H      -3.394160     0.406336    -1.358321
H      -4.183283     2.193898     0.135149
H      -1.449855     0.899111     3.191075
H      -0.434119    -3.078186     0.613297
N      -0.516520    -1.221767     1.590223
C       0.292523    -1.300456     2.778182
H       1.049069    -0.507879     2.817848
H      -0.337867    -1.235459     3.671165
H       0.800132    -2.268502     2.801061
O      -3.189585     2.627909     2.635584
C      -4.203628     3.540411     2.258624
H      -3.912486     4.118586     1.373407
H      -5.150596     3.024183     2.060414
H      -4.331903     4.216076     3.105190
N      -1.115303    -1.370202    -3.047814
C      -1.720249    -0.192632    -3.486494
O      -2.728666    -0.217402    -4.161257
C      -1.085192     1.158424    -3.127188
H      -1.933218     1.819163    -2.937297
H      -0.638451     1.519372    -4.058411
C      -0.070895     1.219797    -1.965549
H       0.607528     2.063366    -2.128003
H      -0.585446     1.398346    -1.024694
C       0.698365    -0.093823    -1.923165
C       1.546546    -0.461663    -0.667805
H       2.604884    -0.506690    -0.937442
C      -2.245643    -2.521435    -1.282418
H      -3.273892    -2.233232    -1.057432
H      -2.079762    -3.512028    -0.854018
C      -1.985385    -2.530716    -2.812883
H      -1.454578    -3.432273    -3.122736
H      -2.890294    -2.421710    -3.406689
C       1.606523    -0.125030    -3.186550
H       0.997315     0.124648    -4.058965
H       2.297669     0.719102    -3.058525
C       2.421308    -1.371815    -3.539136
H       3.058240    -1.715005    -2.719543
H       1.781218    -2.204039    -3.830926
H       3.075703    -1.131318    -4.383846
O       1.387897     0.379482     0.443208
C       2.374291     1.397504     0.541458
H       3.365101     0.941419     0.669104
H       2.392685     1.995281    -0.382219
C       2.036164     2.269907     1.722603
C       0.772232     2.850992     1.814174
C       2.960501     2.498923     2.734930
C       0.434528     3.638804     2.904103
H       0.040562     2.663402     1.036361
C       2.631002     3.300304     3.824683
H       3.945510     2.043688     2.676271
C       1.367196     3.868437     3.912246
H      -0.561813     4.064590     2.969829
H       3.361828     3.473425     4.608460
H       1.105979     4.487195     4.765099
C      -0.293913    -1.250129    -1.887912
O       0.598989    -2.364107    -1.664344
C       1.063173    -1.913502    -0.377865
C       2.169087    -2.817019     0.139862
O       3.241229    -2.423174     0.521700
O       1.798899    -4.099983     0.144559
C       2.783347    -5.027140     0.624213
H       3.054225    -4.794368     1.656271
H       2.316928    -6.009167     0.559913
H       3.677840    -4.983837    -0.000520
72
     -1725.809601     -1725.269809   4.33   4.09
C      -2.524317    -0.641096    -0.394439
C      -1.785717    -1.449919    -1.258397
C      -2.247120    -1.678193    -2.544448
C      -3.412381    -1.065875    -2.982121
C      -4.133866    -0.241857    -2.114172
C      -3.705663    -0.025115    -0.804493
C      -0.782796    -1.425364     0.905290
C      -0.614417    -2.027706    -0.515892
H      -1.705796    -2.337414    -3.217996
H      -3.791144    -1.218532    -3.985896
H      -4.260547     0.605875    -0.123847
H      -0.899235    -2.205877     1.664902
N      -1.947916    -0.560810     0.866278
C      -2.775575    -0.421278     2.047362
H      -3.502927    -1.241176     2.147264
H      -2.133490    -0.408512     2.928365
H      -3.327190     0.522439     2.013402
O      -5.263351     0.309732    -2.638495
C      -6.037796     1.157768    -1.812135
H      -6.878317     1.488931    -2.422689
H      -6.417696     0.621835    -0.933833
H      -5.461555     2.031647    -1.484715
N       1.299520    -2.591188    -1.820399
C       1.048471    -2.261327    -3.153426
O       0.995224    -3.119149    -4.010441
C       0.847161    -0.789548    -3.545391
H       0.033691    -0.811108    -4.273486
H       1.739811    -0.524508    -4.119454
C       0.563464     0.249660    -2.438629
H       0.928115     1.231670    -2.753720
H      -0.506377     0.347928    -2.274293
C       1.273971    -0.197457    -1.166534
C       0.913502     0.468010     0.188589
H       1.802799     0.955368     0.602202
C      -0.510451    -3.577896    -0.604032
H      -1.373111    -3.977320    -1.140322
H      -0.508938    -4.020063     0.394553
C       0.817265    -3.895557    -1.345357
H       1.561174    -4.319400    -0.668748
H       0.689330    -4.557338    -2.199472
C       2.799127    -0.042542    -1.433177
H       3.019821    -0.436617    -2.427990
H       2.961821     1.041230    -1.504245
C       3.828134    -0.633626    -0.468429
H       4.828237    -0.336701    -0.802369
H       3.699274    -0.285529     0.557176
H       3.785020    -1.723446    -0.455546
O      -0.105842     1.414906     0.023087
C      -0.429931     2.168224     1.180886
H      -1.252238     2.817547     0.867206
H      -0.806686     1.513566     1.972088
C       0.721382     2.997543     1.709216
C       1.013303     3.008197     3.069145
C       1.497496     3.765273     0.842799
C       2.060260     3.782138     3.560711
H       0.418405     2.402593     3.747402
C       2.546967     4.532351     1.328935
H       1.275902     3.752036    -0.220460
C       2.829683     4.544734     2.691906
H       2.273966     3.788458     4.625342
H       3.145401     5.125766     0.644591
H       3.647453     5.147821     3.073385
C       0.869615    -1.631556    -0.857137
O       1.436755    -1.798203     0.462182
C       0.619565    -0.796617     1.095133
C       1.030875    -0.593664     2.540092
O       0.246250    -0.449734     3.446361
O       2.352205    -0.541109     2.688947
C       2.824292    -0.280789     4.019469
H       3.910433    -0.326924     3.956686
H       2.501897     0.710037     4.344764
H       2.445350    -1.035644     4.710914
72
     -1725.808851     -1725.268809   4.80   4.71
C      -1.023000     0.255290     1.551524
C      -0.839445    -1.091216     1.233734
C      -1.940546    -1.922185     1.120376
C      -3.218814    -1.409537     1.295325
C      -3.388054    -0.060805     1.617801
C      -2.291911     0.788473     1.760260
C       1.268224     0.006437     1.408885
C       0.633399    -1.395901     1.197464
H      -1.813922    -2.979171     0.897960
H      -4.098901    -2.035687     1.205358
H      -2.416000     1.841947     1.969698
H       1.960386     0.017852     2.256518
N       0.180554     0.941194     1.614490
C       0.354770     2.090945     2.476038
H       0.183281     1.850310     3.536032
H       1.371561     2.467801     2.359395
H      -0.339140     2.884856     2.186080
O      -4.679006     0.347573     1.771583
C      -4.905856     1.655117     2.268450
H      -5.987332     1.755093     2.367950
H      -4.437151     1.789163     3.251119
H      -4.532574     2.418763     1.578257
N       1.376449    -3.317240     0.004532
C       0.368833    -4.027764    -0.633077
O       0.095410    -5.164247    -0.302940
C      -0.393356    -3.365943    -1.786878
H      -1.423240    -3.711333    -1.673041
H      -0.026671    -3.844420    -2.698821
C      -0.337604    -1.832850    -1.907639
H      -0.561410    -1.532435    -2.935699
H      -1.096602    -1.380780    -1.271761
C       1.042478    -1.353504    -1.490178
C       1.256331     0.159007    -1.209416
H       1.862820     0.612512    -2.001184
C       1.057482    -2.495970     2.215843
H       0.179567    -2.847047     2.761169
H       1.761586    -2.096345     2.949181
C       1.701174    -3.641698     1.395713
H       2.787013    -3.657481     1.510634
H       1.300285    -4.624962     1.633194
C       2.136020    -1.734709    -2.543753
H       1.693348    -1.499586    -3.520628
H       2.967956    -1.038168    -2.417445
C       2.768894    -3.128955    -2.599431
H       3.331066    -3.345572    -1.690436
H       2.060524    -3.942293    -2.759611
H       3.471638    -3.147059    -3.438879
O       0.034552     0.829963    -1.126387
C       0.134710     2.238713    -1.148347
H       0.807289     2.591667    -0.356515
H       0.559639     2.559734    -2.113272
C      -1.234496     2.845010    -0.960917
C      -1.353636     4.145350    -0.476718
C      -2.387397     2.137685    -1.287898
C      -2.603407     4.735487    -0.329402
H      -0.459334     4.704864    -0.213297
C      -3.638244     2.723089    -1.137850
H      -2.302424     1.118001    -1.643631
C      -3.750777     4.025016    -0.663359
H      -2.680790     5.752202     0.043545
H      -4.529366     2.154391    -1.386395
H      -4.728378     4.484544    -0.552993
C       1.368890    -1.897535    -0.104471
O       2.651020    -1.255062     0.104815
C       2.124604     0.089487     0.123825
C       3.268784     1.083435     0.168524
O       3.386889     1.952910     0.994951
O       4.121263     0.898292    -0.842970
C       5.239783     1.796873    -0.886152
H       5.818038     1.501434    -1.760360
H       4.895173     2.828769    -0.980843
H       5.837101     1.698208     0.022373
72
     -1725.808164     -1725.268235   5.24   5.07
C      -0.504859    -1.707140     0.578836
C      -1.358449    -1.062493    -0.329784
C      -2.686610    -0.892005    -0.012753
C      -3.179990    -1.325296     1.222435
C      -2.316949    -1.956124     2.115112
C      -0.972247    -2.165083     1.796570
C       0.835709    -1.235441    -1.243394
C      -0.604296    -0.775530    -1.599677
H      -3.367103    -0.420785    -0.718315
H      -4.224202    -1.172947     1.460984
H      -0.326890    -2.628647     2.532191
H       1.217493    -1.970311    -1.958912
N       0.793616    -1.790073     0.094698
C       1.650446    -2.906362     0.436480
H       1.266078    -3.862911     0.050523
H       2.643534    -2.731957     0.019598
H       1.739977    -2.984834     1.521881
O      -2.693640    -2.407917     3.345635
C      -4.042614    -2.232121     3.731830
H      -4.128844    -2.657550     4.732484
H      -4.314176    -1.169890     3.764599
H      -4.724754    -2.760063     3.054297
N      -1.422952     0.926550    -3.047930
C      -2.555458     1.579946    -2.581490
O      -3.615848     1.496137    -3.168016
C      -2.452678     2.436579    -1.314348
H      -3.398771     2.274673    -0.793148
H      -2.484233     3.474873    -1.654747
C      -1.258901     2.200494    -0.372197
H      -1.080744     3.094820     0.232559
H      -1.482233     1.389586     0.318692
C      -0.033188     1.854013    -1.200663
C       1.205437     1.248346    -0.485117
H       2.023152     1.977166    -0.454496
C      -1.240516    -1.439473    -2.856858
H      -2.135056    -1.992946    -2.565718
H      -0.548172    -2.150754    -3.312860
C      -1.586854    -0.294255    -3.841051
H      -0.892184    -0.264290    -4.683064
H      -2.606703    -0.338009    -4.217718
C       0.511826     3.094538    -1.984384
H       0.502496     3.921356    -1.262003
H       1.564172     2.903781    -2.206775
C      -0.110995     3.568998    -3.301294
H       0.424506     4.468073    -3.623398
H      -0.001815     2.818338    -4.084749
H      -1.166449     3.834322    -3.233308
O       0.888732     0.855798     0.816272
C       2.007366     0.548439     1.627213
H       2.663611    -0.171716     1.123535
H       2.590281     1.466717     1.804495
C       1.528744    -0.032703     2.934429
C       2.291592    -0.994153     3.590092
C       0.329591     0.383621     3.505948
C       1.864837    -1.535195     4.798176
H       3.226645    -1.330077     3.148873
C      -0.100851    -0.156217     4.710317
H      -0.279881     1.115504     2.988036
C       0.664754    -1.117776     5.360443
H       2.470082    -2.285015     5.298547
H      -1.047216     0.163123     5.135280
H       0.325998    -1.542104     6.300299
C      -0.360641     0.690149    -2.129271
O       0.943131     0.493333    -2.729534
C       1.593084     0.087487    -1.505370
C       3.083872    -0.053636    -1.742336
O       3.726281    -1.040281    -1.484355
O       3.610563     1.065886    -2.246300
C       5.022583     1.028704    -2.501181
H       5.571237     0.838813    -1.576263
H       5.253956     0.244701    -3.224910
H       5.272588     2.009220    -2.903680
72
     -1725.807258     -1725.267995   5.80   5.22
C      -0.384268     0.692036    -1.597232
C       0.253508     1.584718    -0.733617
C      -0.298620     2.834832    -0.516140
C      -1.493114     3.183839    -1.132041
C      -2.119296     2.281495    -1.994883
C      -1.568645     1.025441    -2.247132
C       1.518467    -0.423044    -0.912853
C       1.562255     0.993139    -0.282560
H       0.197396     3.551485     0.134335
H      -1.951303     4.153205    -0.973796
H      -2.070092     0.306110    -2.879707
H       2.398871    -0.617681    -1.533855
N       0.300314    -0.510561    -1.685644
C       0.220384    -1.370615    -2.840959
H       0.765283    -2.296727    -2.637599
H      -0.820349    -1.638570    -3.041205
H       0.643573    -0.910775    -3.746901
O      -3.285434     2.714625    -2.550287
C      -3.872949     1.918901    -3.565291
H      -4.182700     0.941326    -3.181918
H      -4.751281     2.468140    -3.906365
H      -3.182065     1.781298    -4.406097
N       2.580285     1.812914     1.707928
C       1.850939     2.791558     2.368844
O       2.274984     3.924382     2.480068
C       0.496982     2.420654     2.984453
H      -0.129574     3.301610     2.828604
H       0.663820     2.370868     4.063779
C      -0.204650     1.149211     2.475680
H      -0.920557     0.794348     3.223272
H      -0.771669     1.372409     1.573877
C       0.844016     0.089807     2.180422
C       0.433951    -1.162701     1.355385
H       0.404400    -2.055622     1.987311
C       2.794153     1.868206    -0.662012
H       2.456709     2.770605    -1.174852
H       3.458129     1.331781    -1.343757
C       3.521636     2.215870     0.660770
H       4.443664     1.642019     0.774566
H       3.741673     3.275786     0.770358
C       1.489649    -0.467893     3.492802
H       0.653113    -0.622536     4.186773
H       1.876179    -1.465900     3.271570
C       2.622810     0.260028     4.223581
H       2.872484    -0.317825     5.119506
H       3.519409     0.320286     3.605717
H       2.373399     1.268588     4.554433
O      -0.820445    -0.969794     0.769358
C      -1.437868    -2.141873     0.276945
H      -0.786285    -2.654447    -0.438466
H      -1.614301    -2.840861     1.109527
C      -2.745724    -1.777985    -0.381800
C      -3.438681    -0.624196    -0.027251
C      -3.289281    -2.621146    -1.347956
C      -4.656056    -0.322094    -0.624259
H      -3.010775     0.047566     0.707142
C      -4.509653    -2.324713    -1.943908
H      -2.753969    -3.522787    -1.635560
C      -5.198722    -1.173474    -1.580197
H      -5.178542     0.588149    -0.345417
H      -4.923839    -2.995396    -2.690579
H      -6.154035    -0.940727    -2.040985
C       1.884852     0.666320     1.228312
O       2.703473    -0.511838     1.030086
C       1.670857    -1.281429     0.374851
C       2.150297    -2.700339     0.132193
O       1.503933    -3.689121     0.371987
O       3.365604    -2.721908    -0.419170
C       3.898003    -4.025100    -0.697135
H       4.879647    -3.852385    -1.135832
H       3.984681    -4.601315     0.226277
H       3.250958    -4.560178    -1.395500
72
     -1725.806930     -1725.267747   6.01   5.38
C       0.550801     1.393590     1.255385
C       0.611059     0.093146     1.767061
C      -0.149469    -0.238797     2.872039
C      -1.009758     0.698694     3.433780
C      -1.078584     1.984872     2.895659
C      -0.295122     2.354114     1.802461
C       2.077270     0.310329    -0.100594
C       1.637111    -0.694621     0.994785
H      -0.086746    -1.233438     3.307168
H      -1.623914     0.461292     4.294470
H      -0.354614     3.344409     1.373067
H       3.165408     0.420644    -0.141671
N       1.445655     1.564613     0.222935
C       1.430373     2.680037    -0.687542
H       0.565863     2.658840    -1.362768
H       1.423968     3.621742    -0.130940
H       2.343060     2.661994    -1.289401
O      -1.952837     2.832785     3.509797
C      -1.940776     4.194821     3.119540
H      -2.249467     4.317073     2.075212
H      -2.657348     4.699753     3.768460
H      -0.947356     4.636932     3.262772
N       1.499637    -3.073798     0.977905
C       0.439010    -3.563338     1.728592
O       0.627857    -4.234064     2.723044
C      -0.996361    -3.265164     1.277148
H      -1.547211    -3.093377     2.204460
H      -1.383996    -4.207830     0.883207
C      -1.228717    -2.113416     0.280999
H      -2.164397    -2.286454    -0.260672
H      -1.337575    -1.174899     0.820867
C      -0.049624    -2.026507    -0.672480
C       0.148912    -0.737648    -1.535532
H      -0.051264    -0.956684    -2.586393
C       2.771347    -1.279974     1.884133
H       2.569879    -1.044071     2.930598
H       3.737046    -0.838784     1.627704
C       2.773912    -2.811153     1.652674
H       3.588705    -3.116813     0.993435
H       2.815890    -3.390017     2.572829
C      -0.048572    -3.206042    -1.700350
H      -1.078431    -3.264949    -2.077773
H       0.561741    -2.900708    -2.553817
C       0.430436    -4.613305    -1.330282
H       1.490013    -4.618098    -1.073229
H      -0.117939    -5.074331    -0.508406
H       0.295362    -5.257401    -2.205308
O      -0.615790     0.374638    -1.150035
C      -1.780821     0.553727    -1.944565
H      -1.489953     0.824867    -2.968398
H      -2.346794    -0.388523    -1.994775
C      -2.638907     1.631338    -1.334557
C      -3.048809     2.727199    -2.085826
C      -3.055810     1.525091    -0.008487
C      -3.871479     3.701117    -1.527040
H      -2.723977     2.821942    -3.118467
C      -3.875243     2.492887     0.552609
H      -2.725365     0.684926     0.592043
C      -4.287481     3.584066    -0.207605
H      -4.186862     4.550347    -2.125213
H      -4.187048     2.397165     1.588154
H      -4.931218     4.341020     0.230120
C       1.246835    -1.958871     0.127606
O       2.190448    -1.790414    -0.959442
C       1.685814    -0.502352    -1.371007
C       2.358717    -0.027751    -2.645289
O       1.765132     0.427088    -3.590028
O       3.686936    -0.136139    -2.577027
C       4.406069     0.309394    -3.736122
H       4.111020    -0.274715    -4.610183
H       4.205569     1.366111    -3.925510
H       5.458776     0.151837    -3.505980
72
     -1725.804627     -1725.267724   7.45   5.39
C      -1.833741    -0.867812     1.455110
C      -1.999063    -1.212887     0.111997
C      -3.222316    -1.005472    -0.500383
C      -4.267794    -0.430184     0.209064
C      -4.089099    -0.085918     1.550544
C      -2.870593    -0.305103     2.195723
C       0.191018    -1.788082     0.839083
C      -0.756607    -1.903574    -0.383028
H      -3.374169    -1.293386    -1.537964
H      -5.233294    -0.249190    -0.248439
H      -2.724782    -0.039266     3.233891
H       0.570042    -2.766953     1.151502
N      -0.552043    -1.149262     1.901817
C      -0.249822    -1.432867     3.283267
H      -0.727028    -2.356124     3.645819
H       0.832413    -1.533657     3.400806
H      -0.572420    -0.606225     3.922030
O      -5.175574     0.463842     2.161395
C      -5.060650     0.835399     3.521354
H      -4.838066    -0.031405     4.155428
H      -4.286056     1.598898     3.663263
H      -6.029077     1.248880     3.804505
N      -0.315958    -1.987489    -2.723699
C      -1.262348    -1.338649    -3.504618
O      -1.956929    -1.952234    -4.290028
C      -1.414783     0.181760    -3.381042
H      -2.489558     0.358638    -3.463325
H      -0.984342     0.597907    -4.295429
C      -0.839971     0.873350    -2.131299
H      -0.638810     1.926817    -2.349267
H      -1.568978     0.851389    -1.323634
C       0.430549     0.159180    -1.700942
C       1.000663     0.438997    -0.281816
H       1.916927     1.031704    -0.341184
C      -1.023303    -3.347781    -0.903565
H      -2.090584    -3.567342    -0.839327
H      -0.498850    -4.086208    -0.292568
C      -0.532557    -3.392815    -2.372209
H       0.414461    -3.928746    -2.462439
H      -1.257813    -3.823144    -3.059690
C       1.616803     0.436669    -2.681123
H       1.602242     1.520980    -2.852609
H       2.544583     0.236612    -2.139152
C       1.754803    -0.286380    -4.024510
H       1.898873    -1.358429    -3.885779
H       0.911153    -0.144536    -4.700636
H       2.641249     0.107305    -4.532712
O       0.054945     1.116741     0.495128
C       0.577161     1.810658     1.617551
H      -0.303324     2.106132     2.195026
H       1.187515     1.146131     2.236477
C       1.378023     3.030827     1.216614
C       0.825468     3.970403     0.346433
C       2.666187     3.231361     1.700141
C       1.544923     5.097282    -0.024314
H      -0.176292     3.809879    -0.041825
C       3.388852     4.363097     1.333281
H       3.112141     2.488589     2.354605
C       2.829970     5.298386     0.473032
H       1.103991     5.822894    -0.700982
H       4.393173     4.508963     1.718625
H       3.393270     6.180641     0.185617
C       0.145220    -1.329698    -1.547463
O       1.435241    -1.772935    -1.065257
C       1.375298    -1.031761     0.172848
C       2.680176    -1.153285     0.932706
O       3.195673    -0.253511     1.548479
O       3.166969    -2.394596     0.886110
C       4.385595    -2.612107     1.611170
H       4.242152    -2.395689     2.672031
H       4.630327    -3.662733     1.462310
H       5.178545    -1.972877     1.217473
72
     -1725.806205     -1725.267229   6.46   5.70
C      -1.867982    -0.784886     1.504139
C      -1.916812    -1.646946     0.393600
C      -3.132365    -2.003317    -0.137520
C      -4.317242    -1.461716     0.380608
C      -4.247595    -0.574057     1.450204
C      -3.020648    -0.228667     2.031562
C       0.349642    -1.394083     1.152612
C      -0.515337    -2.062606     0.047687
H      -3.193500    -2.702098    -0.967901
H      -5.265733    -1.745372    -0.054812
H      -3.011515     0.450916     2.875080
H       0.883973    -2.136437     1.754817
N      -0.582696    -0.637013     1.956010
C      -0.238784     0.120281     3.128201
H       0.818308    -0.024861     3.351534
H      -0.419198     1.191581     2.976874
H      -0.823430    -0.212490     3.995247
O      -5.335606     0.013492     2.022744
C      -6.611003    -0.293206     1.491055
H      -7.329019     0.278039     2.080629
H      -6.686655     0.004773     0.438417
H      -6.835180    -1.362671     1.583390
N      -0.187652    -2.468391    -2.269451
C      -1.378050    -2.189747    -2.941835
O      -1.991771    -3.064811    -3.517328
C      -1.920051    -0.751414    -2.965595
H      -2.997349    -0.865294    -2.831285
H      -1.791102    -0.418112    -3.999426
C      -1.350465     0.285363    -1.972041
H      -1.423285     1.283764    -2.415205
H      -1.936920     0.299911    -1.055417
C       0.102590    -0.072005    -1.689814
C       0.856087     0.585984    -0.493057
H       1.725915     1.124121    -0.877642
C      -0.328860    -3.590552    -0.155382
H      -1.225014    -4.122798     0.167823
H       0.508482    -3.953775     0.443514
C      -0.045571    -3.803455    -1.669539
H       0.971885    -4.160121    -1.838343
H      -0.747218    -4.481351    -2.151546
C       0.897373     0.198235    -3.001510
H       0.332068    -0.212059    -3.841812
H       0.866712     1.288369    -3.134115
C       2.345505    -0.274039    -3.146644
H       2.408935    -1.362794    -3.164685
H       2.739266     0.104028    -4.096265
H       2.996509     0.081452    -2.346311
O       0.101697     1.446306     0.326748
C       0.263334     2.819484     0.009093
H       0.070375     2.998300    -1.057368
H      -0.515506     3.336908     0.576954
C       1.628977     3.359834     0.382759
C       2.210746     3.018542     1.602809
C       2.311088     4.218271    -0.472584
C       3.447155     3.536150     1.962420
H       1.689014     2.341879     2.271771
C       3.551033     4.738418    -0.115088
H       1.873082     4.482516    -1.431539
C       4.121350     4.399464     1.104320
H       3.886273     3.271642     2.919663
H       4.070765     5.407854    -0.793285
H       5.087941     4.804413     1.386543
C       0.178254    -1.532101    -1.257283
O       1.546947    -1.616422    -0.804581
C       1.402137    -0.663618     0.267846
C       2.788676    -0.404406     0.846385
O       3.710918    -0.003135     0.190353
O       2.869625    -0.656229     2.159678
C       4.161383    -0.427315     2.744499
H       4.051703    -0.658387     3.803262
H       4.904073    -1.080768     2.282721
H       4.459320     0.613244     2.602628
72
     -1725.806430     -1725.266821   6.32   5.96
C      -2.253873    -0.810655    -1.042341
C      -1.206115    -1.606696    -1.542090
C      -1.135298    -1.865884    -2.889145
C      -2.050598    -1.279194    -3.774256
C      -3.047753    -0.450545    -3.267625
C      -3.168966    -0.213465    -1.892973
C      -1.105736    -1.501576     0.853445
C      -0.389406    -2.111490    -0.384274
H      -0.370178    -2.527494    -3.287093
H      -1.973093    -1.484915    -4.833210
H      -3.975291     0.416158    -1.536713
H      -1.426225    -2.269369     1.565248
N      -2.235388    -0.775182     0.325689
C      -3.187331    -0.043115     1.117544
H      -2.989909    -0.227415     2.173833
H      -3.114412     1.035704     0.929920
H      -4.210983    -0.364935     0.890131
O      -3.981310     0.174649    -4.039780
C      -3.924144    -0.024896    -5.439505
H      -4.741605     0.560836    -5.861726
H      -2.972441     0.328082    -5.854659
H      -4.063913    -1.081391    -5.698305
N       1.891977    -2.583833    -0.861078
C       2.129047    -2.312058    -2.206833
O       2.435775    -3.196074    -2.980159
C       2.015128    -0.872001    -2.723875
H       1.461876    -0.966266    -3.660233
H       3.029311    -0.601268    -3.021249
C       1.376579     0.215517    -1.830552
H       1.867676     1.174959    -2.025858
H       0.324838     0.336721    -2.089038
C       1.515876    -0.168144    -0.366473
C       0.585164     0.490543     0.706967
H       1.201133     1.087470     1.381873
C      -0.186006    -3.652742    -0.370588
H      -0.749016    -4.106075    -1.188295
H      -0.556069    -4.081534     0.562869
C       1.337786    -3.901754    -0.525856
H       1.786337    -4.241402     0.409124
H       1.584600    -4.602038    -1.321037
C       2.956292     0.097167     0.169836
H       3.039564     1.190326     0.236682
H       2.993989    -0.272577     1.197248
C       4.194423    -0.409622    -0.573062
H       4.332327     0.077252    -1.541105
H       5.076624    -0.168662     0.028416
H       4.187776    -1.490136    -0.720613
O      -0.472079     1.286016     0.232397
C      -0.169905     2.671728     0.199338
H       0.726840     2.861158    -0.406425
H      -1.018271     3.134412    -0.312810
C       0.004069     3.275525     1.579279
C      -0.863459     2.929881     2.614549
C       1.023086     4.188335     1.830070
C      -0.717906     3.496087     3.873666
H      -1.653197     2.208682     2.434831
C       1.171736     4.757171     3.091075
H       1.713183     4.456559     1.034393
C       0.300206     4.413289     4.115846
H      -1.404393     3.222739     4.669321
H       1.971203     5.469005     3.270755
H       0.412533     4.857097     5.099977
C       1.094345    -1.624754    -0.168595
O       1.140840    -1.720188     1.271611
C       0.089520    -0.759325     1.506964
C      -0.044318    -0.494994     2.997507
O      -1.069293    -0.602955     3.621572
O       1.112935    -0.094878     3.526810
C       1.081522     0.225713     4.925419
H       2.101029     0.508974     5.182736
H       0.396819     1.056554     5.104671
H       0.763909    -0.642812     5.505824
72
     -1725.806275     -1725.266463   6.42   6.19
C      -2.467203    -0.685473     0.565643
C      -2.058439    -1.528770    -0.473553
C      -2.903457    -1.747899    -1.544602
C      -4.116560    -1.072619    -1.624612
C      -4.488531    -0.192650    -0.606755
C      -3.675810     0.008407     0.510927
C      -0.419784    -1.510871     1.277327
C      -0.727440    -2.129604    -0.115709
H      -2.631095    -2.446484    -2.331381
H      -4.793032    -1.216802    -2.458614
H      -3.966241     0.668937     1.316413
H      -0.256178    -2.276389     2.042802
N      -1.564867    -0.691535     1.595722
C      -1.711848     0.083511     2.798416
H      -0.885060    -0.143858     3.471647
H      -1.701024     1.159568     2.582821
H      -2.653211    -0.159105     3.306859
O      -5.689750     0.427079    -0.782361
C      -6.132305     1.320170     0.220973
H      -5.437014     2.159421     0.344627
H      -7.097736     1.698934    -0.116176
H      -6.259887     0.809133     1.183079
N       0.658305    -2.751296    -1.946652
C      -0.010842    -2.457448    -3.132815
O      -0.340044    -3.337725    -3.901043
C      -0.327963    -0.998423    -3.486085
H      -1.361177    -1.026017    -3.837415
H       0.267435    -0.791167    -4.376473
C      -0.153944     0.104916    -2.417811
H       0.162426     1.032248    -2.907499
H      -1.110272     0.307856    -1.936296
C       0.871835    -0.330603    -1.384161
C       0.910013     0.360152     0.020747
H       1.857214     0.893111     0.120535
C      -0.682897    -3.681267    -0.204184
H      -1.673544    -4.063706    -0.456415
H      -0.396331    -4.114231     0.756369
C       0.356140    -4.035081    -1.300944
H       1.275721    -4.433605    -0.869323
H      -0.021899    -4.727571    -2.050058
C       2.330947    -0.184196    -1.915514
H       2.517037     0.897880    -1.945456
H       2.998088    -0.584903    -1.148677
C       2.751753    -0.756867    -3.270747
H       2.264734    -0.253845    -4.109156
H       3.827950    -0.596850    -3.390406
H       2.572369    -1.829511    -3.351973
O      -0.141872     1.240739     0.328063
C       0.163682     2.601749     0.069238
H       0.458454     2.742644    -0.979628
H      -0.777422     3.137389     0.222600
C       1.238352     3.155031     0.984712
C       1.236475     2.843461     2.343674
C       2.234224     3.987800     0.485411
C       2.208439     3.364682     3.186789
H       0.473400     2.184003     2.742362
C       3.209844     4.511420     1.327868
H       2.253433     4.228225    -0.574348
C       3.198310     4.202041     2.681435
H       2.191591     3.118938     4.244321
H       3.979678     5.160891     0.923304
H       3.956982     4.610735     3.341331
C       0.573239    -1.758492    -0.925875
O       1.535629    -1.900403     0.141678
C       0.963284    -0.874659     0.980222
C       1.849355    -0.644718     2.193190
O       1.470292    -0.694129     3.335928
O       3.098937    -0.346977     1.833923
C       4.006928    -0.064966     2.909095
H       3.667975     0.809985     3.466647
H       4.076822    -0.923086     3.580509
H       4.967383     0.132738     2.435511
72
     -1725.805172     -1725.266442   7.11   6.20
C      -2.421531    -0.708362     0.643064
C      -1.765095    -1.337690    -0.431448
C      -2.277521    -1.221673    -1.700348
C      -3.398042    -0.415506    -1.943688
C      -3.998510     0.247762    -0.877339
C      -3.523991     0.101675     0.431638
C      -0.653414    -1.836805     1.628730
C      -0.604394    -2.133048     0.104002
H      -1.818631    -1.749494    -2.532379
H      -3.779758    -0.324486    -2.951570
H      -4.036722     0.615307     1.235845
H      -0.677502    -2.751962     2.227972
N      -1.846186    -1.053233     1.838579
C      -2.221217    -0.491674     3.109356
H      -3.307622    -0.542393     3.234918
H      -1.753099    -1.070427     3.906555
H      -1.905455     0.555535     3.210582
O      -5.083053     1.065258    -1.004066
C      -5.636860     1.235143    -2.294975
H      -4.911606     1.681300    -2.986151
H      -5.991009     0.281988    -2.705838
H      -6.483259     1.912311    -2.173765
N       1.219891    -2.557814    -1.370717
C       0.927882    -2.025215    -2.623727
O       0.781176    -2.743043    -3.591846
C       0.809063    -0.506403    -2.787169
H      -0.057226    -0.371540    -3.438139
H       1.667004    -0.223753    -3.399618
C       0.686764     0.392492    -1.536840
H       1.162207     1.356683    -1.735738
H      -0.362520     0.596054    -1.330044
C       1.336322    -0.282871    -0.339796
C       0.961960     0.161084     1.116328
H       1.827618     0.646798     1.570221
C      -0.619711    -3.632922    -0.306215
H      -1.484361    -3.827841    -0.943326
H      -0.705783    -4.277008     0.571567
C       0.702762    -3.897921    -1.069132
H       1.430798    -4.417913    -0.444356
H       0.564433    -4.444246    -1.999537
C       2.889498    -0.149698    -0.382974
H       3.082201     0.919378    -0.225711
H       3.289771    -0.667169     0.491880
C       3.693192    -0.588993    -1.609228
H       4.757899    -0.486994    -1.375963
H       3.516718    -1.631038    -1.878520
H       3.502766     0.037239    -2.483300
O      -0.159201     0.994675     1.254596
C       0.110683     2.340447     1.623813
H      -0.836489     2.721573     2.014752
H       0.847719     2.365629     2.437361
C       0.573285     3.195556     0.466461
C       1.891902     3.625527     0.369666
C      -0.327528     3.546520    -0.538449
C       2.312335     4.386525    -0.717529
H       2.600863     3.366460     1.151672
C       0.085628     4.304991    -1.623434
H      -1.357364     3.206124    -0.472683
C       1.409932     4.725626    -1.716454
H       3.344703     4.715568    -0.780519
H      -0.624176     4.570300    -2.400675
H       1.733999     5.319763    -2.564934
C       0.884816    -1.740325    -0.250660
O       1.516835    -2.133897     0.987367
C       0.761236    -1.231396     1.821452
C       1.302951    -1.310030     3.241325
O       0.681681    -1.705235     4.193871
O       2.568891    -0.882674     3.305974
C       3.178571    -0.945891     4.603489
H       3.192933    -1.976608     4.963323
H       4.192440    -0.571276     4.469517
H       2.627507    -0.324819     5.312921
72
     -1725.807341     -1725.266305   5.75   6.28
C      -2.001206    -0.231631     0.449569
C      -1.496530    -1.270708    -0.355268
C      -2.030989    -1.483032    -1.602571
C      -3.013427    -0.621003    -2.110167
C      -3.461911     0.433834    -1.320756
C      -2.975928     0.630462    -0.023911
C      -0.423409    -1.277681     1.787508
C      -0.465641    -2.034951     0.431021
H      -1.697785    -2.317992    -2.213613
H      -3.410472    -0.792931    -3.101497
H      -3.358628     1.455823     0.563050
H      -0.611750    -1.941182     2.637087
N      -1.436578    -0.254521     1.696064
C      -1.679201     0.742873     2.707248
H      -1.198287     0.431204     3.634955
H      -1.279740     1.721954     2.414593
H      -2.754842     0.841945     2.891304
O      -4.395867     1.343711    -1.727069
C      -4.963933     1.180121    -3.012714
H      -4.202733     1.251558    -3.799011
H      -5.485535     0.219306    -3.098478
H      -5.682728     1.991954    -3.131185
N       1.208997    -3.175973    -0.820414
C       0.966612    -2.979152    -2.177427
O       0.670675    -3.905346    -2.903929
C       1.092381    -1.571156    -2.771444
H       0.230701    -1.479865    -3.435499
H       1.956454    -1.623554    -3.435417
C       1.176808    -0.349447    -1.829776
H       1.795378     0.421616    -2.300891
H       0.183045     0.074714    -1.691291
C       1.758568    -0.762821    -0.487028
C       1.531825     0.138289     0.776470
H       2.493757     0.550533     1.093872
C      -0.733240    -3.565019     0.507785
H      -1.659869    -3.801790    -0.018005
H      -0.851505    -3.885562     1.544848
C       0.481831    -4.264101    -0.154913
H       1.139287    -4.718183     0.588212
H       0.202301    -5.009627    -0.896111
C       3.305891    -0.939025    -0.553871
H       3.704631     0.077688    -0.671628
H       3.637582    -1.282991     0.428581
C       3.966329    -1.816717    -1.619366
H       5.040516    -1.855196    -1.413116
H       3.596758    -2.842635    -1.610715
H       3.855338    -1.410909    -2.627293
O       0.606927     1.183432     0.648955
C       1.184097     2.406186     0.206694
H       1.929468     2.750039     0.937452
H       1.697158     2.255684    -0.754062
C       0.085612     3.425426     0.058558
C       0.090735     4.600390     0.800994
C      -0.964997     3.185631    -0.825371
C      -0.938363     5.527647     0.663236
H       0.903165     4.793383     1.496516
C      -1.998806     4.100151    -0.957156
H      -0.984023     2.263963    -1.396424
C      -1.985549     5.277102    -0.213283
H      -0.923262     6.442602     1.247105
H      -2.820694     3.886766    -1.633109
H      -2.792937     5.995333    -0.316680
C       1.056163    -2.026367     0.010784
O       1.642162    -2.149396     1.324565
C       1.085112    -0.921455     1.841384
C       1.638431    -0.688664     3.240597
O       0.974684    -0.650331     4.243953
O       2.965908    -0.531759     3.220614
C       3.585020    -0.329185     4.499384
H       3.192859     0.573638     4.972356
H       3.397123    -1.186449     5.148825
H       4.650081    -0.226646     4.296328
72
     -1725.805092     -1725.265178   7.16   6.99
C      -1.497750    -1.946284     0.422613
C      -1.445623    -1.403019    -0.865740
C      -2.574274    -0.814374    -1.401885
C      -3.725612    -0.683668    -0.633273
C      -3.744348    -1.174958     0.673082
C      -2.635852    -1.825552     1.218733
C       0.658837    -2.380152    -0.293657
C      -0.085640    -1.665454    -1.456084
H      -2.570566    -0.440868    -2.422417
H      -4.619520    -0.212556    -1.024508
H      -2.649508    -2.229270     2.221862
H       1.110785    -3.325265    -0.608229
N      -0.332852    -2.602062     0.731612
C      -0.022016    -3.138601     2.030664
H      -0.851162    -3.757729     2.387508
H       0.867016    -3.765215     1.952599
H       0.174996    -2.351458     2.771183
O      -4.911568    -0.983097     1.352040
C      -5.020000    -1.517158     2.657148
H      -4.286906    -1.067135     3.337859
H      -6.025964    -1.273524     3.000568
H      -4.891783    -2.606423     2.654747
N       0.716451    -0.213597    -3.173920
C      -0.274718     0.710047    -3.494335
O      -0.802183     0.711134    -4.587805
C      -0.687964     1.755445    -2.454645
H      -1.774925     1.812516    -2.542960
H      -0.323699     2.704530    -2.851530
C      -0.280791     1.567111    -0.976669
H      -0.151684     2.547452    -0.510686
H      -1.083159     1.068430    -0.438105
C       1.000988     0.754444    -0.881541
C       1.391569     0.022410     0.451889
H       2.267108     0.514395     0.880702
C      -0.118269    -2.412493    -2.819242
H      -1.155061    -2.545308    -3.134432
H       0.329974    -3.405030    -2.735494
C       0.651488    -1.525816    -3.828584
H       1.669973    -1.884148    -3.986386
H       0.147308    -1.422789    -4.786844
C       2.252838     1.627652    -1.200012
H       2.317490     2.337748    -0.364587
H       3.132835     0.984774    -1.126164
C       2.354214     2.428960    -2.499990
H       2.230429     1.807799    -3.387986
H       1.638312     3.252283    -2.544202
H       3.351663     2.877124    -2.550174
O       0.404650    -0.097623     1.442300
C       0.511821     0.778454     2.555228
H       0.004858     0.261270     3.375261
H       1.564772     0.904235     2.838206
C      -0.138005     2.121141     2.317915
C       0.611608     3.290554     2.292942
C      -1.514446     2.190741     2.103547
C       0.000114     4.519038     2.055107
H       1.684675     3.245235     2.460119
C      -2.126759     3.410893     1.862566
H      -2.101420     1.275857     2.102641
C      -1.369442     4.580053     1.838266
H       0.595861     5.426294     2.040551
H      -3.197959     3.453729     1.691746
H      -1.849739     5.535521     1.652363
C       0.905150    -0.475091    -1.784174
O       2.154381    -1.128369    -1.471114
C       1.833919    -1.387976    -0.090348
C       3.059282    -1.977831     0.592365
O       3.122226    -3.088217     1.053449
O       4.072698    -1.105326     0.616358
C       5.286623    -1.581579     1.215575
H       5.992749    -0.755519     1.143500
H       5.114253    -1.852831     2.259297
H       5.657253    -2.453907     0.673613
