72
     -1725.770482     -1725.242698   0.00   0.00
C       0.481410     1.416246    -3.303476
C       1.468395     0.419318    -3.210406
C       2.762376     0.793433    -2.818141
C       3.024736     2.111891    -2.524043
C       2.014118     3.094535    -2.619041
C       0.728722     2.766120    -3.011798
C      -0.448701    -0.539278    -3.847654
C       0.849643    -0.832667    -3.564304
H       3.551064     0.051511    -2.740651
H       4.014483     2.434427    -2.219939
H      -0.057794     3.505140    -3.091334
H      -1.258108    -1.198900    -4.128688
N      -0.688184     0.815546    -3.694218
C      -1.953520     1.480271    -3.895922
H      -2.294414     1.965584    -2.975167
H      -1.883149     2.233085    -4.688279
H      -2.698637     0.739398    -4.189500
O       2.417128     4.359306    -2.295685
C       1.470037     5.401639    -2.409819
H       1.989065     6.317796    -2.125989
H       1.103513     5.498145    -3.439506
H       0.618825     5.245795    -1.735062
N       1.463723    -2.089144    -1.008809
C       2.760123    -1.774388    -0.671892
O       3.695437    -2.216226    -1.315395
C       2.988716    -0.829599     0.497879
H       3.184012     0.152662     0.053174
H       3.921701    -1.148779     0.966498
C       1.844031    -0.755553     1.508140
H       1.759950    -1.710263     2.033895
H       2.053545     0.001917     2.267702
C       0.535834    -0.466070     0.775886
C      -0.729769    -1.054488     1.498098
H      -1.612497    -0.409623     1.432605
C       1.496704    -2.185034    -3.508937
H       2.575256    -2.080567    -3.645228
H       1.129443    -2.820205    -4.321944
C       1.225158    -2.928068    -2.189341
H       0.189635    -3.258306    -2.139583
H       1.872424    -3.804576    -2.119031
C       0.393523     0.963226     0.258129
H       1.271851     1.223846    -0.339946
H      -0.456151     0.991147    -0.432596
C       0.193311     1.998986     1.364045
H      -0.723540     1.816446     1.931748
H       1.025455     2.006166     2.074589
H       0.123435     3.001991     0.933138
O      -0.480698    -1.445877     2.817652
C      -1.632407    -1.460275     3.652393
H      -2.457982    -1.981474     3.156414
H      -1.342364    -2.049259     4.527255
C      -2.058692    -0.070570     4.071145
C      -3.370309     0.359126     3.903310
C      -1.128351     0.801029     4.636956
C      -3.753790     1.637529     4.299499
H      -4.101504    -0.309307     3.456463
C      -1.505425     2.076450     5.030472
H      -0.100317     0.472947     4.758817
C      -2.822284     2.497878     4.863706
H      -4.781755     1.958847     4.164235
H      -0.772238     2.745959     5.469449
H      -3.118206     3.495164     5.173270
C       0.382910    -1.570614    -0.272687
O      -0.899790    -1.521708    -0.824667
C      -0.760042    -2.190506     0.450018
C      -1.198349    -3.611655     0.498513
O      -1.146014    -4.372589    -0.433678
O      -1.661378    -3.944246     1.711605
C      -2.090482    -5.306920     1.845550
H      -1.261592    -5.986887     1.638044
H      -2.422276    -5.409391     2.878056
H      -2.908983    -5.517494     1.154007
72
     -1725.768970     -1725.240485   0.95   1.39
C      -0.237805     0.938006    -3.738538
C       0.764633    -0.006866    -3.458992
C       2.028090     0.452903    -3.059463
C       2.246288     1.805625    -2.939687
C       1.221822     2.736899    -3.222323
C      -0.033282     2.322092    -3.631060
C      -1.101408    -1.100653    -4.028184
C       0.189918    -1.313113    -3.651937
H       2.826474    -0.249232    -2.840734
H       3.210004     2.194998    -2.630578
H      -0.829814     3.020761    -3.850678
H      -1.875796    -1.816405    -4.269450
N      -1.376790     0.255895    -4.083237
C      -2.638063     0.850769    -4.457024
H      -3.356029     0.056195    -4.666436
H      -3.036443     1.470367    -3.646655
H      -2.533722     1.467785    -5.355927
O       1.579332     4.044155    -3.054874
C       0.612083     5.033978    -3.340777
H       0.291235     4.989266    -4.389071
H      -0.264637     4.937253    -2.688018
H       1.094120     5.994106    -3.153556
N       1.093255    -2.224721    -0.969616
C       2.420395    -2.028292    -0.672644
O       3.307726    -2.502270    -1.358242
C       2.688774    -1.207015     0.580319
H       3.750509    -0.956637     0.568718
H       2.513088    -1.857512     1.445567
C       1.818692     0.053005     0.688528
H       2.020520     0.555848     1.636211
H       2.102707     0.741919    -0.113761
C       0.324070    -0.257064     0.541322
C      -0.384631    -0.839901     1.824183
H      -1.344566    -0.369272     2.058632
C       0.880015    -2.625051    -3.429893
H       1.947987    -2.519577    -3.637133
H       0.492082    -3.379774    -4.122319
C       0.701262    -3.177618    -2.010180
H      -0.340466    -3.435982    -1.823269
H       1.304286    -4.080409    -1.887579
C      -0.443254     0.876080    -0.135905
H       0.038702     1.089976    -1.092399
H      -1.458843     0.535247    -0.364069
C      -0.493799     2.149458     0.709663
H      -1.011661     2.945779     0.166768
H      -1.021415     1.993432     1.655333
H       0.509965     2.514039     0.948256
O       0.457468    -0.872633     2.944893
C      -0.223397    -0.793257     4.192448
H      -1.028011    -1.534848     4.233833
H       0.525327    -1.065996     4.941385
C      -0.765100     0.592499     4.465790
C      -2.106549     0.790197     4.773538
C       0.083843     1.697424     4.402164
C      -2.596694     2.069765     5.019916
H      -2.778249    -0.062938     4.818441
C      -0.400519     2.974299     4.644409
H       1.130902     1.549638     4.154914
C      -1.744747     3.163482     4.955307
H      -3.645946     2.208807     5.260656
H       0.270199     3.826278     4.592190
H      -2.124029     4.162221     5.146738
C       0.159347    -1.646515    -0.093244
O      -1.188976    -1.978584    -0.142209
C      -0.506333    -2.200536     1.112660
C      -0.480555    -3.609601     1.582438
O      -0.361717    -4.557071     0.849019
O      -0.607924    -3.697458     2.914596
C      -0.571795    -5.031932     3.440549
H      -1.395880    -5.622090     3.034366
H       0.374245    -5.514205     3.185675
H      -0.670521    -4.925422     4.520236
72
     -1725.768116     -1725.239770   1.48   1.84
C       2.984936    -3.075235    -0.001789
C       1.665365    -3.241836     0.471145
C       1.375391    -2.871025     1.783987
C       2.371184    -2.335016     2.583324
C       3.677425    -2.168793     2.082395
C       4.002110    -2.542281     0.786985
C       1.745151    -3.904910    -1.664536
C       0.885142    -3.775634    -0.617791
H       0.373036    -2.992614     2.182683
H       2.131541    -2.046833     3.598675
H       5.015545    -2.401345     0.429354
H       1.560247    -4.270695    -2.665818
N       3.017478    -3.485832    -1.310450
C       4.182322    -3.480813    -2.163107
H       4.971676    -4.120675    -1.754766
H       3.903962    -3.860984    -3.147387
H       4.577262    -2.466335    -2.282536
O       4.701915    -1.635292     2.813315
C       4.441236    -1.253842     4.149775
H       3.679643    -0.465995     4.201262
H       4.119971    -2.109427     4.756204
H       5.383060    -0.868749     4.542706
N      -1.194216    -1.658548    -0.313286
C      -1.684811    -1.490887     0.960358
O      -2.221799    -2.401507     1.563672
C      -1.525406    -0.090383     1.533145
H      -1.747763    -0.160041     2.598888
H      -2.293940     0.546048     1.077954
C      -0.136001     0.516816     1.290554
H      -0.113378     1.538475     1.673709
H       0.600892    -0.064080     1.854577
C       0.262299     0.484143    -0.190675
C      -0.382529     1.610041    -1.088099
H       0.323465     2.089939    -1.777141
C      -0.583443    -4.072160    -0.591576
H      -0.884566    -4.361656     0.418246
H      -0.811702    -4.917955    -1.248989
C      -1.454520    -2.895582    -1.050515
H      -1.278285    -2.675913    -2.103231
H      -2.509810    -3.152141    -0.922792
C       1.763098     0.299703    -0.392814
H       2.061136    -0.637217     0.081517
H       1.967253     0.190738    -1.463405
C       2.585422     1.450873     0.187744
H       2.297393     2.414065    -0.247119
H       2.459673     1.525589     1.271880
H       3.650660     1.300993    -0.009929
O      -1.090727     2.550774    -0.339677
C      -1.310890     3.792136    -1.014978
H      -0.346733     4.299143    -1.159923
H      -1.764140     3.601280    -1.993071
C      -2.224725     4.636665    -0.169006
C      -3.579254     4.317021    -0.084026
C      -1.737970     5.726564     0.544100
C      -4.430083     5.077094     0.705904
H      -3.957732     3.467377    -0.643955
C      -2.589070     6.492273     1.334552
H      -0.682927     5.979998     0.482690
C      -3.936521     6.167164     1.417151
H      -5.483278     4.820840     0.767644
H      -2.197844     7.341070     1.886807
H      -4.603260     6.761446     2.034204
C      -0.636926    -0.520542    -0.922327
O      -0.377904    -0.477497    -2.289699
C      -1.261479     0.535499    -1.759803
C      -2.634624     0.631280    -2.313231
O      -3.245425     1.664532    -2.436165
O      -3.117091    -0.569928    -2.650080
C      -4.435450    -0.568291    -3.215675
H      -4.662552    -1.611368    -3.431888
H      -5.155003    -0.156490    -2.504688
H      -4.453112     0.026765    -4.131163
72
     -1725.767631     -1725.239343   1.79   2.11
C      -0.064959    -0.274297    -4.063193
C       0.960029    -1.069702    -3.521386
C       2.255889    -0.536701    -3.454137
C       2.483646     0.744954    -3.900851
C       1.435335     1.527545    -4.434241
C       0.146745     1.032464    -4.528163
C      -0.947419    -2.234855    -3.461015
C       0.371249    -2.327693    -3.138287
H       3.073471    -1.125036    -3.049145
H       3.473813     1.185932    -3.864903
H      -0.668227     1.616466    -4.935410
H      -1.744233    -2.951073    -3.314682
N      -1.228345    -0.999577    -4.019546
C      -2.522608    -0.550143    -4.474088
H      -2.510487    -0.327779    -5.546472
H      -3.253759    -1.339597    -4.293911
H      -2.841785     0.345229    -3.930193
O       1.806336     2.779922    -4.834821
C       0.820970     3.600875    -5.427828
H       0.411457     3.141561    -6.336234
H       0.002367     3.814259    -4.728830
H       1.319635     4.534383    -5.690843
N       1.164515    -2.059529    -0.342830
C       2.467457    -1.622935    -0.297582
O       3.379425    -2.339518    -0.670281
C       2.734650    -0.206442     0.188001
H       2.880110     0.394559    -0.716716
H       3.699615    -0.238045     0.697578
C       1.647399     0.400183     1.074824
H       1.618982    -0.126071     2.033055
H       1.890247     1.443829     1.294270
C       0.291438     0.263858     0.387083
C      -0.923810     0.126608     1.395092
H      -1.824925     0.676497     1.093927
C       1.066497    -3.447894    -2.422333
H       2.132950    -3.427423    -2.657074
H       0.681485    -4.416159    -2.759410
C       0.885284    -3.390130    -0.895873
H      -0.136661    -3.640117    -0.619425
H       1.556314    -4.104554    -0.415199
C       0.071304     1.204180    -0.794500
H       0.892996     1.087142    -1.506916
H      -0.829401     0.879550    -1.326012
C      -0.061052     2.675594    -0.402858
H      -0.202050     3.292822    -1.294543
H      -0.921332     2.845741     0.252687
H       0.831290     3.045883     0.111374
O      -0.631901     0.330710     2.745490
C      -0.758169     1.674238     3.176437
H       0.023568     2.302772     2.729114
H      -1.731415     2.072957     2.848765
C      -0.664998     1.721255     4.681145
C      -1.253468     0.721737     5.453840
C      -0.024346     2.781194     5.314057
C      -1.204413     0.788673     6.839719
H      -1.741750    -0.111877     4.960185
C       0.022272     2.851301     6.702293
H       0.445970     3.559985     4.719472
C      -0.569065     1.855024     7.468054
H      -1.663897     0.005159     7.434452
H       0.523798     3.684536     7.184627
H      -0.533047     1.906317     8.551618
C       0.112276    -1.228083     0.080435
O      -1.199159    -1.450500    -0.359775
C      -0.982627    -1.365303     1.068765
C      -1.441884    -2.534279     1.873403
O      -1.165674    -3.679017     1.619242
O      -2.216054    -2.153814     2.894428
C      -2.688569    -3.220180     3.730537
H      -1.845851    -3.759350     4.168224
H      -3.284961    -2.742190     4.506658
H      -3.298481    -3.916023     3.150654
72
     -1725.767123     -1725.238461   2.11   2.66
C       0.311247     0.035651    -4.140512
C       1.480848     0.042663    -3.348872
C       2.264131    -1.110816    -3.312889
C       1.890702    -2.223843    -4.047377
C       0.722150    -2.199804    -4.833805
C      -0.081526    -1.071373    -4.889316
C       0.475102     2.034761    -3.151151
C       1.563443     1.338071    -2.719937
H       3.168952    -1.146107    -2.713767
H       2.510011    -3.110649    -4.011105
H      -0.975779    -1.082938    -5.501888
H       0.159886     3.040204    -2.907662
N      -0.292994     1.259147    -4.004819
C      -1.499192     1.680099    -4.677810
H      -1.359738     1.701107    -5.764134
H      -2.331563     1.008642    -4.443088
H      -1.759436     2.684609    -4.341160
O       0.297729    -3.260818    -5.584783
C       1.077198    -4.440267    -5.573894
H       1.143723    -4.869074    -4.566380
H       0.566776    -5.145746    -6.230830
H       2.088556    -4.257239    -5.957324
N       0.984729     2.567211    -0.075052
C      -0.154465     3.325501    -0.190871
O      -0.222295     4.315871    -0.896156
C      -1.331913     2.808921     0.624969
H      -2.201492     3.396019     0.327004
H      -1.141620     3.010808     1.685144
C      -1.569743     1.305826     0.408654
H      -2.420103     0.975312     1.007692
H      -1.829390     1.146921    -0.644707
C      -0.318209     0.474962     0.722722
C      -0.037949     0.233977     2.256512
H       0.259390    -0.790965     2.499151
C       2.635806     1.775736    -1.764173
H       3.518439     2.130948    -2.310753
H       2.969624     0.906799    -1.187690
C       2.216189     2.886265    -0.796134
H       3.010089     3.061873    -0.065309
H       2.018490     3.820201    -1.322451
C      -0.195083    -0.766216    -0.157050
H      -0.242288    -0.451956    -1.205284
H       0.795773    -1.209822    -0.011694
C      -1.279776    -1.806573     0.127346
H      -1.217933    -2.187257     1.151110
H      -2.283355    -1.391481    -0.009618
H      -1.179511    -2.657897    -0.551903
O      -1.081991     0.674623     3.079719
C      -1.176949    -0.012417     4.323577
H      -0.203889    -0.024241     4.825841
H      -1.861287     0.589462     4.927733
C      -1.708488    -1.419146     4.161830
C      -1.000636    -2.514062     4.644750
C      -2.920997    -1.633495     3.506440
C      -1.494126    -3.805657     4.481600
H      -0.051530    -2.358828     5.150878
C      -3.415249    -2.918537     3.339285
H      -3.474511    -0.782390     3.120779
C      -2.701327    -4.009777     3.828066
H      -0.931445    -4.650975     4.865084
H      -4.359823    -3.072481     2.826906
H      -3.088213    -5.015577     3.698954
C       0.889737     1.416874     0.723297
O       2.030914     0.734403     1.137936
C       1.147245     1.218347     2.169799
C       1.748851     2.196535     3.113678
O       2.559243     3.024910     2.788030
O       1.283179     2.042687     4.361215
C       1.810397     2.967352     5.323807
H       2.893407     2.853784     5.404712
H       1.578143     3.993158     5.030071
H       1.325714     2.718193     6.267062
72
     -1725.768442     -1725.238163   1.28   2.85
C      -3.503633     0.334041    -0.702081
C      -2.996683    -0.755302    -1.431160
C      -2.691366    -0.567856    -2.788293
C      -2.872499     0.671646    -3.356437
C      -3.374459     1.754373    -2.599653
C      -3.704553     1.603637    -1.264996
C      -3.370034    -1.421433     0.671583
C      -2.918695    -1.877281    -0.529848
H      -2.312821    -1.390550    -3.386770
H      -2.645663     0.849804    -4.401807
H      -4.096870     2.418769    -0.671208
H      -3.468605    -1.943197     1.613933
N      -3.729469    -0.086984     0.583499
C      -4.235650     0.728011     1.662644
H      -5.226064     1.128422     1.422246
H      -4.321733     0.113088     2.559824
H      -3.558424     1.561255     1.879023
O      -3.501794     2.923805    -3.293440
C      -4.017184     4.045253    -2.604810
H      -5.033843     3.856782    -2.237795
H      -3.373409     4.328222    -1.762471
H      -4.041970     4.861642    -3.327348
N      -0.055076    -2.389324    -0.984247
C       0.153367    -2.265616    -2.338220
O      -0.324949    -3.071045    -3.117406
C       0.948112    -1.068561    -2.832934
H       0.202837    -0.343115    -3.177880
H       1.486169    -1.405576    -3.721198
C       1.892320    -0.443304    -1.806890
H       2.712712    -1.135834    -1.602447
H       2.344722     0.468073    -2.208779
C       1.141425    -0.145357    -0.505581
C       2.084046    -0.230068     0.748457
H       1.830431     0.470266     1.547587
C      -2.405719    -3.247405    -0.865132
H      -2.541191    -3.434071    -1.932324
H      -2.983027    -4.009815    -0.331012
C      -0.927555    -3.464758    -0.502487
H      -0.806930    -3.506563     0.577493
H      -0.579696    -4.408460    -0.929536
C       0.225202     1.073848    -0.635159
H       0.850145     1.910306    -0.973236
H      -0.495071     0.886128    -1.438479
C      -0.540000     1.498007     0.619826
H       0.132148     1.823868     1.419058
H      -1.195792     2.340222     0.379131
H      -1.158282     0.686877     1.006018
O       3.440580    -0.151674     0.419560
C       4.279447     0.253767     1.496959
H       4.145722    -0.413394     2.353894
H       5.298572     0.121605     1.122687
C       4.053976     1.696493     1.897463
C       4.013180     2.062870     3.238740
C       3.892403     2.680500     0.922709
C       3.824995     3.392136     3.604802
H       4.124705     1.301597     4.006065
C       3.701854     4.006921     1.284455
H       3.915163     2.397246    -0.125124
C       3.669709     4.367203     2.628569
H       3.797515     3.663199     4.655634
H       3.579575     4.764107     0.515993
H       3.522373     5.404628     2.911561
C       0.540976    -1.488350    -0.079591
O       0.107146    -1.445218     1.250936
C       1.523983    -1.639463     1.024816
C       2.197873    -2.803614     1.654731
O       3.267715    -2.737547     2.206415
O       1.481400    -3.927733     1.537634
C       2.058276    -5.090057     2.150637
H       1.352570    -5.899123     1.966791
H       3.028197    -5.314146     1.701848
H       2.187154    -4.926829     3.222557
72
     -1725.762437     -1725.237497   5.05   3.26
C      -0.258783     4.492427     3.621292
C      -0.762808     3.341409     2.980092
C      -1.598666     2.482962     3.696003
C      -1.910874     2.777650     5.012998
C      -1.394300     3.933312     5.630480
C      -0.562743     4.805649     4.945035
C       0.523523     4.460732     1.527489
C      -0.246150     3.343876     1.632535
H      -1.999712     1.587010     3.230589
H      -2.558274     2.105589     5.560811
H      -0.180888     5.686852     5.447675
H       1.088752     4.829258     0.681410
N       0.526806     5.167184     2.719933
C       1.228221     6.401319     2.979088
H       1.771142     6.697842     2.079986
H       0.530038     7.203148     3.242598
H       1.949106     6.280076     3.794806
O      -1.665640     4.278795     6.926720
C      -2.506330     3.428904     7.680532
H      -2.587777     3.883807     8.668704
H      -3.505804     3.352961     7.234751
H      -2.077646     2.424025     7.780051
N      -0.346984    -0.162105     0.208730
C      -1.425281    -0.857293     0.704749
O      -2.026423    -0.491522     1.697149
C      -1.783159    -2.119577    -0.066558
H      -2.745875    -2.460494     0.316265
H      -1.039164    -2.886055     0.179713
C      -1.827603    -1.906278    -1.586951
H      -2.022143    -2.857108    -2.086840
H      -2.668330    -1.245766    -1.820698
C      -0.535602    -1.276791    -2.121838
C       0.667301    -2.276427    -2.326582
H       1.180132    -2.171195    -3.287773
C      -0.506718     2.294466     0.597485
H      -0.173704     2.641176    -0.385056
H      -1.583739     2.104949     0.527678
C       0.195529     0.975996     0.948092
H       1.263488     1.034818     0.739864
H       0.066315     0.760621     2.009376
C      -0.773895    -0.347064    -3.312377
H       0.188109    -0.119698    -3.782725
H      -1.364091    -0.897655    -4.055972
C      -1.466642     0.967460    -2.952796
H      -1.667254     1.553287    -3.854616
H      -2.420759     0.813165    -2.440592
H      -0.831389     1.571938    -2.301011
O       0.305812    -3.605168    -2.080216
C       1.154063    -4.570227    -2.699841
H       2.192505    -4.409331    -2.395962
H       0.827662    -5.530830    -2.291731
C       1.027500    -4.571999    -4.208246
C       2.157312    -4.672654    -5.013742
C      -0.226537    -4.483734    -4.811598
C       2.039624    -4.695518    -6.400060
H       3.140217    -4.729679    -4.553947
C      -0.347045    -4.501308    -6.194167
H      -1.111832    -4.399857    -4.188796
C       0.787235    -4.610199    -6.993408
H       2.930222    -4.777097    -7.015408
H      -1.329423    -4.432757    -6.651332
H       0.692965    -4.626550    -8.074570
C       0.253836    -0.675624    -0.952026
O       1.472595    -0.187180    -1.420685
C       1.390001    -1.606457    -1.143534
C       2.362669    -2.182797    -0.180484
O       2.915357    -3.243021    -0.334570
O       2.545408    -1.382598     0.875481
C       3.494197    -1.850349     1.844963
H       4.477451    -1.967204     1.384609
H       3.520983    -1.086337     2.620809
H       3.173916    -2.809156     2.258171
72
     -1725.762371     -1725.237451   5.09   3.29
C       3.511322    -2.373898    -3.745419
C       2.330191    -2.243809    -2.996390
C       1.096089    -2.286866    -3.664223
C       1.080992    -2.452579    -5.029795
C       2.281421    -2.581024    -5.763373
C       3.515251    -2.544675    -5.138839
C       4.074899    -2.130721    -1.597144
C       2.714219    -2.089734    -1.615775
H       0.165903    -2.186628    -3.112303
H       0.147925    -2.489325    -5.580715
H       4.443893    -2.641652    -5.685622
H       4.755675    -2.050661    -0.759935
N       4.573089    -2.302679    -2.878526
C       5.966654    -2.396441    -3.242328
H       6.189267    -3.362810    -3.707642
H       6.247529    -1.596853    -3.936300
H       6.575627    -2.299717    -2.341962
O       2.110511    -2.739659    -7.110347
C       3.267234    -2.872982    -7.909644
H       3.849767    -3.759187    -7.627484
H       2.917343    -2.986198    -8.936426
H       3.905868    -1.983068    -7.842395
N      -0.062086    -0.427355     0.353698
C      -1.293238    -0.815233    -0.123997
O      -1.425472    -1.333673    -1.216120
C      -2.461302    -0.524940     0.807257
H      -3.327909    -1.044804     0.397043
H      -2.669981     0.550341     0.762924
C      -2.192582    -0.942638     2.260732
H      -3.035986    -0.652265     2.889966
H      -2.121581    -2.034004     2.302306
C      -0.891888    -0.338254     2.804415
C      -1.000037     1.166493     3.268814
H      -0.531560     1.369419     4.239452
C       1.776463    -1.896931    -0.464615
H       2.309350    -2.025225     0.481788
H       0.987723    -2.656618    -0.499671
C       1.117636    -0.511989    -0.505611
H       1.817174     0.262897    -0.193476
H       0.792983    -0.289046    -1.522844
C      -0.181523    -1.252176     3.803603
H       0.584368    -0.675489     4.332429
H      -0.915646    -1.564781     4.556843
C       0.479005    -2.475761     3.167851
H      -0.221237    -3.068201     2.571845
H       1.301161    -2.173432     2.514905
H       0.893656    -3.131131     3.939270
O      -2.307723     1.646486     3.218665
C      -2.540285     2.803007     4.029599
H      -2.434900     2.525905     5.087594
H      -1.802027     3.573628     3.786083
C      -3.932306     3.302189     3.753573
C      -4.203399     3.970022     2.560056
C      -4.961839     3.094340     4.664895
C      -5.487246     4.419331     2.284842
H      -3.397562     4.133606     1.851028
C      -6.249169     3.546127     4.393065
H      -4.756519     2.573328     5.596275
C      -6.513359     4.208363     3.201424
H      -5.690488     4.937516     1.352704
H      -7.045113     3.378401     5.111972
H      -7.517089     4.560910     2.985328
C      -0.040155     0.156589     1.630364
O       1.091729     0.806668     2.118638
C      -0.133021     1.573274     2.058852
C      -0.145481     2.818110     1.250372
O      -0.775648     3.805205     1.539000
O       0.617314     2.705132     0.158469
C       0.677000     3.870520    -0.676311
H      -0.319754     4.129869    -1.039498
H       1.087958     4.714166    -0.117928
H       1.330921     3.603266    -1.505283
72
     -1725.764831     -1725.237337   3.55   3.36
C      -1.493677    -1.698322    -4.955230
C      -0.903913    -1.195645    -3.775681
C      -1.396383    -0.007463    -3.235278
C      -2.450853     0.643139    -3.855504
C      -3.024676     0.117052    -5.029369
C      -2.553796    -1.057793    -5.594782
C       0.138091    -3.095815    -4.338870
C       0.144487    -2.114058    -3.398075
H      -0.965472     0.408740    -2.330406
H      -2.824122     1.565171    -3.428421
H      -3.014847    -1.438127    -6.499051
H       0.764017    -3.975138    -4.416011
N      -0.843422    -2.859360    -5.289561
C      -1.140780    -3.687660    -6.432959
H      -2.168633    -4.064056    -6.390257
H      -1.008168    -3.131401    -7.367185
H      -0.460768    -4.541199    -6.440090
O      -4.066986     0.709539    -5.688758
C      -4.584776     1.917343    -5.169087
H      -5.392421     2.213173    -5.839912
H      -4.988288     1.780277    -4.158071
H      -3.823488     2.706926    -5.150892
N       0.881080    -2.007975     0.321170
C       1.687982    -2.982593     0.875512
O       1.814895    -4.065738     0.339083
C       2.418493    -2.657429     2.171259
H       3.471666    -2.525631     1.900402
H       2.373551    -3.567179     2.773828
C       1.885174    -1.448102     2.940240
H       0.901415    -1.682779     3.354395
H       2.533568    -1.217417     3.788814
C       1.754333    -0.259806     1.991626
C       0.647426     0.772707     2.411071
H       0.926191     1.817674     2.237650
C       0.996918    -2.014364    -2.170686
H       1.421609    -1.007224    -2.092487
H       1.830919    -2.720111    -2.218505
C       0.160878    -2.305541    -0.918738
H      -0.748773    -1.710615    -0.927223
H      -0.114101    -3.359969    -0.892960
C       3.078102     0.349617     1.534370
H       3.706346    -0.434272     1.095245
H       2.864455     1.055649     0.724920
C       3.841907     1.062628     2.650508
H       4.772990     1.488634     2.265578
H       3.255215     1.880330     3.078336
H       4.104707     0.381445     3.465293
O       0.184608     0.571144     3.712356
C      -0.419856     1.717047     4.306191
H      -1.177845     2.136410     3.638028
H      -0.931996     1.336794     5.194025
C       0.601341     2.763881     4.693276
C       0.443605     4.093171     4.316444
C       1.724047     2.401487     5.437544
C       1.386659     5.050388     4.680229
H      -0.423048     4.384321     3.729005
C       2.668059     3.351561     5.799111
H       1.856409     1.362792     5.725898
C       2.500639     4.681362     5.421553
H       1.249063     6.084549     4.380276
H       3.538176     3.056111     6.377316
H       3.237999     5.425412     5.705760
C       0.826261    -0.717609     0.868482
O       0.496602     0.386544     0.063398
C      -0.255259     0.212818     1.288591
C      -1.742869     0.209358     1.222062
O      -2.447782     0.584560     2.124767
O      -2.198586    -0.232716     0.046609
C      -3.623154    -0.223967    -0.121718
H      -4.092981    -0.907304     0.589263
H      -4.014573     0.783386     0.034014
H      -3.793583    -0.548765    -1.147732
72
     -1725.764999     -1725.237251   3.44   3.42
C      -1.345865     0.174140    -4.437963
C      -0.842849    -0.986212    -3.824575
C       0.151428    -1.716791    -4.490679
C       0.615546    -1.277068    -5.709215
C       0.098268    -0.103609    -6.302445
C      -0.889696     0.639502    -5.680708
C      -2.401302    -0.098554    -2.483673
C      -1.526074    -1.138059    -2.565144
H       0.561229    -2.621480    -4.051462
H       1.385201    -1.818057    -6.248537
H      -1.300000     1.538465    -6.121966
H      -3.115710     0.145832    -1.710867
N      -2.298391     0.706916    -3.609278
C      -3.092358     1.882523    -3.878942
H      -2.458062     2.765990    -4.008767
H      -3.701491     1.750212    -4.779747
H      -3.759396     2.058618    -3.034088
O       0.650085     0.213792    -7.510662
C       0.180184     1.374729    -8.165454
H      -0.890583     1.300230    -8.393191
H       0.361899     2.274614    -7.564455
H       0.741021     1.446844    -9.097947
N      -1.734830    -1.037507     0.587237
C      -2.710692    -0.125729     0.933577
O      -3.824150    -0.134493     0.443216
C      -2.283367     0.875865     1.995430
H      -3.169094     1.457167     2.253924
H      -1.544469     1.562383     1.567050
C      -1.697206     0.168144     3.228346
H      -1.399060     0.906630     3.974343
H      -2.481108    -0.448145     3.679426
C      -0.505069    -0.722580     2.853014
C       0.838152     0.065098     2.627876
H       1.718100    -0.431426     3.051540
C      -1.255229    -2.240611    -1.585997
H      -0.183358    -2.268324    -1.369745
H      -1.499451    -3.205007    -2.050954
C      -2.033681    -2.188099    -0.272710
H      -3.108088    -2.149330    -0.456209
H      -1.821400    -3.100524     0.293601
C      -0.364743    -1.960729     3.736714
H       0.606761    -2.425063     3.537391
H      -0.343141    -1.626776     4.781864
C      -1.459978    -3.009918     3.541863
H      -1.421078    -3.432825     2.533849
H      -1.326971    -3.835396     4.247127
H      -2.463742    -2.604473     3.696709
O       0.755502     1.394060     3.042042
C       2.014278     2.045669     3.177516
H       2.588718     1.961711     2.249939
H       1.769672     3.101890     3.319557
C       2.814777     1.527589     4.353348
C       2.189487     1.261141     5.570778
C       4.186468     1.324120     4.241228
C       2.924653     0.804826     6.656137
H       1.118367     1.412398     5.662679
C       4.926991     0.871179     5.328586
H       4.682010     1.517638     3.293632
C       4.297787     0.610861     6.538682
H       2.425922     0.601755     7.598890
H       5.997057     0.719445     5.226548
H       4.873041     0.256337     7.388063
C      -0.543076    -0.955615     1.337096
O       0.623564    -1.607517     0.928032
C       0.697433    -0.181147     1.104440
C       1.089271     0.702725    -0.027090
O       1.280714     1.886735     0.116880
O       1.203715     0.054817    -1.182869
C       1.548076     0.879631    -2.310885
H       0.735031     1.577418    -2.521506
H       2.465226     1.434276    -2.103231
H       1.679119     0.197149    -3.147211
72
     -1725.766723     -1725.236827   2.36   3.68
C       0.697773    -3.302055     1.698973
C      -0.409127    -2.618255     2.230411
C      -0.195850    -1.700168     3.269229
C       1.083013    -1.485871     3.727855
C       2.181989    -2.179903     3.172837
C       2.009731    -3.099234     2.153186
C      -1.129583    -3.983527     0.611751
C      -1.576364    -3.070518     1.518341
H      -1.029777    -1.161272     3.708171
H       1.283422    -0.783844     4.529653
H       2.839056    -3.640932     1.717883
H      -1.684597    -4.561616    -0.114927
N       0.243745    -4.136000     0.709373
C       1.061388    -5.000165    -0.108800
H       1.622308    -5.709326     0.508688
H       0.415172    -5.567035    -0.780943
H       1.767041    -4.421219    -0.714318
O       3.391027    -1.863019     3.721954
C       4.534214    -2.535333     3.232772
H       4.458167    -3.618664     3.388641
H       4.692741    -2.331398     2.166350
H       5.380854    -2.149457     3.801423
N      -2.445477    -0.280697     0.942697
C      -2.520291     0.585619     2.006040
O      -3.228196     0.361393     2.970417
C      -1.672032     1.841556     1.867494
H      -1.661836     2.323962     2.845803
H      -2.185592     2.517485     1.173163
C      -0.247129     1.556066     1.372544
H       0.295374     2.495195     1.246749
H       0.273898     0.980127     2.143337
C      -0.218580     0.739514     0.069572
C      -0.508507     1.577826    -1.233068
H       0.137008     1.324634    -2.078773
C      -2.981547    -2.593526     1.730979
H      -3.117776    -2.306343     2.776947
H      -3.691410    -3.402009     1.526032
C      -3.370953    -1.409606     0.837254
H      -3.389025    -1.704572    -0.211519
H      -4.368059    -1.055585     1.109526
C       1.041002    -0.131667     0.022640
H       1.889852     0.562690    -0.048752
H       1.140772    -0.633347     0.987752
C       1.146462    -1.176913    -1.088100
H       0.350453    -1.919878    -1.012842
H       1.095554    -0.734166    -2.086860
H       2.105682    -1.698334    -1.004468
O      -0.516241     2.960565    -1.003975
C      -0.189263     3.740008    -2.147475
H      -0.850904     3.486866    -2.982888
H      -0.398155     4.772997    -1.854732
C       1.259835     3.590638    -2.560612
C       2.268854     3.586669    -1.598214
C       1.605624     3.460986    -3.901636
C       3.599306     3.461802    -1.972931
H       2.004339     3.680833    -0.549668
C       2.938948     3.339661    -4.280879
H       0.826294     3.450209    -4.658920
C       3.938519     3.340160    -3.317333
H       4.376061     3.461213    -1.214510
H       3.194015     3.241535    -5.331400
H       4.979148     3.244518    -3.610339
C      -1.604232     0.100836    -0.117531
O      -1.709064    -0.494212    -1.369140
C      -1.905316     0.933167    -1.312571
C      -3.242187     1.411975    -1.747715
O      -4.263541     0.803866    -1.556887
O      -3.173390     2.596181    -2.373154
C      -4.434172     3.127595    -2.805347
H      -4.906216     2.450270    -3.520023
H      -5.099195     3.267384    -1.950537
H      -4.205054     4.083661    -3.274648
72
     -1725.765824     -1725.236181   2.92   4.09
C      -2.838223    -1.053693     2.343795
C      -3.121853     0.055317     1.518003
C      -2.774940     1.328911     1.968173
C      -2.153586     1.478949     3.196831
C      -1.873645     0.353807     3.997568
C      -2.213782    -0.924974     3.582261
C      -3.816213    -1.801008     0.479709
C      -3.751069    -0.450556     0.323173
H      -2.986801     2.204029     1.361561
H      -1.888517     2.472560     3.534227
H      -1.987600    -1.770586     4.221416
H      -4.220271    -2.551614    -0.186602
N      -3.270913    -2.182310     1.695117
C      -3.150699    -3.533265     2.189479
H      -3.618889    -4.215218     1.477665
H      -2.099941    -3.820126     2.304928
H      -3.654853    -3.642181     3.155242
O      -1.257022     0.430503     5.214902
C      -0.914675     1.709689     5.711442
H      -0.194500     2.215480     5.056634
H      -1.801663     2.343147     5.833645
H      -0.456159     1.541658     6.686722
N      -1.860312     1.038524    -1.425612
C      -1.704705     2.379402    -1.172840
O      -2.644936     3.152194    -1.195512
C      -0.274310     2.813919    -0.887825
H      -0.324885     3.836170    -0.510484
H       0.263512     2.842350    -1.843148
C       0.451071     1.890443     0.100859
H       1.483506     2.222230     0.227279
H      -0.040402     1.978632     1.074629
C       0.408511     0.411688    -0.319546
C       1.442790     0.022599    -1.443171
H       1.941571    -0.936338    -1.276861
C      -4.200927     0.365480    -0.850707
H      -4.507206     1.358655    -0.511834
H      -5.075765    -0.096289    -1.320812
C      -3.129944     0.520665    -1.937647
H      -2.911651    -0.438285    -2.406651
H      -3.486914     1.205124    -2.710829
C       0.417291    -0.487390     0.921057
H       1.398791    -0.345276     1.394522
H      -0.318461    -0.096147     1.627169
C       0.161666    -1.981673     0.723839
H      -0.830703    -2.164530     0.307784
H       0.893362    -2.448055     0.058012
H       0.221824    -2.489319     1.692055
O       2.376111     1.035549    -1.702823
C       3.612579     0.565336    -2.224497
H       3.442251    -0.037512    -3.123008
H       4.154804     1.467176    -2.522956
C       4.413653    -0.220777    -1.208046
C       4.514097     0.228455     0.108181
C       5.063502    -1.395580    -1.571731
C       5.256891    -0.482388     1.040423
H       4.003591     1.141094     0.399296
C       5.812321    -2.108425    -0.640382
H       4.981516    -1.761401    -2.591733
C       5.910818    -1.653102     0.667499
H       5.328593    -0.121913     2.061928
H       6.315921    -3.022432    -0.939147
H       6.493283    -2.207805     1.396161
C      -0.694794     0.252991    -1.378287
O      -0.660258    -1.017269    -1.941176
C       0.283690    -0.055832    -2.454680
C       0.147216     0.265408    -3.898276
O      -0.908769     0.312248    -4.474588
O       1.334674     0.496598    -4.476739
C       1.274974     0.831674    -5.870640
H       2.306851     0.998690    -6.177448
H       0.831337     0.011666    -6.439084
H       0.678190     1.734264    -6.017866
72
     -1725.765029     -1725.236071   3.42   4.16
C       2.057318     3.478919    -0.541577
C       1.060594     3.266260    -1.509431
C       1.409973     3.370195    -2.862967
C       2.710296     3.657681    -3.207887
C       3.697881     3.854607    -2.216393
C       3.389958     3.772217    -0.869856
C       0.141680     3.017664     0.516875
C      -0.160671     2.959535    -0.809777
H       0.665520     3.219283    -3.639020
H       3.013133     3.745239    -4.245632
H       4.132044     3.923491    -0.096828
H      -0.492748     2.873666     1.379332
N       1.481795     3.327901     0.692315
C       2.158153     3.451865     1.962417
H       2.950482     2.702275     2.062635
H       2.596307     4.448648     2.079115
H       1.433773     3.297818     2.763187
O       4.944555     4.127028    -2.702262
C       5.981223     4.354608    -1.768831
H       6.878507     4.559183    -2.353886
H       5.761542     5.219282    -1.130156
H       6.154234     3.472716    -1.139290
N      -2.345680     0.959685     0.180943
C      -2.316010     0.949021     1.559965
O      -2.432601     1.959243     2.227963
C      -2.133021    -0.431326     2.171910
H      -2.248088    -0.315184     3.250142
H      -1.109556    -0.770385     1.976236
C      -3.142011    -1.443400     1.605708
H      -2.976958    -2.424127     2.054885
H      -4.150641    -1.124086     1.885932
C      -3.048159    -1.534946     0.076716
C      -1.843734    -2.406245    -0.440728
H      -2.098379    -3.057947    -1.287043
C      -1.462330     2.641918    -1.483600
H      -1.287508     1.882607    -2.251310
H      -1.824636     3.532474    -2.014203
C      -2.604152     2.188479    -0.573624
H      -2.833730     2.948710     0.173802
H      -3.499125     2.035520    -1.185611
C      -4.385009    -1.832308    -0.600139
H      -4.199631    -2.098404    -1.646125
H      -4.817968    -2.719857    -0.121888
C      -5.380777    -0.672300    -0.558193
H      -5.002548     0.187473    -1.119242
H      -6.330542    -0.967639    -1.013198
H      -5.594307    -0.339150     0.461332
O      -1.221570    -3.115973     0.580329
C      -0.276154    -4.085125     0.129944
H      -0.798189    -4.867120    -0.438641
H       0.460009    -3.607452    -0.528394
C       0.410390    -4.677990     1.331002
C       0.263458    -6.023038     1.648224
C       1.205611    -3.867393     2.141174
C       0.904416    -6.561190     2.760281
H      -0.358893    -6.657513     1.022761
C       1.842232    -4.401127     3.252066
H       1.318531    -2.817692     1.889442
C       1.693926    -5.750170     3.563825
H       0.783318    -7.613389     2.998437
H       2.458885    -3.764218     3.878796
H       2.194015    -6.166021     4.433020
C      -2.285923    -0.306667    -0.433762
O      -2.033466    -0.450042    -1.806823
C      -1.133944    -1.100698    -0.897890
C       0.321390    -0.780974    -0.896679
O       1.039687    -1.093518     0.023249
O       0.729361    -0.168743    -2.002492
C       2.142143     0.102933    -2.064655
H       2.435817     0.768759    -1.252938
H       2.701371    -0.833121    -1.999645
H       2.305137     0.589570    -3.023342
72
     -1725.762732     -1725.235964   4.86   4.23
C       4.929546    -2.601161    -1.522425
C       3.691662    -2.635946    -0.847212
C       3.546741    -3.486829     0.249696
C       4.616991    -4.268086     0.653032
C       5.844483    -4.211261    -0.035665
C       6.017719    -3.379930    -1.131342
C       3.536169    -1.181868    -2.542633
C       2.810801    -1.712916    -1.521681
H       2.602942    -3.539178     0.785126
H       4.495974    -4.924333     1.504899
H       6.973966    -3.359887    -1.641460
H       3.244117    -0.456467    -3.290287
N       4.819782    -1.707076    -2.557922
C       5.865080    -1.383265    -3.498209
H       6.182672    -2.271568    -4.054785
H       5.488719    -0.646719    -4.210129
H       6.735782    -0.957781    -2.987709
O       6.938143    -4.956273     0.313828
C       6.826380    -5.822957     1.424462
H       7.797121    -6.310130     1.526274
H       6.601645    -5.270323     2.345095
H       6.054899    -6.586078     1.263436
N      -0.006513    -0.567631     0.751161
C      -0.509283    -1.707368     1.345656
O       0.182029    -2.701010     1.470842
C      -1.948675    -1.689790     1.839049
H      -1.900451    -1.608083     2.930192
H      -2.345534    -2.684774     1.626472
C      -2.826276    -0.592793     1.235832
H      -2.986864    -0.794614     0.173663
H      -3.812581    -0.589016     1.705471
C      -2.121808     0.751068     1.388172
C      -2.509469     1.812397     0.296995
H      -2.609165     2.832423     0.684093
C       1.397754    -1.414878    -1.125624
H       0.853934    -2.354719    -0.988396
H       0.890479    -0.854528    -1.914676
C       1.346339    -0.623691     0.188468
H       1.991756    -1.098716     0.928448
H       1.686115     0.399807     0.038371
C      -2.059659     1.285560     2.818022
H      -1.596891     0.534028     3.468075
H      -1.386613     2.149027     2.827394
C      -3.423226     1.689400     3.379792
H      -3.892509     2.467125     2.770810
H      -4.113842     0.842102     3.426439
H      -3.317516     2.082529     4.395124
O      -3.626508     1.432867    -0.448055
C      -4.273297     2.505666    -1.126935
H      -3.547100     3.081608    -1.708351
H      -4.954598     2.022355    -1.832283
C      -5.042575     3.402583    -0.181892
C      -5.903603     2.846961     0.764329
C      -4.910169     4.785767    -0.241936
C      -6.619987     3.660502     1.630436
H      -6.004072     1.767093     0.820548
C      -5.630060     5.605482     0.622597
H      -4.234946     5.228501    -0.969223
C      -6.486173     5.044633     1.560406
H      -7.286325     3.215283     2.362922
H      -5.517809     6.683531     0.562355
H      -7.048078     5.681395     2.236319
C      -0.769967     0.608893     0.688826
O      -0.152090     1.868445     0.642503
C      -1.135346     1.576130    -0.376109
C      -0.761248     1.739569    -1.806258
O      -1.567521     1.887362    -2.690179
O       0.563941     1.722781    -1.995547
C       0.988958     1.901198    -3.352666
H       2.077848     1.896978    -3.321359
H       0.615794     1.088200    -3.980573
H       0.622063     2.852392    -3.744109
72
     -1725.765305     -1725.235934   3.25   4.24
C       3.155240    -0.022215    -2.721817
C       3.480025    -0.186341    -1.363775
C       3.617131    -1.487907    -0.859506
C       3.447075    -2.560678    -1.704380
C       3.148802    -2.370127    -3.071015
C       2.994664    -1.102242    -3.602380
C       3.314306     1.999962    -1.801685
C       3.595749     1.130267    -0.791693
H       3.851445    -1.651027     0.187767
H       3.545909    -3.579464    -1.346504
H       2.756739    -0.935778    -4.644843
H       3.287395     3.081374    -1.792866
N       3.057531     1.319863    -2.976337
C       2.548826     1.908527    -4.193711
H       2.654085     2.992890    -4.131500
H       3.119121     1.559212    -5.059789
H       1.489836     1.665699    -4.328887
O       3.010705    -3.523510    -3.793502
C       2.751649    -3.404777    -5.177034
H       2.703975    -4.422217    -5.567053
H       1.794371    -2.901890    -5.365581
H       3.553722    -2.858582    -5.689000
N       1.789979     0.709546     1.601786
C       2.065979    -0.490078     2.216172
O       3.180029    -0.777013     2.610967
C       0.851110    -1.386583     2.395293
H       1.181591    -2.269935     2.942709
H       0.488849    -1.709165     1.413121
C      -0.260218    -0.639780     3.156108
H      -1.126077    -1.291229     3.281761
H       0.114212    -0.396119     4.156919
C      -0.655449     0.666389     2.446049
C      -1.658310     0.483083     1.251917
H      -2.423396     1.265779     1.194068
C       3.977262     1.460548     0.620301
H       4.629441     2.340778     0.636581
H       4.548424     0.634235     1.047432
C       2.796178     1.774388     1.543814
H       3.171908     1.954922     2.556819
H       2.279526     2.671226     1.198790
C      -0.999975     1.795528     3.410956
H      -0.140162     1.961112     4.072436
H      -1.136567     2.719458     2.838286
C      -2.251944     1.506663     4.240328
H      -2.459796     2.331586     4.927876
H      -3.130763     1.376994     3.601599
H      -2.138647     0.597186     4.838353
O      -2.229587    -0.790846     1.211521
C      -3.363436    -0.890644     0.359093
H      -3.136346    -0.483693    -0.633723
H      -3.540808    -1.963796     0.245396
C      -4.586271    -0.211333     0.937015
C      -5.357087     0.652398     0.166416
C      -4.957249    -0.451946     2.259672
C      -6.486268     1.264134     0.702942
H      -5.072909     0.854360    -0.862817
C      -6.079712     0.159712     2.799097
H      -4.355375    -1.120364     2.868039
C      -6.849400     1.019425     2.020161
H      -7.079501     1.934587     0.089127
H      -6.357415    -0.034543     3.830435
H      -7.728702     1.496210     2.441379
C       0.422801     0.983643     1.402883
O       0.009562     2.051249     0.594656
C      -0.488439     0.750684     0.262985
C      -0.249736     0.238006    -1.117581
O       0.111719     0.895691    -2.056204
O      -0.538518    -1.070298    -1.166204
C      -0.430471    -1.684629    -2.458850
H       0.594519    -1.620432    -2.820985
H      -0.720386    -2.724450    -2.312930
H      -1.102472    -1.193686    -3.166865
72
     -1725.764823     -1725.235907   3.55   4.26
C      -2.127723     2.944456     1.123274
C      -2.948018     1.984017     0.504888
C      -3.663728     1.094000     1.319524
C      -3.540860     1.177502     2.686501
C      -2.709204     2.151091     3.283510
C      -1.993038     3.051836     2.515453
C      -1.964324     3.210658    -1.088118
C      -2.834791     2.177750    -0.918166
H      -4.308745     0.339090     0.880727
H      -4.078423     0.502342     3.342916
H      -1.353023     3.805292     2.955411
H      -1.610093     3.657926    -2.007173
N      -1.526757     3.686166     0.137733
C      -0.614699     4.785785     0.346084
H      -1.092249     5.593044     0.911328
H       0.280600     4.458479     0.885771
H      -0.307452     5.179557    -0.623960
O      -2.681396     2.116457     4.647992
C      -1.879650     3.069755     5.315731
H      -1.999263     2.875201     6.382047
H      -0.821406     2.962386     5.046048
H      -2.208438     4.093285     5.096291
N      -1.495957    -0.042612    -2.262199
C      -0.836686     0.524047    -3.323628
O      -1.424063     1.097170    -4.222418
C       0.677620     0.375649    -3.276491
H       1.082884     1.033988    -4.046092
H       0.933870    -0.653184    -3.554681
C       1.254527     0.711109    -1.893395
H       2.339415     0.587655    -1.899476
H       1.049937     1.767671    -1.686011
C       0.622814    -0.122347    -0.766093
C       1.145063    -1.606986    -0.683963
H       1.316348    -1.968474     0.332743
C      -3.512344     1.398176    -2.003262
H      -3.406633     1.931151    -2.949478
H      -4.585285     1.311928    -1.794117
C      -2.955203    -0.022417    -2.177473
H      -3.224902    -0.660187    -1.335925
H      -3.365558    -0.471255    -3.085698
C       0.621921     0.678925     0.539179
H       1.667235     0.953965     0.736347
H       0.091215     1.615847     0.343701
C       0.029573     0.026726     1.789283
H       0.126014     0.711803     2.636935
H      -1.030222    -0.196654     1.666264
H       0.545427    -0.900080     2.056676
O       2.266521    -1.835045    -1.492827
C       3.084314    -2.915096    -1.060021
H       2.489547    -3.830169    -0.968569
H       3.806925    -3.063318    -1.867645
C       3.799508    -2.621060     0.241745
C       3.881328    -3.586226     1.239977
C       4.390270    -1.376015     0.454232
C       4.551055    -3.319270     2.430172
H       3.413706    -4.555629     1.089835
C       5.055848    -1.105440     1.641583
H       4.323111    -0.616604    -0.318546
C       5.139893    -2.078482     2.633267
H       4.608653    -4.082874     3.199515
H       5.512583    -0.132582     1.794869
H       5.661876    -1.867357     3.561092
C      -0.698771    -0.687683    -1.301740
O      -1.240607    -1.609583    -0.414084
C      -0.193911    -2.084844    -1.283731
C      -0.585552    -3.175052    -2.214079
O      -1.683439    -3.278069    -2.695787
O       0.428058    -4.020722    -2.452869
C       0.123686    -5.090168    -3.359652
H      -0.681823    -5.709165    -2.959196
H      -0.179930    -4.689730    -4.329163
H       1.042826    -5.667511    -3.452912
72
     -1725.761871     -1725.235876   5.40   4.28
C       2.603830     4.754799     2.068637
C       1.549496     4.064166     1.448350
C       0.237999     4.534924     1.619758
C       0.025331     5.655138     2.389373
C       1.100936     6.334324     3.003629
C       2.406044     5.899787     2.856375
C       3.469828     3.026715     0.948100
C       2.127799     2.956222     0.730600
H      -0.599242     4.019988     1.157378
H      -0.973272     6.047120     2.546135
H       3.241209     6.408012     3.320059
H       4.261099     2.382247     0.588441
N       3.774623     4.110420     1.756041
C       5.094041     4.499754     2.192537
H       5.348305     5.503398     1.834748
H       5.168311     4.484746     3.285309
H       5.823432     3.795602     1.788766
O       0.737835     7.429628     3.736571
C       1.760896     8.158468     4.382116
H       2.477402     8.569715     3.659739
H       1.267925     8.979087     4.904705
H       2.297162     7.537328     5.110772
N      -0.498107     0.298951     0.106952
C      -1.764586     0.823756    -0.005328
O      -2.036226     1.946849     0.374071
C      -2.793774    -0.118935    -0.613050
H      -3.695318     0.469010    -0.789006
H      -3.036000    -0.879790     0.138178
C      -2.304872    -0.794756    -1.902382
H      -3.054066    -1.507910    -2.251055
H      -2.209356    -0.030310    -2.679212
C      -0.949602    -1.487700    -1.715191
C      -1.007513    -2.915372    -1.047143
H      -0.396282    -3.667906    -1.554939
C       1.369718     1.939276    -0.064716
H       2.059506     1.339384    -0.666171
H       0.690545     2.447454    -0.759123
C       0.538929     1.021956     0.842002
H       1.167121     0.289891     1.349194
H       0.029705     1.617173     1.599777
C      -0.074271    -1.434634    -2.968172
H       0.774512    -2.112899    -2.834034
H      -0.662735    -1.830644    -3.805833
C       0.459679    -0.042388    -3.305499
H       1.038333    -0.070287    -4.233475
H      -0.338540     0.693526    -3.437837
H       1.120277     0.320824    -2.514695
O      -2.316222    -3.372284    -0.850487
C      -2.444847    -4.789837    -0.837946
H      -1.780175    -5.224088    -0.083856
H      -3.476022    -4.976118    -0.524684
C      -2.182218    -5.414526    -2.191805
C      -1.420946    -6.573717    -2.301173
C      -2.707570    -4.839024    -3.348094
C      -1.193928    -7.157763    -3.543590
H      -0.996868    -7.024509    -1.407897
C      -2.478839    -5.416373    -4.589283
H      -3.299342    -3.932300    -3.270510
C      -1.722390    -6.580264    -4.690264
H      -0.600022    -8.063722    -3.613127
H      -2.894121    -4.959171    -5.482092
H      -1.545649    -7.033020    -5.660689
C      -0.297851    -0.986144    -0.419749
O       0.881004    -1.689035    -0.195287
C      -0.351821    -2.324244     0.217527
C      -0.456879    -2.628580     1.668890
O      -0.002836    -1.926736     2.534634
O      -1.115453    -3.774511     1.892378
C      -1.272882    -4.123880     3.275419
H      -0.296638    -4.258407     3.745650
H      -1.820782    -3.340710     3.803487
H      -1.834770    -5.057140     3.281094
72
     -1725.761755     -1725.235657   5.48   4.42
C       1.311018     3.862589    -4.090318
C       0.426334     3.162957    -3.243067
C      -0.854298     2.860636    -3.708317
C      -1.225243     3.250013    -4.985007
C      -0.322958     3.947381    -5.811552
C       0.955212     4.263305    -5.377121
C       2.362447     3.463158    -2.158269
C       1.125407     2.918389    -2.004448
H      -1.557183     2.321096    -3.079584
H      -2.219678     3.010256    -5.337942
H       1.626721     4.800870    -6.036765
H       3.191435     3.494317    -1.463379
N       2.491925     4.038799    -3.412952
C       3.659608     4.713583    -3.925840
H       4.037838     4.216351    -4.825573
H       3.436188     5.758126    -4.168582
H       4.443247     4.695610    -3.166456
O      -0.629242     4.358896    -7.080598
C      -1.917180     4.065938    -7.583078
H      -1.947726     4.476249    -8.593417
H      -2.095486     2.984387    -7.627311
H      -2.701912     4.537170    -6.978417
N      -0.428671    -0.014203    -0.175005
C      -1.791714    -0.024420    -0.351480
O      -2.334216     0.598009    -1.244663
C      -2.545019    -0.892191     0.646912
H      -3.580628    -0.939811     0.308279
H      -2.536971    -0.394568     1.623171
C      -1.928746    -2.297383     0.767213
H      -2.477424    -2.878391     1.510400
H      -2.048401    -2.809760    -0.192265
C      -0.436308    -2.243459     1.126068
C      -0.135914    -1.994273     2.652642
H       0.655579    -2.630396     3.060648
C       0.572359     2.180344    -0.825916
H      -0.418404     2.574691    -0.575218
H       1.204988     2.315493     0.053318
C       0.434634     0.683090    -1.126832
H      -0.000811     0.542646    -2.117724
H       1.414744     0.201975    -1.112840
C       0.382548    -3.371478     0.500206
H       1.374859    -3.382349     0.963044
H      -0.095186    -4.324379     0.761414
C       0.548848    -3.259613    -1.016226
H      -0.409438    -3.238371    -1.542804
H       1.097057    -2.351364    -1.284170
H       1.116412    -4.111718    -1.401411
O      -1.287561    -2.034339     3.445456
C      -1.050002    -2.366323     4.811603
H      -0.334704    -1.664622     5.250855
H      -2.014284    -2.219939     5.306156
C      -0.581689    -3.795053     4.989384
C      -1.170659    -4.827638     4.260387
C       0.435057    -4.100051     5.888712
C      -0.753246    -6.140132     4.432720
H      -1.961906    -4.596497     3.553947
C       0.852384    -5.415338     6.067422
H       0.909349    -3.301534     6.452808
C       0.259129    -6.438456     5.339940
H      -1.220985    -6.934882     3.859677
H       1.645217    -5.637899     6.774786
H       0.583832    -7.465073     5.476624
C       0.068946    -0.820325     0.861588
O       1.382455    -0.687408     1.315439
C       0.327795    -0.570112     2.299222
C       0.284090     0.647361     3.150576
O       0.109503     0.618081     4.343075
O       0.459385     1.765725     2.442550
C       0.455925     2.983884     3.201135
H       0.598500     3.782024     2.473504
H      -0.495770     3.103601     3.723135
H       1.268583     2.976750     3.930529
72
     -1725.761624     -1725.235595   5.56   4.46
C       0.325501     4.614893     3.515505
C       0.221241     3.232068     3.290068
C      -0.529153     2.454158     4.185623
C      -1.142495     3.068312     5.253312
C      -1.025776     4.460866     5.459588
C      -0.292410     5.258510     4.599395
C       1.489724     4.119380     1.673741
C       0.977877     2.932608     2.100805
H      -0.625743     1.382259     4.037572
H      -1.731069     2.501479     5.965970
H      -0.192482     6.326266     4.743661
H       2.115511     4.329914     0.816693
N       1.104108     5.148504     2.519930
C       1.463010     6.539320     2.383280
H       2.086807     6.658693     1.495867
H       0.573044     7.167298     2.266205
H       2.029933     6.888766     3.253138
O      -1.688213     4.930337     6.559801
C      -1.617645     6.314726     6.829357
H      -2.045641     6.905319     6.009349
H      -2.204028     6.479962     7.734031
H      -0.583521     6.636780     7.006161
N      -0.210746    -0.285289     0.487351
C      -0.463794    -1.228050     1.454629
O      -0.655059    -0.928724     2.617710
C      -0.498782    -2.660204     0.939528
H      -0.844962    -3.285834     1.762951
H       0.523424    -2.969337     0.693432
C      -1.404923    -2.805008    -0.294952
H      -1.379310    -3.835338    -0.653694
H      -2.435842    -2.598151     0.008039
C      -1.008152    -1.834646    -1.416678
C       0.214810    -2.301402    -2.293968
H       0.070470    -2.149450    -3.368114
C       1.119434     1.579686     1.475660
H       1.389442     0.848436     2.244486
H       1.912960     1.568172     0.726633
C      -0.198658     1.137369     0.829793
H      -1.028687     1.311954     1.517366
H      -0.384276     1.705101    -0.083609
C      -2.200420    -1.321758    -2.224056
H      -1.826496    -0.818184    -3.121511
H      -2.778321    -2.188728    -2.568520
C      -3.102181    -0.352729    -1.457251
H      -2.555191     0.552981    -1.178135
H      -3.949533    -0.047725    -2.078167
H      -3.507363    -0.792919    -0.541686
O       0.620870    -3.611631    -2.016119
C       1.227832    -4.282238    -3.114819
H       2.077656    -3.702602    -3.490532
H       1.615887    -5.215022    -2.695868
C       0.252847    -4.571492    -4.236398
C       0.618111    -4.366713    -5.562987
C      -1.024125    -5.054882    -3.953607
C      -0.272130    -4.648473    -6.594688
H       1.606768    -3.979568    -5.794697
C      -1.916101    -5.332055    -4.980085
H      -1.317241    -5.213658    -2.920520
C      -1.541162    -5.131616    -6.305365
H       0.027887    -4.486085    -7.625196
H      -2.907232    -5.708742    -4.746917
H      -2.237972    -5.350786    -7.108093
C      -0.089373    -0.758033    -0.828146
O       0.401920     0.050718    -1.848326
C       1.077296    -1.208095    -1.628464
C       2.525403    -1.117937    -1.301034
O       3.019436    -0.232221    -0.654363
O       3.213418    -2.144739    -1.820382
C       4.619744    -2.139434    -1.535349
H       4.787382    -2.167361    -0.456632
H       5.019370    -3.034973    -2.009591
H       5.087084    -1.243004    -1.948115
72
     -1725.764046     -1725.235574   4.04   4.47
C      -0.147701     2.629398    -2.791336
C      -0.195640     1.319361    -3.317331
C      -1.441519     0.775768    -3.629906
C      -2.592742     1.514907    -3.415149
C      -2.514276     2.818249    -2.886761
C      -1.291787     3.392729    -2.573087
C       1.943562     1.855456    -2.930226
C       1.164325     0.845983    -3.404246
H      -1.520297    -0.227248    -4.037707
H      -3.552346     1.078199    -3.659418
H      -1.263096     4.398460    -2.169824
H       3.019758     1.890044    -2.824710
N       1.167763     2.941054    -2.554885
C       1.650942     4.195676    -2.029557
H       1.380083     5.028282    -2.687265
H       1.241178     4.387960    -1.032039
H       2.738730     4.154058    -1.954375
O      -3.609024     3.599994    -2.645159
C      -4.885390     3.075911    -2.954686
H      -5.603024     3.854047    -2.691583
H      -4.977074     2.846797    -4.023447
H      -5.101318     2.173218    -2.370065
N       1.709447    -1.346677    -1.554263
C       3.029725    -1.212422    -1.205832
O       3.928522    -1.293639    -2.022446
C       3.267329    -0.953947     0.275362
H       4.313437    -0.663253     0.380707
H       3.131152    -1.896736     0.817730
C       2.328455     0.122904     0.838458
H       2.526349     0.274500     1.901534
H       2.550093     1.068142     0.329873
C       0.843180    -0.200711     0.606911
C       0.257111    -1.296473     1.576211
H      -0.748606    -1.080762     1.944489
C       1.637464    -0.488736    -3.892193
H       2.717480    -0.454517    -4.044106
H       1.178129    -0.723303    -4.859902
C       1.315365    -1.642151    -2.930582
H       0.246441    -1.853186    -2.907657
H       1.831098    -2.549233    -3.255951
C       0.041012     1.097015     0.470675
H       0.228708     1.676429     1.385122
H       0.486676     1.668506    -0.349409
C      -1.467774     0.996516     0.241273
H      -1.975339     0.469064     1.054251
H      -1.894751     2.002177     0.184620
H      -1.701634     0.486871    -0.693615
O       1.122678    -1.606455     2.633922
C       0.469094    -2.123788     3.786193
H      -0.134984    -2.997997     3.521024
H       1.277282    -2.460231     4.441969
C      -0.384563    -1.088670     4.487879
C       0.092105     0.208666     4.672216
C      -1.650767    -1.416217     4.961334
C      -0.682482     1.157840     5.324216
H       1.076626     0.471728     4.298169
C      -2.428438    -0.467784     5.618656
H      -2.037066    -2.420919     4.811989
C      -1.945772     0.821041     5.801689
H      -0.299969     2.164383     5.462455
H      -3.413923    -0.738294     5.984636
H      -2.550744     1.562937     6.313058
C       0.772950    -1.248427    -0.511383
O      -0.519824    -1.738378    -0.652496
C       0.275847    -2.304369     0.407966
C       0.538180    -3.762560     0.297544
O       0.667604    -4.339067    -0.750777
O       0.617293    -4.351895     1.500032
C       0.887565    -5.760611     1.467451
H       0.090762    -6.287436     0.938366
H       1.838565    -5.952235     0.966089
H       0.931809    -6.075942     2.509300
72
     -1725.764895     -1725.235371   3.51   4.60
C      -2.313016     2.748725    -2.148471
C      -3.035625     1.869216    -1.312230
C      -3.600552     2.379988    -0.143743
C      -3.437223     3.717319     0.176785
C      -2.706994     4.569893    -0.674059
C      -2.140592     4.097600    -1.848389
C      -2.274598     0.715731    -3.074348
C      -3.001437     0.567769    -1.933860
H      -4.166394     1.737468     0.523831
H      -3.878469     4.098283     1.088601
H      -1.586319     4.778229    -2.484334
H      -2.015673    -0.028362    -3.815911
N      -1.850262     2.026980    -3.220247
C      -1.075898     2.557553    -4.316920
H      -0.127204     2.974966    -3.962487
H      -0.858204     1.752463    -5.020522
H      -1.628691     3.340847    -4.846026
O      -2.502066     5.896078    -0.415755
C      -3.063618     6.441945     0.761731
H      -2.661967     5.957303     1.660088
H      -2.785205     7.496523     0.767996
H      -4.157227     6.357405     0.761675
N      -1.450632    -1.395612    -0.409841
C      -0.920611    -2.248102    -1.347176
O      -1.621777    -2.944304    -2.057486
C       0.599455    -2.239223    -1.417667
H       0.876006    -2.774641    -2.327007
H       0.991896    -2.809645    -0.567796
C       1.177298    -0.815697    -1.409743
H       2.267245    -0.855009    -1.454280
H       0.830679    -0.299980    -2.312487
C       0.721167     0.004602    -0.190871
C       1.456893    -0.379858     1.150438
H       1.725354     0.474405     1.780748
C      -3.616855    -0.700925    -1.429800
H      -3.614631    -1.445672    -2.227285
H      -4.661998    -0.528989    -1.145992
C      -2.894203    -1.291621    -0.210121
H      -3.041156    -0.672709     0.675187
H      -3.292391    -2.288032     0.001818
C       0.660679     1.491999    -0.547758
H       1.666413     1.773363    -0.889069
H       0.005657     1.589316    -1.418823
C       0.196315     2.474393     0.528624
H      -0.835868     2.287275     0.825620
H       0.819203     2.433316     1.426758
H       0.246659     3.494738     0.137362
O       2.553297    -1.214942     0.935619
C       3.474140    -1.264351     2.028302
H       3.944797    -0.278575     2.147384
H       2.937213    -1.516910     2.948601
C       4.514057    -2.308373     1.724223
C       5.808374    -1.947857     1.366776
C       4.175300    -3.659529     1.786165
C       6.758570    -2.921158     1.074351
H       6.077211    -0.896137     1.314816
C       5.120021    -4.632385     1.492130
H       3.164282    -3.938057     2.067070
C       6.414626    -4.265013     1.135789
H       7.766288    -2.628106     0.796635
H       4.848147    -5.682313     1.541584
H       7.153036    -5.027097     0.906739
C      -0.528170    -0.680310     0.373332
O      -0.894060    -0.127763     1.598400
C       0.170787    -1.096532     1.617031
C      -0.007944    -2.329343     2.422437
O       0.896933    -2.941907     2.934737
O      -1.293821    -2.686892     2.496409
C      -1.560825    -3.870147     3.262184
H      -1.229777    -3.735850     4.294167
H      -2.640400    -4.008181     3.220802
H      -1.045638    -4.729581     2.827568
72
     -1725.765596     -1725.235352   3.07   4.61
C      -0.390207     3.624416    -1.377062
C      -0.825158     3.395646    -0.053944
C      -2.158850     3.048154     0.159816
C      -3.018384     2.921989    -0.918796
C      -2.556072     3.147491    -2.230649
C      -1.238124     3.503152    -2.475587
C       1.348429     3.925330    -0.007287
C       0.311874     3.594466     0.810393
H      -2.528434     2.873526     1.165655
H      -4.050655     2.650388    -0.739827
H      -0.912715     3.672221    -3.495512
H       2.374754     4.158826     0.243305
N       0.941811     3.949525    -1.331496
C       1.774876     4.241011    -2.473999
H       2.773906     4.509310    -2.126322
H       1.859258     3.371321    -3.134447
H       1.371048     5.081971    -3.047005
O      -3.348286     3.033020    -3.338218
C      -4.713044     2.710753    -3.154016
H      -5.225662     3.467746    -2.548119
H      -5.154792     2.689147    -4.151003
H      -4.833947     1.726720    -2.684668
N      -0.099778     0.966835     2.157154
C      -1.361028     0.707246     2.634627
O      -1.898879     1.428814     3.454314
C      -2.006914    -0.553081     2.078330
H      -3.058510    -0.522138     2.367153
H      -1.550861    -1.412945     2.583311
C      -1.850560    -0.692185     0.557125
H      -2.296003    -1.634757     0.229953
H      -2.418829     0.111762     0.078961
C      -0.388478    -0.583947     0.091622
C       0.467136    -1.903341     0.308158
H       1.114480    -2.175023    -0.531103
C       0.327830     3.429764     2.299799
H      -0.656816     3.671965     2.707966
H       1.041819     4.126693     2.751626
C       0.719521     2.019163     2.757215
H       1.753938     1.802624     2.490657
H       0.620284     1.947359     3.843713
C      -0.324457     0.038659    -1.306021
H      -0.816092    -0.671030    -1.986427
H      -0.952492     0.932178    -1.303275
C       1.049590     0.406378    -1.866468
H       1.724701    -0.452560    -1.918561
H       0.932324     0.800710    -2.881065
H       1.534406     1.173365    -1.259961
O      -0.256025    -3.011357     0.770828
C      -0.627193    -3.925379    -0.250139
H      -1.320426    -4.622144     0.230728
H      -1.175010    -3.408779    -1.051650
C       0.547684    -4.681013    -0.836333
C       0.545516    -5.045153    -2.179605
C       1.627397    -5.041799    -0.032107
C       1.602761    -5.771155    -2.716967
H      -0.288964    -4.758921    -2.815070
C       2.685873    -5.762360    -0.570904
H       1.642735    -4.745012     1.011492
C       2.675771    -6.132124    -1.911771
H       1.587824    -6.051743    -3.765561
H       3.524380    -6.036854     0.061515
H       3.503799    -6.697301    -2.327999
C       0.423646     0.036097     1.240814
O       1.786614    -0.004190     0.952000
C       1.188787    -1.215356     1.464140
C       1.798049    -1.811005     2.683862
O       2.079063    -2.974838     2.805944
O       2.006367    -0.881001     3.625470
C       2.641520    -1.351491     4.822338
H       2.027095    -2.114618     5.305155
H       3.621402    -1.773779     4.589477
H       2.743376    -0.477361     5.464323
72
     -1725.761012     -1725.235165   5.94   4.73
C      -0.655496    -4.905676     3.030806
C      -0.840395    -4.014582     1.960444
C      -1.896912    -4.241585     1.064577
C      -2.720835    -5.325584     1.263140
C      -2.517467    -6.207716     2.347518
C      -1.485241    -6.016933     3.248670
C       0.928397    -3.334096     3.150902
C       0.189250    -3.010936     2.054634
H      -2.063436    -3.570505     0.226621
H      -3.547752    -5.533526     0.593396
H      -1.315361    -6.683574     4.083909
H       1.793547    -2.836211     3.568116
N       0.429961    -4.479563     3.753572
C       0.962263    -5.118661     4.932599
H       0.217374    -5.150080     5.735244
H       1.289864    -6.141050     4.714520
H       1.823849    -4.549560     5.285670
O      -3.413258    -7.238341     2.417984
C      -3.272782    -8.160975     3.477811
H      -3.379702    -7.670238     4.453584
H      -4.073011    -8.891746     3.354595
H      -2.304594    -8.675970     3.435644
N      -0.823189     0.172810     0.263473
C      -1.454866    -0.122276    -0.920847
O      -1.964723    -1.204749    -1.135016
C      -1.474982     1.029185    -1.917083
H      -2.126110     0.728678    -2.738571
H      -0.464880     1.159357    -2.322119
C      -1.959865     2.336034    -1.267212
H      -1.957184     3.141909    -2.002749
H      -2.997843     2.191978    -0.946653
C      -1.120178     2.714516    -0.036773
C       0.257959     3.401312    -0.360567
H       0.504078     4.235135     0.308439
C       0.357083    -1.845413     1.130336
H       0.316292    -2.193352     0.092783
H       1.326330    -1.363184     1.269983
C      -0.761342    -0.817824     1.338694
H      -1.730224    -1.319471     1.368963
H      -0.621725    -0.283592     2.280026
C      -1.935745     3.391576     1.059121
H      -2.733040     2.705169     1.370514
H      -1.294192     3.541231     1.934286
C      -2.537581     4.725370     0.614938
H      -3.240376     4.595539    -0.213316
H      -3.078921     5.200964     1.437563
H      -1.759839     5.421080     0.282497
O       0.375187     3.769703    -1.701782
C       1.420197     4.690666    -1.977660
H       1.026646     5.714522    -1.890614
H       2.226580     4.579007    -1.244579
C       1.982487     4.468516    -3.361872
C       1.361555     3.635850    -4.285783
C       3.163692     5.116093    -3.720688
C       1.915793     3.450052    -5.548378
H       0.445213     3.125938    -4.013744
C       3.718048     4.932338    -4.980255
H       3.658942     5.767936    -3.004870
C       3.094349     4.095226    -5.899658
H       1.421460     2.796309    -6.260606
H       4.638963     5.442619    -5.245045
H       3.525003     3.949492    -6.885188
C      -0.328787     1.478104     0.396475
O       0.580994     1.808661     1.396683
C       0.979184     2.089488     0.042072
C       2.203124     1.404777    -0.456174
O       2.655330     0.391110     0.007338
O       2.720407     2.058091    -1.502175
C       3.875985     1.464398    -2.109658
H       4.706075     1.438139    -1.400265
H       3.649309     0.447204    -2.435934
H       4.111062     2.100890    -2.962300
72
     -1725.764802     -1725.235051   3.56   4.80
C      -3.538261    -0.600262     2.154423
C      -2.942496    -0.787000     0.887982
C      -2.409011     0.325728     0.237419
C      -2.443810     1.567677     0.848303
C      -3.022016     1.719349     2.122880
C      -3.580521     0.639087     2.788815
C      -3.707182    -2.759016     1.617490
C      -3.053633    -2.189597     0.570002
H      -1.958989     0.241020    -0.745690
H      -2.011768     2.413906     0.330093
H      -4.027257     0.786780     3.765393
H      -3.953784    -3.798028     1.789492
N      -4.011511    -1.815988     2.579195
C      -4.650893    -2.070697     3.847953
H      -3.977577    -1.840658     4.680478
H      -5.562311    -1.473153     3.953815
H      -4.920444    -3.126524     3.902846
O      -3.082069     2.913437     2.787757
C      -2.547036     4.056729     2.151187
H      -3.067978     4.272963     1.210502
H      -2.697189     4.885687     2.844076
H      -1.474370     3.940963     1.952927
N      -0.125053    -2.448381     0.399675
C      -0.178869    -2.259741     1.774604
O      -0.766771    -3.041087     2.493022
C       0.508634    -1.033353     2.361358
H       1.335978    -1.408991     2.972027
H      -0.218008    -0.610067     3.059721
C       0.975654     0.020028     1.355556
H       0.110316     0.548133     0.957407
H       1.599487     0.768122     1.851039
C       1.720092    -0.666750     0.218248
C       1.670881     0.084381    -1.161510
H       2.624250     0.099327    -1.701136
C      -2.392544    -2.891688    -0.576416
H      -2.312770    -2.205485    -1.422704
H      -3.001816    -3.735193    -0.918771
C      -0.999026    -3.447142    -0.216948
H      -1.104839    -4.257720     0.504958
H      -0.498247    -3.827537    -1.108657
C       3.095869    -1.211510     0.603133
H       2.990154    -1.875502     1.469033
H       3.458103    -1.838192    -0.217773
C       4.122388    -0.120098     0.909293
H       4.273092     0.540962     0.050981
H       3.819892     0.501135     1.757405
H       5.090453    -0.565009     1.157614
O       1.120510     1.364059    -1.052694
C       1.415366     2.226100    -2.146382
H       1.159869     1.743247    -3.094944
H       0.744708     3.080366    -2.019965
C       2.857598     2.685519    -2.148347
C       3.455443     3.123196    -0.966874
C       3.603118     2.688839    -3.322613
C       4.772901     3.559353    -0.962666
H       2.880150     3.114248    -0.046111
C       4.923238     3.129583    -3.322879
H       3.150125     2.340637    -4.246928
C       5.510820     3.565734    -2.143088
H       5.226959     3.897119    -0.036127
H       5.491892     3.128693    -4.247545
H       6.540435     3.909109    -2.140427
C       0.765865    -1.701268    -0.380586
O       1.390185    -2.262520    -1.513512
C       0.705849    -1.007157    -1.690299
C      -0.314834    -0.897014    -2.767564
O      -0.802681     0.150577    -3.116135
O      -0.617271    -2.080496    -3.310894
C      -1.604043    -2.042450    -4.351108
H      -2.542141    -1.630339    -3.971623
H      -1.253648    -1.429457    -5.184110
H      -1.737611    -3.076727    -4.665078
72
     -1725.760292     -1725.234972   6.39   4.85
C       2.965597    -1.489385     4.605736
C       2.204699    -1.955180     3.519883
C       1.721929    -3.272320     3.547656
C       2.006101    -4.067898     4.633913
C       2.773840    -3.578841     5.714085
C       3.266691    -2.286194     5.721725
C       2.786599     0.168521     3.117399
C       2.104388    -0.875182     2.572743
H       1.130063    -3.659157     2.723027
H       1.650666    -5.090677     4.691968
H       3.855663    -1.896105     6.541420
H       2.937622     1.165515     2.726276
N       3.315814    -0.188362     4.349414
C       4.103648     0.658266     5.212082
H       3.616985     0.794197     6.184147
H       5.102912     0.238907     5.373013
H       4.213156     1.637247     4.742759
O       2.976249    -4.480663     6.722171
C       3.734613    -4.061488     7.837105
H       4.754846    -3.781016     7.545786
H       3.259333    -3.215918     8.350461
H       3.777381    -4.914418     8.515547
N      -0.952448    -0.951780     0.316933
C      -1.059105    -2.209962    -0.238210
O      -0.568540    -3.178647     0.310346
C      -1.809213    -2.359168    -1.554848
H      -2.767074    -2.830784    -1.310369
H      -1.247606    -3.096102    -2.132940
C      -2.013367    -1.064910    -2.342845
H      -1.052428    -0.711791    -2.727163
H      -2.650383    -1.254603    -3.210921
C      -2.599593    -0.004160    -1.418151
C      -2.237606     1.486543    -1.813836
H      -3.070810     2.195812    -1.723993
C       1.346510    -0.903506     1.281934
H       1.554077    -1.836765     0.750583
H       1.656281    -0.072892     0.646069
C      -0.159665    -0.802914     1.543879
H      -0.470683    -1.586810     2.236747
H      -0.402938     0.165455     1.977228
C      -4.051900    -0.237248    -1.005307
H      -4.133695    -1.215272    -0.517081
H      -4.309956     0.501850    -0.240362
C      -5.051023    -0.155250    -2.160057
H      -4.866363    -0.921084    -2.919450
H      -6.071419    -0.298351    -1.793380
H      -5.015186     0.821786    -2.652775
O      -1.560263     1.645805    -3.023762
C      -2.402407     1.844648    -4.146720
H      -2.984606     0.938872    -4.363824
H      -3.116875     2.654125    -3.927845
C      -1.557061     2.215512    -5.339462
C      -0.450522     3.048948    -5.186710
C      -1.895331     1.760780    -6.609737
C       0.300605     3.424312    -6.292438
H      -0.178740     3.393254    -4.194487
C      -1.145905     2.139112    -7.718548
H      -2.750797     1.102585    -6.737168
C      -0.046473     2.973025    -7.561848
H       1.162188     4.072474    -6.164772
H      -1.421062     1.779018    -8.705004
H       0.541132     3.268809    -8.425141
C      -1.621171     0.143595    -0.248978
O      -2.049400     1.219662     0.544090
C      -1.264453     1.529893    -0.632291
C      -0.053610     2.369948    -0.388575
O       0.728443     2.188703     0.508739
O       0.030448     3.369584    -1.271326
C       1.165106     4.233470    -1.112558
H       2.091541     3.665247    -1.219195
H       1.079093     4.978640    -1.902227
H       1.145461     4.710692    -0.130562
72
     -1725.762093     -1725.234966   5.26   4.85
C       0.957582     4.288174    -2.760770
C       0.803061     3.216092    -1.865631
C      -0.415515     3.078724    -1.183475
C      -1.423971     3.984548    -1.419286
C      -1.248311     5.050596    -2.329500
C      -0.058214     5.224128    -3.012581
C       2.853893     3.106863    -2.756306
C       2.035010     2.466621    -1.878238
H      -0.567456     2.265495    -0.481202
H      -2.378393     3.910229    -0.909367
H       0.094144     6.035374    -3.712174
H       3.863425     2.861620    -3.058503
N       2.218463     4.214129    -3.296476
C       2.779900     5.127025    -4.263050
H       3.798814     4.813597    -4.496225
H       2.197936     5.127305    -5.191185
H       2.814994     6.147867    -3.867517
O      -2.335102     5.868306    -2.464148
C      -2.233883     6.955464    -3.360596
H      -2.049156     6.612806    -4.386559
H      -3.193361     7.472574    -3.322498
H      -1.438099     7.649128    -3.061165
N       1.505830    -1.155727    -0.885157
C       2.485114    -2.092562    -1.142722
O       3.309826    -1.908207    -2.016702
C       2.521769    -3.359658    -0.300897
H       3.456791    -3.303377     0.260278
H       2.656301    -4.178424    -1.012160
C       1.318332    -3.629006     0.610040
H       0.506425    -4.041850     0.007921
H       1.571812    -4.392776     1.352578
C       0.813519    -2.357219     1.290372
C      -0.748006    -2.335513     1.496694
H      -1.053205    -1.913747     2.459732
C       2.296527     1.198636    -1.125017
H       2.043807     1.335034    -0.067301
H       3.354737     0.926617    -1.178637
C       1.450780     0.057916    -1.702769
H       0.410434     0.362773    -1.780438
H       1.810692    -0.203922    -2.697387
C       1.574572    -1.898572     2.535287
H       1.062596    -1.009348     2.917619
H       1.455687    -2.676649     3.300349
C       3.057433    -1.566760     2.358654
H       3.666379    -2.457198     2.185849
H       3.220708    -0.874033     1.526477
H       3.440476    -1.086591     3.263928
O      -1.353590    -3.572332     1.268136
C      -2.590896    -3.753232     1.949239
H      -3.285182    -2.945861     1.695822
H      -2.999164    -4.684599     1.547141
C      -2.412769    -3.862303     3.448891
C      -3.305077    -3.242539     4.317715
C      -1.351386    -4.595082     3.979189
C      -3.148726    -3.358735     5.695465
H      -4.128529    -2.658975     3.914847
C      -1.189802    -4.708520     5.353122
H      -0.650166    -5.077294     3.305042
C      -2.090684    -4.091787     6.216305
H      -3.854424    -2.871429     6.361063
H      -0.359767    -5.282608     5.753473
H      -1.965842    -4.182518     7.290660
C       0.622096    -1.309622     0.193128
O      -0.031578    -0.192858     0.738706
C      -0.857614    -1.316201     0.344872
C      -2.022672    -1.062266    -0.546994
O      -3.043293    -1.701460    -0.500680
O      -1.814095    -0.035825    -1.375775
C      -2.912656     0.323972    -2.225698
H      -2.587448     1.220138    -2.753083
H      -3.131071    -0.486017    -2.925299
H      -3.800763     0.531450    -1.625427
72
     -1725.764003     -1725.234820   4.07   4.94
C       3.171806     2.671617     0.003464
C       2.213500     2.886674    -1.010386
C       2.657471     3.037511    -2.322967
C       4.011043     2.960987    -2.609580
C       4.944494     2.733547    -1.579051
C       4.536982     2.587791    -0.261240
C       1.142264     2.691300     0.946631
C       0.915510     2.884146    -0.381068
H       1.950502     3.210296    -3.128991
H       4.341275     3.080237    -3.633486
H       5.278682     2.417100     0.510716
H       0.442304     2.646860     1.768495
N       2.501412     2.557307     1.193120
C       3.109836     2.336922     2.484001
H       3.649624     1.384143     2.508028
H       3.807544     3.143734     2.731930
H       2.327130     2.310652     3.243351
O       6.291776     2.641315    -1.790674
C       6.773376     2.800165    -3.110547
H       6.525229     3.790263    -3.512188
H       7.857742     2.698743    -3.050554
H       6.375542     2.027255    -3.779655
N      -1.849160     1.592194     0.330952
C      -1.928812     1.449408     1.701001
O      -1.747793     2.374729     2.469877
C      -2.271731     0.042207     2.165446
H      -2.427681     0.096517     3.243427
H      -1.411107    -0.610820     1.982375
C      -3.514700    -0.506393     1.445884
H      -3.730303    -1.517601     1.794804
H      -4.373949     0.117930     1.709973
C      -3.333076    -0.496741    -0.078141
C      -2.447799    -1.679148    -0.622163
H      -2.827901    -2.126087    -1.550362
C      -0.378492     3.049826    -1.119927
H      -0.402438     2.342163    -1.953773
H      -0.414632     4.051262    -1.569057
C      -1.656156     2.903780    -0.293773
H      -1.676011     3.623893     0.524992
H      -2.515371     3.106216    -0.941570
C      -4.632877    -0.268715    -0.847339
H      -4.460071    -0.491791    -1.905529
H      -5.371203    -0.997104    -0.489260
C      -5.192301     1.149761    -0.730106
H      -4.510403     1.876909    -1.180853
H      -6.147871     1.228040    -1.256463
H      -5.363312     1.449266     0.307694
O      -2.197533    -2.646978     0.343697
C      -1.600121    -3.840098    -0.162421
H      -2.301492    -4.336259    -0.847466
H      -0.686832    -3.590844    -0.716219
C      -1.273729    -4.740900     0.998343
C      -0.325163    -4.338556     1.938611
C      -1.905060    -5.969565     1.150788
C      -0.017076    -5.158403     3.014336
H       0.166268    -3.378762     1.815224
C      -1.594626    -6.795211     2.227375
H      -2.648172    -6.285451     0.423405
C      -0.650649    -6.389755     3.160802
H       0.721561    -4.838412     3.742856
H      -2.093370    -7.753286     2.336300
H      -0.407179    -7.030332     4.002770
C      -2.165684     0.438397    -0.413841
O      -1.849892     0.329835    -1.775783
C      -1.305013    -0.660600    -0.892003
C       0.166361    -0.844076    -0.756386
O       0.643488    -1.514719     0.128525
O       0.868504    -0.225859    -1.698818
C       2.294787    -0.398065    -1.604590
H       2.546898    -1.456466    -1.701300
H       2.716290     0.182453    -2.421836
H       2.657541    -0.016358    -0.649834
72
     -1725.762152     -1725.234677   5.23   5.03
C      -4.093252    -0.277921     3.390840
C      -3.101200     0.030226     2.442573
C      -2.720595     1.373643     2.291926
C      -3.314345     2.337974     3.072946
C      -4.303391     2.000475     4.022887
C      -4.710741     0.690784     4.197572
C      -3.467622    -2.178816     2.403282
C      -2.707359    -1.212215     1.819956
H      -1.963793     1.656991     1.568313
H      -3.042499     3.383551     2.978611
H      -5.468527     0.411926     4.917882
H      -3.481750    -3.244021     2.214222
N      -4.309370    -1.632102     3.356268
C      -5.249677    -2.358153     4.176294
H      -5.198359    -3.417631     3.920350
H      -5.013111    -2.247923     5.240147
H      -6.273961    -2.010438     4.003894
O      -4.802572     3.059668     4.726661
C      -5.796111     2.796335     5.696097
H      -6.692643     2.356174     5.241595
H      -5.421992     2.127713     6.481631
H      -6.054048     3.759514     6.137804
N      -1.053919    -0.834229    -1.598469
C      -1.107212    -1.987373    -2.358480
O      -1.963559    -2.825583    -2.155461
C      -0.084907    -2.160959    -3.472089
H      -0.610678    -1.928595    -4.405025
H       0.140096    -3.228728    -3.507370
C       1.184496    -1.322363    -3.328647
H       1.767992    -1.686331    -2.478734
H       1.820114    -1.432466    -4.209869
C       0.808428     0.137405    -3.083281
C       1.890027     0.924232    -2.263221
H       1.980591     1.978297    -2.557915
C      -1.681304    -1.412539     0.745410
H      -1.599041    -2.477089     0.509778
H      -0.698804    -1.083208     1.097485
C      -2.046271    -0.656085    -0.535214
H      -3.000586    -1.023743    -0.914164
H      -2.135622     0.412847    -0.350504
C       0.230931     0.872216    -4.288944
H      -0.659901     0.343187    -4.647477
H      -0.116504     1.854118    -3.949930
C       1.231009     1.041316    -5.433492
H       0.805879     1.658759    -6.229893
H       2.150109     1.527088    -5.090055
H       1.509717     0.080610    -5.875977
O       3.126123     0.290519    -2.249586
C       4.191820     1.099430    -1.754072
H       4.363641     1.939388    -2.441657
H       3.923515     1.502040    -0.770003
C       5.430236     0.250572    -1.644983
C       5.444582    -0.840429    -0.775872
C       6.565267     0.539446    -2.393248
C       6.580927    -1.627944    -0.662478
H       4.557051    -1.061858    -0.191837
C       7.707720    -0.247216    -2.277952
H       6.558231     1.385748    -3.075059
C       7.716253    -1.332566    -1.412784
H       6.584317    -2.476264     0.015101
H       8.588750    -0.011777    -2.866971
H       8.604816    -1.949520    -1.321446
C      -0.062807     0.135238    -1.829619
O      -0.236935     1.454670    -1.373702
C       0.984772     0.787668    -1.006584
C       1.379994     0.643780     0.419727
O       2.399787     0.094856     0.757363
O       0.503825     1.185699     1.267957
C       0.827356     1.039099     2.661098
H       1.772981     1.538403     2.882333
H       0.005609     1.503262     3.203370
H       0.908011    -0.018791     2.920687
72
     -1725.761926     -1725.234638   5.37   5.06
C      -2.546564    -4.639794    -0.403297
C      -1.819480    -3.437127    -0.385519
C      -0.492369    -3.447430    -0.843447
C       0.053835    -4.626124    -1.296756
C      -0.698024    -5.821865    -1.307593
C      -2.007081    -5.851856    -0.862061
C      -3.873866    -3.038355     0.410598
C      -2.693525    -2.417042     0.140088
H       0.101850    -2.538943    -0.838259
H       1.075866    -4.671138    -1.656535
H      -2.597659    -6.758550    -0.862154
H      -4.788893    -2.626763     0.815404
N      -3.801979    -4.383735     0.087765
C      -4.864173    -5.349863     0.233913
H      -4.570379    -6.159726     0.910422
H      -5.740286    -4.852455     0.653171
H      -5.141999    -5.781111    -0.733996
O      -0.026434    -6.912084    -1.785074
C      -0.715973    -8.144296    -1.825666
H      -1.026267    -8.463205    -0.822562
H      -1.597209    -8.089162    -2.477270
H      -0.014245    -8.873304    -2.232573
N      -0.733394     0.539369     1.494582
C      -1.467806     1.652242     1.840946
O      -2.628315     1.569447     2.190632
C      -0.704649     2.965503     1.748886
H      -1.346035     3.736163     2.177948
H      -0.554031     3.207531     0.690416
C       0.652847     2.900049     2.466991
H       1.187692     3.842290     2.336161
H       0.473416     2.777199     3.539470
C       1.507501     1.728465     1.965153
C       2.276876     2.000188     0.615899
H       3.324820     1.675467     0.626930
C      -2.346387    -0.975077     0.344968
H      -3.241713    -0.386335     0.555607
H      -1.900043    -0.574231    -0.568882
C      -1.346529    -0.789430     1.494352
H      -1.851824    -0.935377     2.452488
H      -0.538677    -1.517212     1.416795
C       2.358483     1.091247     3.064404
H       3.108058     0.440903     2.601970
H       2.907791     1.889761     3.578513
C       1.551027     0.271070     4.072382
H       0.766872     0.859859     4.556935
H       1.072766    -0.585174     3.586716
H       2.204288    -0.118339     4.858425
O       2.153585     3.320734     0.192656
C       3.138268     3.728586    -0.760524
H       4.129185     3.708800    -0.286233
H       3.135479     3.036048    -1.608917
C       2.805386     5.122160    -1.219998
C       1.671666     5.338879    -2.002814
C       3.606484     6.202953    -0.869907
C       1.347677     6.620030    -2.425337
H       1.049098     4.492587    -2.275800
C       3.285710     7.488475    -1.295317
H       4.489555     6.040347    -0.257665
C       2.154915     7.698316    -2.072870
H       0.462863     6.780846    -3.033599
H       3.918977     8.324925    -1.016310
H       1.900640     8.700031    -2.405144
C       0.619091     0.754918     1.185510
O       1.416119    -0.246199     0.630775
C       1.335749     0.998132    -0.094730
C       0.858983     0.971411    -1.501378
O       1.048672     1.861593    -2.292954
O       0.195288    -0.152239    -1.782853
C      -0.320384    -0.263857    -3.117385
H      -0.830259    -1.226296    -3.150046
H      -1.017293     0.551326    -3.324789
H       0.496366    -0.234156    -3.841653
72
     -1725.766001     -1725.234548   2.81   5.11
C      -1.890329     2.801554     0.857435
C      -0.501272     3.046024     0.800443
C       0.245278     2.914147     1.972241
C      -0.378552     2.530166     3.147824
C      -1.765357     2.282776     3.173101
C      -2.537932     2.420094     2.030382
C      -1.364584     3.364449    -1.239398
C      -0.185524     3.406909    -0.560915
H       1.313495     3.107566     1.969261
H       0.213363     2.431159     4.048562
H      -3.603915     2.230049     2.081706
H      -1.564063     3.562652    -2.284043
N      -2.404053     3.002213    -0.398644
C      -3.789435     2.847187    -0.773773
H      -3.899936     3.091390    -1.831548
H      -4.126290     1.816450    -0.619295
H      -4.430420     3.519581    -0.194077
O      -2.442811     1.901443     4.298086
C      -1.717456     1.781990     5.506002
H      -1.258619     2.735573     5.794438
H      -2.442895     1.488165     6.265661
H      -0.939329     1.012147     5.433544
N       1.846417     1.312215    -0.918762
C       2.587265     1.285664     0.238342
O       3.304464     2.223719     0.540852
C       2.441937     0.080663     1.152448
H       1.757106     0.397546     1.947162
H       3.416130    -0.063761     1.624067
C       1.946245    -1.199730     0.480831
H       2.723074    -1.584347    -0.185493
H       1.761043    -1.971394     1.232895
C       0.675980    -0.921081    -0.325724
C       0.550929    -1.868358    -1.586737
H      -0.474412    -2.149047    -1.838156
C       1.179983     3.720267    -1.099156
H       1.807975     4.104190    -0.292678
H       1.117364     4.507418    -1.858329
C       1.883083     2.518073    -1.751328
H       1.400473     2.264268    -2.692580
H       2.927834     2.767462    -1.951492
C      -0.549551    -0.749299     0.575822
H      -0.620282    -1.650790     1.197025
H      -0.360349     0.083989     1.261322
C      -1.893171    -0.514256    -0.116452
H      -1.864688     0.361483    -0.765691
H      -2.197969    -1.375082    -0.718647
H      -2.667610    -0.352340     0.639025
O       1.400310    -2.981067    -1.597184
C       0.725845    -4.231620    -1.538913
H       0.017463    -4.310231    -2.374377
H       1.506102    -4.982331    -1.685579
C       0.014889    -4.450334    -0.222080
C      -1.373938    -4.464786    -0.146827
C       0.754264    -4.610579     0.949643
C      -2.018110    -4.625472     1.076302
H      -1.961497    -4.348931    -1.053711
C       0.117883    -4.770892     2.171812
H       1.839401    -4.606173     0.897818
C      -1.273058    -4.775875     2.238026
H      -3.102616    -4.633807     1.119068
H       0.705244    -4.894120     3.076327
H      -1.772082    -4.901670     3.193571
C       1.056496     0.206752    -1.292427
O       0.084987     0.348441    -2.293571
C       1.057375    -0.714958    -2.453662
C       1.791403    -0.800785    -3.745726
O       1.793525    -1.779088    -4.445454
O       2.429500     0.342180    -4.036437
C       3.116247     0.355245    -5.296117
H       2.412775     0.176916    -6.112064
H       3.558909     1.347142    -5.379616
H       3.890047    -0.415111    -5.314380
72
     -1725.761304     -1725.234513   5.76   5.14
C       3.594856    -0.790168     4.050896
C       2.349326    -0.208978     3.729826
C       1.737513     0.628132     4.663230
C       2.359553     0.869076     5.877590
C       3.601811     0.274895     6.174196
C       4.235521    -0.560806     5.267439
C       3.012931    -1.469241     2.001164
C       1.995103    -0.664798     2.408999
H       0.780214     1.092317     4.443167
H       1.877952     1.519679     6.595900
H       5.191763    -1.001792     5.524893
H       3.134556    -1.991488     1.061487
N       3.988369    -1.557513     2.983739
C       5.208157    -2.324388     2.907940
H       5.252198    -2.825982     1.939831
H       6.086659    -1.677003     3.003106
H       5.245027    -3.085553     3.694899
O       4.267209     0.471761     7.354346
C       3.674678     1.315906     8.320180
H       4.360910     1.333573     9.168021
H       3.546662     2.336475     7.938525
H       2.702774     0.929136     8.650952
N      -0.274218     1.600874     0.369565
C      -1.374182     1.962109     1.120838
O      -1.310901     2.013569     2.334309
C      -2.665195     2.295218     0.385209
H      -2.751710     3.387135     0.384268
H      -3.471450     1.926108     1.022312
C      -2.763402     1.728534    -1.032195
H      -2.818738     0.637467    -0.984271
H      -3.680610     2.065614    -1.519802
C      -1.519621     2.132297    -1.818328
C      -1.135107     1.139462    -2.971962
H      -0.731693     1.638163    -3.862481
C       0.775743    -0.267112     1.638048
H      -0.103853    -0.293570     2.288509
H       0.606618    -0.973196     0.822599
C       0.931731     1.147952     1.070498
H       1.129853     1.852344     1.879658
H       1.758789     1.184522     0.362853
C      -1.441970     3.611770    -2.186987
H      -1.483150     4.218762    -1.275356
H      -0.457222     3.797349    -2.628266
C      -2.538847     4.055014    -3.156165
H      -2.549792     3.433071    -4.057388
H      -3.532408     3.997333    -2.702304
H      -2.381081     5.090818    -3.469782
O      -2.167124     0.263622    -3.302924
C      -1.978235    -0.414987    -4.535485
H      -2.204175     0.264638    -5.369848
H      -0.930403    -0.727168    -4.633914
C      -2.870197    -1.630190    -4.602688
C      -3.293407    -2.103144    -5.842221
C      -3.237935    -2.322873    -3.451686
C      -4.064992    -3.255215    -5.935009
H      -3.018380    -1.565011    -6.745832
C      -4.011513    -3.473625    -3.543011
H      -2.917178    -1.955691    -2.484260
C      -4.425080    -3.945151    -4.783777
H      -4.386335    -3.613193    -6.908187
H      -4.294181    -4.004663    -2.639072
H      -5.028392    -4.844796    -4.852658
C      -0.329023     1.588700    -1.031431
O       0.835959     1.737605    -1.799428
C       0.009824     0.590420    -2.074030
C       0.651725    -0.749392    -1.950083
O       1.748747    -0.954313    -1.501551
O      -0.172570    -1.704045    -2.399676
C       0.331973    -3.045907    -2.351781
H      -0.459069    -3.665834    -2.772655
H       1.246527    -3.129818    -2.942805
H       0.542114    -3.334814    -1.319695
72
     -1725.760970     -1725.234263   5.97   5.29
C      -1.473571     1.356771    -4.924483
C      -1.061484     0.813397    -3.688937
C       0.219683     1.109250    -3.222019
C       1.049155     1.930731    -3.968223
C       0.611149     2.463622    -5.196332
C      -0.653146     2.183096    -5.690771
C      -3.152616     0.129339    -4.106022
C      -2.161072     0.026929    -3.181187
H       0.571021     0.706126    -2.277594
H       2.041619     2.152586    -3.597236
H      -0.962455     2.607097    -6.639180
H      -4.143475    -0.305552    -4.099491
N      -2.753574     0.926389    -5.168183
C      -3.542615     1.257361    -6.329989
H      -3.057479     0.908041    -7.247813
H      -4.516648     0.771968    -6.248303
H      -3.699738     2.338903    -6.404557
O       1.380122     3.280545    -5.979619
C       2.685154     3.593725    -5.537161
H       2.667904     4.129275    -4.579749
H       3.303283     2.693058    -5.436923
H       3.116150     4.241235    -6.301875
N      -2.058287    -0.290645     0.596837
C      -3.170705    -0.730517     1.283869
O      -4.282198    -0.626650     0.802449
C      -2.978503    -1.362285     2.654803
H      -3.286170    -2.403208     2.535715
H      -3.736347    -0.904688     3.295619
C      -1.589214    -1.241382     3.291908
H      -1.486806    -0.245053     3.726676
H      -1.491642    -1.951436     4.119702
C      -0.467707    -1.438638     2.272821
C       0.805042    -0.557673     2.565142
H       1.748175    -1.082951     2.383232
C      -2.195316    -0.682631    -1.862864
H      -1.304528    -1.312300    -1.756192
H      -3.070228    -1.335952    -1.796653
C      -2.234651     0.333768    -0.715947
H      -1.449908     1.074977    -0.842651
H      -3.196686     0.845391    -0.705937
C      -0.110943    -2.883056     1.918329
H       0.728765    -2.845530     1.216539
H       0.269015    -3.362566     2.829678
C      -1.219138    -3.740403     1.304341
H      -0.799123    -4.680535     0.934830
H      -1.995862    -3.998695     2.027909
H      -1.695640    -3.238682     0.455644
O       0.788831     0.036005     3.828368
C       2.078155     0.353467     4.342540
H       2.621705     0.990363     3.637518
H       1.884074     0.941483     5.243852
C       2.882520    -0.882782     4.685024
C       4.242041    -0.948542     4.397585
C       2.268598    -1.972075     5.302431
C       4.982334    -2.079123     4.729024
H       4.727624    -0.110051     3.905581
C       3.003362    -3.103354     5.629627
H       1.206970    -1.926968     5.525183
C       4.364686    -3.159155     5.345603
H       6.043007    -2.115013     4.500593
H       2.513767    -3.944474     6.110903
H       4.939821    -4.042713     5.603679
C      -0.765791    -0.509219     1.095862
O       0.339007    -0.502634     0.228824
C       0.405021     0.359167     1.391514
C       0.741640     1.795685     1.192925
O       1.345597     2.452884     2.002549
O       0.321864     2.256955     0.011327
C       0.658129     3.618117    -0.291054
H       1.738317     3.762967    -0.224851
H       0.310111     3.780789    -1.310744
H       0.159845     4.295673     0.405980
72
     -1725.763604     -1725.234181   4.32   5.34
C       0.125852    -2.322742    -2.992973
C       0.693530    -2.763698    -1.777811
C      -0.152324    -3.271729    -0.791201
C      -1.516505    -3.336079    -1.020741
C      -2.054058    -2.903307    -2.247811
C      -1.241651    -2.396765    -3.249353
C       2.329888    -2.011190    -3.103990
C       2.118552    -2.567943    -1.879645
H       0.250552    -3.614514     0.156515
H      -2.161594    -3.728019    -0.245053
H      -1.683799    -2.073955    -4.185018
H       3.257908    -1.708308    -3.570531
N       1.140695    -1.867154    -3.792748
C       0.971731    -1.176691    -5.050628
H       0.359310    -1.771198    -5.735001
H       0.505787    -0.197990    -4.898226
H       1.951902    -1.031413    -5.508126
O      -3.393600    -2.925967    -2.533297
C      -4.262714    -3.538018    -1.601098
H      -3.984922    -4.583831    -1.422567
H      -4.275346    -2.999508    -0.645255
H      -5.257971    -3.500612    -2.046140
N       2.439053    -1.122150     0.735528
C       1.738369    -1.754659     1.734646
O       1.937767    -2.916923     2.032662
C       0.734082    -0.860022     2.444342
H       0.293674    -1.446988     3.251002
H      -0.062539    -0.591407     1.742395
C       1.422891     0.406514     2.985521
H       0.692228     1.042813     3.486884
H       2.158997     0.098977     3.736710
C       2.150344     1.180255     1.871732
C       1.227844     2.121459     1.019167
H       1.700748     3.076035     0.751974
C       3.143424    -2.935047    -0.848751
H       4.054070    -3.299827    -1.336338
H       2.763775    -3.752538    -0.232316
C       3.563883    -1.781028     0.067035
H       4.249522    -2.159922     0.832123
H       4.076878    -1.011101    -0.511112
C       3.462441     1.804964     2.331775
H       4.117085     1.006045     2.702278
H       3.966829     2.244605     1.464220
C       3.265440     2.864680     3.416683
H       2.601287     3.664849     3.073601
H       2.826353     2.437455     4.323056
H       4.220263     3.320296     3.693656
O      -0.030921     2.319989     1.586017
C      -0.800874     3.311858     0.924442
H      -0.373288     4.305619     1.120382
H      -0.768737     3.150262    -0.163079
C      -2.229763     3.257964     1.403733
C      -2.981679     4.427377     1.471477
C      -2.828885     2.045197     1.737784
C      -4.316100     4.388985     1.859202
H      -2.520154     5.379218     1.221720
C      -4.161234     2.005994     2.128943
H      -2.244500     1.133470     1.693686
C      -4.909551     3.176703     2.188171
H      -4.891412     5.308311     1.906431
H      -4.618234     1.056497     2.390600
H      -5.950767     3.143721     2.492880
C       2.237645     0.267567     0.642258
O       2.701822     0.994364    -0.467403
C       1.312295     1.098746    -0.149095
C       0.299150     0.801876    -1.204786
O       0.486446     0.881263    -2.388543
O      -0.869198     0.502430    -0.618172
C      -2.032723     0.437332    -1.459480
H      -1.778032     0.055077    -2.445065
H      -2.730930    -0.234951    -0.963335
H      -2.466304     1.438415    -1.536541
72
     -1725.763781     -1725.233823   4.20   5.57
C       2.526683    -2.947962    -1.124931
C       3.059310    -1.734194    -0.655824
C       3.379233    -1.623998     0.705408
C       3.175474    -2.701965     1.536153
C       2.668304    -3.920421     1.035629
C       2.337256    -4.066293    -0.299316
C       2.635597    -1.533271    -2.842343
C       3.140802    -0.841350    -1.783260
H       3.779991    -0.697424     1.104111
H       3.409727    -2.648845     2.593547
H       1.940180    -4.989746    -0.700203
H       2.515329    -1.225502    -3.872468
N       2.269448    -2.810370    -2.463315
C       1.533352    -3.749134    -3.278718
H       1.560061    -3.411455    -4.316061
H       1.989562    -4.742472    -3.231440
H       0.488756    -3.809524    -2.955958
O       2.517141    -4.905670     1.972490
C       2.070814    -6.170929     1.529677
H       2.754222    -6.597761     0.785034
H       2.052465    -6.813500     2.410769
H       1.060727    -6.115515     1.103820
N       1.813493     1.558103    -0.481813
C       2.325796     1.781006     0.775228
O       3.514343     1.950450     0.971037
C       1.275111     1.833990     1.873007
H       1.793519     2.070743     2.802746
H       0.816250     0.844986     1.979945
C       0.201071     2.887630     1.544728
H      -0.554650     2.907336     2.331694
H       0.677072     3.873132     1.531143
C      -0.453730     2.622927     0.179351
C      -1.588284     1.537490     0.206114
H      -2.455226     1.791582    -0.413846
C       3.706661     0.547320    -1.785782
H       4.254107     0.725750    -2.717922
H       4.425874     0.650770    -0.971085
C       2.665295     1.664232    -1.669501
H       3.179819     2.631173    -1.645064
H       1.999012     1.645040    -2.533500
C      -0.814061     3.898670    -0.580291
H      -1.466565     3.636261    -1.419602
H      -1.404291     4.538411     0.087965
C       0.393684     4.667815    -1.118891
H       1.104747     4.935145    -0.331678
H       0.929676     4.077390    -1.868077
H       0.072124     5.595860    -1.600449
O      -1.978232     1.186569     1.500862
C      -3.195983     0.456951     1.559662
H      -3.160610    -0.408282     0.885732
H      -3.251205     0.076163     2.583616
C      -4.408728     1.309578     1.249433
C      -5.463212     0.797921     0.499863
C      -4.490828     2.615556     1.730044
C      -6.588219     1.573676     0.239402
H      -5.407125    -0.215462     0.111378
C      -5.610429     3.393228     1.468002
H      -3.668685     3.021730     2.310771
C      -6.664438     2.873029     0.723203
H      -7.404354     1.160686    -0.345108
H      -5.662928     4.408844     1.847924
H      -7.540656     3.480462     0.520257
C       0.408116     1.602990    -0.577121
O      -0.256338     1.192498    -1.742020
C      -0.625521     0.552375    -0.514843
C      -0.547680    -0.936489    -0.441926
O      -0.503781    -1.681036    -1.384105
O      -0.582840    -1.319719     0.842743
C      -0.654355    -2.733724     1.079525
H      -0.421478    -2.870811     2.134725
H      -1.663809    -3.091931     0.859304
H       0.068041    -3.260716     0.460417
72
     -1725.762572     -1725.233815   4.96   5.57
C       3.012116     3.061132    -0.277882
C       1.958653     3.162689    -1.202638
C       2.273210     3.292242    -2.562645
C       3.591682     3.303229    -2.956352
C       4.633397     3.192532    -2.008074
C       4.363347     3.071686    -0.656165
C       1.080892     2.968541     0.848226
C       0.725932     3.091105    -0.460366
H       1.486950     3.377937    -3.306639
H       3.867852     3.399889    -4.000515
H       5.148209     2.988817     0.084309
H       0.459935     2.897545     1.729744
N       2.462815     2.943425     0.972110
C       3.195133     2.855031     2.213710
H       3.801624     3.751940     2.380019
H       2.484461     2.761220     3.035792
H       3.851769     1.978467     2.222911
O       5.891086     3.216741    -2.539272
C       6.985155     3.122665    -1.649367
H       7.883759     3.165189    -2.265764
H       6.995379     3.958099    -0.938164
H       6.971404     2.175002    -1.096429
N      -1.827048     1.534161     0.465733
C      -1.765736     1.359044     1.832758
O      -1.561113     2.274960     2.606660
C      -2.008239    -0.072622     2.284027
H      -2.053743    -0.056678     3.373438
H      -1.155631    -0.695252     1.992204
C      -3.309388    -0.626907     1.680525
H      -3.473127    -1.649934     2.022112
H      -4.143924    -0.020366     2.049072
C      -3.306838    -0.570899     0.140954
C      -2.465915    -1.727653    -0.517050
H      -2.895967    -2.128126    -1.442710
C      -0.638523     3.135121    -1.081162
H      -0.670831     2.423748    -1.911400
H      -0.808677     4.127030    -1.520490
C      -1.814827     2.867905    -0.142630
H      -1.821146     3.574077     0.688611
H      -2.748580     2.996287    -0.701124
C      -4.721250    -0.329195    -0.390058
H      -5.344358    -1.160545    -0.034425
H      -5.106900     0.569535     0.107255
C      -4.899545    -0.169523    -1.900728
H      -4.546757    -1.042848    -2.455890
H      -5.960652    -0.040103    -2.134597
H      -4.361433     0.701512    -2.281109
O      -2.166425    -2.746659     0.380466
C      -1.618601    -3.916714    -0.226339
H      -2.368968    -4.366975    -0.890938
H      -0.738411    -3.646730    -0.821827
C      -1.233780    -4.883263     0.861253
C      -0.201343    -4.557367     1.740692
C      -1.894595    -6.097185     1.007280
C       0.160276    -5.437510     2.750151
H       0.312427    -3.608632     1.622707
C      -1.531171    -6.983134     2.017194
H      -2.702509    -6.353851     0.327237
C      -0.503540    -6.653511     2.890276
H       0.964320    -5.176771     3.431522
H      -2.053740    -7.928935     2.121641
H      -0.218363    -7.341370     3.680243
C      -2.184433     0.387306    -0.270787
O      -1.931151     0.303778    -1.646816
C      -1.339570    -0.698743    -0.813974
C       0.137644    -0.860905    -0.748341
O       0.662891    -1.643296     0.008576
O       0.791178    -0.070737    -1.591901
C       2.226051    -0.171848    -1.536834
H       2.535481    -1.199414    -1.739221
H       2.599475     0.510221    -2.296965
H       2.582250     0.134395    -0.551822
72
     -1725.760435     -1725.233727   6.30   5.63
C       1.520987     0.060538    -5.602166
C       1.486294    -0.562766    -4.336865
C       1.523063    -1.956343    -4.271494
C       1.590540    -2.692651    -5.443012
C       1.623770    -2.046080    -6.693850
C       1.589696    -0.663435    -6.791288
C       1.413431     1.655485    -4.039252
C       1.419049     0.484757    -3.346865
H       1.494729    -2.464681    -3.311775
H       1.617222    -3.772751    -5.382716
H       1.616501    -0.195382    -7.768679
H       1.369121     2.671684    -3.669871
N       1.475297     1.417993    -5.404279
C       1.493022     2.417580    -6.444519
H       0.635079     2.302347    -7.115770
H       1.443023     3.407459    -5.987651
H       2.413126     2.354951    -7.035678
O       1.690434    -2.716179    -7.885563
C       1.725145    -4.128573    -7.854394
H       0.821553    -4.543180    -7.390573
H       1.775355    -4.452563    -8.894867
H       2.608359    -4.497763    -7.318552
N      -0.003451    -0.771722    -0.067388
C       0.452310    -2.045717     0.180286
O       0.812889    -2.772530    -0.727748
C       0.522096    -2.529981     1.621504
H       1.586400    -2.675072     1.819218
H       0.085881    -3.532042     1.615935
C      -0.146532    -1.657528     2.691072
H      -1.220516    -1.854652     2.682722
H       0.212332    -1.943568     3.685447
C       0.070310    -0.164047     2.444569
C      -1.169449     0.717708     2.859226
H      -0.886743     1.667458     3.323406
C       1.341432     0.279022    -1.866575
H       1.521659     1.219424    -1.336978
H       2.120920    -0.426482    -1.556579
C      -0.021676    -0.289057    -1.452034
H      -0.804850     0.460883    -1.543509
H      -0.280241    -1.138815    -2.082212
C       1.398196     0.424122     2.921529
H       1.382403     1.493252     2.683923
H       1.418599     0.350600     4.016724
C       2.671670    -0.187441     2.335571
H       2.850820    -1.202056     2.699608
H       2.638881    -0.217281     1.241522
H       3.539085     0.414938     2.621247
O      -2.116455     0.038798     3.633042
C      -2.781347     0.855375     4.587895
H      -3.243239     1.718867     4.095223
H      -3.583296     0.228354     4.987648
C      -1.859753     1.311715     5.699205
C      -1.905889     2.618697     6.172564
C      -0.948901     0.418833     6.263067
C      -1.062356     3.029586     7.200294
H      -2.603809     3.325912     5.732299
C      -0.102547     0.827400     7.284357
H      -0.906971    -0.601299     5.894153
C      -0.158757     2.135095     7.757935
H      -1.110858     4.052116     7.561391
H       0.601777     0.123245     7.716528
H       0.501189     2.453664     8.558524
C      -0.310225     0.101632     0.986937
O      -0.355368     1.482282     0.760431
C      -1.520012     0.870872     1.366784
C      -2.814074     1.064118     0.656529
O      -2.944508     1.046759    -0.539946
O      -3.816391     1.270773     1.521067
C      -5.108609     1.448689     0.922273
H      -5.107824     2.325697     0.271713
H      -5.378601     0.567334     0.336841
H      -5.800398     1.585624     1.752436
72
     -1725.758072     -1725.233439   7.79   5.81
C       1.890650    -3.054866     4.479523
C       1.232209    -2.994360     3.239997
C       1.427008    -4.035303     2.318447
C       2.256387    -5.080084     2.655103
C       2.908794    -5.120045     3.907461
C       2.739715    -4.112979     4.840612
C       0.678532    -1.178592     4.427260
C       0.455716    -1.780322     3.226801
H       0.933332    -4.016097     1.351090
H       2.432410    -5.901501     1.969636
H       3.231890    -4.128209     5.804115
H       0.285323    -0.247963     4.814594
N       1.544641    -1.938072     5.198107
C       2.003448    -1.614811     6.527727
H       1.559690    -0.666434     6.835125
H       1.704273    -2.385040     7.246895
H       3.093569    -1.510458     6.554642
O       3.700098    -6.217773     4.101526
C       4.386305    -6.325622     5.331228
H       5.080717    -5.488564     5.477647
H       3.688714    -6.369967     6.177224
H       4.952262    -7.256752     5.284286
N      -0.319894    -0.612275    -0.296342
C      -0.600423    -1.700657    -1.092200
O      -0.153003    -2.802384    -0.833524
C      -1.510019    -1.497479    -2.295838
H      -2.440789    -2.018482    -2.047304
H      -1.059280    -2.065909    -3.112591
C      -1.771782    -0.047663    -2.707957
H      -0.878091     0.364803    -3.182756
H      -2.571712    -0.011334    -3.454923
C      -2.124847     0.798655    -1.482600
C      -1.679973     2.309711    -1.648233
H      -2.365026     3.036627    -1.196054
C      -0.388130    -1.295686     2.089193
H      -1.037197    -0.477408     2.415422
H      -1.035350    -2.107685     1.739516
C       0.477686    -0.823073     0.914986
H       0.983870     0.108236     1.158681
H       1.228735    -1.575222     0.676793
C      -3.541727     0.521444    -0.978413
H      -4.234540     0.884651    -1.749390
H      -3.689265    -0.563793    -0.936197
C      -3.931413     1.115943     0.375889
H      -4.980706     0.890754     0.590184
H      -3.324820     0.701276     1.184176
H      -3.812810     2.202236     0.401433
O      -1.302885     2.699069    -2.931610
C      -2.341099     3.288311    -3.696331
H      -3.109681     2.543795    -3.949269
H      -2.825493     4.079530    -3.103442
C      -1.751041     3.877042    -4.952692
C      -2.431986     3.784591    -6.161607
C      -0.531875     4.552214    -4.903881
C      -1.911009     4.367064    -7.312524
H      -3.377728     3.250792    -6.208215
C      -0.010259     5.130125    -6.053472
H       0.007335     4.613167    -3.964005
C      -0.698812     5.042200    -7.259695
H      -2.452461     4.289973    -8.250315
H       0.940413     5.652645    -6.009203
H      -0.288277     5.496667    -8.155898
C      -0.942210     0.626210    -0.528422
O      -0.996451     1.578345     0.503133
C      -0.464433     2.008269    -0.771938
C       0.860588     2.691491    -0.792988
O       1.048852     3.763460    -1.303967
O       1.802336     1.975169    -0.165414
C       3.097654     2.589189    -0.099042
H       3.728181     1.887717     0.445884
H       3.488706     2.758216    -1.104464
H       3.036454     3.543278     0.428374
72
     -1725.760024     -1725.233417   6.56   5.82
C       3.263116    -0.030167    -4.713697
C       3.022555    -0.505545    -3.413732
C       3.184992    -1.875248    -3.152721
C       3.572256    -2.709666    -4.175776
C       3.808428    -2.209768    -5.475732
C       3.659425    -0.866173    -5.769524
C       2.666144     1.704590    -3.438126
C       2.641492     0.626480    -2.607604
H       3.004068    -2.272967    -2.158276
H       3.706963    -3.773183    -4.013401
H       3.836243    -0.467120    -6.759651
H       2.442854     2.741929    -3.226554
N       3.041497     1.324070    -4.717275
C       3.178986     2.198307    -5.857163
H       2.935578     3.217805    -5.553445
H       4.204837     2.188266    -6.241303
H       2.497019     1.906338    -6.663210
O       4.186926    -3.154741    -6.388337
C       4.438944    -2.728711    -7.711023
H       5.261741    -2.003513    -7.748913
H       4.721825    -3.621159    -8.270537
H       3.544371    -2.285740    -8.166941
N       0.671256    -0.397901     0.465422
C       1.179873    -1.565656     0.986703
O       1.797867    -2.348813     0.289438
C       0.974727    -1.853631     2.467063
H       1.977716    -1.844030     2.899164
H       0.642910    -2.893584     2.520685
C       0.010485    -0.941527     3.235170
H      -1.012640    -1.266105     3.034204
H       0.161986    -1.054893     4.313265
C       0.139214     0.525618     2.820328
C      -1.237192     1.291298     2.842544
H      -1.142874     2.332525     3.173984
C       2.270472     0.579751    -1.158209
H       2.244124     1.588820    -0.735559
H       3.028869     0.012515    -0.606478
C       0.909977    -0.096882    -0.950295
H       0.099365     0.534791    -1.308866
H       0.876755    -1.043761    -1.487440
C       1.277555     1.321770     3.457928
H       1.200443     2.349941     3.087748
H       1.091004     1.364975     4.538749
C       2.698895     0.817962     3.200361
H       2.908177    -0.120226     3.719496
H       2.887307     0.667623     2.132466
H       3.424121     1.553527     3.560457
O      -2.237144     0.626039     3.550226
C      -3.320534     1.457769     3.941575
H      -3.025652     2.061269     4.811986
H      -3.574803     2.146050     3.125805
C      -4.526100     0.616188     4.279896
C      -5.446317     1.078802     5.216941
C      -4.768451    -0.593419     3.632968
C      -6.596752     0.351797     5.499043
H      -5.262268     2.017367     5.733533
C      -5.917013    -1.322270     3.915556
H      -4.052398    -0.963066     2.908691
C      -6.835996    -0.851436     4.846657
H      -7.306174     0.725817     6.230698
H      -6.094750    -2.264650     3.406315
H      -7.733130    -1.421969     5.065201
C       0.059671     0.554259     1.294601
O      -0.089172     1.872856     0.850738
C      -1.281574     1.190461     1.296871
C      -2.390303     1.052441     0.312226
O      -2.250113     1.057599    -0.882821
O      -3.566041     0.908875     0.935141
C      -4.708146     0.729640     0.085075
H      -4.568694    -0.143416    -0.555639
H      -5.549442     0.581183     0.761434
H      -4.859353     1.613620    -0.538101
72
     -1725.761608     -1725.233335   5.57   5.88
C       3.539979     2.454957     0.082412
C       2.553842     2.790440    -0.870237
C       2.934385     2.914725    -2.205366
C       4.252573     2.695904    -2.573059
C       5.213927     2.351982    -1.602474
C       4.870081     2.228919    -0.264196
C       1.582332     2.677026     1.144915
C       1.302084     2.916569    -0.164602
H       2.204922     3.176269    -2.966022
H       4.533188     2.794074    -3.613750
H       5.632623     1.965781     0.459999
H       0.926216     2.684628     2.003754
N       2.930925     2.391148     1.308706
C       3.592166     2.119686     2.563267
H       4.345307     2.883325     2.785838
H       2.849280     2.122013     3.362025
H       4.080335     1.139395     2.546590
O       6.528722     2.118283    -1.894709
C       6.946223     2.241432    -3.239986
H       6.426902     1.525862    -3.889311
H       6.785341     3.258100    -3.619072
H       8.014474     2.021106    -3.245978
N      -1.508697     1.794662     0.614436
C      -1.537865     1.558706     1.973462
O      -1.209063     2.393460     2.794902
C      -2.047529     0.176500     2.350197
H      -2.139567     0.159587     3.436655
H      -1.304562    -0.575788     2.064229
C      -3.396608    -0.116056     1.672559
H      -3.752895    -1.105635     1.962161
H      -4.127852     0.614929     2.034696
C      -3.313626    -0.005398     0.138097
C      -2.656302    -1.266903    -0.535910
H      -3.104119    -1.550457    -1.495718
C      -0.009174     3.230109    -0.820454
H      -0.134452     2.573819    -1.686520
H       0.012241     4.255500    -1.212864
C      -1.247277     3.130486     0.069978
H      -1.163308     3.791909     0.933196
H      -2.124500     3.441056    -0.508333
C      -4.638377     0.499432    -0.437087
H      -5.412039    -0.222821    -0.144407
H      -4.885725     1.432574     0.084297
C      -4.714492     0.744092    -1.944979
H      -4.493172    -0.156397    -2.524199
H      -5.724541     1.066770    -2.215276
H      -4.015491     1.520440    -2.263882
O      -2.583240    -2.355486     0.326140
C      -2.219409    -3.580394    -0.309879
H      -3.003596    -3.865890    -1.024739
H      -1.277605    -3.448051    -0.855516
C      -2.062928    -4.639700     0.747736
C      -1.034281    -4.533799     1.683808
C      -2.931257    -5.723072     0.810233
C      -0.881638    -5.501155     2.666323
H      -0.358108    -3.686468     1.630990
C      -2.777868    -6.696485     1.793016
H      -3.736900    -5.807864     0.085795
C      -1.752987    -6.585836     2.722698
H      -0.079169    -5.411729     3.392122
H      -3.461531    -7.538867     1.832067
H      -1.631220    -7.342348     3.491714
C      -2.024036     0.755680    -0.185865
O      -1.722410     0.677806    -1.552562
C      -1.355067    -0.441726    -0.740169
C       0.066068    -0.864403    -0.619256
O       0.407269    -1.755384     0.122915
O       0.889921    -0.171259    -1.396211
C       2.279865    -0.528647    -1.283705
H       2.414035    -1.584512    -1.528051
H       2.807075     0.109898    -1.988571
H       2.632178    -0.336507    -0.269019
72
     -1725.758038     -1725.233239   7.81   5.94
C       0.996286     5.325502    -0.975140
C       0.745001     3.966790    -0.688038
C      -0.555516     3.581464    -0.359675
C      -1.563632     4.530895    -0.324565
C      -1.285262     5.880512    -0.615859
C      -0.003956     6.295555    -0.944416
C       2.920578     4.204680    -1.162852
C       2.000414     3.265639    -0.813626
H      -0.785438     2.544129    -0.135170
H      -2.568861     4.221436    -0.069765
H       0.179568     7.341114    -1.163711
H       3.979512     4.090134    -1.353978
N       2.331707     5.455098    -1.264362
C       2.998814     6.687363    -1.609443
H       4.055604     6.481828    -1.788225
H       2.572182     7.124144    -2.518807
H       2.920379     7.418304    -0.797422
O      -2.234794     6.865340    -0.598370
C      -3.562381     6.506599    -0.271847
H      -3.972531     5.785607    -0.989761
H      -3.628801     6.087652     0.739840
H      -4.143987     7.428348    -0.317203
N       1.600775    -0.449381    -1.458337
C       2.510838    -1.317237    -2.016229
O       3.385989    -0.952436    -2.774772
C       2.316026    -2.766169    -1.588615
H       3.167620    -3.328112    -1.973371
H       1.414213    -3.155488    -2.074863
C       2.200830    -2.906661    -0.062502
H       2.037566    -3.952312     0.204301
H       3.157361    -2.606524     0.379097
C       1.093291    -2.018960     0.535880
C      -0.360862    -2.613129     0.397521
H      -0.990690    -2.473767     1.279277
C       2.207993     1.796452    -0.619659
H       1.752934     1.486455     0.329550
H       3.274745     1.561342    -0.550791
C       1.590716     0.978188    -1.759754
H       0.557708     1.277637    -1.944022
H       2.159869     1.114506    -2.678948
C       1.520272    -1.515588     1.919010
H       1.770740    -2.401873     2.517107
H       2.461802    -0.967622     1.784971
C       0.545184    -0.642158     2.710417
H       0.989590    -0.380219     3.675711
H       0.307341     0.284689     2.185533
H      -0.396187    -1.158729     2.917769
O      -0.366874    -3.949225    -0.019179
C      -1.517136    -4.679828     0.390609
H      -2.428213    -4.181908     0.041519
H      -1.439976    -5.640493    -0.126288
C      -1.572228    -4.886707     1.889413
C      -0.421735    -5.240465     2.593360
C      -2.766916    -4.728980     2.584224
C      -0.468292    -5.436892     3.966393
H       0.514712    -5.359795     2.057335
C      -2.817878    -4.930091     3.960229
H      -3.667132    -4.441829     2.047420
C      -1.668660    -5.284237     4.654158
H       0.434232    -5.712461     4.503151
H      -3.757776    -4.805893     4.488892
H      -1.705520    -5.440249     5.727581
C       0.700733    -0.991421    -0.529344
O      -0.432267    -0.279678    -0.138351
C      -0.647766    -1.582616    -0.716356
C      -1.455820    -1.603509    -1.964265
O      -1.440738    -0.723349    -2.784473
O      -2.194854    -2.717556    -2.062173
C      -2.989286    -2.815166    -3.253315
H      -2.349581    -2.787803    -4.137881
H      -3.508186    -3.770398    -3.183275
H      -3.703392    -1.990495    -3.301269
72
     -1725.762003     -1725.233103   5.32   6.02
C      -3.128888     2.644606    -0.164121
C      -3.429162     1.316031    -0.510996
C      -3.924931     1.057554    -1.796936
C      -4.098302     2.099766    -2.677102
C      -3.790952     3.427528    -2.304369
C      -3.301585     3.723886    -1.044543
C      -2.648603     1.342160     1.588357
C      -3.107714     0.491508     0.627639
H      -4.149848     0.043398    -2.109007
H      -4.471231     1.930977    -3.680994
H      -3.058476     4.733591    -0.740356
H      -2.301510     1.131789     2.589578
N      -2.650621     2.645645     1.120019
C      -2.244137     3.811120     1.869412
H      -1.429850     4.339595     1.362357
H      -3.081182     4.503692     2.009550
H      -1.889878     3.493174     2.850785
O      -4.012307     4.358987    -3.278561
C      -3.743017     5.711418    -2.970259
H      -3.991158     6.283393    -3.865067
H      -4.361370     6.062099    -2.134425
H      -2.683938     5.863983    -2.726854
N      -1.074160    -1.577800     1.703326
C      -0.344988    -0.834548     2.604569
O      -0.836659    -0.329865     3.596114
C       1.127235    -0.691266     2.246255
H       1.606272    -0.167314     3.074135
H       1.197270    -0.056615     1.355576
C       1.798655    -2.046390     1.977096
H       2.838187    -1.882653     1.683930
H       1.824615    -2.614315     2.912237
C       1.039510    -2.856703     0.916962
C       1.368071    -2.469127    -0.584991
H       1.508227    -3.332528    -1.248391
C      -3.303142    -0.995752     0.698136
H      -3.049441    -1.437485    -0.269349
H      -4.365720    -1.220531     0.859097
C      -2.527353    -1.720233     1.801972
H      -2.797386    -1.342272     2.788599
H      -2.772900    -2.786105     1.766486
C       1.022903    -4.358707     1.199184
H       0.677014    -4.884591     0.303308
H       2.054589    -4.687724     1.379678
C       0.131996    -4.755640     2.377428
H       0.411796    -4.244759     3.303261
H      -0.916385    -4.520511     2.170386
H       0.198631    -5.831742     2.561212
O       2.376341    -1.520951    -0.760866
C       3.663297    -2.091893    -0.915215
H       3.822449    -2.881863    -0.165459
H       3.739188    -2.565524    -1.905868
C       4.729005    -1.032767    -0.763648
C       4.412941     0.290832    -0.477595
C       6.067443    -1.397192    -0.907078
C       5.424195     1.236934    -0.336079
H       3.374214     0.580821    -0.372494
C       7.075315    -0.454128    -0.766536
H       6.323140    -2.430126    -1.131448
C       6.755007     0.869236    -0.479141
H       5.166517     2.267996    -0.113956
H       8.113168    -0.751095    -0.880871
H       7.541402     1.609052    -0.368588
C      -0.333914    -2.210956     0.688248
O      -0.967234    -2.873818    -0.377072
C      -0.028983    -1.836592    -0.699636
C      -0.503853    -0.719076    -1.577147
O      -1.328689    -0.846613    -2.441450
O       0.137603     0.415424    -1.287153
C      -0.172494     1.534714    -2.137639
H       0.423919     2.361809    -1.755233
H       0.107142     1.304655    -3.168096
H      -1.235301     1.770396    -2.090303
72
     -1725.760582     -1725.233073   6.21   6.04
C       2.870611     3.383433     1.557812
C       1.981091     3.741066     0.522204
C       2.387949     4.705339    -0.398432
C       3.638000     5.289133    -0.281237
C       4.503758     4.914890     0.764683
C       4.131905     3.958313     1.696489
C       1.005909     2.175878     1.789152
C       0.786516     2.953147     0.693632
H       1.734843     5.002635    -1.213259
H       3.940813     6.035082    -1.004493
H       4.821051     3.688266     2.488622
H       0.355338     1.446392     2.251541
N       2.260517     2.421789     2.323735
C       2.829273     1.797205     3.493140
H       2.116664     1.072682     3.891323
H       3.757182     1.270919     3.245216
H       3.041990     2.537439     4.271909
O       5.750364     5.451301     0.939102
C       6.189267     6.428399     0.017309
H       5.540274     7.312808     0.029088
H       7.192516     6.715370     0.335403
H       6.235088     6.027107    -1.002687
N       0.188717     0.736688    -1.197324
C       1.521211     0.372327    -1.183332
O       2.396434     1.137968    -1.530137
C       1.865843    -1.021087    -0.675442
H       2.214255    -0.876798     0.353620
H       2.737157    -1.344705    -1.248139
C       0.738703    -2.051691    -0.743320
H       0.534559    -2.294461    -1.789091
H       1.043245    -2.984290    -0.258121
C      -0.529839    -1.492125    -0.094744
C      -1.837563    -2.072174    -0.740190
H      -2.662466    -2.194324    -0.033554
C      -0.410520     2.934934    -0.206957
H      -0.678487     3.957472    -0.497235
H      -1.273227     2.522666     0.324131
C      -0.177490     2.125952    -1.492950
H      -1.072289     2.122782    -2.115369
H       0.652850     2.545001    -2.060328
C      -0.441411    -1.501052     1.432015
H      -0.376640    -2.553136     1.739413
H       0.509969    -1.043224     1.726486
C      -1.577042    -0.825091     2.202598
H      -1.672632     0.232168     1.945163
H      -2.543795    -1.296056     2.005085
H      -1.391964    -0.900674     3.279112
O      -1.622682    -3.246995    -1.468534
C      -2.743578    -4.120585    -1.500498
H      -3.627227    -3.595070    -1.880443
H      -2.477761    -4.896735    -2.223691
C      -3.034770    -4.732824    -0.146653
C      -1.988570    -5.204400     0.645690
C      -4.338463    -4.830389     0.327712
C      -2.244111    -5.766001     1.888614
H      -0.969223    -5.126151     0.280297
C      -4.598460    -5.397971     1.571560
H      -5.160110    -4.455178    -0.276554
C      -3.552008    -5.866260     2.354617
H      -1.421611    -6.130424     2.496324
H      -5.621110    -5.469664     1.928443
H      -3.752239    -6.307784     3.325646
C      -0.809798    -0.181975    -0.832915
O      -2.105056     0.274273    -0.562102
C      -1.972268    -0.767306    -1.554602
C      -2.516294    -0.468031    -2.905914
O      -2.486542     0.617553    -3.426016
O      -3.049713    -1.559175    -3.471580
C      -3.584359    -1.361114    -4.788659
H      -2.801898    -1.012716    -5.465983
H      -3.959058    -2.334588    -5.102430
H      -4.391582    -0.626156    -4.763967
72
     -1725.759105     -1725.232938   7.14   6.12
C       3.971612     3.642938     1.849773
C       2.774175     3.429890     1.135374
C       2.466079     4.277041     0.069800
C       3.340336     5.297966    -0.264906
C       4.531987     5.486968     0.462054
C       4.863520     4.664927     1.527894
C       2.913238     1.898473     2.762561
C       2.110037     2.300889     1.741117
H       1.548066     4.139994    -0.494708
H       3.093868     5.949673    -1.092878
H       5.787118     4.836880     2.068675
H       2.776745     1.089437     3.467824
N       4.043490     2.698332     2.842887
C       5.112948     2.573034     3.803149
H       5.207451     3.481435     4.407816
H       4.897303     1.736130     4.469561
H       6.069140     2.380985     3.304567
O       5.435956     6.475421     0.180593
C       5.156618     7.346402    -0.896641
H       5.993498     8.044467    -0.945471
H       5.085086     6.801833    -1.846281
H       4.228414     7.907075    -0.730623
N      -0.306076     0.632472    -0.667579
C      -1.052299     1.651556    -1.221024
O      -0.615452     2.786246    -1.276000
C      -2.436365     1.322673    -1.759754
H      -2.356933     1.371902    -2.850514
H      -3.073854     2.160293    -1.467650
C      -3.021377    -0.011515    -1.294095
H      -3.277067     0.052725    -0.233403
H      -3.949851    -0.230752    -1.829342
C      -1.995010    -1.125351    -1.502014
C      -2.166747    -2.314001    -0.493989
H      -1.937819    -3.295004    -0.920527
C       0.812197     1.709394     1.285226
H       0.074684     2.507488     1.157260
H       0.422980     1.018653     2.036494
C       0.980543     0.977210    -0.053169
H       1.520793     1.615004    -0.754380
H       1.542724     0.054414     0.080255
C      -1.849912    -1.495470    -2.980215
H      -2.803800    -1.948857    -3.280439
H      -1.757861    -0.575276    -3.567407
C      -0.703145    -2.432119    -3.364330
H       0.270600    -1.984625    -3.152686
H      -0.751368    -3.385265    -2.831636
H      -0.750284    -2.649697    -4.435949
O      -3.414518    -2.313546     0.131040
C      -3.784769    -3.566594     0.697218
H      -3.020423    -3.905792     1.403649
H      -4.695957    -3.359656     1.265240
C      -4.050938    -4.621065    -0.356089
C      -4.772500    -4.299317    -1.505192
C      -3.587055    -5.922253    -0.193420
C      -5.028930    -5.263474    -2.470011
H      -5.131099    -3.283276    -1.638927
C      -3.846472    -6.892535    -1.156634
H      -3.012820    -6.180321     0.692312
C      -4.568003    -6.565409    -2.296872
H      -5.592575    -5.000467    -3.359928
H      -3.479930    -7.904477    -1.014838
H      -4.770398    -7.320135    -3.050168
C      -0.764387    -0.695899    -0.702265
O       0.139090    -1.763124    -0.602775
C      -0.972474    -1.756702     0.318602
C      -0.704496    -1.864171     1.776217
O      -1.529593    -2.224656     2.577713
O       0.554512    -1.535291     2.091602
C       0.882305    -1.640744     3.482883
H       0.273984    -0.950540     4.072685
H       0.713197    -2.659693     3.837406
H       1.938266    -1.383151     3.555278
72
     -1725.757265     -1725.232715   8.29   6.26
C       3.480897    -0.717316     4.619795
C       2.662669     0.086529     3.798284
C       1.834260     1.036707     4.397279
C       1.832106     1.167519     5.776407
C       2.658345     0.352294     6.574187
C       3.492840    -0.599533     6.008666
C       3.837968    -1.301833     2.491780
C       2.911823    -0.307389     2.432532
H       1.191035     1.668872     3.791559
H       1.185675     1.906020     6.232158
H       4.116920    -1.212012     6.649308
H       4.291274    -1.867144     1.688024
N       4.194184    -1.562135     3.806295
C       5.150258    -2.546350     4.252614
H       5.555632    -3.068126     3.384008
H       5.979139    -2.074377     4.791214
H       4.677827    -3.283980     4.910326
O       2.701660     0.432981     7.939837
C       1.872373     1.383066     8.577640
H       0.811192     1.189498     8.377845
H       2.060920     1.278980     9.647059
H       2.118268     2.405696     8.265820
N       0.027891     0.615591     0.152755
C      -0.472094     1.843924     0.523466
O      -0.355301     2.254150     1.663344
C      -1.155936     2.693622    -0.538494
H      -0.479358     3.536531    -0.715410
H      -2.041523     3.117789    -0.059748
C      -1.518392     1.982076    -1.843372
H      -2.372270     1.321228    -1.674809
H      -1.830312     2.716143    -2.593719
C      -0.333578     1.152941    -2.344548
C      -0.796389    -0.121838    -3.162749
H      -0.143406    -0.382652    -4.004054
C       2.240202     0.265742     1.223958
H       2.758703    -0.047101     0.312637
H       2.281853     1.359941     1.265008
C       0.769628    -0.163221     1.148249
H       0.687210    -1.216676     0.890556
H       0.282138    -0.001244     2.108731
C       0.769614     2.025950    -2.944032
H       0.364184     2.471726    -3.862304
H       0.955411     2.865946    -2.264927
C       2.105948     1.349642    -3.254221
H       2.782880     2.068053    -3.726763
H       2.586790     0.979014    -2.346091
H       1.993426     0.501739    -3.934770
O      -2.138820    -0.156384    -3.533450
C      -2.402423     0.339025    -4.835388
H      -2.226964     1.423447    -4.882770
H      -1.718860    -0.141118    -5.552592
C      -3.831424     0.024980    -5.199429
C      -4.597803     0.946286    -5.904811
C      -4.384660    -1.209823    -4.862066
C      -5.901509     0.640092    -6.281518
H      -4.175664     1.914433    -6.161778
C      -5.687109    -1.513673    -5.234783
H      -3.792383    -1.924358    -4.299504
C      -6.448042    -0.591911    -5.947632
H      -6.489687     1.366606    -6.833594
H      -6.112670    -2.476013    -4.967268
H      -7.465456    -0.833933    -6.238417
C       0.002759     0.206372    -1.191517
O       0.873040    -0.808628    -1.622768
C      -0.534446    -0.969006    -1.917718
C      -1.197465    -2.248355    -1.534905
O      -1.821289    -2.930956    -2.303365
O      -1.001217    -2.546150    -0.243889
C      -1.567727    -3.790606     0.191626
H      -1.145205    -4.618589    -0.381191
H      -1.307693    -3.879351     1.245704
H      -2.651866    -3.779366     0.061689
72
     -1725.763413     -1725.232422   4.44   6.45
C       0.426364    -4.059651    -0.534947
C       1.359664    -3.252628     0.152212
C       1.184329    -3.060968     1.522673
C       0.116438    -3.654460     2.174430
C      -0.796598    -4.456597     1.463006
C      -0.652813    -4.668617     0.100224
C       1.902135    -3.282359    -2.020820
C       2.307226    -2.773805    -0.826177
H       1.870525    -2.438594     2.087656
H      -0.007105    -3.491432     3.237044
H      -1.374801    -5.285476    -0.422410
H       2.340972    -3.143612    -3.000017
N       0.771350    -4.067462    -1.863662
C       0.067254    -4.770431    -2.909079
H       0.583898    -4.608753    -3.856550
H       0.039913    -5.846511    -2.708440
H      -0.960779    -4.404946    -3.007513
O      -1.871451    -5.070425     2.042326
C      -2.063898    -4.906678     3.433754
H      -2.224820    -3.853799     3.696016
H      -2.957701    -5.479497     3.684177
H      -1.212899    -5.296847     4.005264
N       2.081599     0.146832    -0.904671
C       2.301997     0.542953    -2.201684
O       3.361975     0.340657    -2.764296
C       1.121962     1.253692    -2.847613
H       1.359367     1.365279    -3.906347
H       1.050337     2.256633    -2.410510
C      -0.200261     0.493124    -2.651797
H      -1.017969     1.054378    -3.107570
H      -0.128380    -0.465688    -3.178723
C      -0.496493     0.206259    -1.171513
C      -1.084118     1.423844    -0.364573
H      -1.857180     1.121658     0.351501
C       3.495611    -1.890256    -0.603804
H       4.054533    -1.803197    -1.537537
H       4.167946    -2.336628     0.139152
C       3.139117    -0.478934    -0.115806
H       2.789779    -0.494286     0.916547
H       4.030199     0.153285    -0.165077
C      -1.222511    -1.116153    -0.961704
H      -0.630722    -1.905747    -1.431725
H      -1.252157    -1.348368     0.108514
C      -2.635776    -1.115130    -1.545361
H      -3.252815    -0.323173    -1.107283
H      -2.624845    -0.962756    -2.629216
H      -3.133664    -2.069303    -1.349155
O      -1.520974     2.481097    -1.162490
C      -2.528873     3.300781    -0.575350
H      -2.913516     3.904563    -1.399946
H      -3.345645     2.664007    -0.208727
C      -2.032498     4.196636     0.536736
C      -1.465940     5.434049     0.238333
C      -2.129808     3.806070     1.869784
C      -1.014713     6.268523     1.250722
H      -1.372910     5.741723    -0.798769
C      -1.675025     4.636048     2.888421
H      -2.574339     2.846980     2.121514
C      -1.120488     5.871572     2.579980
H      -0.577002     7.230458     1.003123
H      -1.759512     4.318171     3.922816
H      -0.770248     6.524859     3.373484
C       0.801376     0.408059    -0.382103
O       0.552535     0.353634     0.997670
C       0.294330     1.594783     0.326426
C       1.035625     2.831552     0.697127
O       1.251455     3.715146    -0.094374
O       1.426427     2.838855     1.972747
C       2.159144     4.005709     2.375874
H       1.556695     4.901891     2.219115
H       2.372381     3.864522     3.434663
H       3.086789     4.084889     1.804305
72
     -1725.759088     -1725.232289   7.15   6.53
C      -5.127086    -1.946125     1.749284
C      -3.777432    -2.198754     1.422493
C      -3.437463    -3.437127     0.877586
C      -4.424904    -4.386849     0.669210
C      -5.764493    -4.109855     1.004524
C      -6.133912    -2.888970     1.548043
C      -3.929268    -0.128410     2.261392
C      -3.027095    -1.015894     1.764127
H      -2.406546    -3.658649     0.615971
H      -4.152651    -5.344942     0.245972
H      -7.173583    -2.706355     1.794888
H      -3.768161     0.879650     2.619640
N      -5.205105    -0.675532     2.260591
C      -6.410037    -0.031018     2.722611
H      -6.164533     0.974617     3.068049
H      -7.147353     0.050228     1.916466
H      -6.858996    -0.583473     3.555368
O      -6.785680    -5.004092     0.824008
C      -6.474660    -6.267025     0.272275
H      -7.417560    -6.812781     0.215610
H      -6.051329    -6.172906    -0.735488
H      -5.774071    -6.822656     0.907950
N       0.172651    -0.507388    -0.220770
C       0.894310    -1.679187    -0.170995
O       0.339509    -2.744604     0.027747
C       2.400885    -1.624914    -0.373201
H       2.587489    -2.168517    -1.301553
H       2.821804    -2.248008     0.420190
C       3.057248    -0.239579    -0.378373
H       3.180948     0.099533     0.652964
H       4.060302    -0.304692    -0.809518
C       2.214991     0.788188    -1.128367
C       2.286658     2.248345    -0.514311
H       2.340108     3.036330    -1.271623
C      -1.559741    -0.813591     1.550212
H      -1.011693    -1.699949     1.881686
H      -1.209602     0.041347     2.129721
C      -1.266145    -0.570892     0.065778
H      -1.687952    -1.379743    -0.533770
H      -1.707666     0.370579    -0.255582
C       2.350768     0.787532    -2.652568
H       1.762308     1.628861    -3.033202
H       3.399237     1.007006    -2.890924
C       1.905138    -0.481270    -3.382555
H       0.902319    -0.794471    -3.073746
H       1.873062    -0.296236    -4.460399
H       2.589333    -1.317531    -3.222167
O       3.244886     2.440258     0.487563
C       4.269600     3.368958     0.147825
H       3.822641     4.347159    -0.075043
H       4.871619     3.470107     1.054269
C       5.123288     2.905128    -1.011052
C       5.941419     1.784754    -0.868899
C       5.088677     3.560982    -2.237366
C       6.697963     1.321702    -1.935487
H       5.979452     1.271791     0.087916
C       5.847298     3.102204    -3.310215
H       4.460441     4.439431    -2.359072
C       6.649700     1.979192    -3.162002
H       7.329966     0.447733    -1.812418
H       5.808927     3.623690    -4.261356
H       7.241771     1.617876    -3.996751
C       0.788304     0.703432    -0.573195
O       0.041672     1.753548    -1.122998
C       0.866523     2.055435     0.030748
C       0.149939     2.702578     1.167998
O      -0.937244     2.371242     1.566499
O       0.856532     3.722664     1.664843
C       0.247115     4.408770     2.767744
H       0.946773     5.195632     3.045903
H      -0.712730     4.834603     2.467662
H       0.091119     3.720897     3.601636
72
     -1725.760768     -1725.232144   6.10   6.62
C       3.273256     0.571588     2.619337
C       3.439003    -0.671343     1.983934
C       4.731660    -1.211381     1.903669
C       5.790288    -0.520369     2.444201
C       5.596265     0.726459     3.079667
C       4.338807     1.293677     3.178303
C       1.271182    -0.121887     1.914311
C       2.139113    -1.104144     1.540500
H       4.904742    -2.166885     1.417805
H       6.800735    -0.911037     2.397956
H       4.170729     2.248350     3.659414
H       0.205692    -0.033752     1.750974
N       1.942376     0.895398     2.570396
C       1.350686     2.109917     3.079623
H       0.275350     2.081895     2.898289
H       1.517611     2.206966     4.157501
H       1.764280     2.990037     2.575988
O       6.736231     1.298584     3.570439
C       6.617969     2.548610     4.217605
H       6.225358     3.315780     3.538233
H       5.971293     2.482398     5.101718
H       7.625102     2.827341     4.529850
N       0.955062    -1.175406    -1.270782
C       1.272801     0.151521    -1.496733
O       2.395667     0.587204    -1.363711
C       0.089845     0.999299    -1.943218
H       0.479780     1.990036    -2.179488
H      -0.605911     1.100773    -1.102398
C      -0.634548     0.380274    -3.149509
H      -1.497923     0.991157    -3.418418
H       0.046653     0.388508    -4.005857
C      -1.070724    -1.064597    -2.868107
C      -2.416490    -1.199670    -2.063010
H      -3.095475    -1.967616    -2.456370
C       1.844948    -2.343302     0.749175
H       0.852045    -2.729355     0.988207
H       2.560953    -3.127515     1.019786
C       1.944803    -2.126182    -0.767097
H       2.922809    -1.720247    -1.030499
H       1.802067    -3.075790    -1.290488
C      -0.971225    -1.974073    -4.092808
H      -1.504540    -2.907695    -3.885687
H      -1.497907    -1.487576    -4.923440
C       0.464561    -2.308463    -4.501045
H       0.471612    -2.919546    -5.408229
H       1.060877    -1.413778    -4.701335
H       0.972119    -2.877482    -3.716200
O      -3.065174     0.020014    -1.900236
C      -4.409033    -0.089647    -1.430369
H      -5.012307    -0.624018    -2.177164
H      -4.428521    -0.657732    -0.492492
C      -4.953400     1.295954    -1.210818
C      -5.972508     1.799557    -2.010582
C      -4.425902     2.092580    -0.194890
C      -6.466484     3.083601    -1.801357
H      -6.384262     1.184309    -2.806159
C      -4.914399     3.374190     0.013598
H      -3.630015     1.695815     0.427441
C      -5.937053     3.872521    -0.789202
H      -7.263071     3.466608    -2.431604
H      -4.498228     3.989005     0.805742
H      -6.318824     4.875245    -0.624127
C      -0.349211    -1.567553    -1.613273
O      -0.845729    -2.834021    -1.275469
C      -1.604271    -1.696405    -0.836026
C      -1.881654    -1.505836     0.611638
O      -2.341779    -0.483982     1.063413
O      -1.572691    -2.576990     1.343588
C      -1.780352    -2.448074     2.758895
H      -1.529334    -3.421277     3.178416
H      -1.124452    -1.676772     3.168501
H      -2.820936    -2.193773     2.970085
72
     -1725.761956     -1725.232017   5.35   6.70
C       3.607905    -0.457516     2.198325
C       2.300152    -0.416784     2.725605
C       1.548463    -1.592620     2.717822
C       2.077393    -2.748688     2.172711
C       3.383043    -2.758051     1.646435
C       4.169550    -1.616953     1.667809
C       3.218657     1.614247     2.933450
C       2.073913     0.929053     3.201820
H       0.555469    -1.615509     3.150995
H       1.476717    -3.648533     2.167453
H       5.177291    -1.657638     1.269996
H       3.463592     2.646873     3.145182
N       4.150918     0.798855     2.312535
C       5.522438     1.147687     2.027342
H       5.799380     0.830891     1.017505
H       5.635745     2.231635     2.089251
H       6.212739     0.682130     2.740371
O       3.965994    -3.863233     1.095853
C       3.189047    -5.040322     0.985032
H       3.824643    -5.775329     0.489531
H       2.896223    -5.422786     1.970433
H       2.290874    -4.869905     0.379434
N      -0.831385     0.910498     2.126845
C      -1.493292    -0.180533     2.641797
O      -1.594827    -0.373367     3.838752
C      -2.095597    -1.096132     1.589815
H      -2.598599    -1.907245     2.117391
H      -1.292137    -1.525175     0.980754
C      -3.074103    -0.313052     0.699229
H      -3.493491    -0.972300    -0.061885
H      -3.903376     0.036137     1.324809
C      -2.390522     0.903340     0.057158
C      -1.574646     0.593462    -1.249939
H      -1.727914     1.319706    -2.056427
C       0.860821     1.452229     3.912477
H       1.148435     2.307750     4.533314
H       0.471050     0.687863     4.587837
C      -0.280423     1.941466     3.011720
H      -1.087598     2.322432     3.646958
H       0.068338     2.751008     2.369730
C      -3.307073     2.119904    -0.035862
H      -3.654808     2.369777     0.974659
H      -2.723545     2.977521    -0.386833
C      -4.504392     1.891692    -0.959789
H      -5.142240     2.779699    -0.992610
H      -4.182260     1.676186    -1.982956
H      -5.121223     1.052959    -0.622779
O      -1.759938    -0.716346    -1.696896
C      -1.322631    -0.947733    -3.031198
H      -0.290361    -0.606135    -3.162263
H      -1.326249    -2.035000    -3.145481
C      -2.232846    -0.306105    -4.056378
C      -1.709764     0.410853    -5.127286
C      -3.616736    -0.434445    -3.940974
C      -2.551798     0.986359    -6.074241
H      -0.633405     0.525313    -5.222498
C      -4.459506     0.142008    -4.880667
H      -4.030974    -0.987768    -3.103559
C      -3.928315     0.853586    -5.952794
H      -2.128636     1.541270    -6.905736
H      -5.535120     0.035296    -4.778763
H      -4.587230     1.302437    -6.689263
C      -1.043962     1.149582     0.753911
O      -0.361588     2.168254     0.079867
C      -0.260550     0.842966    -0.463033
C       1.081123     0.250186    -0.721236
O       1.228859    -0.893266    -1.075995
O       2.065410     1.140650    -0.592600
C       3.358317     0.685004    -1.016718
H       4.044861     1.494498    -0.772833
H       3.635094    -0.231351    -0.497252
H       3.350604     0.506548    -2.095163
72
     -1725.761179     -1725.232015   5.84   6.70
C       2.857001    -2.572123    -2.622271
C       2.389574    -1.369669    -2.065003
C       1.068278    -0.988767    -2.335339
C       0.273220    -1.782338    -3.127207
C       0.769802    -2.984962    -3.676277
C       2.066222    -3.399948    -3.434141
C       4.507616    -1.678363    -1.418269
C       3.468360    -0.807778    -1.291027
H       0.667126    -0.075779    -1.914790
H      -0.752829    -1.509478    -3.348434
H       2.464804    -4.319696    -3.841944
H       5.499737    -1.630042    -0.989073
N       4.156206    -2.748566    -2.220911
C       4.994515    -3.877452    -2.545914
H       5.979733    -3.727190    -2.101286
H       4.574121    -4.808215    -2.149689
H       5.117035    -3.977161    -3.629604
O      -0.126057    -3.674886    -4.443205
C       0.303691    -4.889777    -5.022114
H       1.147861    -4.731374    -5.705066
H       0.590636    -5.619606    -4.254543
H      -0.546171    -5.276768    -5.585563
N       1.431962    -0.076546     0.942352
C       1.001606    -1.392756     0.970816
O       1.771006    -2.327945     1.003727
C      -0.511512    -1.543193     0.990816
H      -0.726871    -2.611286     1.035026
H      -0.921594    -1.153359     0.053694
C      -1.122031    -0.796349     2.187981
H      -2.209909    -0.874380     2.158079
H      -0.789837    -1.287520     3.107599
C      -0.689658     0.676491     2.215843
C      -1.560645     1.647180     1.334034
H      -1.854985     2.569808     1.844964
C       3.453401     0.437928    -0.454767
H       2.902248     1.232631    -0.963928
H       4.480191     0.796232    -0.322037
C       2.860510     0.243264     0.947888
H       3.367880    -0.579296     1.456396
H       2.994740     1.157054     1.532082
C      -0.427889     1.196164     3.630437
H      -0.338505     2.286688     3.596154
H      -1.312627     0.972771     4.240472
C       0.827722     0.619890     4.286814
H       0.812906    -0.472905     4.331380
H       1.727335     0.918646     3.740297
H       0.927244     0.990050     5.311431
O      -2.662022     1.006009     0.760400
C      -3.736442     1.875511     0.415237
H      -3.384331     2.663744    -0.256904
H      -4.435610     1.247420    -0.143737
C      -4.418857     2.469144     1.629581
C      -4.663195     1.686440     2.757409
C      -4.822373     3.800698     1.633509
C      -5.303610     2.225158     3.864864
H      -4.347709     0.647773     2.763205
C      -5.468901     4.342357     2.740045
H      -4.626336     4.423129     0.764596
C      -5.711223     3.555769     3.858381
H      -5.488728     1.604360     4.736148
H      -5.780004     5.382326     2.726962
H      -6.214272     3.976325     4.723331
C       0.453816     0.897848     1.214053
O       0.759827     2.259040     1.178678
C      -0.361608     1.825132     0.379187
C      -0.387179     2.183079    -1.063277
O      -1.403720     2.275253    -1.705162
O       0.835169     2.393844    -1.562649
C       0.882167     2.711962    -2.962077
H       1.936390     2.860092    -3.192820
H       0.474391     1.887720    -3.551650
H       0.311185     3.620533    -3.163193
72
     -1725.759016     -1725.231920   7.19   6.76
C      -1.522043     3.578379     4.006475
C      -1.158280     2.931702     2.805923
C       0.168494     3.008561     2.379363
C       1.091664     3.710505     3.136732
C       0.701595     4.347216     4.331034
C      -0.608112     4.290083     4.781631
C      -3.342973     2.593497     3.164696
C      -2.348942     2.306205     2.281670
H       0.485920     2.519407     1.463164
H       2.118222     3.762253     2.798155
H      -0.878393     4.789579     5.704924
H      -4.387148     2.310374     3.139249
N      -2.861524     3.362016     4.212868
C      -3.627851     3.857121     5.330805
H      -3.233766     3.474032     6.278294
H      -3.616616     4.951993     5.361826
H      -4.662400     3.525188     5.227895
O       1.564447     5.055123     5.122660
C       2.915610     5.148691     4.718711
H       3.011414     5.648842     3.747050
H       3.417918     5.746105     5.480805
H       3.388838     4.160433     4.665002
N      -1.693158    -0.633458    -0.043559
C      -2.343105    -1.846206    -0.152772
O      -3.121603    -2.249170     0.686314
C      -1.977236    -2.647709    -1.396114
H      -2.672568    -3.486256    -1.445802
H      -0.973887    -3.060192    -1.237173
C      -2.005128    -1.819122    -2.688329
H      -1.666772    -2.428224    -3.528680
H      -3.041676    -1.539918    -2.895630
C      -1.156811    -0.545798    -2.575338
C       0.389261    -0.754918    -2.799817
H       0.848527    -0.001253    -3.450359
C      -2.435023     1.489464     1.029692
H      -1.975888     2.044716     0.203811
H      -3.480569     1.310336     0.758670
C      -1.720393     0.145102     1.195457
H      -0.691830     0.292207     1.528689
H      -2.236611    -0.467927     1.933356
C      -1.735359     0.636064    -3.354204
H      -1.004211     1.451309    -3.344172
H      -1.847154     0.326265    -4.401321
C      -3.067658     1.163346    -2.819687
H      -2.966671     1.519067    -1.791943
H      -3.413519     2.003482    -3.428837
H      -3.854720     0.404649    -2.832331
O       0.704820    -2.050754    -3.216338
C       1.986553    -2.192469    -3.813240
H       1.886949    -2.073822    -4.902432
H       2.660746    -1.409023    -3.451076
C       2.586785    -3.540885    -3.491891
C       3.935449    -3.761007    -3.767344
C       1.837188    -4.566432    -2.927391
C       4.527002    -4.983889    -3.480325
H       4.531998    -2.964845    -4.206404
C       2.428181    -5.792279    -2.638028
H       0.789169    -4.402809    -2.707135
C       3.772913    -6.005328    -2.911895
H       5.578683    -5.140118    -3.699628
H       1.831686    -6.584571    -2.195942
H       4.232216    -6.962456    -2.686274
C      -0.836611    -0.285761    -1.098331
O       0.042271     0.790786    -0.991851
C       0.621380    -0.495362    -1.293944
C       1.595621    -1.029702    -0.304853
O       1.552774    -0.798599     0.876093
O       2.506306    -1.808177    -0.895604
C       3.441663    -2.457854    -0.022824
H       2.908808    -3.028529     0.740346
H       4.021680    -3.120447    -0.664437
H       4.083456    -1.718834     0.461895
72
     -1725.758410     -1725.231408   7.57   7.08
C       2.684001    -4.120495     2.122902
C       1.720348    -3.648044     1.216961
C       0.867327    -4.572114     0.592816
C       0.996286    -5.908736     0.891084
C       1.970510    -6.361246     1.808880
C       2.830572    -5.480590     2.439528
C       2.886507    -1.899553     1.987424
C       1.866231    -2.215976     1.143397
H       0.115985    -4.236528    -0.116168
H       0.355718    -6.652307     0.430214
H       3.582871    -5.810742     3.143684
H       3.316054    -0.934549     2.220433
N       3.392708    -3.041788     2.588546
C       4.479279    -3.093904     3.536838
H       4.147646    -3.508867     4.494805
H       5.306656    -3.702087     3.155608
H       4.848609    -2.081841     3.710249
O       1.980456    -7.713877     2.006237
C       2.927874    -8.240165     2.911870
H       2.779957    -7.841536     3.923558
H       2.770495    -9.319313     2.925330
H       3.954345    -8.029548     2.585839
N      -1.318357    -0.514815    -0.042442
C      -1.738288    -1.212703    -1.155135
O      -1.431829    -2.380390    -1.308250
C      -2.600316    -0.500836    -2.185825
H      -3.585870    -0.964986    -2.112589
H      -2.202379    -0.806228    -3.156655
C      -2.673872     1.026661    -2.088260
H      -1.755584     1.451728    -2.499181
H      -3.493187     1.406076    -2.706842
C      -2.820973     1.497990    -0.642741
C      -2.092682     2.865175    -0.350769
H      -2.661672     3.525386     0.316359
C       1.023683    -1.297958     0.312070
H       0.958895    -1.688594    -0.708056
H       1.482305    -0.307801     0.254163
C      -0.396432    -1.182409     0.882778
H      -0.793284    -2.179049     1.080268
H      -0.394184    -0.618823     1.814707
C      -4.229749     1.445589    -0.048632
H      -4.169759     1.860080     0.963021
H      -4.859349     2.131909    -0.629374
C      -4.901425     0.073259     0.030223
H      -5.201189    -0.301479    -0.951169
H      -4.248476    -0.671331     0.497278
H      -5.808393     0.140297     0.638061
O      -1.696497     3.530782    -1.504773
C      -1.363001     4.904740    -1.301934
H      -2.263658     5.456323    -0.998323
H      -0.613108     4.987975    -0.506993
C      -0.818250     5.460558    -2.590164
C       0.388341     4.976202    -3.095267
C      -1.499009     6.451313    -3.287909
C       0.900746     5.478828    -4.282471
H       0.917823     4.203213    -2.547363
C      -0.984885     6.959649    -4.477120
H      -2.441502     6.829331    -2.900758
C       0.215515     6.472959    -4.976104
H       1.839778     5.096008    -4.670322
H      -1.525015     7.733811    -5.013296
H       0.618868     6.865693    -5.904315
C      -1.721749     0.812672     0.170562
O      -1.702815     1.370574     1.458712
C      -0.998198     2.082306     0.420595
C       0.441586     2.404660     0.605606
O       1.060690     3.125957    -0.136590
O       0.964239     1.818660     1.688353
C       2.348497     2.101251     1.928970
H       2.501617     3.175132     2.056215
H       2.600294     1.569739     2.845893
H       2.961620     1.748716     1.095755
72
     -1725.760837     -1725.231118   6.05   7.27
C       0.346727    -4.095245    -0.223548
C       0.782026    -3.347573    -1.339157
C       2.134917    -3.022137    -1.437781
C       3.016606    -3.438413    -0.453748
C       2.558243    -4.196262     0.640359
C       1.219916    -4.534163     0.769408
C      -1.427155    -3.658307    -1.499492
C      -0.378510    -3.089612    -2.155452
H       2.501618    -2.440392    -2.277548
H       4.062847    -3.175668    -0.541095
H       0.894704    -5.114641     1.625196
H      -2.473776    -3.689358    -1.772003
N      -1.005435    -4.280490    -0.339944
C      -1.864647    -4.828553     0.683805
H      -1.516710    -5.820586     0.986846
H      -1.896800    -4.169170     1.557139
H      -2.874271    -4.928396     0.281563
O       3.372980    -4.631547     1.651385
C       4.754385    -4.344982     1.562701
H       4.942267    -3.264087     1.567268
H       5.213154    -4.792896     2.445308
H       5.198344    -4.785480     0.661650
N      -0.015173    -0.110653    -2.411394
C       1.305900     0.174416    -2.664193
O       1.903594    -0.296107    -3.613471
C       1.919088     1.160199    -1.683078
H       2.938447     1.355945    -2.017436
H       1.967966     0.702618    -0.689385
C       1.087993     2.455670    -1.642165
H       1.527223     3.160161    -0.934302
H       1.133593     2.919547    -2.633490
C      -0.391588     2.193317    -1.291930
C      -0.654726     2.036541     0.247126
H      -1.605237     2.460214     0.582952
C      -0.403378    -2.358223    -3.464005
H      -1.111850    -2.836429    -4.149389
H       0.580692    -2.415704    -3.932810
C      -0.817324    -0.886048    -3.361749
H      -0.737315    -0.421267    -4.350431
H      -1.852582    -0.812827    -3.025024
C      -1.298477     3.150867    -2.069204
H      -0.971332     4.170549    -1.825377
H      -1.080889     3.012029    -3.135819
C      -2.808888     3.042508    -1.853183
H      -3.189186     2.057492    -2.131567
H      -3.091685     3.227671    -0.813101
H      -3.322215     3.789357    -2.466741
O       0.403526     2.497788     1.034646
C       0.064499     2.679419     2.402802
H      -0.361429     1.758401     2.820169
H       1.016122     2.863778     2.909489
C      -0.884320     3.839255     2.622406
C      -1.941025     3.733598     3.520777
C      -0.702661     5.034579     1.928099
C      -2.800756     4.807024     3.731711
H      -2.099295     2.803164     4.059458
C      -1.561439     6.105452     2.133138
H       0.116082     5.119712     1.220399
C      -2.612751     5.995209     3.038420
H      -3.620051     4.711056     4.437257
H      -1.409964     7.031150     1.586569
H      -3.282933     6.833408     3.200243
C      -0.622952     0.680991    -1.416808
O      -1.856622     0.312066    -0.861618
C      -0.766566     0.499190     0.043885
C      -0.415236    -0.622803     0.961801
O      -1.105089    -1.580328     1.188258
O       0.771411    -0.381578     1.536562
C       1.189676    -1.334493     2.526341
H       0.461148    -1.375247     3.339699
H       1.296684    -2.322585     2.081213
H       2.149860    -0.972098     2.891392
72
     -1725.757850     -1725.231103   7.93   7.28
C      -1.449665     4.013238    -0.771085
C      -1.934131     3.598573     0.481741
C      -2.253483     4.581247     1.430946
C      -2.088661     5.909221     1.114503
C      -1.602161     6.299511    -0.153011
C      -1.274521     5.362136    -1.115739
C      -1.523892     1.780940    -0.758254
C      -1.979035     2.159098     0.469678
H      -2.626975     4.304438     2.412255
H      -2.326296     6.691828     1.826432
H      -0.898917     5.641509    -2.091457
H      -1.372005     0.793116    -1.171369
N      -1.203115     2.891593    -1.519393
C      -0.666646     2.872347    -2.859709
H       0.325001     3.335928    -2.892425
H      -0.574220     1.836094    -3.187863
H      -1.327419     3.399098    -3.556297
O      -1.489916     7.650382    -0.328480
C      -1.007370     8.113233    -1.572679
H       0.009457     7.749800    -1.768255
H      -1.665547     7.808425    -2.396183
H      -0.993177     9.201935    -1.508947
N      -0.146702     0.168173     1.889829
C       0.986311     0.755916     1.359619
O       1.237681     1.933770     1.492236
C       1.887741    -0.216908     0.611372
H       2.785871     0.334092     0.329558
H       1.377057    -0.526832    -0.307726
C       2.233329    -1.451505     1.459615
H       2.851435    -2.134811     0.872753
H       2.841808    -1.129799     2.310478
C       0.973554    -2.158773     1.979341
C       0.284433    -3.133461     0.937936
H      -0.028642    -4.094949     1.365564
C      -2.365215     1.280364     1.621460
H      -2.807913     0.346978     1.266593
H      -3.132407     1.781670     2.222440
C      -1.186595     0.954862     2.550060
H      -0.706461     1.872852     2.892599
H      -1.538912     0.392459     3.419320
C       1.135387    -2.735909     3.384906
H       0.297258    -3.410277     3.590284
H       2.045572    -3.349321     3.404181
C       1.193589    -1.674379     4.484771
H       1.358091    -2.142520     5.459539
H       1.999311    -0.952247     4.324894
H       0.253676    -1.117012     4.540138
O       0.957341    -3.305841    -0.268131
C       1.759111    -4.472450    -0.323659
H       2.519677    -4.460813     0.471240
H       1.124852    -5.357755    -0.158893
C       2.424921    -4.561415    -1.674987
C       1.868382    -3.941734    -2.791420
C       3.592441    -5.306823    -1.818980
C       2.475119    -4.074593    -4.035352
H       0.964665    -3.352537    -2.681630
C       4.196517    -5.440725    -3.062843
H       4.035925    -5.787422    -0.950293
C       3.636983    -4.824249    -4.175969
H       2.035919    -3.587833    -4.900814
H       5.105671    -6.025587    -3.162299
H       4.106520    -4.925922    -5.149305
C      -0.229527    -1.229019     1.778938
O      -1.402282    -1.920768     2.115370
C      -0.872754    -2.129845     0.797508
C      -1.716418    -1.850909    -0.399613
O      -1.264777    -1.714993    -1.509445
O      -3.014580    -1.766559    -0.097438
C      -3.885132    -1.446389    -1.193565
H      -4.893006    -1.468627    -0.781126
H      -3.653324    -0.451118    -1.580241
H      -3.778804    -2.182200    -1.993216
72
     -1725.762991     -1725.230934   4.70   7.38
C      -2.812228    -2.264284    -2.058888
C      -1.778786    -1.560967    -2.714156
C      -2.062305    -0.306452    -3.253500
C      -3.334296     0.225908    -3.124837
C      -4.345267    -0.492941    -2.456504
C      -4.097685    -1.746556    -1.917481
C      -0.962548    -3.514863    -1.990563
C      -0.597041    -2.385200    -2.656154
H      -1.292425     0.257547    -3.771067
H      -3.541181     1.201226    -3.545901
H      -4.896424    -2.276067    -1.411165
H      -0.373115    -4.387044    -1.740428
N      -2.297497    -3.459452    -1.624302
C      -3.021495    -4.467199    -0.886505
H      -3.903200    -4.799835    -1.443705
H      -2.370005    -5.328061    -0.727031
H      -3.342523    -4.089174     0.090137
O      -5.617199    -0.022601    -2.287305
C      -5.943785     1.236571    -2.842262
H      -5.340607     2.039141    -2.400342
H      -5.812737     1.241204    -3.931181
H      -6.994996     1.406539    -2.606246
N       1.060085    -0.136232    -1.589195
C       1.003714     1.045655    -2.289687
O       1.301308     1.105437    -3.468754
C       0.565134     2.248190    -1.468509
H       0.367712     3.056660    -2.173696
H       1.413715     2.549390    -0.842708
C      -0.667971     1.961133    -0.597031
H      -0.905928     2.840042     0.005342
H      -1.521173     1.775934    -1.256871
C      -0.490156     0.729029     0.308645
C       0.365989     1.007306     1.599972
H       0.000746     0.463593     2.477413
C       0.753190    -2.031854    -3.200672
H       0.640600    -1.387754    -4.076451
H       1.277079    -2.934890    -3.531953
C       1.662267    -1.328416    -2.184388
H       1.906483    -2.002408    -1.362497
H       2.591361    -1.030396    -2.678940
C      -1.833128     0.030569     0.534063
H      -2.447922     0.718873     1.130527
H      -2.333925    -0.059146    -0.432539
C      -1.807529    -1.344927     1.200929
H      -2.831694    -1.715452     1.311378
H      -1.250661    -2.066592     0.599660
H      -1.353131    -1.322430     2.195636
O       0.539855     2.360789     1.890178
C       0.779953     2.652962     3.264903
H       0.658795     3.735160     3.346091
H       0.002924     2.175333     3.877172
C       2.150317     2.245022     3.756311
C       3.238381     3.098075     3.584421
C       2.351434     1.017366     4.382011
C       4.499426     2.736620     4.036066
H       3.094754     4.051592     3.085405
C       3.613865     0.647303     4.831944
H       1.513037     0.342319     4.530729
C       4.689747     1.509395     4.663228
H       5.337409     3.412289     3.896476
H       3.754146    -0.312585     5.318831
H       5.675733     1.226237     5.019242
C       0.713184    -0.062029    -0.225244
O       1.112922    -1.058832     0.678370
C       1.560171     0.276941     0.933902
C       3.012730     0.602145     0.953501
O       3.434159     1.699605     0.686048
O       3.771067    -0.443472     1.289441
C       5.182952    -0.185170     1.315469
H       5.532801     0.101777     0.321122
H       5.406781     0.612999     2.025093
H       5.644629    -1.120601     1.628999
72
     -1725.755901     -1725.230868   9.15   7.42
C      -2.580451     4.381296    -2.482165
C      -2.114600     3.980337    -1.217937
C      -1.727567     4.970272    -0.302894
C      -1.813597     6.295681    -0.661410
C      -2.285789     6.673101    -1.938038
C      -2.676415     5.727643    -2.868930
C      -2.630647     2.148925    -2.392601
C      -2.153896     2.539857    -1.178398
H      -1.361634     4.698691     0.682488
H      -1.522497     7.085138     0.022450
H      -3.040114     5.999062    -3.851270
H      -2.813100     1.156941    -2.782035
N      -2.893372     3.253297    -3.192704
C      -3.405828     3.219578    -4.541182
H      -2.701447     3.678690    -5.243574
H      -3.557232     2.180133    -4.836874
H      -4.366356     3.741666    -4.612471
O      -2.317803     8.022143    -2.156865
C      -2.779185     8.474409    -3.412915
H      -2.726513     9.563391    -3.383382
H      -2.145993     8.104744    -4.229423
H      -3.817609     8.168317    -3.592503
N      -1.545295    -0.619093     0.894256
C      -2.250967    -0.556044     2.078114
O      -3.259304     0.116736     2.170404
C      -1.738647    -1.352287     3.270461
H      -2.464662    -2.155966     3.429154
H      -1.835696    -0.688341     4.132667
C      -0.314026    -1.893927     3.145475
H       0.398819    -1.068656     3.221725
H      -0.099784    -2.577883     3.973298
C      -0.140343    -2.585627     1.793691
C       1.349567    -2.540765     1.260323
H       1.673461    -3.447996     0.741367
C      -1.734418     1.694414    -0.010460
H      -2.272548     2.019883     0.884592
H      -0.666504     1.840861     0.177615
C      -1.998828     0.206862    -0.233186
H      -3.070050     0.032707    -0.361969
H      -1.470902    -0.147449    -1.116731
C      -0.862690    -3.934952     1.747448
H      -0.380702    -4.579904     2.494810
H      -1.889522    -3.790353     2.101130
C      -0.912960    -4.672456     0.407843
H      -1.401313    -5.642584     0.543132
H      -1.475817    -4.111159    -0.340610
H       0.083767    -4.859150    -0.000467
O       2.312126    -2.119674     2.186154
C       2.890564    -3.183094     2.927189
H       3.465297    -2.698840     3.722598
H       2.110670    -3.792476     3.405069
C       3.797127    -4.067391     2.095886
C       3.906571    -5.425605     2.377916
C       4.551709    -3.524615     1.057776
C       4.766980    -6.232825     1.641847
H       3.313899    -5.859757     3.179139
C       5.408084    -4.331055     0.318956
H       4.454081    -2.469003     0.826451
C       5.520919    -5.686275     0.610883
H       4.845532    -7.290395     1.873768
H       5.991263    -3.899784    -0.488865
H       6.192279    -6.314327     0.033998
C      -0.477269    -1.521746     0.745107
O      -0.107793    -1.984407    -0.524253
C       0.936079    -1.418775     0.303550
C       1.702410    -0.300491    -0.318458
O       1.194839     0.595128    -0.941803
O       3.018216    -0.431836    -0.124127
C       3.824193     0.613841    -0.685887
H       3.548248     1.577518    -0.252649
H       4.852651     0.360153    -0.432624
H       3.692333     0.655545    -1.769070
72
     -1725.760976     -1725.229972   5.96   7.99
C       2.469569     0.149869     2.998134
C       1.311837    -0.648370     2.887519
C       1.341106    -1.736801     2.014396
C       2.474237    -1.990896     1.262928
C       3.613139    -1.173183     1.388874
C       3.629807    -0.102746     2.269164
C       0.927836     0.963743     4.392672
C       0.332878    -0.109289     3.804293
H       0.487829    -2.399405     1.929884
H       2.475832    -2.834821     0.585994
H       4.527014     0.499468     2.357464
H       0.538522     1.632610     5.149084
N       2.212319     1.147377     3.906495
C       3.184107     2.082837     4.421265
H       2.671506     2.835912     5.022729
H       3.931638     1.583029     5.048269
H       3.701059     2.591680     3.602428
O       4.763958    -1.368802     0.680321
C       4.787685    -2.410102    -0.276590
H       4.654541    -3.391833     0.193896
H       4.015348    -2.265949    -1.041688
H       5.772014    -2.367159    -0.744455
N      -1.951018    -0.538058     1.766428
C      -1.942560    -1.851306     1.354817
O      -2.041535    -2.777697     2.136943
C      -1.823870    -2.029857    -0.149183
H      -1.843235    -3.101561    -0.349990
H      -0.860222    -1.632269    -0.486191
C      -2.975475    -1.303634    -0.863733
H      -2.879730    -1.424766    -1.943444
H      -3.917237    -1.774706    -0.560557
C      -3.018834     0.183353    -0.479787
C      -2.034602     1.103357    -1.291959
H      -2.476624     2.056388    -1.612022
C      -1.030161    -0.658219     4.106546
H      -1.323974    -0.357235     5.118039
H      -0.997440    -1.749649     4.097971
C      -2.156856    -0.192370     3.175974
H      -3.096746    -0.644082     3.511528
H      -2.256893     0.892596     3.220621
C      -4.439606     0.723140    -0.347549
H      -4.961752     0.142015     0.423182
H      -4.394502     1.754968     0.016607
C      -5.220146     0.665325    -1.661643
H      -5.342416    -0.362763    -2.014881
H      -6.218455     1.095001    -1.539718
H      -4.710433     1.227270    -2.451191
O      -1.437920     0.432268    -2.355498
C      -0.757183     1.278701    -3.280440
H      -1.485906     1.925970    -3.787840
H      -0.039005     1.911910    -2.746033
C      -0.039675     0.412655    -4.280807
C       0.978758    -0.438902    -3.851854
C      -0.375851     0.447429    -5.628722
C       1.646650    -1.242014    -4.764734
H       1.238786    -0.461235    -2.798271
C       0.296037    -0.354768    -6.546431
H      -1.171771     1.105717    -5.966662
C       1.307721    -1.201214    -6.114751
H       2.437475    -1.904085    -4.425864
H       0.025459    -0.318825    -7.597102
H       1.833102    -1.830010    -6.826812
C      -2.114135     0.412112     0.738954
O      -2.034085     1.786183     0.998064
C      -1.164903     1.258850    -0.013820
C       0.302057     1.497397     0.071458
O       1.092858     0.942873    -0.652161
O       0.616431     2.432526     0.966196
C       1.987911     2.855730     0.955047
H       2.087462     3.536719     1.798943
H       2.657053     2.003114     1.059842
H       2.203211     3.378504     0.019417
72
     -1725.755073     -1725.229860   9.67   8.06
C       0.732840    -4.507996    -3.195062
C       1.227923    -3.528282    -2.309336
C       2.609104    -3.385032    -2.167728
C       3.457917    -4.198952    -2.899545
C       2.937940    -5.167605    -3.780290
C       1.571279    -5.336270    -3.939698
C      -1.009839    -3.466919    -2.258738
C       0.087215    -2.870905    -1.718335
H       3.019209    -2.641764    -1.489800
H       4.527346    -4.080623    -2.784104
H       1.201928    -6.091145    -4.624373
H      -2.058609    -3.270625    -2.079731
N      -0.638194    -4.459336    -3.153475
C      -1.528616    -5.303199    -3.912974
H      -2.560270    -5.043203    -3.669975
H      -1.380728    -5.163889    -4.989327
H      -1.371706    -6.359590    -3.669946
O       3.723031    -6.000432    -4.530739
C       5.126083    -5.876859    -4.414999
H       5.468409    -4.879279    -4.716859
H       5.465053    -6.081187    -3.391861
H       5.551478    -6.621461    -5.089268
N       0.965490     0.591294    -0.429260
C       2.134768     0.451894     0.287359
O       2.915825    -0.447937     0.040968
C       2.425504     1.456654     1.392260
H       3.204355     2.120490     1.002790
H       2.892653     0.884442     2.196677
C       1.216014     2.244697     1.899110
H       0.551131     1.578927     2.455848
H       1.543300     3.022817     2.596313
C       0.456368     2.845381     0.716494
C      -1.093204     3.013223     0.996264
H      -1.533271     3.916578     0.555758
C       0.148956    -1.744416    -0.733715
H       0.849913    -2.000357     0.067003
H      -0.829268    -1.586618    -0.272919
C       0.624677    -0.448711    -1.405175
H       1.518675    -0.648867    -1.996944
H      -0.145272    -0.048418    -2.063411
C       1.196753     4.042254     0.113890
H       1.195975     4.833246     0.876003
H       2.248075     3.766402    -0.023290
C       0.672375     4.612288    -1.205219
H       1.257946     5.494636    -1.481367
H       0.751336     3.885656    -2.016567
H      -0.375068     4.917419    -1.138800
O      -1.497754     2.849039     2.316865
C      -1.514602     4.046474     3.070925
H      -0.504811     4.476858     3.142442
H      -2.153765     4.788326     2.566101
C      -2.052071     3.761458     4.452129
C      -2.898281     2.679206     4.682407
C      -1.729988     4.612946     5.506032
C      -3.416143     2.460394     5.954133
H      -3.142895     2.008444     3.866182
C      -2.250108     4.394456     6.775678
H      -1.064609     5.455657     5.334420
C      -3.096939     3.315719     7.002204
H      -4.074027     1.614025     6.126615
H      -1.992436     5.066141     7.588748
H      -3.504657     3.140999     7.992897
C       0.091151     1.662111    -0.180680
O      -0.824251     2.076993    -1.160315
C      -1.353980     1.763004     0.141153
C      -2.451899     0.760257     0.262184
O      -3.050674     0.539038     1.281766
O      -2.697097     0.143104    -0.902737
C      -3.749405    -0.827964    -0.863824
H      -3.508352    -1.626588    -0.157502
H      -4.689427    -0.359634    -0.563758
H      -3.825780    -1.218888    -1.877979
72
     -1725.761577     -1725.229596   5.59   8.22
C       1.721734     0.941861     3.098952
C       0.614362     0.080077     3.038085
C       0.806373    -1.212742     2.526332
C       2.045679    -1.582910     2.063969
C       3.138066    -0.690295     2.114912
C       2.999810     0.578612     2.647520
C      -0.037111     2.011407     3.962213
C      -0.510908     0.786623     3.603066
H      -0.008143    -1.926919     2.510800
H       2.219900    -2.571737     1.655585
H       3.831555     1.267543     2.716329
H      -0.555235     2.835803     4.433955
N       1.307759     2.129291     3.651768
C       2.167903     3.218189     4.051542
H       1.551963     4.076469     4.326450
H       2.790814     2.945378     4.911364
H       2.822548     3.517728     3.228038
O       4.306115    -1.188438     1.617331
C       5.436055    -0.339295     1.614792
H       5.253886     0.564135     1.019591
H       5.723212    -0.052138     2.634138
H       6.246285    -0.911671     1.161902
N      -2.380274    -0.309383     1.409079
C      -2.269007    -1.680983     1.392288
O      -2.530907    -2.364036     2.364190
C      -1.807613    -2.252171     0.062322
H      -1.772424    -3.336706     0.171335
H      -0.794671    -1.893007    -0.149646
C      -2.763932    -1.830914    -1.064196
H      -2.413102    -2.226080    -2.018374
H      -3.745456    -2.274716    -0.863697
C      -2.913642    -0.303741    -1.123274
C      -1.786950     0.446407    -1.925498
H      -2.161517     1.225409    -2.602884
C      -1.902135     0.264595     3.811790
H      -2.374811     0.813956     4.633200
H      -1.861035    -0.783894     4.114337
C      -2.845480     0.392745     2.608192
H      -3.825955    -0.008019     2.886768
H      -2.963284     1.440876     2.331750
C      -4.336091     0.138673    -1.455673
H      -5.010308    -0.253625    -0.683655
H      -4.392299     1.230347    -1.393459
C      -4.796118    -0.330975    -2.836744
H      -4.129988     0.037551    -3.623833
H      -4.818012    -1.422372    -2.907498
H      -5.802972     0.035636    -3.055773
O      -0.931600    -0.435932    -2.580058
C      -0.074781     0.174083    -3.544477
H      -0.679963     0.565503    -4.373981
H       0.469651     1.006867    -3.084138
C       0.893838    -0.863134    -4.046367
C       1.815626    -1.431047    -3.166343
C       0.885105    -1.265372    -5.376576
C       2.713333    -2.387316    -3.618340
H       1.820829    -1.113606    -2.128494
C       1.787224    -2.222220    -5.832393
H       0.165760    -0.829102    -6.064547
C       2.702005    -2.784640    -4.952957
H       3.428251    -2.825577    -2.928673
H       1.771768    -2.528317    -6.873804
H       3.406449    -3.532311    -5.304035
C      -2.321564     0.318010     0.149849
O      -2.355257     1.712101     0.024695
C      -1.252483     1.026829    -0.587020
C       0.138201     1.452034    -0.266859
O       1.110359     0.831812    -0.620741
O       0.176436     2.624183     0.367676
C       1.481052     3.202483     0.508254
H       2.175329     2.489194     0.950496
H       1.852524     3.512020    -0.472284
H       1.347270     4.070912     1.151430
72
     -1725.757287     -1725.229108   8.28   8.53
C      -2.965576     2.048636    -1.952241
C      -3.053923     1.146969    -0.870201
C      -2.664923     1.589020     0.394597
C      -2.197894     2.881304     0.560286
C      -2.134983     3.764220    -0.534475
C      -2.529779     3.363090    -1.801393
C      -3.771326     0.114442    -2.722150
C      -3.589736    -0.089940    -1.388984
H      -2.733766     0.931434     1.254054
H      -1.890414     3.205559     1.545551
H      -2.473221     4.065363    -2.625531
H      -4.167572    -0.559043    -3.470937
N      -3.387029     1.395009    -3.083588
C      -3.524261     1.986034    -4.392992
H      -2.571909     2.405311    -4.733337
H      -3.831217     1.214677    -5.101340
H      -4.277902     2.781491    -4.395012
O      -1.683722     5.051110    -0.440654
C      -1.242752     5.512229     0.821997
H      -0.918178     6.542394     0.669709
H      -2.053129     5.494377     1.560814
H      -0.399603     4.917418     1.193172
N      -1.678065    -1.826774     0.351358
C      -1.797184    -1.528480     1.691792
O      -2.872596    -1.495228     2.258333
C      -0.468590    -1.304112     2.392744
H      -0.686400    -1.108742     3.443170
H       0.028351    -0.422457     1.974203
C       0.418893    -2.551855     2.230304
H       1.373294    -2.401373     2.736303
H      -0.083258    -3.393276     2.719831
C       0.647709    -2.908760     0.747108
C       1.780947    -2.049804     0.076540
H       2.400812    -2.601903    -0.639865
C      -3.954180    -1.318669    -0.610484
H      -4.754924    -1.852339    -1.134091
H      -4.349910    -1.033411     0.366215
C      -2.826624    -2.335856    -0.407144
H      -3.233351    -3.207793     0.117802
H      -2.441729    -2.661716    -1.374775
C       0.703861    -4.426609     0.561715
H       1.537541    -4.794530     1.174709
H      -0.205998    -4.844938     1.009861
C       0.841827    -4.966909    -0.862596
H       0.908898    -6.058880    -0.837398
H      -0.015958    -4.695710    -1.481859
H       1.739881    -4.595696    -1.363570
O       2.566237    -1.374796     1.006349
C       3.743380    -0.785237     0.458046
H       4.410306    -1.576216     0.087961
H       3.475882    -0.133813    -0.383476
C       4.425665     0.015025     1.534838
C       5.691591    -0.332043     1.991143
C       3.780681     1.122706     2.085035
C       6.315203     0.417435     2.984341
H       6.196077    -1.197119     1.569014
C       4.399061     1.868999     3.077511
H       2.792066     1.390181     1.725679
C       5.668914     1.518538     3.528944
H       7.304559     0.137743     3.332821
H       3.891075     2.729455     3.502118
H       6.151486     2.104585     4.304939
C      -0.361201    -2.096213    -0.076668
O      -0.050851    -2.146411    -1.444821
C       0.681786    -1.218122    -0.643164
C       0.705241     0.231890    -0.975731
O       1.108719     1.060868    -0.195139
O       0.301979     0.487207    -2.216148
C       0.440073     1.855547    -2.632564
H      -0.071696     1.920966    -3.591608
H      -0.016474     2.526848    -1.907679
H       1.499806     2.096697    -2.749298
72
     -1725.755258     -1725.228819   9.55   8.71
C       3.857476    -2.399762    -0.106761
C       2.934342    -2.367116    -1.175825
C       3.358444    -1.852473    -2.400500
C       4.655827    -1.386529    -2.545862
C       5.554653    -1.432730    -1.463013
C       5.166731    -1.939719    -0.231450
C       1.908488    -3.207013     0.626352
C       1.686397    -2.893820    -0.676497
H       2.679868    -1.809465    -3.247211
H       4.969003    -0.990065    -3.502979
H       5.879176    -1.959785     0.585279
H       1.216825    -3.593986     1.362159
N       3.216198    -2.922152     0.987031
C       3.808711    -3.135228     2.285910
H       3.054320    -3.551291     2.955456
H       4.646072    -3.838816     2.226993
H       4.169291    -2.193468     2.713375
O       6.846038    -0.989884    -1.535936
C       7.307987    -0.477772    -2.770387
H       7.257646    -1.234210    -3.563147
H       6.737875     0.407794    -3.077133
H       8.349212    -0.195566    -2.609313
N      -1.408689    -1.189398    -1.458057
C      -2.471535    -1.176207    -2.341732
O      -2.352757    -1.600083    -3.474236
C      -3.806820    -0.625368    -1.861814
H      -4.474353    -1.487541    -1.805881
H      -4.181292    -0.017440    -2.688777
C      -3.799108     0.183042    -0.559387
H      -3.408303     1.181723    -0.765963
H      -4.821650     0.321191    -0.194284
C      -2.922678    -0.467811     0.508847
C      -2.190851     0.569746     1.442908
H      -2.154332     0.254931     2.493732
C       0.386851    -2.969711    -1.420345
H      -0.379240    -3.388737    -0.762888
H       0.473783    -3.653397    -2.272145
C      -0.078433    -1.582642    -1.930011
H       0.629315    -0.820524    -1.608533
H      -0.135058    -1.563614    -3.016899
C      -3.549325    -1.620985     1.294830
H      -2.810199    -1.948266     2.033506
H      -4.395469    -1.212448     1.862109
C      -4.010032    -2.841632     0.496029
H      -4.259716    -3.658054     1.179858
H      -4.903591    -2.637423    -0.098339
H      -3.227313    -3.206028    -0.177401
O      -2.687952     1.862077     1.319079
C      -2.323927     2.732629     2.391617
H      -2.795675     2.381238     3.319918
H      -1.235991     2.721331     2.520733
C      -2.793564     4.123278     2.059460
C      -3.799940     4.735787     2.797025
C      -2.213352     4.810938     0.993652
C      -4.225976     6.022297     2.480519
H      -4.257718     4.202962     3.626259
C      -2.638981     6.092096     0.674045
H      -1.426922     4.329681     0.420917
C      -3.646242     6.701459     1.417683
H      -5.012458     6.491046     3.063849
H      -2.183626     6.620693    -0.157807
H      -3.977131     7.704473     1.166693
C      -1.565654    -0.749889    -0.135219
O      -0.671412    -1.165695     0.864357
C      -0.864331     0.254649     0.704934
C       0.321903     1.128992     0.481652
O       0.278716     2.332408     0.566914
O       1.420612     0.434756     0.191290
C       2.603539     1.205043    -0.070632
H       3.376941     0.477800    -0.312740
H       2.432616     1.884023    -0.908958
H       2.876745     1.785666     0.813093
72
     -1725.758717     -1725.228686   7.38   8.79
C      -1.606748    -3.543986     1.601388
C      -2.408918    -2.477825     1.152352
C      -3.214263    -2.689022     0.022133
C      -3.207788    -3.916129    -0.598573
C      -2.406814    -4.973454    -0.116681
C      -1.594632    -4.806603     0.990213
C      -1.220220    -1.792331     2.921699
C      -2.150209    -1.359272     2.027738
H      -3.824588    -1.891304    -0.385744
H      -3.816672    -4.102290    -1.476178
H      -0.971590    -5.602680     1.377049
H      -0.740028    -1.247817     3.722500
N      -0.880369    -3.108083     2.680016
C       0.096964    -3.872161     3.419626
H      -0.353979    -4.770044     3.854728
H       0.939325    -4.162135     2.783659
H       0.487211    -3.251035     4.226541
O      -2.503982    -6.136690    -0.827106
C      -1.742999    -7.241741    -0.385529
H      -1.966608    -8.059989    -1.071020
H      -0.667265    -7.026841    -0.419236
H      -2.021463    -7.537946     0.633637
N      -1.707866     0.731804    -0.111542
C      -1.823458     0.526084    -1.472803
O      -2.859027     0.164663    -1.997046
C      -0.560687     0.833625    -2.264057
H      -0.836558     0.789991    -3.318583
H       0.176318     0.047485    -2.076842
C       0.017468     2.210348    -1.895598
H       0.913558     2.405073    -2.485021
H      -0.713568     2.978590    -2.168571
C       0.329165     2.327107    -0.397451
C       1.647525     1.579346     0.051838
H       2.216843     2.123509     0.811155
C      -2.791064    -0.003373     2.063109
H      -2.243558     0.612116     2.780408
H      -3.817480    -0.086244     2.443946
C      -2.907184     0.734763     0.725920
H      -3.683335     0.292372     0.103601
H      -3.210457     1.770061     0.923582
C       0.185216     3.748832     0.140546
H       0.673496     3.810427     1.119280
H       0.740841     4.419698    -0.526105
C      -1.263545     4.215551     0.284481
H      -1.783905     3.631087     1.049275
H      -1.300888     5.264896     0.591435
H      -1.826275     4.125091    -0.649515
O       2.480308     1.102407    -0.967614
C       3.749932     1.751592    -1.038461
H       4.282983     1.614611    -0.088284
H       4.297925     1.215212    -1.816554
C       3.650828     3.223265    -1.371991
C       3.307509     3.630546    -2.660739
C       3.876373     4.193798    -0.400108
C       3.172077     4.977296    -2.966060
H       3.146404     2.881725    -3.431352
C       3.745700     5.545758    -0.701095
H       4.159506     3.892553     0.604994
C       3.387635     5.939434    -1.983588
H       2.901208     5.279472    -3.972758
H       3.924422     6.290348     0.068163
H       3.283280     6.993220    -2.221424
C      -0.451707     1.209266     0.316018
O      -0.038943     1.120491     1.664229
C       0.768593     0.481882     0.671095
C       1.120742    -0.969036     0.788993
O       1.722472    -1.450402     1.712266
O       0.753192    -1.625501    -0.314715
C       1.170150    -2.994591    -0.409779
H       2.258086    -3.043788    -0.496361
H       0.842774    -3.555949     0.462812
H       0.692613    -3.387128    -1.306341
72
     -1725.757676     -1725.228566   8.04   8.87
C       0.718262    -4.169067     0.249910
C       0.580152    -3.420765    -0.937827
C       1.717290    -2.816662    -1.475886
C       2.936351    -2.944820    -0.834156
C       3.045926    -3.702818     0.347102
C       1.941683    -4.337556     0.894206
C      -1.421876    -4.252666    -0.379717
C      -0.807440    -3.500003    -1.332558
H       1.658019    -2.254456    -2.400856
H       3.805877    -2.461402    -1.259338
H       2.056335    -4.920648     1.801046
H      -2.457359    -4.559790    -0.311584
N      -0.520922    -4.650450     0.594665
C      -0.792098    -5.573170     1.671095
H      -0.329869    -6.550131     1.488616
H      -0.415705    -5.181700     2.621133
H      -1.871266    -5.709451     1.760875
O       4.216850    -3.868127     1.031392
C       5.368158    -3.200550     0.551453
H       6.169715    -3.441837     1.250788
H       5.646210    -3.549533    -0.450477
H       5.220055    -2.114236     0.529911
N      -0.894051    -0.515048    -2.134690
C       0.120015    -0.233106    -3.021675
O       0.276614    -0.859507    -4.052735
C       0.983100     0.947822    -2.613515
H       1.728783     1.089930    -3.396353
H       1.504441     0.717597    -1.677915
C       0.103705     2.199616    -2.446620
H       0.717374     3.052801    -2.154496
H      -0.341776     2.435067    -3.419383
C      -1.030286     1.977359    -1.425918
C      -0.573963     2.156965     0.066251
H      -1.312184     2.646651     0.707830
C      -1.430602    -2.936660    -2.575010
H      -2.299134    -3.544305    -2.851713
H      -0.722203    -3.000191    -3.403339
C      -1.934641    -1.492868    -2.467678
H      -2.389809    -1.209215    -3.423320
H      -2.692618    -1.419932    -1.686478
C      -2.295186     2.716927    -1.870392
H      -2.021604     3.774393    -1.985436
H      -2.545499     2.359999    -2.877514
C      -3.538710     2.613632    -0.985549
H      -4.347602     3.210431    -1.418392
H      -3.889388     1.583440    -0.896686
H      -3.359861     2.992750     0.024450
O       0.676028     2.768444     0.180309
C       0.987402     3.214723     1.494501
H       0.905691     2.389238     2.210676
H       2.039410     3.509401     1.450593
C       0.130489     4.384129     1.931690
C      -0.379329     4.448089     3.224337
C      -0.151159     5.420063     1.041923
C      -1.151663     5.532562     3.628554
H      -0.175586     3.641302     3.923163
C      -0.925214     6.500922     1.440616
H       0.238408     5.371892     0.029766
C      -1.426336     6.561444     2.737631
H      -1.540916     5.569557     4.641228
H      -1.137396     7.301113     0.738203
H      -2.029768     7.407737     3.050128
C      -1.110356     0.468833    -1.146943
O      -1.944428     0.210454    -0.050338
C      -0.600497     0.613126     0.232466
C       0.275949    -0.221665     1.098319
O       1.458936    -0.010091     1.209284
O      -0.399184    -1.152948     1.770216
C       0.366808    -1.869269     2.751121
H      -0.287488    -2.663524     3.107597
H       1.271594    -2.282479     2.308652
H       0.629347    -1.197768     3.572793
72
     -1725.757508     -1725.228037   8.14   9.20
C       1.070101     1.777674     3.137228
C       2.094385     2.030651     2.209204
C       2.973928     3.093588     2.459652
C       2.815678     3.850946     3.595773
C       1.779615     3.574343     4.515324
C       0.890396     2.536320     4.303826
C       0.896545     0.283066     1.486164
C       1.967406     1.058993     1.155554
H       3.773835     3.326104     1.763366
H       3.478046     4.680482     3.817084
H       0.089383     2.311130     4.995788
H       0.467761    -0.557533     0.956528
N       0.339536     0.709412     2.680568
C      -0.790636     0.112139     3.349719
H      -1.586519     0.847532     3.507106
H      -1.184246    -0.692731     2.726736
H      -0.502481    -0.308425     4.319268
O       1.742316     4.406859     5.598438
C       0.727642     4.192559     6.557365
H       0.810220     3.197492     7.012697
H       0.869538     4.952067     7.327156
H      -0.270772     4.307506     6.116616
N       0.821915     1.751104    -1.453514
C      -0.048765     2.565157    -0.745321
O       0.347011     3.532888    -0.132429
C      -1.529794     2.208122    -0.745949
H      -2.042758     3.036753    -1.242785
H      -1.831467     2.255111     0.303732
C      -1.894233     0.856266    -1.359599
H      -1.599067     0.057302    -0.673955
H      -2.976320     0.772533    -1.497408
C      -1.156393     0.672353    -2.687117
C      -0.917406    -0.833572    -3.035377
H      -0.921248    -1.046914    -4.110999
C       2.779423     0.980028    -0.101753
H       2.815545    -0.050433    -0.459841
H       3.817242     1.265032     0.103950
C       2.260084     1.900412    -1.222984
H       2.417958     2.944642    -0.953703
H       2.780136     1.689208    -2.158691
C      -1.725325     1.562885    -3.792096
H      -2.724430     1.174086    -4.029099
H      -1.884595     2.567065    -3.384714
C      -0.902078     1.685927    -5.075186
H       0.071717     2.142350    -4.881773
H      -0.721512     0.717397    -5.548286
H      -1.433492     2.313800    -5.796978
O      -1.769354    -1.696929    -2.344935
C      -1.662759    -3.058439    -2.732705
H      -2.417108    -3.271138    -3.504658
H      -0.678704    -3.254403    -3.177167
C      -1.860093    -3.975550    -1.547877
C      -2.413821    -3.521864    -0.355833
C      -1.479029    -5.311744    -1.652031
C      -2.580086    -4.391161     0.717269
H      -2.706952    -2.482766    -0.267120
C      -1.643539    -6.181338    -0.581660
H      -1.042851    -5.676573    -2.578905
C      -2.194992    -5.721824     0.609523
H      -3.015265    -4.026094     1.642571
H      -1.341210    -7.219529    -0.677546
H      -2.326042    -6.398633     1.447730
C       0.326411     0.767214    -2.322318
O       1.126742     0.291306    -3.384126
C       0.541344    -0.685425    -2.515296
C       1.426877    -1.700350    -1.874374
O       2.568689    -1.925635    -2.172349
O       0.742661    -2.351449    -0.922530
C       1.421224    -3.450499    -0.295775
H       2.276874    -3.089868     0.279940
H       0.680972    -3.918013     0.352523
H       1.766185    -4.158978    -1.051634
72
     -1725.748776     -1725.222158  13.62  12.89
C       1.207316    -3.937305    -3.427958
C       0.503289    -3.440054    -2.310254
C      -0.126708    -4.344580    -1.455227
C      -0.048499    -5.702870    -1.718638
C       0.659951    -6.173174    -2.841373
C       1.296209    -5.299563    -3.709925
C       1.371014    -1.706960    -3.431653
C       0.620787    -2.003108    -2.337003
H      -0.674967    -3.990425    -0.586724
H      -0.540031    -6.397697    -1.050197
H       1.834034    -5.692979    -4.565003
H       1.694427    -0.741176    -3.796348
N       1.733531    -2.865876    -4.104107
C       2.520510    -2.941346    -5.310680
H       1.950557    -3.400656    -6.125812
H       2.803564    -1.931855    -5.613510
H       3.434419    -3.523382    -5.149134
O       0.774473    -7.500690    -3.156977
C       0.149299    -8.442615    -2.309555
H       0.553367    -8.397911    -1.290544
H      -0.937087    -8.293782    -2.274255
H       0.363155    -9.423084    -2.737420
N       0.318559    -0.295550     1.043792
C      -0.813703    -0.776571     1.667539
O      -1.265363    -1.868390     1.377519
C      -1.490249     0.073165     2.733601
H      -1.350216    -0.469772     3.669982
H      -2.559391     0.012549     2.515503
C      -1.044082     1.535957     2.842620
H      -1.546580     2.094461     2.054702
H      -1.390252     1.967776     3.786747
C       0.467874     1.674442     2.700939
C       0.977443     2.999435     1.989250
H       1.846059     3.429124     2.492630
C       0.065510    -1.057024    -1.318765
H      -0.965287    -1.333596    -1.079667
H       0.062831    -0.039664    -1.712506
C       0.903652    -1.099829    -0.036650
H       0.983197    -2.127625     0.321868
H       1.904639    -0.717245    -0.227697
C       1.274816     1.378380     3.970495
H       2.323527     1.595894     3.747634
H       0.962518     2.102095     4.734329
C       1.190188    -0.040094     4.538435
H       1.368278    -0.796795     3.767322
H       1.955175    -0.173502     5.308969
H       0.225933    -0.248411     5.007175
O       0.081008     4.064168     1.832275
C      -0.870910     4.063857     0.779826
H      -0.558137     4.807813     0.037848
H      -0.898335     3.094807     0.266420
C      -2.256242     4.407273     1.284085
C      -2.461391     4.939925     2.552168
C      -3.352420     4.205190     0.446627
C      -3.745715     5.266760     2.975893
H      -1.612514     5.095171     3.207360
C      -4.634185     4.532525     0.868323
H      -3.202900     3.787066    -0.545989
C      -4.834419     5.065994     2.137207
H      -3.893753     5.682658     3.967805
H      -5.478561     4.370990     0.205394
H      -5.835101     5.323046     2.469586
C       0.909317     0.908986     1.449426
O       2.283961     1.135314     1.285248
C       1.375610     2.142344     0.768199
C       1.635984     2.493140    -0.661277
O       1.768344     1.696527    -1.552926
O       1.745041     3.818985    -0.811300
C       2.020880     4.266754    -2.147683
H       2.969996     3.853817    -2.495031
H       1.222434     3.955819    -2.824910
H       2.074321     5.352945    -2.088042
