72
     -1725.754563     -1725.227570   0.00   0.00
C       1.925871     3.070971    -0.468530
C       2.399578     2.189879    -1.454835
C       1.996876     2.387087    -2.784094
C       1.141954     3.421873    -3.081799
C       0.666674     4.287376    -2.070621
C       1.051089     4.131254    -0.750915
C       3.229181     1.549364     0.522386
C       3.229747     1.215117    -0.797671
H       2.339557     1.720959    -3.570193
H       0.806821     3.602558    -4.097183
H       0.694110     4.783875     0.034958
H       3.732846     1.070577     1.351393
N       2.448093     2.673753     0.737787
C       2.206161     3.304470     2.013165
H       2.903876     2.898642     2.747677
H       2.374008     4.383646     1.947292
H       1.183766     3.124700     2.364967
O      -0.185109     5.260351    -2.509751
C      -0.656646     6.200859    -1.565843
H      -1.289323     6.896152    -2.118577
H      -1.252029     5.718323    -0.780575
H       0.171582     6.753790    -1.105436
N       1.680395    -1.146663    -1.602587
C       1.281937    -1.312303    -2.918489
O       2.099931    -1.298824    -3.816491
C      -0.210085    -1.521909    -3.247186
H      -0.227831    -2.404394    -3.891778
H      -0.464810    -0.680545    -3.898972
C      -1.235854    -1.651734    -2.094706
H      -2.232865    -1.372005    -2.443065
H      -1.285201    -2.683180    -1.740142
C      -0.722122    -0.766228    -0.973790
C      -1.078525    -0.944095     0.538929
H      -1.374065    -0.003169     1.016880
C       3.879957     0.032719    -1.450685
H       4.886905    -0.126027    -1.050590
H       3.986687     0.219498    -2.522141
C       3.096838    -1.270043    -1.249209
H       3.537233    -2.060056    -1.862475
H       3.134306    -1.581826    -0.204477
C      -0.720091     0.726584    -1.319407
H      -0.179828     1.265083    -0.533424
H      -0.150831     0.906008    -2.232951
C      -2.119653     1.320938    -1.476079
H      -2.735841     1.156103    -0.585862
H      -2.051289     2.399631    -1.643106
H      -2.650774     0.888478    -2.329418
O      -2.001607    -1.958000     0.778617
C      -2.161233    -2.277845     2.153046
H      -1.177986    -2.485428     2.600188
H      -2.602896    -1.427961     2.692077
C      -3.038836    -3.496297     2.271773
C      -4.171223    -3.489860     3.076976
C      -2.700500    -4.659443     1.580673
C      -4.958238    -4.631514     3.198924
H      -4.444724    -2.584831     3.612656
C      -3.485193    -5.797135     1.697224
H      -1.818957    -4.662179     0.947072
C      -4.616322    -5.786380     2.509365
H      -5.840150    -4.615041     3.831707
H      -3.215614    -6.697646     1.154079
H      -5.229099    -6.677626     2.601115
C       0.671513    -1.277745    -0.651648
O       0.577317    -2.516872     0.061268
C       0.410240    -1.313531     0.803422
C       1.288927    -1.052162     1.978683
O       2.395129    -1.497358     2.133020
O       0.672954    -0.238985     2.854558
C       1.415194     0.044662     4.047723
H       0.782066     0.702564     4.642085
H       1.627810    -0.878106     4.592023
H       2.358214     0.537100     3.800996
72
     -1725.756535     -1725.226869  -1.24   0.44
C      -1.495014    -0.661241     3.452082
C      -0.232862    -0.375220     2.903495
C       0.599418    -1.448431     2.550628
C       0.163926    -2.737332     2.748286
C      -1.108341    -2.998533     3.305338
C      -1.957792    -1.968587     3.665658
C      -1.299681     1.557500     3.276402
C      -0.129032     1.056466     2.790584
H       1.577363    -1.271051     2.113651
H       0.782670    -3.588515     2.486528
H      -2.936576    -2.148718     4.090731
H      -1.643358     2.581119     3.328909
N      -2.133639     0.530395     3.682290
C      -3.454904     0.688660     4.243757
H      -3.502668     0.284895     5.260636
H      -3.696086     1.751765     4.281579
H      -4.206708     0.185155     3.626853
O      -1.406840    -4.323779     3.445816
C      -2.659848    -4.660796     4.005770
H      -3.487314    -4.287105     3.389540
H      -2.697866    -5.750287     4.034416
H      -2.760782    -4.268972     5.025654
N      -0.445205     2.492089     0.267514
C      -1.723598     3.016526     0.238593
O      -2.106869     3.813465     1.072566
C      -2.697654     2.569883    -0.874459
H      -3.050059     3.500981    -1.325870
H      -3.555194     2.174920    -0.320725
C      -2.239699     1.562463    -1.960659
H      -3.096652     0.997290    -2.334715
H      -1.794987     2.090089    -2.806267
C      -1.181110     0.685650    -1.313654
C      -0.034240    -0.041804    -2.098908
H       0.096038    -1.076927    -1.765090
C       1.008131     1.812597     2.165701
H       1.633454     1.107445     1.609309
H       1.663423     2.252738     2.926508
C       0.557192     2.940559     1.229411
H       0.099854     3.756180     1.789224
H       1.417056     3.334058     0.679059
C      -1.719554    -0.226844    -0.205277
H      -0.871552    -0.704085     0.295217
H      -2.214534     0.365840     0.571022
C      -2.677766    -1.306400    -0.707714
H      -3.612483    -0.880930    -1.085486
H      -2.233009    -1.896941    -1.515948
H      -2.930738    -1.992019     0.106085
O      -0.152769     0.033965    -3.487434
C       0.739904    -0.799084    -4.208237
H       0.691815    -1.826987    -3.821618
H       0.352303    -0.811911    -5.231627
C       2.177162    -0.319236    -4.210922
C       2.472155     1.041523    -4.251297
C       3.220325    -1.240265    -4.209909
C       3.792333     1.471458    -4.281117
H       1.663641     1.764535    -4.240417
C       4.542038    -0.811715    -4.256090
H       2.999851    -2.303815    -4.169485
C       4.830976     0.547104    -4.288857
H       4.010520     2.534177    -4.293376
H       5.346555    -1.541031    -4.262034
H       5.861964     0.885470    -4.318367
C      -0.132604     1.650262    -0.795385
O       0.578524     2.206925    -1.909022
C       0.983741     0.931465    -1.436275
C       2.401946     0.742450    -1.011342
O       3.174877     1.633383    -0.785918
O       2.678856    -0.562675    -0.883517
C       4.043519    -0.865337    -0.555831
H       4.708305    -0.460220    -1.320488
H       4.304563    -0.442167     0.416922
H       4.105192    -1.952479    -0.532397
72
     -1725.757979     -1725.226484  -2.14   0.68
C       2.672155    -0.052609     1.741202
C       1.688400     0.026253     2.741419
C       1.508943    -1.071610     3.596124
C       2.285926    -2.192672     3.425298
C       3.262165    -2.253360     2.404934
C       3.475013    -1.187587     1.549411
C       1.654252     1.928484     1.563478
C       1.040517     1.304293     2.607173
H       0.751949    -1.048987     4.374285
H       2.171983    -3.061040     4.064810
H       4.214640    -1.219926     0.760261
H       1.463105     2.905041     1.138909
N       2.647023     1.121780     1.031158
C       3.484410     1.443390    -0.099836
H       3.378583     2.504827    -0.328782
H       4.535833     1.249892     0.133285
H       3.202563     0.864704    -0.986543
O       3.949706    -3.431796     2.346002
C       4.980536    -3.547449     1.385769
H       5.413869    -4.538862     1.521937
H       4.589287    -3.462367     0.364190
H       5.757725    -2.788890     1.541393
N      -1.695357     0.343146     2.100591
C      -2.306613    -0.627127     2.875682
O      -2.423622    -0.477100     4.075471
C      -2.848306    -1.909169     2.208942
H      -3.874154    -1.997218     2.575853
H      -2.295777    -2.719472     2.694634
C      -2.792757    -2.055296     0.667295
H      -2.792430    -3.111667     0.388467
H      -3.667098    -1.590265     0.207471
C      -1.542897    -1.317174     0.219686
C      -1.319407    -0.715521    -1.210598
H      -0.326713    -0.958279    -1.603430
C      -0.132233     1.786990     3.407847
H      -0.001212     2.835500     3.695825
H      -0.207266     1.209187     4.332672
C      -1.460253     1.680268     2.649167
H      -2.286827     1.926005     3.320054
H      -1.480348     2.375494     1.807772
C      -0.242473    -1.963395     0.708989
H       0.587064    -1.281422     0.495982
H      -0.254410    -2.069845     1.795573
C       0.042210    -3.325196     0.075127
H       1.022395    -3.689801     0.395521
H      -0.700292    -4.073599     0.368618
H       0.043507    -3.273631    -1.019048
O      -2.319108    -1.030404    -2.134086
C      -1.997533    -0.746751    -3.484021
H      -0.997939    -1.136169    -3.724082
H      -2.723108    -1.313911    -4.075837
C      -2.077182     0.719915    -3.858859
C      -1.272093     1.217282    -4.880165
C      -2.978506     1.573365    -3.228165
C      -1.370022     2.546020    -5.275485
H      -0.562351     0.559368    -5.375362
C      -3.068378     2.905784    -3.613904
H      -3.603957     1.194515    -2.427054
C      -2.269517     3.395135    -4.640968
H      -0.741810     2.918603    -6.078900
H      -3.766425     3.564441    -3.107475
H      -2.347393     4.434116    -4.945693
C      -1.709042     0.103501     0.728946
O      -2.705538     0.766111    -0.059102
C      -1.383120     0.702927    -0.580746
C      -0.699249     1.970532    -0.962702
O      -0.994061     3.063275    -0.557970
O       0.301904     1.721102    -1.819949
C       0.912644     2.886857    -2.389370
H       1.392577     3.488292    -1.614246
H       1.646837     2.515716    -3.103410
H       0.159061     3.487448    -2.901440
72
     -1725.753593     -1725.225377   0.61   1.38
C       3.592991    -0.225778     3.537491
C       3.001711    -1.070331     2.582076
C       3.708985    -2.203935     2.153193
C       4.955725    -2.455809     2.678050
C       5.529617    -1.593651     3.638662
C       4.862901    -0.466885     4.085320
C       1.590616     0.615019     3.009364
C       1.713184    -0.513689     2.258970
H       3.280857    -2.875104     1.414105
H       5.532114    -3.321392     2.370941
H       5.288465     0.204140     4.819887
H       0.774595     1.324185     3.048299
N       2.721396     0.802584     3.790422
C       2.942175     1.886199     4.717352
H       3.830394     2.465709     4.442871
H       2.077590     2.551512     4.695754
H       3.065749     1.513405     5.740125
O       6.771378    -1.969704     4.070580
C       7.408780    -1.153770     5.030889
H       8.372684    -1.620686     5.236917
H       7.574311    -0.138621     4.648209
H       6.828095    -1.100101     5.960563
N       0.384156    -1.396208    -1.191586
C       0.524449    -2.743588    -1.488759
O       1.453301    -3.389580    -1.049466
C      -0.501451    -3.423710    -2.422124
H      -0.777642    -4.346201    -1.905615
H       0.097266    -3.742203    -3.281623
C      -1.760459    -2.649843    -2.891788
H      -2.114449    -3.051112    -3.844379
H      -2.567421    -2.761863    -2.165494
C      -1.366542    -1.184179    -2.967928
C      -2.367019     0.013030    -2.805575
H      -2.205566     0.788582    -3.562080
C       0.741309    -1.050471     1.255727
H      -0.237912    -0.589058     1.393137
H       0.623491    -2.131818     1.384925
C       1.231096    -0.780260    -0.171346
H       1.257327     0.294703    -0.363367
H       2.236687    -1.178834    -0.308772
C      -0.350906    -0.871691    -4.074206
H       0.013912     0.153267    -3.929998
H       0.528067    -1.516281    -3.971747
C      -0.925762    -1.017983    -5.484120
H      -1.195743    -2.055017    -5.703341
H      -1.823802    -0.406568    -5.618729
H      -0.194056    -0.703671    -6.233893
O      -3.707943    -0.365630    -2.744631
C      -4.632041     0.710506    -2.767896
H      -4.387225     1.398978    -3.588800
H      -5.598228     0.250645    -2.997455
C      -4.728193     1.480253    -1.466191
C      -4.620548     0.826237    -0.240926
C      -4.964509     2.851321    -1.484706
C      -4.740866     1.537543     0.945934
H      -4.426488    -0.240456    -0.219743
C      -5.094813     3.563150    -0.297800
H      -5.041462     3.371099    -2.436153
C      -4.980178     2.907096     0.921696
H      -4.644343     1.019873     1.894817
H      -5.283426     4.632157    -0.326765
H      -5.075815     3.460760     1.850345
C      -0.826654    -0.842736    -1.593466
O      -1.916756    -0.806527    -0.664218
C      -1.679288     0.352078    -1.452054
C      -1.430788     1.655155    -0.767063
O      -1.094149     1.773556     0.380354
O      -1.601845     2.669351    -1.623193
C      -1.439390     3.978751    -1.056647
H      -2.150118     4.122546    -0.240909
H      -0.420948     4.105981    -0.683449
H      -1.640627     4.675566    -1.868986
72
     -1725.752721     -1725.225148   1.16   1.52
C      -1.853613     0.359219    -3.611150
C      -2.356711     0.628110    -2.326453
C      -3.043639    -0.393165    -1.652713
C      -3.202693    -1.617199    -2.257711
C      -2.688506    -1.861982    -3.551184
C      -2.007192    -0.881314    -4.248594
C      -1.271345     2.444260    -3.058468
C      -1.964119     1.970539    -1.984689
H      -3.442083    -0.229828    -0.655987
H      -3.728217    -2.426805    -1.763557
H      -1.604668    -1.050429    -5.238813
H      -0.768406     3.391844    -3.191681
N      -1.199590     1.481685    -4.050290
C      -0.533273     1.630098    -5.323089
H      -0.089576     2.625231    -5.373985
H       0.264946     0.889058    -5.437321
H      -1.239357     1.521407    -6.153051
O      -2.921969    -3.120199    -4.027569
C      -2.443071    -3.434560    -5.319580
H      -1.350383    -3.349520    -5.372980
H      -2.731904    -4.469041    -5.508400
H      -2.895473    -2.788301    -6.082167
N       0.244152     2.548173    -0.168013
C       1.338718     2.894304    -0.940093
O       1.316334     3.854301    -1.684776
C       2.619266     2.034609    -0.865236
H       3.419077     2.745717    -0.642978
H       2.783898     1.729618    -1.903335
C       2.685420     0.808220     0.079880
H       3.384260     0.066594    -0.314130
H       3.039851     1.106553     1.067883
C       1.265072     0.285028     0.202556
C       0.725098    -0.516768     1.435160
H       0.140499    -1.395752     1.138930
C      -2.193258     2.646345    -0.663424
H      -2.520208     1.895950     0.062119
H      -3.009808     3.375410    -0.722120
C      -0.958284     3.375727    -0.119184
H      -0.737968     4.265411    -0.708460
H      -1.131963     3.676810     0.917874
C       0.703233    -0.309206    -1.093635
H      -0.358840    -0.525020    -0.944844
H       0.736205     0.431446    -1.899136
C       1.414326    -1.584042    -1.546037
H       0.893553    -2.017708    -2.404580
H       2.448550    -1.391569    -1.847126
H       1.435998    -2.337958    -0.751883
O       1.703979    -0.835632     2.371122
C       1.188160    -1.383326     3.576094
H       0.410010    -0.719151     3.980249
H       0.726820    -2.361507     3.380923
C       2.309803    -1.514423     4.573017
C       2.571100    -2.724226     5.204630
C       3.087149    -0.399914     4.886892
C       3.592870    -2.824621     6.144561
H       1.974070    -3.598526     4.959679
C       4.108527    -0.498203     5.820076
H       2.886737     0.543735     4.388972
C       4.362765    -1.711977     6.453472
H       3.787149    -3.774761     6.632367
H       4.710048     0.373983     6.056872
H       5.161376    -1.787676     7.184723
C       0.445830     1.467606     0.684624
O       0.768347     1.738260     2.054984
C      -0.171549     0.706375     1.788433
C      -1.525124     0.795513     2.410713
O      -2.038982     1.809519     2.799804
O      -2.099805    -0.417106     2.462571
C      -3.403749    -0.451502     3.063429
H      -3.354679    -0.095603     4.094609
H      -4.097811     0.176450     2.500583
H      -3.715384    -1.494584     3.030618
72
     -1725.752731     -1725.224859   1.15   1.70
C       1.843466     0.257543     4.766472
C       1.161588    -0.629141     3.905304
C       1.209710    -1.997200     4.175186
C       1.919594    -2.453666     5.274210
C       2.589996    -1.547431     6.118551
C       2.561568    -0.182475     5.877216
C       0.862305     1.460772     3.157151
C       0.535604     0.169964     2.880684
H       0.697923    -2.705705     3.529860
H       1.951501    -3.516529     5.475441
H       3.088541     0.489463     6.545035
H       0.597200     2.361186     2.618862
N       1.652254     1.531893     4.295694
C       2.179592     2.733927     4.894262
H       1.802303     2.865257     5.914367
H       3.274404     2.711252     4.924355
H       1.868579     3.593199     4.297793
O       3.307318    -1.933685     7.218883
C       3.374569    -3.312693     7.519372
H       2.379681    -3.730613     7.717216
H       3.849594    -3.878722     6.708452
H       3.984274    -3.396475     8.420106
N      -0.086336    -1.659769    -0.390922
C      -0.626453    -2.920741    -0.187310
O      -0.351647    -3.568800     0.801551
C      -1.566936    -3.522781    -1.254545
H      -2.422292    -3.900761    -0.689279
H      -1.033485    -4.413752    -1.601367
C      -2.030871    -2.662482    -2.458353
H      -2.280386    -3.305592    -3.305653
H      -2.927123    -2.096938    -2.197300
C      -0.903455    -1.688247    -2.756659
C      -1.098116    -0.285891    -3.432067
H      -0.350927    -0.097810    -4.210653
C      -0.262162    -0.342372     1.723447
H      -0.814600     0.472449     1.252784
H      -0.989777    -1.085621     2.067203
C       0.652801    -1.000140     0.684169
H       1.307020    -0.252248     0.230556
H       1.275584    -1.761027     1.155341
C       0.367864    -2.356878    -3.294888
H       1.175650    -1.613973    -3.296709
H       0.694840    -3.148486    -2.612957
C       0.199973    -2.935618    -4.700796
H      -0.518840    -3.759956    -4.713776
H      -0.151733    -2.178532    -5.408996
H       1.151702    -3.323969    -5.074618
O      -2.390383    -0.050650    -3.900902
C      -2.540682     1.137811    -4.660908
H      -1.757308     1.194375    -5.429631
H      -3.501323     1.027875    -5.173512
C      -2.542547     2.410121    -3.837877
C      -3.132623     2.442923    -2.576389
C      -1.983924     3.574450    -4.355836
C      -3.155348     3.622784    -1.843956
H      -3.560797     1.536457    -2.162947
C      -2.014334     4.758522    -3.628177
H      -1.513916     3.555885    -5.335674
C      -2.598454     4.784300    -2.367684
H      -3.607875     3.634391    -0.857670
H      -1.578454     5.660990    -4.046209
H      -2.618980     5.705754    -1.794465
C      -0.648636    -0.959231    -1.452557
O      -1.744131    -0.071883    -1.196701
C      -0.720769     0.375383    -2.075465
C       0.002809     1.642344    -1.759011
O       0.033744     2.162277    -0.676129
O       0.640666     2.095951    -2.844475
C       1.330362     3.343096    -2.668724
H       0.625880     4.118436    -2.362453
H       2.113475     3.239519    -1.914611
H       1.761690     3.577941    -3.640706
72
     -1725.749675     -1725.224805   3.07   1.74
C       2.871194    -4.544803     1.143364
C       2.966583    -3.299917     0.497750
C       4.239699    -2.781314     0.215975
C       5.353889    -3.503371     0.577235
C       5.233755    -4.753643     1.223684
C       3.995991    -5.296569     1.518352
C       0.799642    -3.788331     0.780229
C       1.623314    -2.832917     0.269594
H       4.347361    -1.820376    -0.279003
H       6.353762    -3.135062     0.376286
H       3.886428    -6.252283     2.013913
H      -0.281220    -3.809326     0.818533
N       1.540917    -4.833154     1.312029
C       1.008021    -6.023092     1.930276
H       1.343097    -6.112163     2.969471
H      -0.081661    -5.966931     1.924066
H       1.310641    -6.922738     1.383181
O       6.424403    -5.356526     1.521597
C       6.382694    -6.609989     2.170704
H       5.887417    -6.539456     3.147483
H       5.869569    -7.362078     1.557982
H       7.420209    -6.913327     2.316029
N       1.222616     0.938928     0.026564
C       2.186224     1.531463    -0.776730
O       3.301602     1.061969    -0.866480
C       1.841953     2.826910    -1.542846
H       2.179087     2.642761    -2.565792
H       2.541284     3.564522    -1.136424
C       0.394200     3.380316    -1.524687
H       0.402761     4.460941    -1.685422
H      -0.194291     2.931428    -2.326499
C      -0.208649     2.978164    -0.189532
C      -1.742068     2.775708     0.059483
H      -2.084649     3.251076     0.986216
C       1.231655    -1.528975    -0.351383
H       0.177828    -1.544904    -0.633422
H       1.818729    -1.350715    -1.258726
C       1.475465    -0.372056     0.623045
H       0.827530    -0.472987     1.495951
H       2.512313    -0.372991     0.960445
C       0.431211     3.676247     1.016738
H       0.071228     3.189072     1.931772
H       1.515295     3.524695     1.007161
C       0.128244     5.174112     1.079994
H       0.571304     5.710247     0.235926
H      -0.948902     5.368314     1.067155
H       0.534277     5.611324     1.996615
O      -2.535045     3.125966    -1.027688
C      -3.900453     2.756994    -0.888182
H      -3.970142     1.687723    -0.641531
H      -4.363727     3.322294    -0.067661
C      -4.613621     3.025416    -2.187365
C      -4.122224     2.474464    -3.370579
C      -5.768989     3.796445    -2.225936
C      -4.780443     2.692970    -4.571714
H      -3.216421     1.876830    -3.341344
C      -6.433814     4.013850    -3.429406
H      -6.153588     4.234770    -1.308997
C      -5.940528     3.462542    -4.603652
H      -4.389752     2.261921    -5.488325
H      -7.336158     4.617114    -3.447103
H      -6.455824     3.631838    -5.543886
C      -0.053558     1.471363    -0.115981
O      -0.967520     0.859755    -1.035127
C      -1.469811     1.252740     0.236859
C      -2.114761     0.219719     1.101892
O      -1.862201    -0.954976     1.071846
O      -3.004680     0.785581     1.930559
C      -3.679705    -0.120140     2.818046
H      -4.229815    -0.870561     2.246745
H      -2.957784    -0.618748     3.468082
H      -4.361389     0.495919     3.402592
72
     -1725.749359     -1725.224791   3.27   1.74
C       4.461870    -0.053820     3.389513
C       3.577589    -0.904457     2.703847
C       3.969430    -2.229301     2.458068
C       5.202481    -2.656724     2.894183
C       6.074099    -1.784411     3.583285
C       5.722928    -0.471874     3.843276
C       2.616612     1.108479     2.900072
C       2.395653    -0.138627     2.402188
H       3.310275    -2.910728     1.927814
H       5.539876    -3.672852     2.722644
H       6.379087     0.209501     4.368784
H       1.977079     1.980312     2.867664
N       3.864057     1.175392     3.502907
C       4.434614     2.334209     4.146149
H       5.370093     2.634408     3.661492
H       3.728311     3.162692     4.072989
H       4.632111     2.141274     5.206354
O       7.263426    -2.346667     3.956432
C       8.187110    -1.533095     4.648641
H       8.497133    -0.672800     4.041889
H       7.772321    -1.174959     5.599457
H       9.055794    -2.160969     4.850472
N       0.423120    -1.300755    -0.631661
C       0.243186    -2.676117    -0.659777
O       1.073041    -3.425999    -0.188992
C      -1.019060    -3.261815    -1.329118
H      -1.411655    -3.977696    -0.602916
H      -0.622112    -3.869573    -2.148493
C      -2.137492    -2.318716    -1.841820
H      -2.686938    -2.795800    -2.656861
H      -2.849976    -2.103744    -1.043698
C      -1.458588    -1.024009    -2.255287
C      -2.162433     0.374766    -2.263864
H      -1.948254     0.945733    -3.175087
C       1.199823    -0.617137     1.640419
H       0.362305     0.067921     1.780367
H       0.890284    -1.603333     2.002774
C       1.519221    -0.724095     0.145759
H       1.735517     0.264558    -0.263773
H       2.389866    -1.361541    -0.011014
C      -0.550899    -1.162933    -3.483488
H       0.036299    -0.241789    -3.587701
H       0.178728    -1.963071    -3.323102
C      -1.321375    -1.429661    -4.777611
H      -1.826550    -2.399396    -4.752414
H      -2.082638    -0.664059    -4.958277
H      -0.643807    -1.434468    -5.636150
O      -3.527718     0.321648    -2.003281
C      -4.127174     1.596424    -1.834219
H      -3.753534     2.071328    -0.917041
H      -3.855531     2.247105    -2.679844
C      -5.625560     1.442721    -1.761985
C      -6.288398     0.551175    -2.603215
C      -6.368319     2.219178    -0.878611
C      -7.671867     0.443747    -2.562859
H      -5.713054    -0.064472    -3.286299
C      -7.754913     2.116241    -0.839221
H      -5.859855     2.909765    -0.211220
C      -8.409893     1.228455    -1.682388
H      -8.177541    -0.255615    -3.221565
H      -8.322353     2.729411    -0.146016
H      -9.491661     1.144785    -1.652801
C      -0.688437    -0.567321    -1.030942
O      -1.615680    -0.109144    -0.040429
C      -1.250810     0.796645    -1.075522
C      -0.662178     2.115322    -0.693850
O      -0.020127     2.317178     0.301995
O      -0.935676     3.042577    -1.623481
C      -0.404158     4.350927    -1.360831
H      -0.799299     4.738482    -0.419671
H       0.685647     4.310673    -1.305478
H      -0.723469     4.970510    -2.197561
72
     -1725.748621     -1725.224629   3.73   1.85
C       5.121231     1.651507     1.038290
C       4.331034     0.558624     0.644358
C       4.809305    -0.739856     0.883079
C       6.029113    -0.903261     1.497215
C       6.804866     0.211253     1.887616
C       6.368272     1.504725     1.666220
C       3.257965     2.446824     0.097086
C       3.135943     1.092189     0.040064
H       4.227133    -1.608814     0.590136
H       6.430327    -1.890274     1.698541
H       6.949750     2.369247     1.958180
H       2.580907     3.214560    -0.253738
N       4.454895     2.801810     0.697443
C       4.925855     4.147135     0.926021
H       5.053888     4.344681     1.995817
H       5.880062     4.321321     0.417471
H       4.192669     4.852115     0.530908
O       7.991862    -0.104489     2.486285
C       8.822063     0.959033     2.905161
H       8.323284     1.585012     3.655852
H       9.704877     0.499405     3.351012
H       9.130165     1.584617     2.057879
N       0.229103    -1.342555     0.044063
C       0.465689    -2.703598    -0.034232
O       1.550412    -3.169828     0.249099
C      -0.673131    -3.641125    -0.488933
H      -0.809041    -4.338287     0.342364
H      -0.219479    -4.231712    -1.289909
C      -2.033384    -3.048256    -0.943221
H      -2.497196    -3.698347    -1.688632
H      -2.719288    -2.972467    -0.097893
C      -1.742645    -1.651696    -1.463776
C      -2.778572    -0.478106    -1.494270
H      -2.776809     0.065451    -2.446576
C       1.996869     0.291988    -0.509986
H       2.373511    -0.460066    -1.213466
H       1.316548     0.942132    -1.072068
C       1.222331    -0.429659     0.597563
H       1.900303    -1.020633     1.211980
H       0.706614     0.285360     1.240548
C      -0.895357    -1.632591    -2.743400
H      -0.572928    -0.600724    -2.931836
H       0.023518    -2.210688    -2.599189
C      -1.639987    -2.168193    -3.967439
H      -2.578197    -1.630188    -4.134926
H      -1.029198    -2.061255    -4.868402
H      -1.881511    -3.229276    -3.858062
O      -4.060614    -0.853557    -1.108326
C      -4.957430     0.240875    -0.967718
H      -4.507421     1.007801    -0.321373
H      -5.149549     0.700259    -1.946964
C      -6.239384    -0.256098    -0.352070
C      -6.198885    -0.962435     0.849825
C      -7.468322    -0.003668    -0.949497
C      -7.371967    -1.406028     1.442247
H      -5.238362    -1.165018     1.313429
C      -8.647456    -0.444107    -0.355037
H      -7.507219     0.539530    -1.889837
C      -8.600981    -1.145728     0.841498
H      -7.330642    -1.956800     2.376943
H      -9.601620    -0.239840    -0.830837
H      -9.518652    -1.491975     1.306554
C      -1.046565    -0.933354    -0.324003
O      -1.994721    -0.631767     0.708414
C      -1.932221     0.245866    -0.410061
C      -1.716032     1.712668    -0.258644
O      -2.072382     2.508080    -1.092040
O      -1.085820     2.029602     0.874277
C      -0.850679     3.430884     1.076264
H      -0.322596     3.506135     2.025758
H      -0.245025     3.834980     0.262063
H      -1.799094     3.970651     1.118846
72
     -1725.752154     -1725.224583   1.51   1.87
C       3.190890    -3.005594    -2.011573
C       2.875912    -1.946231    -1.143720
C       3.072259    -2.127652     0.233791
C       3.562631    -3.326537     0.694701
C       3.876383    -4.376355    -0.198513
C       3.697951    -4.235541    -1.562721
C       2.406327    -1.309317    -3.236766
C       2.370189    -0.864257    -1.950071
H       2.838773    -1.333215     0.936145
H       3.725748    -3.499840     1.752554
H       3.931277    -5.028968    -2.260431
H       2.112186    -0.812909    -4.151454
N       2.901575    -2.603564    -3.290360
C       3.105227    -3.384016    -4.488199
H       2.773139    -2.803427    -5.350289
H       4.163925    -3.629753    -4.624045
H       2.527701    -4.313940    -4.455263
O       4.355926    -5.505542     0.399428
C       4.687940    -6.601667    -0.429290
H       3.812640    -6.964309    -0.982645
H       5.484037    -6.340983    -1.137885
H       5.043494    -7.389379     0.235720
N       0.178940     2.219206    -1.734361
C       0.229405     3.537585    -2.169836
O       1.063492     3.904814    -2.969100
C      -0.787813     4.556085    -1.609819
H      -1.213306     5.034373    -2.495594
H      -0.162422     5.322057    -1.141193
C      -1.903946     4.090870    -0.639582
H      -2.212543     4.919084     0.002646
H      -2.781298     3.760476    -1.198475
C      -1.340458     2.911746     0.134171
C      -2.201137     1.773111     0.777504
H      -1.857074     1.523016     1.785020
C       1.874265     0.453136    -1.432279
H       2.710564     1.120185    -1.189209
H       1.349122     0.275261    -0.486949
C       0.927934     1.160314    -2.402372
H       1.473355     1.623991    -3.224444
H       0.207244     0.449098    -2.812499
C      -0.191412     3.285227     1.080288
H       0.289748     2.360575     1.423721
H       0.581471     3.841225     0.539584
C      -0.652943     4.099366     2.290505
H       0.182858     4.286671     2.970938
H      -1.056276     5.070747     1.990232
H      -1.431729     3.576258     2.854596
O      -3.576525     1.987664     0.735540
C      -4.321028     0.998522     1.442944
H      -5.367334     1.210832     1.208517
H      -4.080163    -0.002370     1.065042
C      -4.087300     1.060797     2.936298
C      -4.380118     2.230790     3.636312
C      -3.554936    -0.025068     3.622647
C      -4.153259     2.310354     5.002617
H      -4.783791     3.084726     3.099321
C      -3.329737     0.050508     4.994317
H      -3.296612    -0.927589     3.076519
C      -3.629527     1.215985     5.686214
H      -4.385822     3.225753     5.538004
H      -2.913927    -0.803631     5.519503
H      -3.453220     1.275987     6.755640
C      -0.908467     1.912227    -0.919747
O      -2.069870     1.332543    -1.523616
C      -1.631178     0.792527    -0.279918
C      -1.359929    -0.666011    -0.117322
O      -1.527527    -1.239041     0.931484
O      -0.910673    -1.235773    -1.232853
C      -0.581939    -2.632576    -1.132616
H       0.155107    -2.794083    -0.344786
H      -1.483361    -3.212502    -0.922621
H      -0.161031    -2.902055    -2.100055
72
     -1725.754753     -1725.224552  -0.12   1.89
C      -0.025141    -3.217267    -2.831027
C       0.529015    -2.212875    -2.006892
C       0.466401    -2.383493    -0.623588
C      -0.150710    -3.503852    -0.092859
C      -0.707005    -4.482674    -0.939299
C      -0.647527    -4.353167    -2.317775
C       0.809802    -1.621854    -4.145857
C       1.052474    -1.189418    -2.878926
H       0.888024    -1.639550     0.041753
H      -0.194553    -3.618404     0.982564
H      -1.079570    -5.123607    -2.946083
H       1.019252    -1.135596    -5.089335
N       0.165852    -2.844224    -4.135809
C      -0.292240    -3.574657    -5.293150
H       0.149041    -4.576344    -5.324076
H      -1.383411    -3.667905    -5.292170
H       0.008026    -3.036246    -6.193460
O      -1.330262    -5.611102    -0.480937
C      -1.403587    -5.810604     0.916357
H      -0.405190    -5.877148     1.365874
H      -1.969314    -5.009512     1.408042
H      -1.925417    -6.757807     1.059184
N      -0.632407     0.923837    -1.557451
C      -1.680967     0.090336    -1.939502
O      -1.887759    -0.162744    -3.105903
C      -2.588714    -0.523972    -0.853225
H      -2.428253    -1.601964    -0.944322
H      -3.602383    -0.343265    -1.220937
C      -2.442146    -0.069757     0.623216
H      -3.406987    -0.120252     1.133344
H      -1.750550    -0.724824     1.156509
C      -1.859566     1.332068     0.580789
C      -1.035026     2.001882     1.731560
H      -1.349299     3.033975     1.922325
C       1.568563     0.162594    -2.483592
H       2.340798     0.495477    -3.185883
H       2.029983     0.121608    -1.493556
C       0.455370     1.227241    -2.483225
H       0.862950     2.205033    -2.211843
H       0.009622     1.297866    -3.476955
C      -2.803441     2.370914    -0.041759
H      -2.235361     3.293142    -0.217717
H      -3.143415     2.036784    -1.027468
C      -4.021457     2.676026     0.832476
H      -4.669637     1.801287     0.938182
H      -3.727126     2.993480     1.837833
H      -4.621240     3.478111     0.392569
O      -0.986724     1.256142     2.910430
C      -0.263591     1.873106     3.966145
H      -0.572795     2.921563     4.073914
H      -0.568765     1.339268     4.871275
C       1.241323     1.794050     3.805967
C       2.041186     2.889327     4.113471
C       1.843966     0.613193     3.376031
C       3.424998     2.808102     4.002003
H       1.580017     3.821059     4.427930
C       3.223962     0.532145     3.254983
H       1.222348    -0.237522     3.119121
C       4.019452     1.629080     3.571601
H       4.037270     3.670186     4.248550
H       3.682170    -0.390226     2.912362
H       5.099376     1.563736     3.480534
C      -0.563192     1.207985    -0.199106
O       0.418271     0.549652     0.615858
C       0.218556     1.941472     0.819485
C       1.324694     2.934956     0.745720
O       1.194338     4.067148     1.138820
O       2.431212     2.440670     0.189630
C       3.541444     3.349295     0.130324
H       3.825463     3.654150     1.138862
H       4.349062     2.792662    -0.343076
H       3.280443     4.231226    -0.458829
72
     -1725.748312     -1725.224307   3.92   2.05
C       5.000597     2.237577     0.822695
C       4.341344     0.997036     0.784700
C       4.877012    -0.074146     1.516395
C       6.028642     0.118578     2.243740
C       6.676515     1.373929     2.263749
C       6.177152     2.453372     1.557504
C       3.197073     2.448658    -0.479287
C       3.186937     1.153269    -0.062462
H       4.388558    -1.044319     1.515818
H       6.471400    -0.685142     2.821415
H       6.659634     3.421898     1.563747
H       2.493303     2.970483    -1.113813
N       4.290715     3.118168     0.046320
C       4.628912     4.502524    -0.182567
H       3.877813     4.946805    -0.837594
H       4.644135     5.065461     0.757007
H       5.607376     4.595289    -0.666248
O       7.809560     1.416588     3.027252
C       8.510795     2.640682     3.096998
H       7.889022     3.434772     3.529540
H       9.369294     2.464067     3.746058
H       8.865578     2.956452     2.107715
N       0.328240    -1.244407     0.608143
C       0.553222    -2.496452     1.153818
O       1.603533    -2.762916     1.701347
C      -0.551244    -3.570946     1.063706
H      -0.731696    -3.870567     2.099465
H      -0.050206    -4.425066     0.598876
C      -1.883724    -3.252189     0.338245
H      -2.318103    -4.166634    -0.072425
H      -2.607131    -2.826584     1.035870
C      -1.557053    -2.214397    -0.720376
C      -2.586751    -1.194726    -1.312859
H      -2.551531    -1.141443    -2.407359
C       2.163908     0.102429    -0.361068
H       2.656617    -0.840466    -0.625093
H       1.558039     0.402579    -1.222804
C       1.252802    -0.139523     0.845121
H       1.846556    -0.393092     1.722774
H       0.664314     0.752994     1.064178
C      -0.643004    -2.734762    -1.838281
H      -0.316872    -1.881127    -2.446061
H       0.270659    -3.162374    -1.412868
C      -1.316565    -3.774372    -2.735516
H      -2.249361    -3.393933    -3.163459
H      -0.659328    -4.052516    -3.564282
H      -1.554096    -4.688157    -2.183511
O      -3.882056    -1.384037    -0.843507
C      -4.778506    -0.331603    -1.172139
H      -4.344223     0.631249    -0.867259
H      -4.942608    -0.297712    -2.258132
C      -6.077895    -0.554470    -0.443664
C      -6.071132    -0.720881     0.941025
C      -7.289086    -0.575378    -1.124301
C      -7.260537    -0.904098     1.630540
H      -5.124026    -0.709861     1.471570
C      -8.484565    -0.754965    -0.434152
H      -7.301169    -0.453393    -2.204027
C      -8.471879    -0.919572     0.943839
H      -7.245977    -1.034895     2.708188
H      -9.424924    -0.768578    -0.976396
H      -9.402379    -1.061582     1.484442
C      -0.919100    -1.057434     0.024814
O      -1.916064    -0.340516     0.758160
C      -1.780424    -0.050279    -0.629583
C      -1.504169     1.354569    -1.054435
O      -0.883042     2.159144    -0.413102
O      -2.032754     1.592694    -2.264967
C      -1.827416     2.919309    -2.774433
H      -2.270708     3.656448    -2.101751
H      -0.759626     3.122542    -2.878624
H      -2.318330     2.939949    -3.746376
72
     -1725.754590     -1725.224286  -0.02   2.06
C       1.347911     1.997330    -3.367110
C       0.433706     1.373967    -2.498688
C       0.059380     2.051928    -1.328678
C       0.612154     3.280428    -1.051775
C       1.540068     3.878444    -1.932823
C       1.919718     3.251705    -3.105670
C       0.792219     0.026275    -4.246960
C       0.095590     0.099192    -3.079448
H      -0.649818     1.609711    -0.639502
H       0.346080     3.826269    -0.153237
H       2.625496     3.694085    -3.796388
H       0.841595    -0.776382    -4.970409
N       1.549515     1.165650    -4.437248
C       2.448735     1.410360    -5.539613
H       2.172382     2.323532    -6.077155
H       3.482939     1.501555    -5.191075
H       2.392213     0.570925    -6.234249
O       2.006702     5.097726    -1.529096
C       2.931847     5.757871    -2.368272
H       3.849740     5.169668    -2.493405
H       2.498777     5.968130    -3.354331
H       3.173678     6.699655    -1.874259
N       0.968097    -1.382275    -0.608974
C       2.187054    -0.757388    -0.863447
O       2.796739    -0.967702    -1.888729
C       2.751586     0.236821     0.172447
H       2.707097     1.205013    -0.334721
H       3.813001    -0.015420     0.233460
C       2.110708     0.332854     1.585003
H       2.881201     0.519651     2.338763
H       1.396708     1.157505     1.624218
C       1.377319    -0.976658     1.820728
C       0.145672    -1.138314     2.770931
H       0.228874    -2.005795     3.432348
C      -0.696164    -1.006222    -2.444730
H      -1.240428    -1.571948    -3.209009
H      -1.440088    -0.596987    -1.756395
C       0.204955    -2.000890    -1.688824
H      -0.396640    -2.805877    -1.256299
H       0.931844    -2.438260    -2.375609
C       2.356438    -2.152342     1.985346
H       3.191327    -2.028599     1.287059
H       2.793778    -2.062078     2.987715
C       1.778961    -3.558978     1.799737
H       2.559891    -4.303830     1.978993
H       0.955523    -3.778365     2.484524
H       1.413320    -3.707257     0.779439
O      -0.164579     0.015594     3.494938
C      -1.266745    -0.128488     4.379019
H      -1.160526    -1.048897     4.969158
H      -1.194468     0.719767     5.066432
C      -2.613583    -0.114132     3.684703
C      -2.880308     0.819630     2.684695
C      -3.608618    -1.012124     4.055209
C      -4.121775     0.851644     2.066227
H      -2.101050     1.510299     2.381251
C      -4.857215    -0.976266     3.443433
H      -3.403961    -1.757527     4.818266
C      -5.116034    -0.044695     2.446776
H      -4.316139     1.578183     1.283627
H      -5.626032    -1.680952     3.745466
H      -6.088635    -0.016591     1.965039
C       0.428777    -1.137199     0.648420
O      -0.656700    -0.208627     0.785362
C      -0.732423    -1.420251     1.520608
C      -1.880390    -2.360921     1.418071
O      -2.022135    -3.278929     2.187455
O      -2.688977    -2.088606     0.394363
C      -3.832466    -2.948786     0.273276
H      -4.378995    -2.586272    -0.596217
H      -3.516047    -3.984209     0.128837
H      -4.448373    -2.876329     1.171001
72
     -1725.748809     -1725.224264   3.61   2.07
C       4.726458     1.212736     2.676765
C       3.836923     0.170560     2.337032
C       4.286116    -1.148003     2.416220
C       5.585045    -1.405580     2.824377
C       6.451776    -0.347227     3.159597
C       6.035896     0.973547     3.090539
C       2.772849     2.125215     2.084123
C       2.586012     0.783633     1.963515
H       3.627055    -1.972219     2.158077
H       5.924635    -2.431485     2.882715
H       6.727108     1.766041     3.353919
H       2.078553     2.930737     1.884807
N       4.061989     2.402234     2.516298
C       4.615709     3.711076     2.764507
H       3.857046     4.464472     2.546197
H       4.920029     3.818796     3.811389
H       5.484682     3.898935     2.124480
O       7.744428    -0.534386     3.569992
C       8.229680    -1.858431     3.658935
H       7.656465    -2.449460     4.383997
H       8.207405    -2.361641     2.684303
H       9.263494    -1.779415     3.998152
N       0.444277    -1.260420    -0.417827
C       0.371400    -2.596009    -0.049512
O       1.294682    -3.139611     0.520429
C      -0.892274    -3.410727    -0.399960
H      -1.162061    -3.918652     0.529122
H      -0.519945    -4.198586    -1.062537
C      -2.122478    -2.706903    -1.027488
H      -2.702621    -3.419773    -1.618184
H      -2.776047    -2.315768    -0.246080
C      -1.587956    -1.544821    -1.847069
C      -2.399133    -0.241996    -2.161912
H      -2.321568     0.058691    -3.213458
C       1.360311     0.071829     1.484756
H       0.497378     0.738658     1.515889
H       1.144605    -0.785392     2.131637
C       1.555838    -0.434703     0.051961
H       1.660141     0.408252    -0.633983
H       2.455721    -1.046795    -0.013911
C      -0.782577    -1.972394    -3.080099
H      -0.283291    -1.086959    -3.493539
H       0.020815    -2.655272    -2.785921
C      -1.638211    -2.631274    -4.163216
H      -2.469112    -1.987096    -4.467786
H      -1.038243    -2.843375    -5.052746
H      -2.062776    -3.578839    -3.819613
O      -3.720442    -0.289585    -1.731507
C      -4.403410     0.953099    -1.827722
H      -3.820664     1.734522    -1.318992
H      -4.510654     1.245849    -2.881400
C      -5.753364     0.819916    -1.173185
C      -5.840231     0.364673     0.142196
C      -6.916625     1.164549    -1.850611
C      -7.073950     0.258529     0.767011
H      -4.931947     0.090012     0.669530
C      -8.155673     1.062893    -1.224498
H      -6.857094     1.513232    -2.878084
C      -8.235980     0.609826     0.084857
H      -7.132477    -0.098708     1.790522
H      -9.057600     1.335971    -1.763406
H      -9.200955     0.527818     0.575090
C      -0.750985    -0.725188    -0.884045
O      -1.618847    -0.048639     0.034195
C      -1.415441     0.542381    -1.244159
C      -0.888791     1.938589    -1.311296
O      -0.195669     2.451146    -0.473738
O      -1.282063     2.538448    -2.444574
C      -0.821037     3.888079    -2.616688
H      -1.234253     4.219832    -3.568059
H      -1.178417     4.517433    -1.799173
H       0.270336     3.913115    -2.641160
72
     -1725.755721     -1725.224163  -0.73   2.14
C      -2.485613     3.445162     0.843167
C      -1.934771     2.175293     1.093671
C      -0.581989     2.096613     1.456923
C       0.167925     3.247431     1.529015
C      -0.404884     4.509336     1.256881
C      -1.739555     4.631173     0.915214
C      -4.089549     1.925127     0.553100
C      -2.982575     1.207628     0.889683
H      -0.125246     1.137682     1.669540
H       1.216762     3.218237     1.803264
H      -2.198980     5.588585     0.707215
H      -5.080166     1.579147     0.290346
N      -3.807543     3.277447     0.525389
C      -4.726964     4.326491     0.155063
H      -4.396890     4.836535    -0.756253
H      -5.707591     3.886443    -0.032413
H      -4.826685     5.063396     0.958951
O       0.458026     5.563737     1.365219
C      -0.051090     6.857474     1.115086
H      -0.427645     6.948295     0.088351
H      -0.852370     7.115519     1.819003
H       0.783559     7.545790     1.253380
N      -1.343049    -0.249538    -1.166281
C      -1.338183     0.991571    -1.797017
O      -2.369006     1.520445    -2.151128
C       0.007566     1.706001    -2.044626
H      -0.062960     2.627062    -1.459471
H      -0.044861     2.014989    -3.092199
C       1.339987     0.968362    -1.747488
H       2.122817     1.309204    -2.429263
H       1.671988     1.178878    -0.729225
C       1.039719    -0.515339    -1.872519
C       1.844844    -1.661526    -1.168783
H       2.071383    -2.485787    -1.853469
C      -2.842539    -0.285573     0.842606
H      -3.764710    -0.764931     1.188272
H      -2.039202    -0.621566     1.502763
C      -2.570423    -0.791486    -0.586113
H      -2.490076    -1.881281    -0.590681
H      -3.385516    -0.493272    -1.247638
C       0.675222    -0.949804    -3.299363
H       0.284442    -1.974606    -3.260522
H      -0.142342    -0.334351    -3.688493
C       1.856784    -0.886155    -4.269384
H       2.196334     0.142340    -4.421946
H       2.711046    -1.465772    -3.905099
H       1.575572    -1.287791    -5.247216
O       2.990554    -1.230021    -0.499083
C       3.809673    -2.271729     0.007600
H       3.987126    -3.024712    -0.772946
H       4.768665    -1.795200     0.233416
C       3.265826    -2.943005     1.252461
C       3.465288    -4.305098     1.453904
C       2.596300    -2.203895     2.225047
C       3.005829    -4.923923     2.610891
H       3.979124    -4.891439     0.696641
C       2.128223    -2.821982     3.377023
H       2.429328    -1.144043     2.068068
C       2.332876    -4.183131     3.574613
H       3.172502    -5.986843     2.757752
H       1.598513    -2.238869     4.123395
H       1.968095    -4.664214     4.476580
C      -0.089015    -0.781714    -0.893900
O       0.427765    -0.739441     0.440621
C       0.593967    -1.946089    -0.290619
C       0.054545    -3.213668     0.280947
O      -0.780426    -3.274922     1.143139
O       0.604819    -4.270566    -0.328836
C       0.189010    -5.548128     0.178266
H       0.738188    -6.286847    -0.403796
H       0.439715    -5.627805     1.237498
H      -0.887495    -5.675325     0.045799
72
     -1725.753710     -1725.223939   0.53   2.28
C       2.746912    -1.726423     2.651496
C       3.227284    -1.036463     1.525300
C       4.522632    -1.321077     1.071100
C       5.283873    -2.254721     1.733988
C       4.779911    -2.931735     2.866366
C       3.506409    -2.681228     3.344439
C       1.142387    -0.339486     1.950208
C       2.182500    -0.146954     1.091410
H       4.928049    -0.814561     0.200479
H       6.288673    -2.498025     1.406812
H       3.102392    -3.192156     4.208693
H       0.167545     0.128598     1.953255
N       1.467678    -1.295017     2.898600
C       0.624790    -1.731495     3.985859
H       1.064501    -1.476860     4.956415
H      -0.342981    -1.234065     3.904140
H       0.461639    -2.813765     3.946156
O       5.645202    -3.830773     3.424599
C       5.204771    -4.549774     4.557596
H       4.972709    -3.877776     5.393604
H       4.321767    -5.159269     4.327026
H       6.028535    -5.205335     4.842616
N       0.610843    -0.743381    -1.345708
C       0.610614    -2.061662    -0.893403
O       1.626841    -2.718017    -0.867980
C      -0.711870    -2.701977    -0.418878
H      -0.523603    -2.961938     0.626762
H      -0.749650    -3.655764    -0.952254
C      -2.047435    -1.928566    -0.566843
H      -2.873588    -2.624998    -0.728272
H      -2.266713    -1.361931     0.340204
C      -1.851617    -0.956841    -1.716535
C      -2.640424     0.383648    -1.889267
H      -2.983032     0.535559    -2.918790
C       2.195709     0.746426    -0.111377
H       3.184366     1.204741    -0.230374
H       1.478622     1.557545     0.024819
C       1.867935    -0.002299    -1.416136
H       1.804163     0.700869    -2.252097
H       2.641741    -0.738544    -1.637232
C      -1.683671    -1.639774    -3.080571
H      -1.349956    -0.886354    -3.805266
H      -0.884170    -2.386773    -3.036555
C      -2.966678    -2.304291    -3.583481
H      -3.799673    -1.595172    -3.621241
H      -2.824438    -2.704489    -4.591538
H      -3.268569    -3.135656    -2.939856
O      -3.678549     0.558405    -0.972712
C      -4.418860     1.758315    -1.146233
H      -4.688042     1.886627    -2.203354
H      -5.343682     1.607411    -0.581196
C      -3.706291     2.997396    -0.642524
C      -3.753010     4.181372    -1.370725
C      -3.021493     2.973831     0.571256
C      -3.133023     5.330791    -0.892650
H      -4.265179     4.204300    -2.328278
C      -2.393958     4.116897     1.046034
H      -2.968216     2.048339     1.133967
C      -2.451259     5.300691     0.316903
H      -3.180962     6.249112    -1.469963
H      -1.857651     4.085434     1.989194
H      -1.963426     6.195603     0.690983
C      -0.634801    -0.126461    -1.345938
O      -0.987199     0.768580    -0.277754
C      -1.325089     1.153977    -1.604168
C      -0.902014     2.443323    -2.217310
O      -1.365423     2.830777    -3.260804
O       0.029350     3.082492    -1.510438
C       0.441567     4.348403    -2.048775
H      -0.412273     5.025815    -2.099515
H       1.191809     4.729364    -1.357224
H       0.864751     4.217202    -3.047070
72
     -1725.753710     -1725.223934   0.53   2.28
C       3.213615     0.129270     2.685584
C       3.414876     0.551552     1.360333
C       4.722359     0.561555     0.854748
C       5.764088     0.166380     1.660500
C       5.536379    -0.249759     2.990757
C       4.261327    -0.276172     3.526163
C       1.224946     0.655423     1.814802
C       2.124919     0.888975     0.818838
H       4.919030     0.874550    -0.166162
H       6.786300     0.161675     1.298661
H       4.067339    -0.594659     4.542108
H       0.149860     0.771264     1.800694
N       1.868433     0.192175     2.950419
C       1.240062    -0.128090     4.209660
H       0.160288    -0.009853     4.105728
H       1.448077    -1.163372     4.500219
H       1.586478     0.538104     5.007373
O       6.662664    -0.613577     3.674673
C       6.508878    -1.047315     5.009906
H       6.080232    -0.258354     5.640893
H       5.876982    -1.942537     5.070141
H       7.509595    -1.289875     5.369507
N       0.800243    -0.891791    -1.140616
C       1.249637    -1.936001    -0.334319
O       2.427275    -2.199145    -0.244372
C       0.226709    -2.778836     0.457761
H       0.509924    -2.630344     1.503767
H       0.500948    -3.811923     0.227219
C      -1.293174    -2.548479     0.256069
H      -1.841153    -3.482605     0.400062
H      -1.673213    -1.828192     0.983152
C      -1.454781    -1.969588    -1.137901
C      -2.649929    -1.066321    -1.590334
H      -3.042071    -1.355230    -2.571727
C       1.816573     1.323900    -0.581434
H       2.592352     2.008500    -0.943574
H       0.871828     1.869676    -0.597625
C       1.735081     0.145852    -1.569354
H       1.424496     0.499137    -2.557315
H       2.706662    -0.341131    -1.662048
C      -1.092364    -2.951538    -2.260233
H      -1.043315    -2.394217    -3.204254
H      -0.088209    -3.358245    -2.100827
C      -2.087558    -4.105623    -2.395446
H      -3.110469    -3.741496    -2.534088
H      -1.837647    -4.731781    -3.256863
H      -2.081978    -4.748007    -1.510080
O      -3.669984    -0.951583    -0.644481
C      -4.772377    -0.159600    -1.063347
H      -5.087939    -0.455215    -2.073030
H      -5.582946    -0.410372    -0.372389
C      -4.506975     1.331957    -1.023112
C      -4.960564     2.155636    -2.047839
C      -3.832139     1.900248     0.055965
C      -4.752815     3.529749    -1.995327
H      -5.467952     1.720000    -2.903718
C      -3.615211     3.270002     0.106253
H      -3.461906     1.259633     0.848781
C      -4.078725     4.089915    -0.918043
H      -5.115880     4.161087    -2.800622
H      -3.082483     3.701092     0.947995
H      -3.912114     5.161950    -0.876000
C      -0.579866    -0.728163    -1.167922
O      -1.192403     0.295093    -0.365398
C      -1.663626     0.125640    -1.696304
C      -1.707862     1.226680    -2.697853
O      -2.292938     1.107126    -3.745299
O      -1.031790     2.310814    -2.319405
C      -1.077062     3.410511    -3.241835
H      -0.485427     4.201288    -2.782622
H      -0.652386     3.116958    -4.204315
H      -2.109225     3.735627    -3.381287
72
     -1725.754336     -1725.223898   0.14   2.30
C      -1.287026    -2.665844     3.150954
C      -1.172665    -2.190549     1.831896
C       0.049290    -2.365882     1.165108
C       1.099354    -2.963917     1.821909
C       0.963955    -3.418192     3.152334
C      -0.229939    -3.282492     3.837228
C      -3.237262    -1.755476     2.571506
C      -2.437945    -1.597067     1.480807
H       0.172690    -2.023518     0.144956
H       2.057174    -3.109050     1.334449
H      -0.356299    -3.627773     4.854957
H      -4.254859    -1.426064     2.732842
N      -2.558854    -2.402360     3.586639
C      -3.078054    -2.690890     4.902017
H      -2.514044    -2.156573     5.673949
H      -4.118722    -2.366633     4.949562
H      -3.040346    -3.764845     5.113002
O       2.088451    -3.990239     3.677864
C       2.020560    -4.476003     5.002645
H       1.266339    -5.266954     5.100970
H       3.004835    -4.888757     5.227069
H       1.796036    -3.670798     5.713599
N      -1.149213     1.042463     0.840861
C      -0.715918     0.965676     2.161933
O      -1.504585     0.937121     3.080905
C       0.798057     0.890752     2.451669
H       0.943827    -0.117478     2.850231
H       0.941500     1.566173     3.298501
C       1.821026     1.179290     1.317301
H       2.692108     1.706375     1.717546
H       2.169242     0.245865     0.871915
C       1.086490     1.994030     0.265534
C       1.466336     2.014386    -1.253114
H       1.511607     3.027694    -1.662536
C      -2.754354    -0.791266     0.254988
H      -3.804514    -0.923981    -0.026629
H      -2.150667    -1.122823    -0.593367
C      -2.527099     0.714715     0.481502
H      -2.779996     1.272779    -0.423938
H      -3.155336     1.066395     1.301758
C       0.763698     3.409069     0.775563
H       0.474545     3.354920     1.830608
H       1.703155     3.976068     0.755876
C      -0.321479     4.182944     0.021014
H      -0.091889     4.315706    -1.040068
H      -1.291411     3.683025     0.096053
H      -0.432652     5.180606     0.455898
O       2.631219     1.304212    -1.552820
C       3.089699     1.454302    -2.886694
H       3.122643     2.519314    -3.156042
H       4.119031     1.082681    -2.877093
C       2.278667     0.690421    -3.913408
C       1.766068    -0.571074    -3.618757
C       2.069573     1.228448    -5.179196
C       1.050880    -1.278525    -4.575830
H       1.917215    -0.990117    -2.629968
C       1.361793     0.517750    -6.141908
H       2.457826     2.215828    -5.414919
C       0.848080    -0.737509    -5.840783
H       0.647101    -2.255981    -4.332459
H       1.209790     0.947379    -7.127543
H       0.290190    -1.292448    -6.588357
C      -0.138603     1.180174    -0.103021
O       0.268949     0.048833    -0.879099
C       0.123005     1.288866    -1.555421
C      -0.808132     1.367541    -2.717674
O      -1.684549     0.578484    -2.948116
O      -0.552137     2.461915    -3.445997
C      -1.357494     2.607986    -4.625838
H      -2.412197     2.693706    -4.355837
H      -1.008199     3.520040    -5.107884
H      -1.215570     1.747140    -5.281595
72
     -1725.754336     -1725.223886   0.14   2.31
C       4.047472     0.740264    -1.326880
C       3.019098     0.070067    -0.639725
C       2.128254    -0.720183    -1.381629
C       2.264859    -0.793367    -2.748247
C       3.296471    -0.097740    -3.416542
C       4.207094     0.675277    -2.719344
C       4.241718     1.213260     0.842556
C       3.155379     0.397060     0.757023
H       1.330319    -1.260509    -0.887163
H       1.588977    -1.392071    -3.348944
H       5.007493     1.212282    -3.211222
H       4.667731     1.703827     1.707369
N       4.793869     1.426901    -0.405906
C       5.921416     2.279049    -0.698337
H       5.627469     3.113166    -1.344332
H       6.307040     2.687440     0.237024
H       6.723774     1.716190    -1.186952
O       3.309855    -0.261304    -4.773367
C       4.322102     0.399153    -5.504651
H       4.256174     1.488131    -5.386325
H       5.320921     0.061444    -5.200624
H       4.159450     0.141478    -6.551873
N       0.354731     1.481394     0.891061
C       0.811851     2.333899    -0.110518
O       1.721265     3.108383     0.090639
C       0.159466     2.267681    -1.507545
H       0.948886     1.870149    -2.152064
H       0.041757     3.314690    -1.797055
C      -1.160164     1.471760    -1.711440
H      -1.803044     1.982618    -2.434301
H      -0.947196     0.473875    -2.098452
C      -1.811650     1.351274    -0.343737
C      -2.781250     0.193251     0.068391
H      -3.685974     0.557447     0.563669
C       2.191465     0.079588     1.862528
H       2.728177    -0.055976     2.807683
H       1.661163    -0.853774     1.658355
C       1.166825     1.209168     2.074925
H       0.490400     0.953034     2.894716
H       1.683597     2.138959     2.319087
C      -2.329709     2.711823     0.153441
H      -1.615185     3.493649    -0.125592
H      -3.243179     2.930823    -0.414068
C      -2.612673     2.835360     1.653610
H      -3.349714     2.110309     2.010403
H      -1.700054     2.705886     2.242408
H      -3.005817     3.832263     1.873690
O      -3.102037    -0.673549    -0.978933
C      -4.111893    -1.621962    -0.674537
H      -4.975703    -1.118879    -0.217785
H      -4.432403    -2.016983    -1.643532
C      -3.650828    -2.758427     0.215013
C      -2.375413    -3.300473     0.072021
C      -4.514866    -3.298818     1.162024
C      -1.971501    -4.362962     0.869480
H      -1.694499    -2.875674    -0.657395
C      -4.115668    -4.368707     1.955016
H      -5.508415    -2.876338     1.286915
C      -2.840635    -4.901700     1.811977
H      -0.972203    -4.770924     0.756967
H      -4.801654    -4.784046     2.687190
H      -2.523973    -5.733270     2.433493
C      -0.763685     0.727213     0.557022
O      -0.613323    -0.653363     0.211053
C      -1.694064    -0.305768     1.064037
C      -1.796937    -0.965204     2.397674
O      -0.892419    -1.524314     2.957189
O      -3.029787    -0.813149     2.898305
C      -3.256581    -1.459881     4.160152
H      -4.298653    -1.262164     4.407562
H      -3.080233    -2.532748     4.064890
H      -2.593532    -1.045255     4.922451
72
     -1725.753559     -1725.223825   0.63   2.35
C       2.506444     2.233517     2.645621
C       2.138791     1.428564     1.544495
C       1.418602     2.019212     0.505440
C       1.061124     3.354642     0.584524
C       1.429918     4.129410     1.701553
C       2.159823     3.579521     2.743255
C       3.280673     0.173004     3.001982
C       2.642923     0.101063     1.802233
H       1.124788     1.437460    -0.359991
H       0.497784     3.795409    -0.227841
H       2.434702     4.199298     3.589029
H       3.772425    -0.608116     3.566291
N       3.212523     1.451355     3.522103
C       3.734592     1.880661     4.797301
H       4.448208     2.701758     4.672244
H       2.928168     2.209892     5.461071
H       4.250300     1.042743     5.269040
O       1.108969     5.451884     1.841942
C       0.384301     6.075643     0.801044
H       0.938769     6.051706    -0.145138
H      -0.597317     5.607309     0.657360
H       0.245066     7.112664     1.109413
N      -0.085049    -1.144984     1.510202
C      -0.419234    -0.283374     2.552493
O       0.114280    -0.373963     3.636034
C      -1.469659     0.819349     2.305528
H      -0.896492     1.749895     2.356930
H      -2.088746     0.804829     3.205668
C      -2.340457     0.787438     1.018388
H      -3.354152     1.135263     1.237675
H      -1.918539     1.444652     0.255798
C      -2.318112    -0.644647     0.511937
C      -2.519195    -1.052700    -0.984382
H      -3.224560    -1.879576    -1.109298
C       2.370356    -1.145134     1.012002
H       3.232747    -1.819446     1.057112
H       2.208589    -0.900812    -0.041041
C       1.151585    -1.919458     1.547749
H       0.995013    -2.831647     0.964256
H       1.316316    -2.195917     2.590713
C      -3.092476    -1.588296     1.448754
H      -2.908151    -1.297244     2.488670
H      -4.159692    -1.401656     1.274517
C      -2.801797    -3.085840     1.309574
H      -2.991443    -3.467673     0.302922
H      -1.762537    -3.314525     1.563185
H      -3.438274    -3.649630     1.997901
O      -2.846778     0.016170    -1.822393
C      -3.060784    -0.349375    -3.178044
H      -3.727412    -1.220675    -3.234010
H      -3.584334     0.501577    -3.624189
C      -1.784118    -0.627314    -3.945484
C      -0.685076     0.219992    -3.814185
C      -1.702295    -1.713036    -4.810486
C       0.475546    -0.017471    -4.536255
H      -0.739376     1.057927    -3.127681
C      -0.543351    -1.948261    -5.542612
H      -2.545259    -2.391614    -4.903686
C       0.548485    -1.101223    -5.406261
H       1.327802     0.644670    -4.420891
H      -0.494849    -2.797653    -6.217183
H       1.455659    -1.284252    -5.974024
C      -0.853488    -1.007691     0.360284
O      -0.310658    -0.323424    -0.778721
C      -1.037624    -1.519363    -1.015498
C      -0.473165    -2.679497    -1.756220
O      -1.162363    -3.602190    -2.114520
O       0.842701    -2.588334    -1.945899
C       1.429492    -3.669423    -2.686925
H       2.490838    -3.434506    -2.753918
H       1.273764    -4.616535    -2.165588
H       0.984752    -3.722005    -3.681879
72
     -1725.748581     -1725.223775   3.75   2.38
C       1.495871    -3.822483     3.716564
C       1.365070    -3.435352     2.366287
C       2.078407    -4.137179     1.393165
C       2.898493    -5.187232     1.772518
C       3.014624    -5.551168     3.128202
C       2.315897    -4.876275     4.117177
C       0.074303    -2.100372     3.617505
C       0.444780    -2.323987     2.328073
H       1.995308    -3.866510     0.344315
H       3.448280    -5.724973     1.011242
H       2.425196    -5.180955     5.151719
H      -0.607983    -1.361900     4.017575
N       0.699980    -2.996959     4.470793
C       0.544675    -3.063609     5.903601
H       1.501096    -2.899078     6.411559
H      -0.153330    -2.287691     6.222630
H       0.145398    -4.036014     6.211391
O       3.807708    -6.576958     3.566476
C       4.548006    -7.303367     2.606559
H       5.102901    -8.060292     3.162613
H       3.890298    -7.798379     1.881397
H       5.255421    -6.657951     2.071311
N       0.932195    -0.258494    -0.818511
C       1.043010    -1.123320    -1.898563
O       1.529090    -2.227717    -1.765472
C       0.565592    -0.667298    -3.292599
H      -0.059309    -1.487698    -3.654050
H       1.471873    -0.702236    -3.905486
C      -0.152392     0.695321    -3.456107
H      -0.014781     1.074077    -4.471523
H      -1.224849     0.583727    -3.287669
C       0.418194     1.615815    -2.391625
C      -0.346498     2.839965    -1.786050
H       0.279786     3.737112    -1.714166
C       0.029709    -1.577535     1.099042
H      -0.810996    -0.914418     1.311812
H      -0.298613    -2.286759     0.331381
C       1.196207    -0.759932     0.528643
H       1.415207     0.096604     1.168781
H       2.092112    -1.377785     0.467289
C       1.894607     1.973515    -2.605599
H       2.263341     2.479227    -1.704430
H       2.494120     1.062568    -2.701209
C       2.128830     2.865521    -3.825822
H       1.525400     3.777473    -3.779114
H       3.179138     3.163946    -3.889480
H       1.877129     2.349098    -4.756575
O      -1.564453     3.099728    -2.404504
C      -2.318465     4.127873    -1.773955
H      -2.410060     3.915071    -0.699678
H      -1.803240     5.092258    -1.880168
C      -3.686104     4.184312    -2.403061
C      -4.200517     5.377641    -2.895472
C      -4.462535     3.027919    -2.473874
C      -5.477385     5.423101    -3.447910
H      -3.598588     6.281246    -2.850830
C      -5.733593     3.069477    -3.027635
H      -4.058904     2.094033    -2.095232
C      -6.245734     4.269265    -3.514710
H      -5.868536     6.361680    -3.828185
H      -6.329923     2.163749    -3.080188
H      -7.241119     4.301169    -3.946531
C       0.200226     0.896860    -1.073145
O      -1.197039     0.921741    -0.743826
C      -0.421334     2.075639    -0.435878
C      -0.381709     2.659508     0.935330
O      -0.180440     3.831813     1.132053
O      -0.577342     1.751895     1.894289
C      -0.544319     2.262987     3.235869
H      -1.345477     2.990532     3.381436
H      -0.688995     1.398552     3.882371
H       0.417085     2.739854     3.437865
72
     -1725.749866     -1725.223664   2.95   2.45
C       2.158889    -1.757094     3.423931
C       3.033119    -1.499212     2.354100
C       4.211745    -2.252126     2.259405
C       4.482432    -3.210604     3.207493
C       3.589853    -3.447836     4.275892
C       2.415423    -2.728268     4.403556
C       1.271164    -0.130388     2.176634
C       2.446820    -0.447650     1.565708
H       4.909312    -2.087537     1.443837
H       5.384761    -3.810234     3.161456
H       1.718111    -2.898278     5.213573
H       0.529731     0.601144     1.886231
N       1.081258    -0.916568     3.301758
C      -0.034459    -0.836347     4.213389
H       0.291085    -0.531666     5.214109
H      -0.742588    -0.094655     3.840352
H      -0.550506    -1.799491     4.289061
O       3.986330    -4.427748     5.142856
C       3.138026    -4.722831     6.232640
H       2.154312    -5.070287     5.892103
H       3.626342    -5.521374     6.792552
H       3.007595    -3.851279     6.886681
N       1.212331    -1.045246    -1.056126
C       0.679847    -2.171850    -0.432033
O       1.386841    -3.084853    -0.071012
C      -0.843604    -2.261996    -0.198182
H      -0.944697    -2.322212     0.889203
H      -1.109089    -3.255407    -0.569637
C      -1.785714    -1.178776    -0.783242
H      -2.753805    -1.615598    -1.039322
H      -1.963776    -0.387570    -0.052900
C      -1.062711    -0.586932    -1.979498
C      -1.309397     0.855716    -2.532793
H      -1.407743     0.876053    -3.624460
C       2.972494     0.120779     0.282739
H       4.062857     0.218742     0.333449
H       2.568003     1.120808     0.120849
C       2.641385    -0.756580    -0.936631
H       2.968813    -0.262033    -1.854738
H       3.137728    -1.724391    -0.857712
C      -0.891530    -1.570171    -3.144736
H      -0.192841    -1.133152    -3.869314
H      -0.417862    -2.493046    -2.794512
C      -2.208708    -1.913619    -3.843022
H      -2.888793    -2.451707    -3.176553
H      -2.728178    -1.015118    -4.190782
H      -2.028707    -2.551291    -4.713291
O      -2.356081     1.526236    -1.907355
C      -2.465611     2.892589    -2.284310
H      -1.509183     3.403205    -2.099899
H      -2.687411     2.972008    -3.357574
C      -3.554610     3.540293    -1.470058
C      -4.597616     4.223526    -2.083557
C      -3.509552     3.475429    -0.077824
C      -5.584002     4.841466    -1.320247
H      -4.643507     4.272507    -3.168109
C      -4.493150     4.086629     0.685421
H      -2.698314     2.937087     0.402222
C      -5.533166     4.773868     0.065014
H      -6.393254     5.373182    -1.810971
H      -4.450547     4.028930     1.768665
H      -6.301931     5.253264     0.662813
C       0.273837    -0.098440    -1.446736
O       0.059971     1.072501    -0.648110
C       0.122269     1.237719    -2.061827
C       1.130051     2.177706    -2.635025
O       2.179949     2.458181    -2.121303
O       0.711656     2.655131    -3.816839
C       1.615259     3.565180    -4.464307
H       2.566764     3.069880    -4.668262
H       1.125048     3.853955    -5.392936
H       1.791237     4.437744    -3.831941
72
     -1725.753330     -1725.223475   0.77   2.57
C      -3.068680     1.535239     2.843319
C      -1.805680     1.436503     2.217871
C      -1.670662     1.930113     0.919730
C      -2.766059     2.473386     0.269630
C      -4.016909     2.545200     0.913147
C      -4.182433     2.080858     2.208356
C      -1.657434     0.568872     4.273961
C      -0.914162     0.801214     3.158277
H      -0.716151     1.880773     0.409938
H      -2.644896     2.846670    -0.739100
H      -5.154823     2.152924     2.681990
H      -1.373923     0.085754     5.199500
N      -2.956693     1.008865     4.103544
C      -4.031121     0.880065     5.058205
H      -4.829179     0.239769     4.667653
H      -3.640977     0.427875     5.971409
H      -4.452955     1.859197     5.308323
O      -5.137709     3.068700     0.328418
C      -5.027063     3.579049    -0.984904
H      -4.730076     2.798455    -1.696269
H      -6.018884     3.947529    -1.250321
H      -4.308969     4.406742    -1.035357
N      -0.216976    -1.403743     1.231828
C      -1.586827    -1.650764     1.259622
O      -2.145991    -1.976519     2.283477
C      -2.405155    -1.477635    -0.037381
H      -3.032293    -0.602676     0.158293
H      -3.085180    -2.332743    -0.040435
C      -1.675467    -1.328135    -1.402177
H      -2.232684    -1.845310    -2.188794
H      -1.600094    -0.275781    -1.681224
C      -0.279138    -1.897592    -1.214572
C       0.969170    -1.452545    -2.048056
H       1.550244    -2.300552    -2.421781
C       0.485871     0.323345     2.905637
H       1.085244     0.406251     3.818726
H       0.973476     0.939583     2.146301
C       0.525992    -1.150956     2.464107
H       1.560546    -1.466263     2.304196
H       0.077900    -1.782644     3.233111
C      -0.315028    -3.425502    -1.039911
H      -1.182828    -3.698296    -0.429712
H      -0.505488    -3.854431    -2.031973
C       0.926769    -4.078494    -0.425679
H       1.838268    -3.885498    -0.998526
H       1.092676    -3.732443     0.598543
H       0.791811    -5.163427    -0.387046
O       0.669222    -0.560954    -3.080652
C       1.748934    -0.286733    -3.958764
H       2.212766    -1.226354    -4.290202
H       1.290846     0.183771    -4.834249
C       2.805921     0.630411    -3.378352
C       4.147311     0.437400    -3.692637
C       2.447748     1.697291    -2.557085
C       5.120631     1.298647    -3.198879
H       4.436940    -0.397858    -4.324820
C       3.419268     2.553084    -2.055352
H       1.404467     1.845441    -2.300555
C       4.758282     2.357890    -2.376120
H       6.163588     1.139423    -3.455852
H       3.130399     3.375027    -1.408328
H       5.516356     3.028775    -1.984567
C       0.310539    -1.157364    -0.029861
O       0.617498     0.184038    -0.424378
C       1.559587    -0.827264    -0.750897
C       2.963178    -0.684654    -0.267454
O       3.308869     0.034994     0.630548
O       3.775985    -1.500109    -0.951456
C       5.165939    -1.403079    -0.604160
H       5.681611    -2.101573    -1.261727
H       5.520280    -0.384291    -0.770638
H       5.314451    -1.676946     0.442545
72
     -1725.747591     -1725.223134   4.37   2.78
C       4.484216    -1.476095     1.557434
C       3.928985    -1.493056     0.258564
C       4.257018    -2.552574    -0.588361
C       5.103370    -3.555339    -0.145819
C       5.640267    -3.513020     1.155471
C       5.339078    -2.473296     2.021756
C       3.207124     0.341802     1.323306
C       3.109480    -0.311311     0.133601
H       3.857739    -2.599401    -1.596702
H       5.348293    -4.370491    -0.814065
H       5.769010    -2.466412     3.016800
H       2.728433     1.260435     1.638290
N       4.028333    -0.350371     2.197568
C       4.394009     0.063765     3.531758
H       5.465325     0.281456     3.600137
H       3.838792     0.967852     3.786867
H       4.146425    -0.713225     4.262606
O       6.480557    -4.468831     1.654577
C       6.825229    -5.556759     0.819965
H       5.940487    -6.136582     0.529540
H       7.350622    -5.220520    -0.082376
H       7.491408    -6.189242     1.408102
N       0.044955    -0.250377    -2.043405
C      -0.169756    -0.320337    -3.406672
O       0.611943    -0.887581    -4.140723
C      -1.432892     0.349829    -3.995340
H      -1.962390    -0.455981    -4.510684
H      -1.037414     0.989154    -4.789955
C      -2.400979     1.149211    -3.078488
H      -2.881254     1.948457    -3.647636
H      -3.187662     0.497281    -2.695291
C      -1.572974     1.656974    -1.909498
C      -2.127677     1.972485    -0.477048
H      -1.744644     2.917669    -0.074098
C       2.272245     0.110612    -1.033939
H       2.887202     0.280975    -1.925113
H       1.805736     1.070356    -0.790247
C       1.164519    -0.901932    -1.374280
H       1.530011    -1.687449    -2.035092
H       0.779173    -1.369608    -0.465663
C      -0.526446     2.707835    -2.302690
H       0.137066     2.873658    -1.444630
H       0.112023     2.326015    -3.106613
C      -1.142112     4.039764    -2.734144
H      -1.723545     3.934843    -3.654481
H      -1.808589     4.441772    -1.964622
H      -0.361990     4.783184    -2.921040
O      -3.510868     1.879209    -0.375760
C      -3.994087     1.984052     0.956712
H      -3.404647     1.330326     1.616658
H      -3.882135     3.014987     1.319457
C      -5.439869     1.562606     0.986893
C      -6.417411     2.385345     1.533066
C      -5.803801     0.315904     0.478362
C      -7.745383     1.970579     1.578782
H      -6.141858     3.360986     1.924262
C      -7.126996    -0.097921     0.519150
H      -5.040295    -0.323681     0.046287
C      -8.101838     0.728673     1.072052
H      -8.500444     2.621383     2.008703
H      -7.402178    -1.069062     0.119353
H      -9.136888     0.403274     1.104749
C      -0.930685     0.420486    -1.319363
O      -1.924110    -0.353449    -0.627596
C      -1.335524     0.740594     0.059037
C      -0.630128     0.582132     1.362581
O      -0.207059     1.528784     1.981277
O      -0.520435    -0.691193     1.735963
C       0.174442    -0.929495     2.970483
H      -0.252796    -0.323085     3.771337
H       0.041944    -1.990595     3.177360
H       1.234305    -0.696426     2.852570
72
     -1725.752080     -1725.222878   1.56   2.94
C       3.793207    -2.706918    -0.256918
C       3.078924    -1.498687    -0.351339
C       2.772960    -0.812778     0.833795
C       3.152808    -1.347581     2.042808
C       3.857250    -2.569717     2.111377
C       4.193323    -3.267331     0.965530
C       3.395017    -2.304970    -2.413188
C       2.824913    -1.261418    -1.749894
H       2.233871     0.126210     0.802933
H       2.927159    -0.841976     2.975303
H       4.735793    -4.203200     0.995200
H       3.413565    -2.519338    -3.473333
N       3.987018    -3.184489    -1.526650
C       4.643572    -4.422431    -1.872527
H       4.117125    -5.281057    -1.442369
H       4.646507    -4.529123    -2.958392
H       5.680944    -4.429052    -1.521635
O       4.168122    -2.979931     3.377356
C       4.880932    -4.191344     3.518948
H       5.028085    -4.335387     4.589988
H       4.313634    -5.039465     3.115109
H       5.858827    -4.140784     3.023670
N      -0.152223    -0.998172    -1.280989
C      -0.042828    -2.276499    -0.739042
O       0.340034    -3.210599    -1.407465
C      -0.398432    -2.490657     0.747507
H       0.559638    -2.729205     1.218482
H      -0.969978    -3.421862     0.752920
C      -1.130308    -1.372202     1.542347
H      -1.844853    -1.812510     2.243991
H      -0.415353    -0.782568     2.118296
C      -1.805878    -0.477511     0.516779
C      -2.127199     1.039134     0.743385
H      -3.144591     1.309556     0.453356
C       1.964610    -0.188771    -2.351194
H       2.345671     0.091146    -3.339233
H       1.983625     0.712787    -1.733781
C       0.507984    -0.649871    -2.536156
H      -0.079407     0.137891    -3.017065
H       0.476565    -1.542058    -3.163961
C      -2.978759    -1.197011    -0.169989
H      -2.704103    -2.242397    -0.347587
H      -3.800843    -1.227193     0.556249
C      -3.479224    -0.601614    -1.488931
H      -3.820327     0.431853    -1.386734
H      -2.701358    -0.624668    -2.257840
H      -4.323989    -1.188861    -1.860676
O      -1.835837     1.485642     2.038928
C      -1.460937     2.852248     2.142410
H      -1.257096     3.003903     3.206296
H      -0.523120     3.027300     1.599009
C      -2.520052     3.825130     1.670811
C      -2.162771     4.940516     0.920016
C      -3.861032     3.629128     1.996020
C      -3.127830     5.850661     0.501833
H      -1.120058     5.096746     0.655205
C      -4.827558     4.532197     1.574351
H      -4.144648     2.760219     2.582653
C      -4.462903     5.647467     0.826385
H      -2.834987     6.721175    -0.077518
H      -5.869211     4.367972     1.832414
H      -5.217973     6.356005     0.500712
C      -0.709136    -0.047420    -0.436952
O       0.141440     0.907634     0.218547
C      -1.070683     1.380533    -0.345896
C      -1.035877     2.476265    -1.358797
O      -0.039780     2.959432    -1.826639
O      -2.285876     2.829534    -1.682714
C      -2.403167     3.914707    -2.615510
H      -1.866388     4.789400    -2.245026
H      -1.997181     3.622925    -3.586609
H      -3.469366     4.123307    -2.688362
72
     -1725.748051     -1725.222806   4.09   2.99
C       3.255988    -1.181501     4.223847
C       2.279580    -0.747827     3.309771
C       1.545365     0.409741     3.611142
C       1.805587     1.085829     4.780601
C       2.794857     0.633180     5.680960
C       3.535377    -0.505648     5.422268
C       3.230276    -2.608802     2.507711
C       2.277892    -1.682172     2.211160
H       0.775521     0.765693     2.935082
H       1.256658     1.982477     5.045437
H       4.296103    -0.868555     6.100882
H       3.545829    -3.473796     1.939530
N       3.830679    -2.321279     3.723077
C       4.875415    -3.088349     4.357169
H       5.127262    -3.937940     3.720293
H       5.778193    -2.484286     4.499460
H       4.549581    -3.471181     5.330539
O       2.943768     1.405286     6.799846
C       3.916427     1.011751     7.744723
H       3.697463     0.017971     8.155674
H       4.922749     1.008585     7.306849
H       3.877503     1.748322     8.548210
N       1.365589    -0.609158    -1.323770
C       1.842948    -1.539276    -2.238653
O       2.847983    -2.178942    -2.012164
C       1.099643    -1.743952    -3.576236
H       0.964088    -2.825375    -3.655758
H       1.849490    -1.490776    -4.332252
C      -0.227691    -0.994017    -3.850727
H      -0.367411    -0.855497    -4.925381
H      -1.075500    -1.571515    -3.478695
C      -0.151283     0.314482    -3.084007
C      -1.401264     1.107067    -2.574609
H      -1.331822     2.181269    -2.782338
C       1.450204    -1.619105     0.963274
H       0.400457    -1.426515     1.201014
H       1.501534    -2.579913     0.443096
C       1.965288    -0.532850     0.009267
H       1.765717     0.463795     0.409142
H       3.041787    -0.642116    -0.124924
C       0.904585     1.289033    -3.620368
H       1.017225     2.109880    -2.900777
H       1.881785     0.797731    -3.665243
C       0.558963     1.858082    -4.997397
H       0.548753     1.078165    -5.764071
H      -0.424751     2.338109    -5.000013
H       1.295578     2.607430    -5.300839
O      -2.614200     0.574047    -2.997101
C      -3.748037     1.167697    -2.379320
H      -3.632401     1.133868    -1.286091
H      -3.832461     2.222221    -2.676470
C      -4.981091     0.402269    -2.781928
C      -5.035841    -0.975854    -2.575145
C      -6.077921     1.049627    -3.337613
C      -6.173026    -1.691465    -2.919267
H      -4.176848    -1.482592    -2.146377
C      -7.221947     0.334455    -3.680040
H      -6.039549     2.122130    -3.508133
C      -7.270998    -1.036747    -3.471383
H      -6.206255    -2.764343    -2.756701
H      -8.073102     0.851093    -4.112552
H      -8.161098    -1.597353    -3.739082
C       0.122430    -0.075187    -1.642666
O      -1.059322    -0.663429    -1.083123
C      -0.980094     0.755264    -1.118265
C      -1.122494     1.516389     0.156849
O      -0.926815     1.065747     1.253241
O      -1.489029     2.782931    -0.089460
C      -1.653168     3.610628     1.072747
H      -1.934116     4.593056     0.696186
H      -2.435733     3.206132     1.718017
H      -0.716852     3.665885     1.631876
72
     -1725.749198     -1725.222713   3.37   3.05
C      -2.758741    -2.659937    -0.047198
C      -1.720330    -3.300111    -0.759403
C      -1.360168    -4.592981    -0.382286
C      -2.012792    -5.217296     0.669552
C      -3.043120    -4.553401     1.362780
C      -3.427588    -3.267217     1.012943
C      -2.034213    -1.263927    -1.632439
C      -1.267618    -2.378049    -1.773197
H      -0.567347    -5.121164    -0.903499
H      -1.719771    -6.220687     0.950222
H      -4.223097    -2.779856     1.565095
H      -2.002777    -0.333367    -2.181309
N      -2.933856    -1.414178    -0.592253
C      -3.895492    -0.432290    -0.151123
H      -3.719402    -0.152697     0.892742
H      -3.796607     0.461247    -0.769077
H      -4.918735    -0.810544    -0.248209
O      -3.723753    -5.105736     2.412554
C      -3.399604    -6.427221     2.796597
H      -3.570369    -7.136682     1.977644
H      -2.358133    -6.504961     3.132361
H      -4.062854    -6.671661     3.627328
N       1.284567    -0.552982    -2.349872
C       1.361301     0.048835    -3.594433
O       1.392739    -0.618642    -4.608485
C       1.397609     1.588119    -3.694545
H       0.463714     1.860078    -4.195498
H       2.185075     1.777464    -4.428517
C       1.609688     2.444988    -2.417143
H       2.206673     3.329440    -2.650725
H       0.652333     2.787831    -2.022515
C       2.266747     1.539561    -1.390409
C       2.123813     1.726367     0.155261
H       3.075851     1.601709     0.684607
C      -0.132526    -2.596165    -2.727667
H      -0.357167    -2.177428    -3.711283
H       0.012638    -3.671893    -2.874636
C       1.208145    -2.014927    -2.254645
H       1.391258    -2.281645    -1.212070
H       2.015208    -2.421990    -2.869991
C       3.704775     1.145052    -1.748431
H       4.021353     0.335724    -1.078397
H       3.743172     0.728522    -2.761048
C       4.691781     2.309595    -1.647620
H       4.670913     2.770470    -0.655226
H       5.713306     1.965995    -1.833927
H       4.469139     3.090399    -2.380374
O       1.473789     2.900455     0.523498
C       1.203327     2.986247     1.916548
H       0.612271     2.114721     2.233021
H       2.142459     2.975258     2.486086
C       0.433609     4.252595     2.188769
C       0.830926     5.128319     3.192161
C      -0.710129     4.544064     1.446292
C       0.094895     6.278955     3.459759
H       1.725801     4.913067     3.769772
C      -1.443402     5.692153     1.707778
H      -1.017566     3.864991     0.657418
C      -1.043536     6.562557     2.718231
H       0.415209     6.954200     4.247137
H      -2.331367     5.910844     1.122642
H      -1.618637     7.459993     2.923413
C       1.351956     0.330653    -1.273539
O       0.144572     0.733498    -0.611250
C       1.273396     0.430432     0.198060
C       1.208686    -0.554450     1.316809
O       1.980268    -0.513459     2.245135
O       0.237605    -1.446116     1.168535
C       0.121061    -2.411061     2.229296
H      -0.719294    -3.045284     1.958641
H       1.041507    -2.993690     2.306825
H      -0.063139    -1.900705     3.176722
72
     -1725.748596     -1725.222635   3.74   3.10
C       4.168052    -0.179741     1.214237
C       3.985595     0.516116     0.006906
C       5.060118     0.588145    -0.890458
C       6.253771    -0.013958    -0.568822
C       6.413489    -0.704254     0.652858
C       5.377132    -0.799818     1.563963
C       2.075447     0.601049     1.172447
C       2.635171     1.014051     0.000948
H       4.957837     1.111214    -1.836409
H       7.103066     0.022654    -1.242050
H       5.480235    -1.326992     2.503488
H       1.070241     0.758314     1.539230
N       2.990056    -0.125874     1.916521
C       2.763184    -0.684410     3.227990
H       1.727983    -0.496607     3.517485
H       2.931725    -1.766635     3.229259
H       3.420358    -0.224643     3.974192
O       7.651608    -1.252189     0.840122
C       7.880364    -1.964110     2.038300
H       7.206679    -2.825844     2.127049
H       8.911010    -2.317836     1.991405
H       7.760160    -1.318326     2.917412
N       0.572073    -0.219659    -1.735724
C       1.130684    -1.437402    -1.346783
O       2.235852    -1.765469    -1.712820
C       0.332255    -2.373312    -0.415820
H       0.910632    -2.376480     0.512973
H       0.476856    -3.365777    -0.849156
C      -1.167643    -2.093857    -0.128024
H      -1.723783    -3.034023    -0.069002
H      -1.289726    -1.574546     0.823821
C      -1.669255    -1.201855    -1.249636
C      -2.853565    -0.198235    -1.081249
H      -3.579691    -0.245026    -1.899265
C       1.950828     1.765113    -1.100149
H       2.639485     2.490902    -1.548015
H       1.110221     2.328213    -0.692660
C       1.439833     0.848583    -2.225554
H       0.882882     1.432785    -2.963907
H       2.274758     0.355270    -2.724660
C      -1.759648    -1.963829    -2.581955
H      -0.899541    -2.636786    -2.669945
H      -2.639863    -2.615410    -2.515240
C      -1.840141    -1.116795    -3.855101
H      -1.952911    -1.769610    -4.725578
H      -2.688718    -0.426987    -3.855461
H      -0.928411    -0.530659    -4.001467
O      -3.481787    -0.280132     0.159645
C      -4.463625     0.724501     0.361299
H      -3.989634     1.714203     0.408547
H      -5.162304     0.734700    -0.489213
C      -5.212262     0.450346     1.641711
C      -5.635869     1.506382     2.442567
C      -5.524553    -0.853773     2.020115
C      -6.368635     1.268117     3.600288
H      -5.388572     2.526727     2.161958
C      -6.252863    -1.094287     3.177639
H      -5.188282    -1.681597     1.405435
C      -6.679816    -0.033832     3.970179
H      -6.693737     2.102089     4.214596
H      -6.488820    -2.114925     3.462969
H      -7.250335    -0.223142     4.873956
C      -0.728135    -0.010579    -1.289703
O      -0.964625     0.813917    -0.138671
C      -1.841369     0.965129    -1.251461
C      -2.096449     2.285464    -1.891345
O      -3.126262     2.532868    -2.468129
O      -1.073171     3.132986    -1.768099
C      -1.266673     4.424243    -2.366731
H      -0.342258     4.970967    -2.186122
H      -1.454028     4.321961    -3.437621
H      -2.112680     4.932209    -1.899513
72
     -1725.750657     -1725.222543   2.45   3.15
C      -0.379375     1.966410     3.704254
C      -0.346437     0.561924     3.676857
C       0.852711    -0.086205     4.011593
C       1.958851     0.664699     4.333475
C       1.903432     2.076766     4.345014
C       0.735794     2.751372     4.036733
C      -2.397768     1.235205     3.088117
C      -1.655055     0.108957     3.276855
H       0.908303    -1.169689     4.019475
H       2.900007     0.195306     4.597640
H       0.673216     3.831646     4.045678
H      -3.432846     1.336249     2.790176
N      -1.640568     2.367428     3.343681
C      -2.089296     3.733558     3.219532
H      -1.539082     4.261571     2.432844
H      -3.149290     3.736919     2.960683
H      -1.963984     4.274310     4.163265
O       3.075156     2.689904     4.684858
C       3.088614     4.102075     4.740698
H       2.859851     4.543932     3.762728
H       2.376927     4.479590     5.485575
H       4.099802     4.385676     5.034425
N      -0.569596    -1.638862     1.110566
C       0.474329    -2.417080     1.596809
O       0.318832    -3.125084     2.571054
C       1.857897    -2.336064     0.928946
H       2.251549    -3.353382     0.974415
H       2.458399    -1.755890     1.638550
C       1.984169    -1.746641    -0.495055
H       3.007467    -1.401136    -0.670220
H       1.756133    -2.509756    -1.241421
C       0.967289    -0.622701    -0.604177
C       0.319890    -0.198413    -1.963375
H       0.353448     0.878457    -2.148650
C      -2.084892    -1.314985     3.084580
H      -3.145428    -1.422602     3.336109
H      -1.527441    -1.960114     3.765714
C      -1.919013    -1.837721     1.650490
H      -2.164368    -2.904076     1.625211
H      -2.602652    -1.318472     0.978540
C       1.359717     0.603588     0.234566
H       1.663201     0.278561     1.233932
H       2.255292     1.036674    -0.229101
C       0.291047     1.687728     0.399792
H       0.676356     2.477367     1.049437
H       0.004925     2.153067    -0.547086
H      -0.610577     1.293545     0.874136
O       0.819736    -0.915558    -3.048413
C       0.085093    -0.734261    -4.250129
H      -0.984301    -0.905566    -4.059346
H       0.200479     0.295738    -4.615478
C       0.579452    -1.721865    -5.274398
C       0.597935    -3.081627    -4.964811
C       0.998942    -1.305584    -6.531820
C       1.029677    -4.007742    -5.902577
H       0.274846    -3.405446    -3.980197
C       1.428758    -2.233489    -7.476317
H       0.993752    -0.246992    -6.777132
C       1.444775    -3.585386    -7.162983
H       1.042936    -5.064168    -5.652715
H       1.753410    -1.896867    -8.455997
H       1.781151    -4.311033    -7.896836
C      -0.369690    -1.220488    -0.208455
O      -0.832411    -2.092938    -1.250493
C      -1.050095    -0.697873    -1.414146
C      -2.438009    -0.195162    -1.639881
O      -3.439067    -0.721172    -1.233313
O      -2.413169     0.940577    -2.354720
C      -3.699022     1.516549    -2.634209
H      -4.209986     1.768532    -1.702727
H      -3.498125     2.413850    -3.217929
H      -4.312000     0.814363    -3.202900
72
     -1725.750512     -1725.222481   2.54   3.19
C      -0.205522    -3.767211     1.929781
C       0.334522    -2.916752     0.948011
C       0.984159    -1.745872     1.366322
C       1.048422    -1.449449     2.707948
C       0.483515    -2.311608     3.673321
C      -0.147225    -3.485497     3.303005
C      -0.607931    -4.671558    -0.067288
C       0.054094    -3.512225    -0.333842
H       1.422895    -1.071587     0.641029
H       1.539418    -0.549417     3.060960
H      -0.582467    -4.162149     4.026618
H      -1.021381    -5.400812    -0.750863
N      -0.768807    -4.842301     1.294483
C      -1.468606    -5.930389     1.934336
H      -2.348192    -5.568083     2.477067
H      -1.801558    -6.633917     1.169759
H      -0.813954    -6.462601     2.632525
O       0.620262    -1.889716     4.966029
C       0.085745    -2.709727     5.984668
H      -0.999708    -2.828152     5.875315
H       0.559391    -3.699523     5.991728
H       0.298383    -2.203336     6.926937
N      -1.380540    -1.043292    -1.268850
C      -2.182530    -1.291016    -0.156037
O      -2.827334    -2.311916    -0.063514
C      -2.226326    -0.254285     0.985028
H      -1.742358    -0.760579     1.825169
H      -3.284845    -0.191451     1.248378
C      -1.611247     1.156223     0.772563
H      -2.209623     1.912826     1.288592
H      -0.598658     1.196164     1.177258
C      -1.559822     1.386183    -0.728150
C      -0.540693     2.340756    -1.431580
H      -1.008952     3.024427    -2.147168
C       0.258014    -2.893546    -1.685740
H       0.472321    -3.668074    -2.429972
H       1.113358    -2.213726    -1.675468
C      -0.990345    -2.130605    -2.165001
H      -0.810762    -1.703293    -3.154408
H      -1.843045    -2.809411    -2.218748
C      -2.968915     1.548182    -1.323255
H      -3.650511     0.845749    -0.832186
H      -3.320113     2.548175    -1.039155
C      -3.103247     1.365557    -2.837830
H      -4.140351     1.539309    -3.139042
H      -2.480428     2.060695    -3.408266
H      -2.840474     0.348211    -3.141483
O       0.278504     3.022267    -0.534786
C       1.364681     3.702904    -1.146893
H       1.900841     3.016193    -1.818075
H       0.995226     4.542933    -1.751291
C       2.300363     4.189953    -0.071711
C       2.785274     3.290495     0.877431
C       2.709668     5.516724    -0.021405
C       3.667405     3.715783     1.859438
H       2.459742     2.255634     0.840642
C       3.598073     5.945271     0.960768
H       2.330035     6.224639    -0.753175
C       4.078122     5.045624     1.902192
H       4.039197     3.009716     2.595567
H       3.911707     6.984117     0.989722
H       4.769716     5.377373     2.670187
C      -0.788026     0.212879    -1.302415
O       0.601408     0.355606    -0.988390
C       0.101573     1.088866    -2.099978
C       0.740108     0.889825    -3.433148
O       1.292083    -0.118119    -3.786132
O       0.596171     1.985377    -4.194462
C       1.168587     1.897095    -5.509201
H       2.243268     1.716232    -5.442012
H       0.700428     1.085637    -6.070146
H       0.967820     2.857596    -5.981715
72
     -1725.750732     -1725.222336   2.40   3.28
C       3.363087    -0.452197    -4.266056
C       2.461922    -0.473172    -3.185630
C       2.355650    -1.655857    -2.437871
C       3.113039    -2.751494    -2.781344
C       4.003057    -2.705430    -3.876585
C       4.145434    -1.557983    -4.634461
C       2.395757     1.553486    -4.132297
C       1.843082     0.830015    -3.120468
H       1.687176    -1.711426    -1.586146
H       3.052512    -3.677293    -2.219957
H       4.824592    -1.501227    -5.474941
H       2.206694     2.578882    -4.421029
N       3.314131     0.793363    -4.836308
C       4.086999     1.233217    -5.973475
H       5.161144     1.175608    -5.766699
H       3.864447     0.629077    -6.859697
H       3.834183     2.271762    -6.192851
O       4.688071    -3.865454    -4.103157
C       5.596818    -3.893055    -5.184786
H       5.088186    -3.711579    -6.139977
H       6.397836    -3.154602    -5.054035
H       6.029900    -4.893887    -5.193671
N       0.385963     1.914020     0.234055
C       0.470640     3.290987     0.398449
O       1.365058     3.926308    -0.118857
C      -0.569749     4.019141     1.274923
H      -0.919661     4.851242     0.658927
H       0.033410     4.478711     2.064224
C      -1.759318     3.235111     1.882984
H      -2.092110     3.713701     2.807031
H      -2.603514     3.227944     1.191693
C      -1.282322     1.808214     2.092196
C      -2.230823     0.565421     2.104464
H      -1.976779    -0.131733     2.907749
C       0.805219     1.313481    -2.151976
H      -0.118057     0.736853    -2.253368
H       0.562943     2.356070    -2.377452
C       1.287721     1.242466    -0.698682
H       1.391299     0.208405    -0.364758
H       2.258333     1.731035    -0.607514
C      -0.213962     1.665401     3.183026
H       0.224445     0.661989     3.110409
H       0.608602     2.364796     3.000137
C      -0.763122     1.881861     4.594402
H      -1.133218     2.902277     4.729377
H      -1.588069     1.197378     4.816062
H       0.018507     1.714358     5.341233
O      -3.589896     0.871346     2.088104
C      -4.429727    -0.264980     2.280616
H      -5.444828     0.102601     2.109693
H      -4.210831    -1.033138     1.529760
C      -4.301828    -0.845890     3.671349
C      -4.577586    -0.051170     4.783598
C      -3.883292    -2.158092     3.862384
C      -4.445441    -0.563321     6.066057
H      -4.892071     0.978384     4.636514
C      -3.754062    -2.676224     5.148064
H      -3.639363    -2.771585     2.999927
C      -4.035756    -1.881431     6.250707
H      -4.663372     0.063948     6.924948
H      -3.427352    -3.702310     5.284937
H      -3.934148    -2.284271     7.253567
C      -0.783576     1.347666     0.733981
O      -1.914820     1.194243    -0.135231
C      -1.613877     0.123603     0.753846
C      -1.484721    -1.272683     0.245481
O      -1.789242    -2.232478     0.909579
O      -1.025098    -1.334262    -1.004660
C      -0.970830    -2.650081    -1.580478
H      -1.977164    -3.069556    -1.645095
H      -0.540654    -2.518865    -2.571974
H      -0.345615    -3.307642    -0.972966
72
     -1725.746843     -1725.222224   4.84   3.35
C       0.522131    -0.907391     5.483224
C       0.089404    -0.033970     4.471565
C       0.211688     1.349701     4.674347
C       0.751383     1.807801     5.854063
C       1.179748     0.911000     6.857827
C       1.074202    -0.458521     6.693308
C      -0.264391    -2.138502     3.792878
C      -0.415086    -0.846014     3.392949
H      -0.110073     2.050673     3.909640
H       0.863082     2.869018     6.045945
H       1.397570    -1.159334     7.451665
H      -0.514900    -3.053851     3.273506
N       0.301231    -2.192848     5.056611
C       0.605068    -3.391943     5.800101
H       1.676248    -3.459564     6.019086
H       0.048805    -3.423353     6.743263
H       0.320530    -4.260483     5.203879
O       1.693957     1.509781     7.974030
C       2.144778     0.675089     9.020286
H       1.329736     0.059629     9.421841
H       2.962087     0.022203     8.688499
H       2.511980     1.339005     9.803817
N      -0.389335     1.078041     0.128089
C      -0.535597     2.444114     0.305344
O      -0.462350     2.939409     1.411465
C      -0.774512     3.354274    -0.917081
H       0.049967     4.071870    -0.885595
H      -1.665067     3.929751    -0.650482
C      -0.910474     2.735500    -2.333371
H      -1.587824     3.338727    -2.944953
H       0.058441     2.708907    -2.834125
C      -1.413141     1.314465    -2.145435
C      -1.129969     0.160212    -3.161939
H      -2.023416    -0.414219    -3.426919
C      -0.962038    -0.335923     2.095505
H      -1.705683     0.444795     2.292191
H      -1.469922    -1.142740     1.557873
C       0.145460     0.257789     1.216550
H       0.793135     0.893782     1.820529
H       0.754451    -0.530416     0.771705
C      -2.871130     1.290957    -1.658765
H      -3.014348     2.082451    -0.915654
H      -3.496822     1.572135    -2.515104
C      -3.378691    -0.022821    -1.059026
H      -3.304005    -0.865431    -1.752136
H      -2.830068    -0.282040    -0.150719
H      -4.433188     0.079525    -0.786717
O      -0.443844     0.589279    -4.294787
C       0.033836    -0.467126    -5.116059
H       0.594944    -1.187020    -4.502725
H      -0.808895    -1.001904    -5.575739
C       0.938905     0.110185    -6.172598
C       2.019921     0.905247    -5.792543
C       0.729597    -0.152286    -7.520882
C       2.876697     1.427071    -6.750255
H       2.179737     1.114199    -4.739220
C       1.590474     0.366819    -8.483789
H      -0.114808    -0.765160    -7.824525
C       2.664828     1.157036    -8.099857
H       3.714598     2.046715    -6.445922
H       1.417672     0.154336    -9.534255
H       3.336717     1.564664    -8.848628
C      -0.435150     0.649393    -1.194857
O       0.801447     0.407012    -1.872888
C      -0.253514    -0.527100    -2.072036
C      -0.017254    -1.967206    -1.759140
O       0.764901    -2.377167    -0.944438
O      -0.814378    -2.745767    -2.508238
C      -0.669842    -4.158487    -2.293301
H      -1.367972    -4.633174    -2.981401
H       0.354732    -4.470417    -2.505653
H      -0.916410    -4.410382    -1.259831
72
     -1725.749007     -1725.222223   3.49   3.36
C       4.415300     1.225182    -0.018561
C       3.283830     2.036680    -0.214018
C       3.190458     2.778329    -1.400673
C       4.199963     2.697205    -2.331573
C       5.329561     1.878760    -2.109367
C       5.457677     1.130283    -0.952823
C       3.080650     0.998289     1.761812
C       2.438186     1.876318     0.941616
H       2.330959     3.413975    -1.591148
H       4.158527     3.258493    -3.258359
H       6.315023     0.496970    -0.766129
H       2.778705     0.600599     2.720568
N       4.277969     0.596828     1.192205
C       5.231486    -0.311276     1.785529
H       6.190447     0.185923     1.967404
H       4.837096    -0.661954     2.740125
H       5.400792    -1.180079     1.140631
O       6.252492     1.897258    -3.116416
C       7.409014     1.099860    -2.964463
H       7.993003     1.404342    -2.086781
H       7.153615     0.036094    -2.879170
H       8.006288     1.254269    -3.863786
N      -0.127936     0.552664     1.979058
C       0.138679    -0.455295     2.893493
O       0.899795    -0.284841     3.824720
C      -0.539258    -1.831767     2.727777
H      -1.021042    -2.013880     3.691952
H       0.299682    -2.532582     2.690420
C      -1.526995    -2.091680     1.560344
H      -1.475102    -3.144332     1.264470
H      -2.550442    -1.879531     1.875571
C      -1.145680    -1.147460     0.431498
C      -2.189028    -0.575029    -0.609016
H      -1.818835    -0.617744    -1.636583
C       1.111696     2.547781     1.145778
H       0.558711     2.538808     0.198090
H       1.256167     3.608098     1.389104
C       0.245181     1.942064     2.246581
H       0.764735     1.948723     3.204543
H      -0.676211     2.522545     2.351983
C       0.178343    -1.559723    -0.229686
H       0.908641    -1.778751     0.556947
H       0.003770    -2.512872    -0.746053
C       0.808993    -0.558099    -1.198934
H       0.207894    -0.399529    -2.097316
H       0.973125     0.409980    -0.724910
H       1.789278    -0.920289    -1.520534
O      -3.508914    -1.021774    -0.527020
C      -3.705666    -2.262765    -1.180218
H      -3.602272    -2.137212    -2.268096
H      -2.936145    -2.982634    -0.859653
C      -5.072345    -2.810451    -0.848058
C      -5.698610    -3.685511    -1.731881
C      -5.702284    -2.492037     0.352202
C      -6.933084    -4.242255    -1.420657
H      -5.217797    -3.933759    -2.674795
C      -6.938375    -3.046079     0.663117
H      -5.225633    -1.800212     1.037151
C      -7.556153    -3.924175    -0.219711
H      -7.409613    -4.924156    -2.118164
H      -7.421781    -2.789182     1.600733
H      -8.520963    -4.356603     0.025769
C      -1.124239     0.233965     1.057146
O      -2.470838     0.615368     1.373199
C      -2.026410     0.807289     0.037200
C      -2.108731     2.129972    -0.645782
O      -2.042990     2.241163    -1.843870
O      -2.241159     3.146429     0.208829
C      -2.319710     4.447403    -0.393567
H      -3.186337     4.504641    -1.055269
H      -2.420743     5.148010     0.434050
H      -1.414410     4.654954    -0.968576
72
     -1725.750968     -1725.222215   2.26   3.36
C      -3.966054    -0.918912    -2.719286
C      -2.940527    -0.562845    -1.825879
C      -3.017211    -1.016243    -0.499828
C      -4.082767    -1.797886    -0.117625
C      -5.098166    -2.147352    -1.034763
C      -5.061089    -1.715055    -2.347823
C      -2.490536     0.340855    -3.823613
C      -1.999882     0.249549    -2.556777
H      -2.250881    -0.748282     0.220072
H      -4.175114    -2.164195     0.898611
H      -5.830924    -1.970934    -3.063908
H      -2.081847     0.857315    -4.682059
N      -3.680447    -0.359838    -3.938432
C      -4.485262    -0.477710    -5.130246
H      -4.002451     0.072644    -5.939478
H      -4.585932    -1.524559    -5.437020
H      -5.484993    -0.057364    -4.975290
O      -6.092320    -2.928900    -0.514077
C      -7.141678    -3.317152    -1.375361
H      -7.819061    -3.926879    -0.776167
H      -7.686632    -2.446372    -1.761622
H      -6.769192    -3.913798    -2.217795
N       1.707682     0.296794    -1.697159
C       2.430365     0.872034    -2.733004
O       2.069119     0.759288    -3.885425
C       3.718209     1.664257    -2.417000
H       3.557004     2.641998    -2.878804
H       4.479768     1.179666    -3.034634
C       4.206569     1.820837    -0.951687
H       5.299197     1.867049    -0.921706
H       3.820923     2.745196    -0.518960
C       3.658449     0.637693    -0.170900
C       3.340125     0.694445     1.360928
H       3.722241    -0.175232     1.902839
C      -0.710673     0.822786    -2.051529
H      -0.849105     1.285539    -1.070379
H      -0.360850     1.599482    -2.737651
C       0.378287    -0.255044    -1.958793
H       0.150444    -0.970362    -1.164420
H       0.440170    -0.796837    -2.903234
C       4.359722    -0.673713    -0.559024
H       4.526362    -0.683595    -1.641581
H       5.358712    -0.650412    -0.105459
C       3.647996    -1.973748    -0.172812
H       2.682785    -2.064467    -0.679087
H       4.256873    -2.831400    -0.473530
H       3.473954    -2.061241     0.903234
O       3.740249     1.882255     1.976100
C       3.676344     1.868355     3.392901
H       4.197436     0.983403     3.784752
H       4.238872     2.751532     3.710803
C       2.270124     1.926754     3.952795
C       1.948413     1.224997     5.110394
C       1.294401     2.709441     3.339175
C       0.672394     1.308176     5.656239
H       2.700453     0.604043     5.590108
C       0.015186     2.781155     3.874422
H       1.536110     3.248920     2.429606
C      -0.298584     2.085541     5.036963
H       0.436609     0.761519     6.564420
H      -0.741644     3.379774     3.378501
H      -1.297539     2.148102     5.457021
C       2.164351     0.633473    -0.427083
O       1.578234     1.753418     0.250426
C       1.827519     0.580375     1.008704
C       0.699140    -0.071442     1.733614
O      -0.464301     0.167355     1.556953
O       1.170609    -0.985018     2.591660
C       0.176746    -1.632507     3.400262
H      -0.367826    -0.889703     3.985527
H      -0.520789    -2.188507     2.769971
H       0.726136    -2.308515     4.053911
72
     -1725.750185     -1725.222149   2.75   3.40
C       4.538688     2.088870    -0.475961
C       3.245244     1.523374    -0.509140
C       3.056476     0.328319    -1.204665
C       4.132649    -0.275112    -1.834354
C       5.413276     0.307755    -1.780554
C       5.633584     1.496624    -1.103361
C       3.164797     3.422457     0.674022
C       2.377143     2.401988     0.238547
H       2.073378    -0.127213    -1.262439
H       3.974006    -1.200407    -2.372347
H       6.629989     1.923016    -1.080682
H       2.899409     4.284621     1.271775
N       4.473519     3.250133     0.250974
C       5.580504     4.136300     0.516213
H       6.373936     3.620910     1.068337
H       6.000279     4.532573    -0.414848
H       5.228194     4.974212     1.120249
O       6.515870    -0.239642    -2.380172
C       6.355634    -1.454257    -3.083938
H       7.342000    -1.710270    -3.473419
H       6.008195    -2.259000    -2.424168
H       5.654606    -1.345363    -3.920788
N      -0.662270     1.098456     2.122116
C      -1.119092     2.062817     3.009609
O      -0.351208     2.836126     3.542174
C      -2.627555     2.152698     3.329613
H      -2.892172     3.189584     3.105787
H      -2.667248     2.077664     4.420030
C      -3.632392     1.172350     2.666885
H      -4.463262     0.966779     3.348240
H      -4.046611     1.609568     1.757124
C      -2.856903    -0.084657     2.308616
C      -3.244721    -1.021229     1.115685
H      -3.231228    -2.079765     1.390532
C       0.921950     2.203333     0.535271
H       0.380232     1.896378    -0.363767
H       0.486149     3.145803     0.879104
C       0.717053     1.154685     1.637334
H       0.987237     0.157840     1.280071
H       1.345252     1.396169     2.495468
C      -2.467488    -0.887773     3.559890
H      -2.170069    -0.193085     4.352790
H      -3.379161    -1.379090     3.922765
C      -1.354019    -1.925817     3.391452
H      -1.587222    -2.682946     2.637560
H      -0.407900    -1.452804     3.113517
H      -1.191901    -2.450148     4.337776
O      -4.450704    -0.680648     0.500300
C      -4.924513    -1.628668    -0.442177
H      -4.911195    -2.635803    -0.002343
H      -5.970198    -1.357429    -0.617156
C      -4.170387    -1.632154    -1.756024
C      -3.961853    -2.826994    -2.437689
C      -3.713637    -0.441258    -2.316776
C      -3.312004    -2.836263    -3.666749
H      -4.306073    -3.761673    -2.002791
C      -3.055625    -0.449959    -3.539628
H      -3.862958     0.491824    -1.784206
C      -2.855110    -1.646312    -4.219715
H      -3.161034    -3.775157    -4.191089
H      -2.694994     0.482069    -3.962546
H      -2.343184    -1.650469    -5.176830
C      -1.672343     0.383707     1.486498
O      -2.146284     0.831529     0.210070
C      -1.947906    -0.562798     0.387345
C      -1.034598    -1.290809    -0.539361
O      -0.228476    -0.770588    -1.261950
O      -1.220749    -2.612091    -0.429082
C      -0.440102    -3.414271    -1.328030
H      -0.726853    -4.445045    -1.124895
H      -0.671547    -3.146998    -2.360597
H       0.625501    -3.266566    -1.139515
72
     -1725.750434     -1725.221906   2.59   3.55
C      -0.016721    -3.947150     1.468585
C       0.805550    -2.973480     2.060138
C       0.393552    -2.395107     3.270979
C      -0.803381    -2.778157     3.828968
C      -1.618209    -3.752700     3.209494
C      -1.238772    -4.356869     2.024529
C       1.770406    -3.659021     0.160675
C       1.951024    -2.799960     1.202539
H       1.012906    -1.654155     3.765458
H      -1.150425    -2.351849     4.763696
H      -1.847130    -5.108369     1.538648
H       2.401839    -3.845248    -0.697877
N       0.585434    -4.361586     0.307859
C       0.050066    -5.325537    -0.623576
H      -0.889010    -4.971734    -1.063341
H       0.770918    -5.480423    -1.427951
H      -0.128826    -6.287269    -0.132032
O      -2.775706    -4.034503     3.876551
C      -3.630896    -5.016855     3.327661
H      -4.480557    -5.094845     4.006773
H      -3.989965    -4.724764     2.332811
H      -3.130465    -5.991073     3.262015
N       1.612959     0.166940     1.068161
C       1.436143     0.682835     2.347829
O       2.249548     0.462544     3.221880
C       0.167187     1.488940     2.671942
H       0.495953     2.263586     3.367484
H      -0.438162     0.795907     3.267014
C      -0.672398     2.085980     1.518729
H      -1.695824     2.274092     1.856829
H      -0.246844     3.037514     1.194825
C      -0.617512     1.096770     0.366334
C      -0.754910     1.534157    -1.128371
H      -1.464528     0.930501    -1.700098
C       3.082913    -1.838824     1.412173
H       4.011395    -2.259225     1.010723
H       3.238545    -1.682043     2.480640
C       2.885413    -0.477155     0.730564
H       3.712669     0.187356     1.000176
H       2.890710    -0.600224    -0.352551
C      -1.422960    -0.180378     0.651926
H      -1.188563    -0.542023     1.657520
H      -2.481925     0.107090     0.671268
C      -1.223850    -1.343679    -0.323687
H      -1.534066    -1.104705    -1.343771
H      -0.181379    -1.668704    -0.352163
H      -1.818132    -2.198123     0.009346
O      -1.005634     2.896582    -1.278456
C      -0.956100     3.340860    -2.626999
H      -0.022394     3.000048    -3.096947
H      -1.791850     2.913830    -3.198245
C      -1.012492     4.846212    -2.644375
C      -0.094030     5.577990    -1.892001
C      -1.950714     5.522157    -3.414706
C      -0.116441     6.964611    -1.914103
H       0.634985     5.049406    -1.285514
C      -1.972781     6.913772    -3.441965
H      -2.674228     4.958512    -3.997497
C      -1.055847     7.636789    -2.691910
H       0.601050     7.526292    -1.323818
H      -2.709896     7.430847    -4.048458
H      -1.071746     8.722016    -2.709778
C       0.853535     0.835422     0.103162
O       1.444197     1.998879    -0.505524
C       0.724478     1.107928    -1.345877
C       1.310531     0.521040    -2.584678
O       0.624230     0.138419    -3.499291
O       2.643297     0.469636    -2.561242
C       3.258308    -0.073090    -3.740791
H       4.329982    -0.046993    -3.549077
H       2.918609    -1.097244    -3.909047
H       3.006933     0.537606    -4.610189
72
     -1725.753317     -1725.221872   0.78   3.58
C       1.851980     2.135794     1.754823
C       2.726210     1.143530     1.260554
C       3.737173     1.525222     0.378088
C       3.858884     2.851964     0.002535
C       2.969084     3.821353     0.507631
C       1.957353     3.476139     1.389856
C       1.204858     0.164042     2.576328
C       2.287831    -0.118636     1.800427
H       4.419153     0.787816    -0.034361
H       4.644721     3.134449    -0.686054
H       1.286335     4.242919     1.759393
H       0.579824    -0.498685     3.159296
N       0.928800     1.519637     2.561256
C      -0.183830     2.165963     3.219905
H       0.165866     2.890778     3.962012
H      -0.820636     2.677544     2.491521
H      -0.788678     1.407185     3.717303
O       3.027864     5.145025     0.169608
C       4.070423     5.570790    -0.685516
H       5.055634     5.365709    -0.249215
H       4.003646     5.093256    -1.670825
H       3.945667     6.648297    -0.800257
N       1.504698    -1.553739    -0.626068
C       2.307677    -1.525470    -1.753479
O       3.454856    -1.921214    -1.705250
C       1.739330    -0.989016    -3.084435
H       1.964644    -1.769779    -3.815561
H       2.398683    -0.153928    -3.339362
C       0.252595    -0.556769    -3.168114
H       0.120350     0.183202    -3.960947
H      -0.371639    -1.419118    -3.412754
C      -0.111127    -0.028965    -1.790784
C      -1.559989     0.031607    -1.162815
H      -1.679874     0.973399    -0.625135
C       2.854451    -1.467410     1.469579
H       3.037381    -2.052181     2.377868
H       3.818957    -1.346112     0.970531
C       1.934760    -2.292611     0.560877
H       2.452665    -3.198236     0.235702
H       1.029285    -2.590309     1.092875
C       0.638769     1.256729    -1.422399
H       0.472681     1.458850    -0.360363
H       1.718015     1.119378    -1.523973
C       0.204998     2.471825    -2.242889
H      -0.876852     2.631957    -2.188123
H       0.698354     3.372777    -1.867142
H       0.469370     2.365088    -3.299659
O      -2.696668    -0.094253    -1.971529
C      -3.256484    -1.375000    -2.242339
H      -4.009592    -1.172810    -3.010105
H      -2.517897    -2.059230    -2.665289
C      -3.927501    -2.007671    -1.040601
C      -4.732411    -1.239211    -0.201667
C      -3.783970    -3.367126    -0.780645
C      -5.389146    -1.822751     0.873079
H      -4.836548    -0.176043    -0.393076
C      -4.444080    -3.955380     0.292229
H      -3.140583    -3.969134    -1.414962
C      -5.251156    -3.184979     1.119862
H      -6.013461    -1.213252     1.518902
H      -4.325250    -5.017763     0.481807
H      -5.771056    -3.643327     1.955793
C       0.183782    -1.164127    -0.829395
O      -0.798058    -2.196357    -1.016427
C      -1.147385    -1.090413    -0.187738
C      -1.629482    -1.266690     1.211243
O      -2.115504    -0.361216     1.842326
O      -1.452367    -2.505175     1.669021
C      -1.990026    -2.760371     2.974750
H      -3.060278    -2.548063     2.983669
H      -1.807193    -3.817099     3.164710
H      -1.488884    -2.142604     3.723894
72
     -1725.752126     -1725.221806   1.53   3.62
C      -1.965951     2.506458     1.299241
C      -1.433137     1.669139     2.295708
C      -0.769022     2.267333     3.378047
C      -0.663342     3.636972     3.435323
C      -1.214150     4.455130     2.425003
C      -1.872480     3.905240     1.339731
C      -2.372985     0.391351     0.711454
C      -1.706075     0.309943     1.896631
H      -0.320808     1.665740     4.160361
H      -0.153020     4.125255     4.257884
H      -2.299229     4.513583     0.553018
H      -2.732510    -0.404081     0.073229
N      -2.540395     1.712135     0.338367
C      -3.199263     2.176834    -0.858872
H      -4.069122     2.796150    -0.615762
H      -2.514414     2.760059    -1.483799
H      -3.538644     1.313562    -1.432800
O      -1.037847     5.796023     2.615653
C      -1.572211     6.673980     1.646205
H      -1.331187     7.683040     1.982389
H      -1.120812     6.504677     0.660407
H      -2.661789     6.569639     1.569082
N       1.077182    -0.439901     2.163016
C       2.103387     0.345515     2.680096
O       2.130514     0.660441     3.851280
C       3.221154     0.848047     1.742887
H       4.147568     0.646417     2.285996
H       3.106100     1.936860     1.760480
C       3.302086     0.333791     0.285597
H       3.828785     1.057637    -0.340728
H       3.855816    -0.605696     0.242797
C       1.871573     0.087446    -0.160259
C       1.464105    -0.946416    -1.267805
H       0.719051    -0.543321    -1.959682
C      -1.346119    -0.963022     2.603365
H      -1.604810    -1.800951     1.950410
H      -1.962631    -1.086108     3.502345
C       0.121251    -1.083346     3.057991
H       0.270196    -0.614921     4.029149
H       0.384840    -2.142370     3.159059
C       1.035540     1.364900    -0.294477
H      -0.010058     1.079637    -0.447986
H       1.044923     1.929907     0.642891
C       1.493220     2.266263    -1.441298
H       2.494460     2.670822    -1.265907
H       1.516286     1.726716    -2.393699
H       0.812793     3.115140    -1.555059
O       2.552296    -1.503916    -1.952014
C       2.438840    -2.874365    -2.309241
H       3.378576    -3.103157    -2.820401
H       2.393784    -3.497168    -1.407341
C       1.267416    -3.192126    -3.212902
C       0.912187    -2.333767    -4.250984
C       0.543540    -4.365996    -3.029317
C      -0.150724    -2.643736    -5.088621
H       1.475219    -1.417388    -4.400277
C      -0.519115    -4.681159    -3.868507
H       0.812626    -5.038653    -2.218902
C      -0.869523    -3.819557    -4.899760
H      -0.419112    -1.965890    -5.893070
H      -1.074211    -5.601881    -3.716520
H      -1.699931    -4.062134    -5.555238
C       1.292472    -0.874933     0.860109
O       1.899137    -2.172789     0.676228
C       0.811983    -1.818860    -0.164366
C      -0.416566    -2.652267    -0.300123
O      -1.343799    -2.316721    -0.993580
O      -0.368541    -3.779040     0.411333
C      -1.519610    -4.628099     0.282508
H      -2.412008    -4.116550     0.650533
H      -1.669391    -4.903511    -0.763553
H      -1.304359    -5.507991     0.887049
72
     -1725.747973     -1725.221767   4.14   3.64
C      -3.651703     2.048305    -2.475591
C      -2.561730     1.163135    -2.410121
C      -1.419332     1.450619    -3.173198
C      -1.394419     2.582290    -3.953471
C      -2.504094     3.456742    -4.003654
C      -3.648850     3.206596    -3.269668
C      -4.168789     0.407362    -1.050425
C      -2.911473     0.114295    -1.485977
H      -0.555866     0.793496    -3.144682
H      -0.526754     2.834665    -4.552833
H      -4.506808     3.865458    -3.294834
H      -4.801594    -0.118348    -0.347954
N      -4.630710     1.573024    -1.642857
C      -5.922844     2.179271    -1.425627
H      -6.497552     2.228105    -2.356781
H      -6.481178     1.575968    -0.708049
H      -5.820661     3.191407    -1.019628
O      -2.338371     4.537727    -4.821227
C      -3.405243     5.459352    -4.921000
H      -3.073662     6.235477    -5.611613
H      -4.309590     4.983345    -5.320399
H      -3.633169     5.914604    -3.949001
N      -1.087844    -2.235370     0.884529
C      -1.094245    -3.605673     0.667410
O      -2.072686    -4.160747     0.215096
C       0.160737    -4.432611     1.022590
H       0.400571    -4.974659     0.104083
H      -0.217194    -5.193205     1.711836
C       1.426430    -3.740494     1.599588
H       1.945252    -4.418375     2.283706
H       2.118347    -3.483371     0.796408
C       0.968323    -2.465475     2.289574
C       1.863169    -1.187675     2.421458
H       1.847601    -0.751399     3.425530
C      -2.025759    -1.029622    -1.084493
H      -0.986875    -0.745600    -1.261733
H      -2.220948    -1.919151    -1.693975
C      -2.177982    -1.396608     0.394193
H      -2.190406    -0.491689     1.005632
H      -3.105629    -1.944862     0.567486
C       0.206324    -2.761735     3.590754
H      -0.427713    -3.642585     3.442324
H       0.953566    -3.056277     4.337988
C      -0.664119    -1.632193     4.149318
H      -1.484859    -1.387806     3.469048
H      -1.109378    -1.944537     5.098400
H      -0.101288    -0.714742     4.341762
O       3.163868    -1.371758     1.960944
C       3.929199    -0.174074     1.928467
H       3.372672     0.607610     1.392103
H       4.109636     0.187037     2.950247
C       5.232012    -0.448005     1.223389
C       6.448485    -0.118814     1.808830
C       5.221361    -1.020439    -0.048314
C       7.643859    -0.350785     1.134333
H       6.465111     0.320400     2.802623
C       6.411165    -1.256529    -0.720985
H       4.271443    -1.283436    -0.503347
C       7.626931    -0.919815    -0.131389
H       8.587861    -0.088266     1.601755
H       6.393215    -1.704297    -1.709875
H       8.557529    -1.103547    -0.659137
C       0.148677    -1.718143     1.258339
O       1.028495    -1.216782     0.238390
C       0.902565    -0.462048     1.437823
C       0.516334     0.979785     1.426953
O       0.825966     1.732467     2.318019
O      -0.200740     1.312119     0.357050
C      -0.624385     2.686271     0.291419
H       0.247530     3.343455     0.272796
H      -1.197149     2.771626    -0.629825
H      -1.240643     2.929535     1.159464
72
     -1725.750925     -1725.221624   2.28   3.73
C       3.342501     0.094626     3.382587
C       2.267562    -0.080710     2.492508
C       0.987589    -0.282270     3.031923
C       0.818316    -0.293458     4.396693
C       1.914070    -0.107656     5.268063
C       3.192166     0.087306     4.778309
C       4.144608     0.192276     1.303321
C       2.806678    -0.009804     1.154656
H       0.133032    -0.433769     2.382543
H      -0.158218    -0.449480     4.841966
H       4.045110     0.228554     5.428963
H       4.908996     0.299786     0.544954
N       4.485316     0.260237     2.642448
C       5.812121     0.469055     3.172129
H       6.514228     0.562968     2.342131
H       5.858578     1.386083     3.769316
H       6.125125    -0.375478     3.795408
O       1.597480    -0.141093     6.596379
C       2.644580     0.039560     7.527878
H       2.186935    -0.018716     8.516038
H       3.403595    -0.747366     7.434928
H       3.121841     1.020371     7.408601
N       0.762727    -1.635916    -1.614782
C       1.094341    -2.736014    -2.397995
O       2.008279    -3.473360    -2.096932
C       0.295474    -3.018103    -3.689406
H      -0.006853    -4.064818    -3.602955
H       1.056207    -3.002221    -4.475895
C      -0.907241    -2.120661    -4.072589
H      -1.050557    -2.122920    -5.155681
H      -1.824907    -2.497183    -3.616773
C      -0.609677    -0.742767    -3.510041
C      -1.700030     0.313113    -3.131734
H      -1.445250     1.318683    -3.484462
C       2.068161    -0.127755    -0.145587
H       2.780733    -0.042439    -0.972498
H       1.363347     0.705701    -0.254507
C       1.328486    -1.462227    -0.280277
H       2.014934    -2.292168    -0.118084
H       0.517261    -1.540813     0.447964
C       0.583430    -0.041531    -4.173833
H       0.831119     0.848945    -3.581786
H       1.470441    -0.682448    -4.135373
C       0.315024     0.364347    -5.623878
H       0.172369    -0.509379    -6.266347
H      -0.581170     0.987192    -5.707638
H       1.156253     0.935016    -6.027683
O      -2.996409    -0.045195    -3.501182
C      -3.980418     0.934439    -3.204071
H      -3.642540     1.923578    -3.542011
H      -4.852093     0.655790    -3.803954
C      -4.365059     0.994313    -1.739590
C      -4.547195     2.220536    -1.109027
C      -4.577772    -0.179048    -1.017834
C      -4.948151     2.278607     0.221603
H      -4.363814     3.140142    -1.657436
C      -4.968166    -0.123445     0.312455
H      -4.418044    -1.137185    -1.500298
C      -5.158820     1.106298     0.935319
H      -5.092526     3.242730     0.699736
H      -5.123383    -1.043358     0.867161
H      -5.468519     1.148654     1.975016
C      -0.376031    -0.947427    -2.025157
O      -1.626098    -1.244213    -1.380929
C      -1.322186     0.117752    -1.637512
C      -1.305849     1.180410    -0.594409
O      -1.140958     2.338348    -0.890691
O      -1.477598     0.723898     0.643791
C      -1.514042     1.737421     1.663673
H      -1.786702     1.219822     2.581797
H      -0.532012     2.204210     1.766779
H      -2.260725     2.491631     1.413797
72
     -1725.751867     -1725.221457   1.69   3.84
C       0.971591     1.952553     2.709971
C       0.113236     1.032595     3.337273
C      -1.112069     1.496044     3.836797
C      -1.446984     2.822424     3.685880
C      -0.572808     3.724073     3.041010
C       0.650015     3.307470     2.545689
C       1.952227    -0.049020     2.664755
C       0.760376    -0.252640     3.289267
H      -1.799758     0.817016     4.331559
H      -2.386921     3.212234     4.061307
H       1.334920     3.983165     2.050240
H       2.717346    -0.759286     2.386055
N       2.097040     1.277777     2.313966
C       3.170778     1.821594     1.516673
H       3.873440     1.021211     1.282969
H       2.786028     2.222927     0.573107
H       3.701786     2.614958     2.052966
O      -1.036366     5.008423     2.959065
C      -0.209116     5.964049     2.329300
H      -0.751264     6.909775     2.366803
H       0.747417     6.075032     2.855652
H      -0.016674     5.699395     1.281768
N      -1.316516    -1.443183     1.612050
C      -2.515560    -0.973025     2.115759
O      -2.943518    -1.378468     3.178107
C      -3.300211     0.096718     1.328522
H      -3.247166     0.987775     1.960348
H      -4.337312    -0.243066     1.383984
C      -2.893831     0.447753    -0.131020
H      -3.785323     0.630607    -0.738109
H      -2.285405     1.352771    -0.147521
C      -2.071127    -0.717133    -0.655171
C      -0.958468    -0.567161    -1.745266
H      -1.017793    -1.331095    -2.523453
C       0.145588    -1.569584     3.654629
H      -0.644319    -1.423416     4.394361
H       0.887665    -2.239719     4.101954
C      -0.447473    -2.289072     2.430591
H       0.356851    -2.633350     1.775167
H      -1.024772    -3.160094     2.753676
C      -2.946058    -1.956064    -0.899098
H      -3.679011    -2.040575    -0.088689
H      -3.531285    -1.759964    -1.806369
C      -2.221214    -3.297786    -1.034913
H      -1.507010    -3.311285    -1.862027
H      -1.677449    -3.553391    -0.120620
H      -2.948770    -4.094056    -1.217216
O      -0.884685     0.716631    -2.303309
C       0.410939     1.121676    -2.720483
H       0.275526     2.137894    -3.101636
H       1.084071     1.181099    -1.855279
C       1.022019     0.242863    -3.790903
C       2.371987    -0.089917    -3.740379
C       0.249102    -0.222209    -4.853531
C       2.945691    -0.869569    -4.739611
H       2.980265     0.259577    -2.910601
C       0.816870    -1.008251    -5.846848
H      -0.804785     0.036201    -4.897161
C       2.169026    -1.332622    -5.793549
H       4.002562    -1.114661    -4.693609
H       0.204191    -1.366218    -6.668414
H       2.614373    -1.942595    -6.573120
C      -0.967861    -0.929882     0.365548
O      -0.041240     0.165787     0.271781
C       0.099185    -0.894148    -0.651876
C       1.410555    -1.592829    -0.803550
O       2.447925    -1.268405    -0.288940
O       1.262974    -2.637414    -1.627497
C       2.461538    -3.368440    -1.930151
H       3.192719    -2.709824    -2.400802
H       2.884492    -3.795851    -1.018427
H       2.157811    -4.154792    -2.619403
72
     -1725.752751     -1725.221433   1.14   3.85
C       2.189717    -2.133843    -1.258968
C       1.705732    -2.691095    -0.062209
C       1.131512    -3.969541    -0.109289
C       1.061735    -4.640814    -1.308591
C       1.572426    -4.066644    -2.493628
C       2.144125    -2.806372    -2.489539
C       2.526395    -0.657299     0.380860
C       1.941217    -1.727950     0.984161
H       0.740389    -4.435132     0.790417
H       0.623521    -5.630449    -1.375684
H       2.539640    -2.349062    -3.387135
H       2.839678     0.285776     0.805576
N       2.676735    -0.884932    -0.974538
C       3.226360     0.041930    -1.934351
H       4.179547    -0.315260    -2.339942
H       2.523222     0.199342    -2.757306
H       3.394568     1.000768    -1.441924
O       1.445076    -4.848163    -3.606936
C       1.961084    -4.349948    -4.824495
H       1.774948    -5.121295    -5.572563
H       1.453599    -3.425151    -5.126640
H       3.040618    -4.166227    -4.756171
N       0.223529     0.179335     2.885559
C       0.855805     0.830325     3.929024
O       1.416642     0.207284     4.807865
C       0.871647     2.373943     3.949429
H       1.900655     2.644128     3.691610
H       0.765429     2.618583     5.008522
C      -0.137552     3.180974     3.078663
H      -0.552762     4.012020     3.655940
H       0.362789     3.599975     2.204960
C      -1.214363     2.209852     2.622883
C      -1.973722     2.343963     1.264112
H      -3.049609     2.171990     1.362999
C       1.582729    -1.883692     2.432151
H       2.346135    -1.438404     3.074932
H       1.553129    -2.950313     2.680250
C       0.225723    -1.284439     2.823247
H      -0.543945    -1.580222     2.106161
H      -0.059143    -1.653146     3.812980
C      -2.158935     1.837111     3.775978
H      -1.573499     1.720346     4.695932
H      -2.809148     2.703870     3.948585
C      -3.016659     0.582632     3.583591
H      -3.648284     0.630449     2.692961
H      -2.400515    -0.317240     3.504259
H      -3.676465     0.450585     4.446042
O      -1.720801     3.537078     0.583159
C      -2.361095     3.621901    -0.681670
H      -3.399351     3.272191    -0.606991
H      -2.383297     4.688623    -0.924610
C      -1.634355     2.865286    -1.774587
C      -2.329561     2.053399    -2.663934
C      -0.256039     3.010885    -1.923016
C      -1.662061     1.404335    -3.697862
H      -3.399897     1.915282    -2.541585
C       0.411252     2.364817    -2.952493
H       0.291477     3.628989    -1.219619
C      -0.290688     1.560100    -3.845478
H      -2.216829     0.777957    -4.389588
H       1.482734     2.497856    -3.064320
H       0.229656     1.059834    -4.656533
C      -0.474318     1.026985     2.025764
O       0.141581     1.449451     0.799446
C      -1.225972     1.080030     0.759161
C      -1.771937     0.024208    -0.137907
O      -2.960921    -0.188597    -0.191710
O      -0.841121    -0.627228    -0.817035
C      -1.324123    -1.686361    -1.661234
H      -2.073184    -1.298847    -2.352874
H      -0.452603    -2.057260    -2.193960
H      -1.760000    -2.479463    -1.050264
72
     -1725.745914     -1725.221274   5.43   3.95
C       2.123851     5.069392    -1.247686
C       2.226622     3.870849    -0.510890
C       2.774136     3.914876     0.772434
C       3.199163     5.126875     1.291507
C       3.084558     6.309551     0.535401
C       2.546591     6.297675    -0.742330
C       1.312056     3.407452    -2.502957
C       1.698220     2.814840    -1.340905
H       2.865025     3.010661     1.367670
H       3.620653     5.151421     2.287826
H       2.471459     7.224420    -1.299551
H       0.867963     2.966215    -3.385667
N       1.562823     4.769757    -2.464513
C       1.284637     5.719245    -3.515117
H       0.843216     5.192911    -4.363133
H       0.578276     6.484913    -3.176574
H       2.202703     6.211869    -3.852912
O       3.485481     7.535856     0.991529
C       4.040923     7.615326     2.288737
H       4.286843     8.666115     2.448030
H       3.324048     7.292505     3.053797
H       4.954698     7.014175     2.372705
N       0.655867    -0.135612     0.794228
C       1.333461    -0.252455     1.997900
O       2.048239     0.643539     2.398438
C       1.159470    -1.524703     2.852370
H       0.772789    -1.158078     3.807358
H       2.182806    -1.846723     3.062494
C       0.297069    -2.702997     2.326661
H       0.694969    -3.653717     2.693387
H      -0.731839    -2.612675     2.678420
C       0.314657    -2.617058     0.810298
C      -0.831380    -3.167348    -0.098324
H      -0.468025    -3.761062    -0.943130
C       1.590911     1.373215    -0.952706
H       2.558600     1.019635    -0.578206
H       1.338742     0.763493    -1.826607
C       0.542831     1.170309     0.147362
H       0.667785     1.928523     0.920109
H      -0.466995     1.257243    -0.255008
C       1.699382    -2.966512     0.240128
H       2.473683    -2.533533     0.882400
H       1.813089    -4.053905     0.331535
C       1.981413    -2.538963    -1.202485
H       2.970948    -2.894050    -1.504841
H       1.259336    -2.942547    -1.917392
H       1.980894    -1.451181    -1.300299
O      -1.821905    -3.846072     0.607721
C      -2.954546    -4.172812    -0.182639
H      -3.484634    -3.258206    -0.480719
H      -2.629173    -4.680658    -1.103399
C      -3.876461    -5.069165     0.605590
C      -3.363480    -6.083434     1.411875
C      -5.255696    -4.916470     0.507169
C      -4.217838    -6.932314     2.102447
H      -2.288764    -6.200458     1.500912
C      -6.113847    -5.768163     1.194905
H      -5.665762    -4.121908    -0.110430
C      -5.596388    -6.779163     1.993825
H      -3.806421    -7.717892     2.728866
H      -7.188105    -5.638172     1.107330
H      -6.263406    -7.444433     2.532962
C      -0.158749    -1.215983     0.469233
O      -1.563042    -1.107303     0.733691
C      -1.167398    -1.703874    -0.496478
C      -1.669563    -1.223953    -1.814418
O      -1.748246    -1.947772    -2.775746
O      -2.000166     0.068982    -1.806840
C      -2.497319     0.585389    -3.051100
H      -2.684097     1.643791    -2.874863
H      -1.757239     0.447878    -3.842215
H      -3.420399     0.072431    -3.329165
72
     -1725.750218     -1725.221250   2.73   3.97
C       2.260239    -2.762494     2.607865
C       1.022407    -2.164859     2.286176
C       0.467004    -1.257612     3.189290
C       1.132246    -0.962182     4.367382
C       2.366825    -1.574015     4.662892
C       2.945434    -2.480463     3.788748
C       1.608862    -3.527715     0.611595
C       0.622856    -2.670781     0.995121
H      -0.479382    -0.772202     2.972254
H       0.690690    -0.257743     5.060162
H       3.896823    -2.933899     4.041955
H       1.703834    -4.116599    -0.291071
N       2.603751    -3.596620     1.576087
C       3.795463    -4.408495     1.514036
H       3.799086    -4.963593     0.574491
H       4.697060    -3.787743     1.552915
H       3.826270    -5.126405     2.340700
O       3.074091    -1.326498     5.806535
C       2.536589    -0.411108     6.740363
H       3.251091    -0.365173     7.563242
H       2.424242     0.589095     6.304038
H       1.566496    -0.750654     7.123681
N      -1.471856    -1.530183    -1.969748
C      -2.664184    -2.162368    -2.286566
O      -2.795493    -3.359362    -2.142539
C      -3.835395    -1.324959    -2.848377
H      -4.680254    -1.564663    -2.197393
H      -4.064907    -1.809065    -3.802158
C      -3.697172     0.213233    -3.026744
H      -4.296384     0.546510    -3.879206
H      -4.062673     0.731764    -2.139019
C      -2.217497     0.514501    -3.207772
C      -1.544536     1.861264    -2.773351
H      -0.863499     2.258020    -3.532282
C      -0.620502    -2.279830     0.250141
H      -0.926686    -1.285486     0.580600
H      -1.450241    -2.959409     0.475551
C      -0.407713    -2.239768    -1.265853
H       0.530319    -1.729664    -1.499652
H      -0.365061    -3.247897    -1.681986
C      -1.701103     0.040110    -4.575619
H      -2.175026    -0.915152    -4.826965
H      -2.066080     0.757632    -5.321150
C      -0.184648    -0.124278    -4.716699
H       0.061789    -0.407076    -5.744372
H       0.368491     0.790653    -4.488578
H       0.191640    -0.915082    -4.061524
O      -2.450257     2.836948    -2.352360
C      -1.849332     4.070105    -1.984476
H      -1.139190     4.390071    -2.759132
H      -2.670462     4.792970    -1.963939
C      -1.158746     4.037044    -0.636204
C      -1.772304     3.424493     0.455336
C       0.083239     4.638647    -0.465370
C      -1.151541     3.416773     1.696157
H      -2.732135     2.937272     0.322625
C       0.703801     4.639444     0.779197
H       0.579922     5.097751    -1.315240
C       0.087425     4.028237     1.862933
H      -1.635611     2.930654     2.537092
H       1.672513     5.114927     0.898406
H       0.570581     4.025844     2.835207
C      -1.525699    -0.140642    -2.031446
O      -1.852375     0.590836    -0.837994
C      -0.799142     1.084348    -1.652547
C       0.582856     1.312886    -1.141897
O       1.404391     1.915387    -1.788756
O       0.791740     0.760678     0.048548
C       2.111326     0.937877     0.592146
H       2.112020     0.402128     1.539675
H       2.857284     0.522624    -0.088823
H       2.306403     2.001013     0.743654
72
     -1725.749317     -1725.221052   3.29   4.09
C       1.955510    -3.215980     0.191819
C       1.064013    -3.229104    -0.894843
C      -0.009851    -4.130189    -0.866835
C      -0.153431    -4.979595     0.205097
C       0.761192    -4.953922     1.281813
C       1.824343    -4.068978     1.298874
C       2.674931    -1.734639    -1.316064
C       1.546709    -2.268615    -1.857981
H      -0.729042    -4.160914    -1.678774
H      -0.972698    -5.687935     0.255633
H       2.533979    -4.034431     2.115089
H       3.348076    -0.994923    -1.726538
N       2.925728    -2.281014    -0.068189
C       4.075652    -2.005995     0.761048
H       4.734444    -2.878439     0.832294
H       4.639896    -1.181960     0.321570
H       3.767236    -1.712571     1.769456
O       0.490836    -5.845840     2.279368
C       1.381081    -5.900732     3.376175
H       0.998970    -6.677241     4.039642
H       2.395501    -6.167143     3.054440
H       1.409969    -4.946514     3.917336
N      -0.000402     0.304132    -2.771509
C       0.243096     1.243554    -3.760209
O       0.468290     0.902373    -4.902754
C       0.178888     2.744291    -3.406923
H      -0.703999     3.099399    -3.947629
H       1.029559     3.178550    -3.935097
C       0.121420     3.220629    -1.923789
H       0.799183     4.065930    -1.771417
H      -0.885540     3.563371    -1.684295
C       0.463999     2.047469    -1.018406
C      -0.234249     1.810557     0.368476
H       0.483141     1.564291     1.160048
C       0.937625    -1.965154    -3.193709
H       0.654056    -2.905211    -3.681403
H       1.669463    -1.480757    -3.847094
C      -0.311286    -1.080092    -3.134098
H      -0.789618    -1.062863    -4.115417
H      -1.030091    -1.457014    -2.403712
C       1.968711     1.788964    -0.836440
H       2.319780     2.521457    -0.098003
H       2.088002     0.804995    -0.366575
C       2.882024     1.876443    -2.060889
H       3.915429     1.679895    -1.757250
H       2.624318     1.148914    -2.833929
H       2.866084     2.871344    -2.513096
O      -1.088626     2.840988     0.750887
C      -1.886296     2.532727     1.885503
H      -2.412515     1.581338     1.719021
H      -1.251685     2.414807     2.774862
C      -2.889274     3.637615     2.090540
C      -3.736512     4.001949     1.044356
C      -3.000333     4.289359     3.312656
C      -4.679724     5.002986     1.222591
H      -3.646078     3.496395     0.087843
C      -3.948969     5.291467     3.495566
H      -2.338688     4.015393     4.129950
C      -4.789616     5.649592     2.450996
H      -5.333742     5.281700     0.402135
H      -4.027234     5.793069     4.455098
H      -5.529057     6.431961     2.590127
C      -0.331679     0.865056    -1.543268
O      -1.724599     1.095096    -1.270945
C      -0.921992     0.552855    -0.230978
C      -1.331790    -0.736932     0.400574
O      -2.070780    -1.539267    -0.102947
O      -0.763253    -0.862777     1.606858
C      -1.120256    -2.053658     2.329115
H      -0.491456    -2.056270     3.218440
H      -2.176889    -2.017958     2.605376
H      -0.929884    -2.936288     1.720339
72
     -1725.751889     -1725.220829   1.68   4.23
C       0.665164     0.102130     2.841668
C       1.944971    -0.175050     2.329847
C       2.387135    -1.504963     2.322459
C       1.555714    -2.498847     2.785694
C       0.268608    -2.197597     3.279876
C      -0.195279    -0.894422     3.324184
C       1.581735     2.026705     2.185252
C       2.513642     1.076596     1.902424
H       3.376083    -1.754944     1.951257
H       1.868039    -3.537526     2.791968
H      -1.172510    -0.642339     3.713402
H       1.597666     3.087688     1.980293
N       0.461162     1.455395     2.756470
C      -0.743895     2.155910     3.133175
H      -0.979204     1.992091     4.190012
H      -0.591411     3.224616     2.976536
H      -1.595844     1.836210     2.524116
O      -0.447781    -3.282508     3.703700
C      -1.758867    -3.058062     4.177933
H      -1.760279    -2.408269     5.062297
H      -2.393853    -2.615841     3.400174
H      -2.155867    -4.036277     4.452380
N       2.766561     0.141276    -0.890911
C       3.270602    -1.144066    -0.793909
O       4.428009    -1.331610    -0.474747
C       2.359424    -2.351913    -1.091824
H       2.391264    -2.954424    -0.181367
H       2.911521    -2.922473    -1.844419
C       0.896674    -2.111968    -1.537968
H       0.543720    -2.944476    -2.151219
H       0.241939    -2.039058    -0.667421
C       0.894095    -0.781554    -2.268016
C      -0.366337     0.126475    -2.447490
H      -0.501415     0.470394    -3.478934
C       3.784404     1.256410     1.127541
H       4.489489     0.458510     1.370410
H       4.266375     2.204049     1.390627
C       3.551564     1.275358    -0.394058
H       3.004095     2.177585    -0.671016
H       4.512804     1.272299    -0.914538
C       1.710261    -0.785481    -3.567772
H       1.791683     0.247475    -3.929234
H       2.736624    -1.112734    -3.373745
C       1.098728    -1.664433    -4.660410
H       0.059325    -1.388953    -4.865398
H       1.659402    -1.565563    -5.594306
H       1.111201    -2.721654    -4.380334
O      -1.526523    -0.439037    -1.923031
C      -2.659311     0.418619    -1.915159
H      -2.338891     1.466882    -1.853480
H      -3.223029     0.299440    -2.849972
C      -3.531401     0.091935    -0.728803
C      -2.961935    -0.051064     0.537024
C      -4.908620    -0.027342    -0.872816
C      -3.769780    -0.300172     1.637350
H      -1.885619     0.027225     0.651824
C      -5.718014    -0.276980     0.231353
H      -5.355925     0.073264    -1.858016
C      -5.149483    -0.411546     1.490370
H      -3.322786    -0.404940     2.621219
H      -6.792425    -0.366388     0.105401
H      -5.776482    -0.604489     2.355211
C       1.428280     0.233875    -1.270346
O       0.429000     0.508603    -0.291070
C       0.321349     1.185632    -1.535212
C       0.272723     2.675973    -1.545746
O       0.754208     3.391823    -0.707975
O      -0.373007     3.118940    -2.635847
C      -0.466225     4.547666    -2.754655
H      -1.011544     4.730000    -3.679501
H      -1.003681     4.964359    -1.900370
H       0.531988     4.987551    -2.802420
72
     -1725.753371     -1725.220794   0.75   4.25
C       3.032444     2.236474     0.268337
C       2.283357     1.510884    -0.672290
C       1.147315     2.115099    -1.232035
C       0.800513     3.387511    -0.846421
C       1.570119     4.097418     0.102837
C       2.697344     3.538121     0.675247
C       3.997848     0.239998    -0.000264
C       2.916890     0.226036    -0.829805
H       0.539555     1.575605    -1.949974
H      -0.072757     3.884901    -1.254392
H       3.300046     4.065218     1.403282
H       4.717569    -0.538857     0.208727
N       4.077125     1.445234     0.674968
C       5.095241     1.811621     1.630396
H       5.757329     0.958276     1.784310
H       5.693581     2.656005     1.270691
H       4.649904     2.080046     2.594201
O       1.104939     5.350748     0.390498
C       1.823299     6.115686     1.335582
H       1.845916     5.622895     2.315910
H       2.851520     6.303410     1.001093
H       1.295755     7.066257     1.423986
N       1.441714    -2.049366     0.301584
C       2.130503    -1.913260     1.501561
O       3.280282    -2.282886     1.616646
C       1.428329    -1.264984     2.712488
H       2.015146    -0.360654     2.902872
H       1.650572    -1.939227     3.543775
C      -0.085247    -0.934103     2.645874
H      -0.539708    -1.032812     3.634379
H      -0.236105     0.094097     2.312490
C      -0.681624    -1.876572     1.615618
C      -1.981497    -1.575709     0.795338
H      -2.662643    -2.433039     0.765376
C       2.431750    -0.899267    -1.700572
H       3.154303    -1.115636    -2.496037
H       1.509033    -0.592663    -2.194600
C       2.180984    -2.220267    -0.948231
H       1.623458    -2.908744    -1.589784
H       3.123779    -2.692621    -0.671383
C      -0.662849    -3.350276     2.041479
H      -0.920828    -3.965847     1.170354
H       0.350425    -3.650507     2.328851
C      -1.623031    -3.658241     3.192129
H      -2.647038    -3.350901     2.957037
H      -1.638757    -4.730981     3.405265
H      -1.326698    -3.145050     4.111454
O      -2.643896    -0.413411     1.195141
C      -3.866998    -0.162840     0.522519
H      -4.483946    -1.072192     0.509956
H      -4.383332     0.579989     1.138513
C      -3.707535     0.367120    -0.888649
C      -4.616195    -0.004735    -1.874533
C      -2.686124     1.260162    -1.207929
C      -4.510858     0.503358    -3.164173
H      -5.412218    -0.705015    -1.634837
C      -2.576035     1.762214    -2.498008
H      -1.967440     1.547980    -0.448860
C      -3.486433     1.386662    -3.479573
H      -5.229250     0.207299    -3.922699
H      -1.773349     2.450808    -2.741002
H      -3.396654     1.781460    -4.486535
C       0.112491    -1.637890     0.342417
O      -0.249561    -0.369487    -0.197940
C      -1.104950    -1.466360    -0.481902
C      -1.400927    -1.801900    -1.904026
O      -0.761165    -1.424985    -2.849353
O      -2.468128    -2.607318    -1.978194
C      -2.875128    -2.952630    -3.311074
H      -3.753518    -3.585883    -3.194521
H      -3.122310    -2.048812    -3.870895
H      -2.075646    -3.492671    -3.822689
72
     -1725.748061     -1725.220636   4.08   4.35
C       1.276945    -2.993664     1.780455
C      -0.054237    -3.036657     2.229008
C      -0.782366    -4.222397     2.044149
C      -0.187045    -5.292824     1.422390
C       1.151330    -5.221504     0.971292
C       1.905239    -4.075180     1.143393
C       0.789402    -1.019598     2.705922
C      -0.354302    -1.753815     2.811236
H      -1.810900    -4.299046     2.382826
H      -0.722716    -6.222222     1.264121
H       2.932387    -4.004371     0.810538
H       0.996530    -0.015289     3.048841
N       1.782868    -1.753441     2.077490
C       3.129178    -1.306499     1.810790
H       3.360911    -1.379431     0.743316
H       3.219747    -0.260981     2.108762
H       3.862509    -1.894921     2.372613
O       1.609745    -6.358648     0.372235
C       2.944017    -6.367121    -0.094898
H       3.655674    -6.211982     0.725612
H       3.107886    -7.353336    -0.530364
H       3.103256    -5.601667    -0.864682
N      -2.308076     0.073979     1.433816
C      -3.468147    -0.381190     0.834170
O      -4.309231    -0.978155     1.474484
C      -3.707843    -0.080081    -0.659971
H      -4.537707     0.633517    -0.653726
H      -4.129685    -1.007612    -1.050987
C      -2.556778     0.449692    -1.568701
H      -2.548985    -0.089603    -2.520248
H      -2.718611     1.504339    -1.792835
C      -1.236014     0.306092    -0.826547
C      -0.093309     1.376630    -0.931590
H       0.892355     0.915872    -1.068291
C      -1.673462    -1.325294     3.388890
H      -1.622895    -1.281689     4.483276
H      -2.435803    -2.068830     3.141560
C      -2.158409     0.037293     2.888533
H      -3.129676     0.260684     3.335506
H      -1.464776     0.833935     3.161538
C      -0.595205    -1.090905    -0.901006
H      -0.049918    -1.130669    -1.853091
H       0.164597    -1.164762    -0.113739
C      -1.507920    -2.315274    -0.829303
H      -0.898442    -3.221236    -0.881973
H      -2.067897    -2.369577     0.105085
H      -2.217577    -2.343472    -1.661119
O      -0.327888     2.364990    -1.884495
C       0.627224     3.413674    -1.870662
H       0.542922     3.991173    -0.940338
H       1.642413     2.988782    -1.906340
C       0.402666     4.315237    -3.058730
C       0.098687     3.779190    -4.308601
C       0.533877     5.693790    -2.927489
C      -0.066069     4.610235    -5.408232
H      -0.015243     2.705610    -4.414225
C       0.373343     6.528310    -4.028723
H       0.760518     6.122409    -1.955001
C       0.073726     5.987811    -5.272107
H      -0.304664     4.181579    -6.376721
H       0.480115     7.602337    -3.912369
H      -0.053707     6.636590    -6.132886
C      -1.494117     0.813015     0.581934
O      -1.707953     2.233087     0.520153
C      -0.366132     1.765532     0.544574
C       0.543215     2.286447     1.606029
O       0.205203     2.579955     2.722126
O       1.804978     2.379844     1.153081
C       2.748154     2.929200     2.084433
H       2.804634     2.309575     2.982287
H       3.705082     2.941511     1.564017
H       2.452372     3.941029     2.369519
72
     -1725.750225     -1725.220479   2.72   4.45
C      -1.111052    -3.874974     0.715239
C      -0.800903    -2.532061     0.996659
C      -1.735827    -1.546016     0.645444
C      -2.905289    -1.913702     0.021835
C      -3.187598    -3.268499    -0.260038
C      -2.300026    -4.271338     0.083965
C       0.890649    -3.817808     1.694569
C       0.496991    -2.516435     1.622285
H      -1.535341    -0.500738     0.848047
H      -3.644457    -1.174356    -0.266414
H      -2.498000    -5.315378    -0.120271
H       1.812179    -4.238952     2.073328
N      -0.069978    -4.650635     1.153931
C       0.030538    -6.084192     1.019091
H       0.019474    -6.382099    -0.034689
H       0.971871    -6.415127     1.460438
H      -0.791334    -6.587149     1.539574
O      -4.385062    -3.484444    -0.882385
C      -4.734196    -4.818243    -1.189862
H      -4.010016    -5.273554    -1.877213
H      -4.808545    -5.431912    -0.283207
H      -5.710306    -4.774206    -1.674433
N       1.716859    -0.576806    -0.384079
C       1.353090    -1.545584    -1.313849
O       1.791945    -2.672798    -1.255071
C       0.333899    -1.164644    -2.405874
H      -0.603571    -1.601337    -2.045341
H       0.625688    -1.766402    -3.267724
C       0.110189     0.329860    -2.795114
H       0.160185     0.451463    -3.881206
H      -0.882511     0.651885    -2.476883
C       1.151462     1.177567    -2.081739
C       0.861267     2.610834    -1.510206
H       1.649365     3.326114    -1.769459
C       1.320327    -1.314180     1.981346
H       1.886840    -1.503242     2.900070
H       0.671602    -0.457091     2.177825
C       2.336159    -0.941835     0.886177
H       2.952069    -0.098426     1.211584
H       2.990531    -1.791778     0.683326
C       2.526858     1.236128    -2.774389
H       2.422762     1.966701    -3.587192
H       3.244128     1.674284    -2.067605
C       3.127135    -0.042266    -3.362841
H       4.056833     0.207230    -3.883517
H       3.373456    -0.784483    -2.601440
H       2.463441    -0.509943    -4.094736
O      -0.403069     3.111430    -1.826484
C      -0.650780     4.425057    -1.346308
H       0.198479     5.080291    -1.582859
H      -1.515561     4.779324    -1.915572
C      -0.952145     4.488294     0.137501
C      -1.791016     3.544976     0.728199
C      -0.419201     5.505757     0.921575
C      -2.089858     3.620128     2.081267
H      -2.194157     2.739676     0.123891
C      -0.724449     5.588903     2.275757
H       0.253468     6.232576     0.475520
C      -1.560348     4.645456     2.858767
H      -2.738514     2.875962     2.532369
H      -0.304021     6.390785     2.874977
H      -1.798014     4.705967     3.916434
C       1.195215     0.684083    -0.646102
O      -0.012685     1.091788     0.024814
C       1.037327     2.039498    -0.080807
C       1.629873     2.736977     1.094066
O       2.360598     3.687563     0.967873
O       1.283542     2.187284     2.257731
C       1.802162     2.847904     3.422583
H       1.437893     3.875799     3.459063
H       1.427238     2.278454     4.271930
H       2.894244     2.846639     3.405856
72
     -1725.752609     -1725.220250   1.23   4.59
C      -1.267081    -2.109116    -1.509473
C      -1.125461    -1.096361    -2.482810
C      -2.174990    -0.195624    -2.656786
C      -3.312547    -0.297698    -1.870752
C      -3.421291    -1.314475    -0.903658
C      -2.404688    -2.237865    -0.718393
C       0.744397    -2.324347    -2.445156
C       0.183521    -1.253120    -3.067003
H      -2.107261     0.592280    -3.400861
H      -4.117722     0.411065    -2.016493
H      -2.511635    -3.013695     0.030498
H       1.734740    -2.741612    -2.558960
N      -0.117369    -2.854897    -1.505508
C       0.193652    -3.907820    -0.568300
H       0.084960    -3.550505     0.461255
H      -0.457054    -4.776774    -0.713286
H       1.229146    -4.216651    -0.718116
O      -4.511228    -1.468323    -0.086466
C      -5.593625    -0.573484    -0.244650
H      -6.346418    -0.876932     0.484265
H      -5.292296     0.461860    -0.042828
H      -6.021235    -0.636076    -1.252793
N       1.055543     1.449098    -2.202877
C       0.012773     2.301112    -2.523491
O      -0.222538     2.582138    -3.682002
C      -0.858725     2.906688    -1.405594
H      -1.881419     2.627382    -1.669287
H      -0.795599     3.985760    -1.575092
C      -0.556819     2.557963     0.070839
H      -0.892721     3.362173     0.729638
H      -1.086277     1.648907     0.361412
C       0.936262     2.300374     0.147209
C       1.619052     1.428173     1.253373
H       2.481014     1.915705     1.721768
C       0.865646    -0.303498    -4.004981
H       0.128097     0.232268    -4.606136
H       1.514512    -0.847253    -4.699997
C       1.750265     0.717146    -3.266790
H       2.589820     0.203989    -2.794724
H       2.140087     1.450459    -3.977466
C       1.798895     3.536081    -0.139178
H       2.845625     3.216403    -0.219715
H       1.543081     3.961526    -1.114918
C       1.675288     4.619741     0.933460
H       2.374072     5.438088     0.737740
H       0.668722     5.046864     0.960111
H       1.894315     4.226123     1.931032
O       0.703464     0.955068     2.192643
C       1.065802    -0.239923     2.869580
H       1.564106    -0.927661     2.172812
H       1.767366    -0.021021     3.685374
C      -0.188049    -0.892423     3.392922
C      -1.245618    -1.141405     2.517202
C      -0.306211    -1.265646     4.725659
C      -2.406717    -1.747956     2.973787
H      -1.156656    -0.850052     1.476087
C      -1.466373    -1.883906     5.184670
H       0.511164    -1.068728     5.414159
C      -2.517458    -2.123893     4.310462
H      -3.228707    -1.920156     2.285755
H      -1.548530    -2.172364     6.228014
H      -3.425232    -2.600025     4.668031
C       1.214684     1.180673    -0.843291
O       0.751975    -0.059026    -0.308748
C       2.012720     0.412844     0.143830
C       3.213239    -0.461084     0.006065
O       3.361430    -1.311700    -0.831535
O       4.120796    -0.159777     0.946516
C       5.329889    -0.934712     0.903800
H       5.105580    -1.994335     1.042468
H       5.833750    -0.794616    -0.054760
H       5.946095    -0.561416     1.720436
72
     -1725.744793     -1725.220035   6.13   4.73
C       2.838422     2.785381     3.818994
C       2.705581     2.614663     2.430160
C       3.190169     3.618173     1.577339
C       3.778957     4.736080     2.122175
C       3.902548     4.885621     3.521435
C       3.437010     3.917912     4.393478
C       1.822749     0.828532     3.452091
C       2.053380     1.348426     2.215706
H       3.101185     3.517169     0.499414
H       4.164821     5.532175     1.495182
H       3.523139     4.017174     5.467585
H       1.343334    -0.102469     3.723180
N       2.294162     1.687012     4.434267
C       2.230491     1.463588     5.858427
H       1.652794     2.250090     6.356255
H       1.740143     0.506754     6.044511
H       3.233094     1.429271     6.298694
O       4.508514     6.045509     3.918054
C       4.665695     6.264816     5.304222
H       5.162203     7.230548     5.406257
H       3.696041     6.301917     5.816827
H       5.289395     5.488236     5.764965
N       0.096678     1.032696    -1.026492
C       0.823931     1.461576    -2.124592
O       1.615824     2.376863    -2.036209
C       0.638350     0.736655    -3.474633
H       1.602459     0.246554    -3.642341
H       0.600302     1.547075    -4.204862
C      -0.522511    -0.282144    -3.692271
H      -1.010656    -0.098406    -4.653940
H      -0.122956    -1.296411    -3.718612
C      -1.499998    -0.176486    -2.531158
C      -2.213855    -1.427024    -1.904361
H      -3.284680    -1.255866    -1.743080
C       1.663738     0.764585     0.894111
H       1.426397    -0.294809     1.002851
H       2.492657     0.851669     0.183518
C       0.447882     1.495202     0.314868
H      -0.421932     1.348758     0.958324
H       0.647939     2.564943     0.242777
C      -2.540704     0.950564    -2.653219
H      -3.321109     0.578067    -3.329454
H      -3.024204     1.075885    -1.675414
C      -2.085762     2.320158    -3.160660
H      -1.359195     2.793932    -2.497614
H      -1.651182     2.262278    -4.161905
H      -2.951465     2.986411    -3.222239
O      -1.987106    -2.615261    -2.592359
C      -2.485108    -3.764659    -1.925232
H      -1.923807    -3.935953    -0.996852
H      -3.539457    -3.604157    -1.651778
C      -2.362244    -4.964500    -2.830187
C      -2.689372    -4.868845    -4.181531
C      -1.954554    -6.191708    -2.317987
C      -2.613636    -5.984873    -5.003396
H      -2.997894    -3.911718    -4.588514
C      -1.881898    -7.312589    -3.138691
H      -1.687334    -6.274252    -1.267947
C      -2.212214    -7.211493    -4.483443
H      -2.869054    -5.898189    -6.055024
H      -1.563689    -8.264652    -2.725393
H      -2.154903    -8.083941    -5.126608
C      -0.652662    -0.110459    -1.274680
O      -0.037317    -1.391127    -1.064897
C      -1.374022    -1.214062    -0.614406
C      -1.687311    -1.463618     0.825021
O      -0.913328    -1.315007     1.732369
O      -2.959570    -1.863070     0.968451
C      -3.374137    -2.122270     2.319007
H      -4.412816    -2.442257     2.250505
H      -2.756273    -2.906352     2.761215
H      -3.290067    -1.214296     2.919740
72
     -1725.744408     -1725.220011   6.37   4.74
C       3.212413     2.299941     3.804401
C       2.919844     2.126851     2.441399
C       3.418287     3.060184     1.518517
C       4.171040     4.117016     1.975920
C       4.449421     4.273449     3.352096
C       3.978767     3.371780     4.289425
C       1.975425     0.452286     3.588030
C       2.122225     0.931960     2.322768
H       3.214078     2.951286     0.457218
H       4.572597     4.858342     1.294148
H       4.183948     3.476191     5.346686
H       1.452112    -0.429531     3.933071
N       2.629690     1.268862     4.497368
C       2.693148     1.071075     5.925405
H       2.242966     1.913730     6.461298
H       2.141308     0.165612     6.183089
H       3.728720     0.951035     6.261487
O       5.207241     5.369367     3.657731
C       5.525596     5.591674     5.015663
H       6.125384     6.502165     5.043421
H       4.621713     5.736721     5.620854
H       6.110782     4.761633     5.431461
N       0.074557     0.933812    -0.872995
C       0.907557     1.287476    -1.922478
O       1.825590     2.064538    -1.758730
C       0.680422     0.653515    -3.309812
H       1.564647     0.025503    -3.457497
H       0.804082     1.486780    -4.003881
C      -0.611473    -0.161658    -3.619668
H      -1.016141     0.127833    -4.593943
H      -0.375169    -1.225167    -3.668434
C      -1.616760     0.059683    -2.500273
C      -2.555624    -1.078025    -1.965800
H      -3.590403    -0.739679    -1.836796
C       1.562626     0.378856     1.049308
H       1.172727    -0.629608     1.200615
H       2.355667     0.314478     0.296564
C       0.450647     1.279302     0.495611
H      -0.444375     1.213904     1.117302
H       0.782482     2.317935     0.483957
C      -2.453737     1.346336    -2.616384
H      -3.250305     1.129794    -3.339721
H      -2.957726     1.512554    -1.655313
C      -1.761820     2.641521    -3.045376
H      -1.295461     2.550392    -4.029764
H      -2.506234     3.440474    -3.113782
H      -1.001218     2.968869    -2.333665
O      -2.490385    -2.260090    -2.697219
C      -3.219070    -3.329697    -2.112516
H      -2.747908    -3.638520    -1.170066
H      -4.240265    -2.994576    -1.876155
C      -3.262489    -4.491280    -3.073214
C      -3.478842    -4.279339    -4.433581
C      -3.123144    -5.794076    -2.606038
C      -3.559188    -5.354117    -5.308432
H      -3.577569    -3.264953    -4.805207
C      -3.207387    -6.873066    -3.479995
H      -2.943509    -5.969616    -1.548793
C      -3.426570    -6.655266    -4.833648
H      -3.726322    -5.176442    -6.366380
H      -3.098404    -7.884533    -3.100995
H      -3.491196    -7.495035    -5.518323
C      -0.839133    -0.060523    -1.202181
O      -0.449887    -1.433541    -1.015660
C      -1.766754    -1.056229    -0.632106
C      -2.305995    -1.325604     0.731669
O      -3.480747    -1.503377     0.935923
O      -1.362249    -1.334129     1.675396
C      -1.833563    -1.589981     3.007529
H      -0.951996    -1.542322     3.644953
H      -2.565599    -0.835676     3.303457
H      -2.293090    -2.579059     3.061086
72
     -1725.748122     -1725.220008   4.04   4.75
C       1.416029     2.540512    -2.561826
C       1.243576     1.233197    -3.049311
C       0.460951     1.049952    -4.199918
C      -0.107785     2.141173    -4.812425
C       0.087795     3.445737    -4.307294
C       0.852449     3.668604    -3.176369
C       2.504477     1.146991    -1.198091
C       1.953013     0.351752    -2.156713
H       0.280571     0.058083    -4.599509
H      -0.722147     2.029937    -5.698752
H       1.015286     4.660096    -2.774627
H       3.102499     0.873103    -0.339058
N       2.188966     2.473787    -1.429374
C       2.603809     3.596145    -0.621354
H       3.184706     3.226284     0.224716
H       3.228872     4.287356    -1.196433
H       1.737354     4.142395    -0.233971
O      -0.532412     4.432094    -5.018984
C      -0.370107     5.764526    -4.577173
H      -0.771732     5.902442    -3.565367
H       0.684878     6.065653    -4.593508
H      -0.931906     6.387481    -5.274004
N      -0.345246    -1.352995    -1.591083
C      -1.633866    -1.359904    -2.118510
O      -1.833408    -1.538709    -3.300820
C      -2.835411    -1.190817    -1.163949
H      -3.313706    -2.175461    -1.177638
H      -3.515826    -0.534907    -1.709274
C      -2.638765    -0.715004     0.306892
H      -3.383246     0.044796     0.560719
H      -2.781278    -1.552775     0.989675
C      -1.219167    -0.190066     0.460285
C      -0.375453    -0.415023     1.764043
H       0.174319     0.486940     2.057581
C       2.083274    -1.137845    -2.240717
H       2.646271    -1.486629    -1.372465
H       2.685025    -1.415667    -3.114882
C       0.761371    -1.916383    -2.358845
H       0.412566    -1.943153    -3.389623
H       0.925630    -2.952322    -2.039631
C      -1.018787     1.262128    -0.007511
H      -1.325576     1.896925     0.834076
H       0.054052     1.436011    -0.143169
C      -1.765603     1.738032    -1.254995
H      -1.485290     1.189054    -2.154367
H      -2.849982     1.673198    -1.129490
H      -1.521127     2.787356    -1.441490
O      -1.094760    -0.956921     2.825569
C      -0.320335    -1.148727     4.002240
H       0.632095    -1.636077     3.747753
H      -0.085206    -0.177612     4.459546
C      -1.094455    -2.013034     4.963307
C      -1.601464    -3.239536     4.534640
C      -1.292458    -1.619724     6.281365
C      -2.293650    -4.057728     5.415244
H      -1.453523    -3.544057     3.503163
C      -1.982986    -2.440916     7.168013
H      -0.907282    -0.661776     6.620222
C      -2.484329    -3.660974     6.736296
H      -2.686684    -5.009906     5.072448
H      -2.130424    -2.123471     8.195611
H      -3.024826    -4.302720     7.424980
C      -0.327503    -1.223601    -0.208410
O      -0.376882    -2.431320     0.581535
C       0.521241    -1.410691     0.983579
C       1.971323    -1.676399     1.196088
O       2.704266    -0.874503     1.723491
O       2.352404    -2.873928     0.751800
C       3.739225    -3.191215     0.946852
H       3.982186    -3.181824     2.011411
H       3.871680    -4.188816     0.530894
H       4.372432    -2.468607     0.426895
72
     -1725.744408     -1725.220002   6.37   4.75
C       3.429268    -4.280277    -0.009765
C       2.853153    -3.216328    -0.723520
C       3.491484    -2.757787    -1.886935
C       4.662273    -3.358259    -2.288726
C       5.225862    -4.424385    -1.552812
C       4.623015    -4.905178    -0.404541
C       1.556614    -3.669339     1.044137
C       1.648439    -2.836870    -0.028748
H       3.068460    -1.940438    -2.463915
H       5.184543    -3.031691    -3.181033
H       5.040636    -5.721574     0.169822
H       0.796892    -3.719738     1.812768
N       2.627000    -4.549877     1.070314
C       2.860129    -5.575587     2.058247
H       3.805459    -5.408467     2.585841
H       2.050184    -5.554822     2.789239
H       2.883242    -6.569045     1.597534
O       6.389598    -4.920176    -2.071120
C       7.012187    -5.988094    -1.387979
H       6.362379    -6.871510    -1.347661
H       7.911527    -6.230403    -1.955415
H       7.296143    -5.700217    -0.367786
N       0.638477     0.731838    -0.835184
C       0.697710     0.900081    -2.209453
O       1.520850     0.309063    -2.877703
C      -0.323459     1.827697    -2.898600
H      -0.934878     1.144250    -3.496198
H       0.273149     2.383868    -3.623921
C      -1.239619     2.774626    -2.065870
H      -1.264106     3.770403    -2.518204
H      -2.261246     2.393120    -2.063397
C      -0.735303     2.816076    -0.631796
C      -1.698653     2.882186     0.604779
H      -1.374733     3.620345     1.347802
C       0.726132    -1.725935    -0.423653
H      -0.206735    -1.774492     0.141423
H       0.472018    -1.818745    -1.485016
C       1.383913    -0.356725    -0.208082
H       1.472091    -0.134346     0.857098
H       2.384464    -0.350897    -0.641526
C       0.429529     3.789018    -0.374809
H      -0.018445     4.787018    -0.285696
H       0.852637     3.560441     0.612116
C       1.565421     3.867771    -1.396494
H       1.205847     4.156028    -2.387670
H       2.281815     4.631229    -1.078581
H       2.114452     2.928582    -1.489734
O      -3.040324     3.044056     0.272753
C      -3.916317     2.941658     1.385861
H      -3.917277     1.914545     1.773972
H      -3.563526     3.599232     2.194655
C      -5.309808     3.336299     0.965639
C      -5.515134     4.429548     0.126027
C      -6.411827     2.633774     1.442081
C      -6.801851     4.814350    -0.225098
H      -4.659073     4.974653    -0.257159
C      -7.702415     3.019837     1.095054
H      -6.262198     1.773377     2.088753
C      -7.900278     4.112084     0.260956
H      -6.949223     5.666688    -0.881270
H      -8.553159     2.463168     1.475767
H      -8.906017     4.414825    -0.012919
C      -0.440785     1.378275    -0.244233
O      -1.683492     0.661958    -0.125690
C      -1.257609     1.445459     0.982635
C      -1.133527     0.878997     2.356306
O      -1.285769     1.550607     3.345811
O      -0.830129    -0.420727     2.361066
C      -0.700049    -1.012297     3.663109
H      -1.645551    -0.942412     4.204817
H      -0.435634    -2.053864     3.487157
H       0.081159    -0.506531     4.234371
72
     -1725.751273     -1725.219981   2.06   4.76
C      -0.952674     3.931610    -1.163766
C      -1.175553     2.705122    -0.511841
C      -0.386277     2.392929     0.604638
C       0.594505     3.268608     1.008683
C       0.810440     4.485973     0.325921
C       0.039047     4.840889    -0.765833
C      -2.603574     2.873469    -2.223053
C      -2.235644     2.031905    -1.218198
H      -0.539064     1.464241     1.140719
H       1.223016     3.052966     1.865823
H       0.184701     5.770845    -1.299619
H      -3.343069     2.735125    -3.000251
N      -1.842048     4.026218    -2.201100
C      -1.921151     5.110969    -3.150022
H      -2.727743     4.904748    -3.855182
H      -2.136224     6.059143    -2.646108
H      -0.986995     5.210880    -3.712936
O       1.818321     5.255302     0.835499
C       2.082049     6.492971     0.207268
H       2.907121     6.945232     0.758808
H       2.380147     6.355221    -0.839775
H       1.210458     7.158108     0.251536
N      -0.491317    -0.358942    -1.733610
C       0.326721     0.585261    -2.348852
O      -0.059651     1.228117    -3.299922
C       1.750348     0.822219    -1.799518
H       1.733042     1.854654    -1.439113
H       2.381826     0.829885    -2.691582
C       2.328500    -0.127714    -0.715479
H       3.409242    -0.229495    -0.839134
H       2.146741     0.289841     0.277018
C       1.582580    -1.442842    -0.864794
C       1.365039    -2.530176     0.262202
H       1.493903    -3.524472    -0.168057
C      -2.692402     0.614633    -1.031938
H      -3.758555     0.524278    -1.265914
H      -2.564922     0.297655     0.005979
C      -1.936291    -0.358037    -1.955707
H      -2.298930    -1.377533    -1.806029
H      -2.089646    -0.075113    -2.998484
C       1.885440    -2.153601    -2.192537
H       1.149899    -2.955246    -2.334900
H       1.744698    -1.468058    -3.034549
C       3.299064    -2.736593    -2.251387
H       4.059129    -1.950391    -2.223253
H       3.492167    -3.413245    -1.413182
H       3.444997    -3.301352    -3.176761
O       2.148614    -2.511233     1.422825
C       1.722305    -1.792926     2.578752
H       2.594752    -1.821486     3.237886
H       1.507768    -0.747543     2.347573
C       0.541917    -2.432930     3.277189
C      -0.578532    -1.685789     3.625007
C       0.579256    -3.788244     3.602862
C      -1.645433    -2.278539     4.292040
H      -0.625368    -0.634684     3.358351
C      -0.482286    -4.382478     4.268989
H       1.447811    -4.377414     3.324712
C      -1.598687    -3.627198     4.617527
H      -2.515493    -1.684436     4.552348
H      -0.440309    -5.438167     4.519486
H      -2.429020    -4.091275     5.140995
C       0.115375    -1.090563    -0.720602
O      -0.146860    -0.760868     0.646408
C      -0.129280    -2.143685     0.291890
C      -1.348915    -2.955423     0.584021
O      -2.456276    -2.498849     0.687948
O      -1.040139    -4.250931     0.681875
C      -2.138121    -5.115903     1.011805
H      -1.714924    -6.117980     1.062192
H      -2.560639    -4.827817     1.975869
H      -2.908930    -5.059846     0.240344
72
     -1725.747204     -1725.219602   4.62   5.00
C       5.249082    -1.702319     0.765651
C       4.056969    -1.817470     0.029974
C       4.132503    -2.158522    -1.329097
C       5.366047    -2.370007    -1.900790
C       6.551117    -2.250139    -1.141286
C       6.516420    -1.915509     0.200550
C       3.539658    -1.261591     2.136453
C       2.969728    -1.534029     0.931006
H       3.229565    -2.253189    -1.925576
H       5.464129    -2.634866    -2.947696
H       7.414591    -1.818818     0.796289
H       3.065663    -0.990349     3.070170
N       4.920625    -1.360757     2.052759
C       5.853551    -1.150066     3.133270
H       5.297421    -0.883860     4.033508
H       6.431441    -2.057602     3.339856
H       6.547408    -0.334375     2.902399
O       7.701426    -2.489309    -1.840862
C       8.926904    -2.386435    -1.146684
H       9.080642    -1.373895    -0.752349
H       8.982625    -3.108477    -0.322111
H       9.709062    -2.610787    -1.872947
N      -0.200741    -0.196569    -0.679185
C      -0.591345    -0.947643    -1.774251
O       0.226619    -1.474556    -2.500138
C      -2.097532    -1.134136    -2.052436
H      -2.261523    -2.204670    -1.894098
H      -2.184944    -0.990014    -3.131027
C      -3.172500    -0.309178    -1.280083
H      -3.935658     0.060335    -1.970069
H      -3.675060    -0.952657    -0.556625
C      -2.488067     0.820314    -0.527088
C      -2.915817     1.294573     0.929166
H      -2.951792     2.387446     0.987388
C       1.515660    -1.493657     0.580413
H       0.906819    -1.511932     1.485578
H       1.247782    -2.367752    -0.022694
C       1.186393    -0.229799    -0.220892
H       1.358433     0.658440     0.390205
H       1.819189    -0.168045    -1.107161
C      -2.191795     2.079052    -1.362190
H      -3.130358     2.642459    -1.420512
H      -1.493505     2.709446    -0.795543
C      -1.659886     1.906091    -2.786449
H      -1.535232     2.891727    -3.245347
H      -0.687728     1.410025    -2.816533
H      -2.354500     1.342799    -3.414736
O      -4.022249     0.721968     1.562080
C      -5.229452     1.464934     1.432932
H      -5.897171     1.057900     2.196869
H      -5.045476     2.521106     1.673271
C      -5.862494     1.341560     0.066058
C      -5.862477     2.407918    -0.826449
C      -6.442933     0.135587    -0.324960
C      -6.418407     2.273145    -2.095268
H      -5.427301     3.358048    -0.527761
C      -6.997606    -0.005385    -1.588294
H      -6.448570    -0.701373     0.367713
C      -6.983324     1.064606    -2.479554
H      -6.412039     3.114580    -2.781030
H      -7.443073    -0.950782    -1.881761
H      -7.418060     0.955840    -3.468139
C      -1.262765     0.205197     0.122430
O      -1.702340    -0.674865     1.167128
C      -1.599880     0.713361     1.462632
C      -0.748917     1.132130     2.618349
O       0.250652     0.567732     2.976567
O      -1.249637     2.232565     3.194207
C      -0.508393     2.728702     4.319748
H       0.505075     2.999003     4.015650
H      -1.053101     3.606062     4.665254
H      -0.459549     1.970735     5.104146
72
     -1725.743759     -1725.219440   6.78   5.10
C      -1.603789     4.680753     2.330489
C      -1.699861     3.744864     1.279327
C      -2.833985     3.761250     0.465748
C      -3.836492     4.685378     0.710723
C      -3.717959     5.606369     1.769769
C      -2.602102     5.617915     2.592240
C       0.243865     3.422869     2.343269
C      -0.498321     2.945286     1.308260
H      -2.935297     3.056929    -0.355205
H      -4.712358     4.690119     0.075259
H      -2.539423     6.340033     3.398258
H       1.215208     3.103460     2.697167
N      -0.408695     4.472372     2.972431
C       0.075498     5.223679     4.104976
H       1.055111     4.839674     4.394677
H       0.179610     6.285452     3.857071
H      -0.601405     5.126737     4.960708
O      -4.672733     6.542046     2.063432
C      -5.836321     6.580322     1.262347
H      -6.393030     5.636562     1.316012
H      -6.453808     7.384534     1.664835
H      -5.596546     6.799537     0.214523
N      -1.049968    -0.386986    -0.419256
C      -1.692236    -0.141463    -1.622107
O      -2.475238     0.779043    -1.737793
C      -1.378311    -1.034628    -2.839158
H      -0.867310    -0.360049    -3.533363
H      -2.355323    -1.219243    -3.289390
C      -0.564311    -2.353934    -2.679011
H      -1.036933    -3.161025    -3.246387
H       0.440463    -2.219464    -3.080808
C      -0.452806    -2.690542    -1.200289
C       0.840442    -3.315049    -0.567089
H       0.615638    -4.150517     0.106220
C      -0.185444     1.811107     0.382941
H       0.856402     1.500702     0.483761
H      -0.332741     2.132638    -0.653768
C      -1.105295     0.611239     0.645935
H      -0.839474     0.118676     1.583248
H      -2.141094     0.944009     0.718358
C      -1.669306    -3.419167    -0.601357
H      -1.567542    -4.473103    -0.890182
H      -1.575423    -3.396922     0.492265
C      -3.074159    -2.953956    -0.989045
H      -3.812521    -3.601556    -0.506757
H      -3.283202    -1.931318    -0.668479
H      -3.244283    -3.018255    -2.066873
O       1.819652    -3.645210    -1.497993
C       3.030990    -4.109378    -0.914518
H       3.370063    -3.399046    -0.147610
H       2.865155    -5.077385    -0.422299
C       4.074201    -4.233932    -1.994153
C       4.354412    -3.140305    -2.813064
C       4.781670    -5.416114    -2.175833
C       5.328830    -3.231732    -3.795951
H       3.797890    -2.218358    -2.675890
C       5.763101    -5.509257    -3.158562
H       4.563646    -6.274889    -1.546725
C       6.038087    -4.417363    -3.969920
H       5.538681    -2.375785    -4.429999
H       6.309785    -6.437906    -3.290010
H       6.801571    -4.487533    -4.738330
C      -0.095887    -1.395001    -0.494866
O       1.255117    -1.031729    -0.835944
C       1.063274    -1.986106     0.201170
C       1.659651    -1.818862     1.557516
O       1.940020    -2.758747     2.258647
O       1.830624    -0.540249     1.898969
C       2.403133    -0.326224     3.198419
H       2.452330     0.754611     3.322468
H       1.774569    -0.775696     3.970008
H       3.402240    -0.764189     3.246538
72
     -1725.751240     -1725.219059   2.08   5.34
C      -0.099811     2.628883     2.857301
C       0.707568     1.677283     2.200451
C       1.360390     2.056205     1.026919
C       1.203120     3.339531     0.535059
C       0.388985     4.270155     1.211584
C      -0.270963     3.928097     2.380503
C      -0.176321     0.723051     4.021976
C       0.639873     0.455488     2.965313
H       1.976925     1.343560     0.490246
H       1.709833     3.620402    -0.379325
H      -0.890647     4.664137     2.880046
H      -0.516582     0.068844     4.812566
N      -0.635677     2.027945     3.968625
C      -1.514395     2.657941     4.924581
H      -2.414793     3.042032     4.433704
H      -1.816157     1.918706     5.668191
H      -1.013869     3.486044     5.438430
O       0.190471     5.553214     0.776730
C       0.835576     5.958327    -0.413235
H       0.517603     5.351349    -1.270058
H       0.540856     6.995457    -0.579211
H       1.927159     5.904632    -0.317326
N      -0.852672    -1.731633     1.687449
C      -2.019196    -1.313823     2.318991
O      -2.218719    -1.541310     3.493574
C      -3.064784    -0.510102     1.519596
H      -3.010941     0.491364     1.959743
H      -4.024386    -0.919991     1.842801
C      -2.970880    -0.427820    -0.029207
H      -3.969925    -0.469820    -0.472588
H      -2.508560     0.512095    -0.333949
C      -2.094533    -1.584794    -0.477914
C      -1.227501    -1.546237    -1.779809
H      -1.329297    -2.451526    -2.385658
C       1.305929    -0.845592     2.614806
H       2.048220    -1.120337     3.373236
H       1.850759    -0.723707     1.677779
C       0.337621    -2.035959     2.478991
H       0.857144    -2.880585     2.016198
H      -0.029178    -2.350127     3.456547
C      -2.812058    -2.933416    -0.311857
H      -3.380786    -2.924547     0.624881
H      -3.561215    -2.997271    -1.111170
C      -1.931159    -4.185827    -0.328190
H      -2.556107    -5.078935    -0.236297
H      -1.354002    -4.287376    -1.251650
H      -1.228965    -4.188909     0.510509
O      -1.436771    -0.401322    -2.553742
C      -0.729521    -0.376985    -3.782417
H      -0.858806    -1.331470    -4.311503
H      -1.218735     0.400785    -4.377060
C       0.747072    -0.062267    -3.647615
C       1.665327    -0.671001    -4.497391
C       1.199568     0.864952    -2.710444
C       3.018538    -0.362917    -4.417260
H       1.321034    -1.399556    -5.226845
C       2.552269     1.166665    -2.624495
H       0.492266     1.335705    -2.036854
C       3.465680     0.555620    -3.476330
H       3.723387    -0.842493    -5.089771
H       2.899311     1.881824    -1.885862
H       4.521975     0.794706    -3.405683
C      -0.809598    -1.464240     0.321653
O      -0.078426    -0.336113    -0.152548
C       0.044281    -1.544405    -0.886162
C       1.402462    -2.114806    -1.114660
O       2.391410    -1.814116    -0.501576
O       1.360180    -3.033262    -2.089429
C       2.629185    -3.608347    -2.435824
H       2.423423    -4.307701    -3.245046
H       3.314127    -2.825808    -2.767128
H       3.056412    -4.128542    -1.575891
72
     -1725.745865     -1725.219018   5.46   5.37
C      -1.100358     2.567342    -3.429352
C      -0.726861     2.418418    -2.081194
C       0.535267     1.874914    -1.796537
C       1.354305     1.487872    -2.831812
C       0.951229     1.638409    -4.176894
C      -0.278489     2.182583    -4.499611
C      -2.773796     3.314333    -2.159891
C      -1.821958     2.900524    -1.278733
H       0.860769     1.746487    -0.771108
H       2.333226     1.061095    -2.642999
H      -0.605688     2.308978    -5.523317
H      -3.758055     3.720744    -1.970030
N      -2.352640     3.122341    -3.462439
C      -3.121126     3.402694    -4.651235
H      -2.598791     4.114482    -5.299314
H      -3.319660     2.486304    -5.217154
H      -4.076858     3.840310    -4.358742
O       1.865685     1.210895    -5.098569
C       1.528858     1.336301    -6.464511
H       1.365045     2.385298    -6.742012
H       2.378421     0.945143    -7.025618
H       0.633204     0.752309    -6.711567
N      -2.088282     0.323566     0.326124
C      -2.275779    -0.262394    -0.921676
O      -3.185164     0.073839    -1.647028
C      -1.264006    -1.328092    -1.386687
H      -0.605562    -0.777173    -2.066590
H      -1.848655    -1.996599    -2.020094
C      -0.412205    -2.118197    -0.345307
H      -0.484717    -3.193731    -0.532293
H       0.638867    -1.841467    -0.437118
C      -0.893501    -1.754675     1.050467
C       0.068984    -1.601847     2.280412
H      -0.301787    -2.127694     3.167841
C      -1.959507     2.826862     0.214027
H      -2.499587     3.703948     0.586854
H      -0.977377     2.833213     0.692152
C      -2.738516     1.584256     0.677140
H      -2.862846     1.604957     1.762437
H      -3.724040     1.566779     0.208323
C      -2.129942    -2.537089     1.532870
H      -1.757747    -3.518122     1.856067
H      -2.512327    -2.047724     2.438471
C      -3.293975    -2.767956     0.567384
H      -3.804324    -1.843512     0.292060
H      -2.974839    -3.268636    -0.350217
H      -4.033510    -3.415300     1.048630
O       1.393880    -1.934624     2.010880
C       2.285008    -1.629368     3.072563
H       2.354155    -0.541466     3.207407
H       1.900158    -2.057243     4.011214
C       3.647055    -2.198208     2.765018
C       4.794593    -1.459711     3.033556
C       3.775041    -3.483522     2.241459
C       6.054946    -1.997081     2.792349
H       4.705240    -0.452834     3.432268
C       5.031216    -4.020319     1.995951
H       2.882901    -4.060029     2.020636
C       6.175752    -3.279182     2.273587
H       6.942380    -1.410228     3.008086
H       5.118845    -5.021845     1.586175
H       7.157716    -3.700441     2.082796
C      -1.060024    -0.244394     1.067309
O       0.239047     0.368153     1.049326
C      -0.260579    -0.084387     2.300448
C      -0.364168     0.889492     3.427360
O      -0.563087     2.068088     3.299118
O      -0.222223     0.266739     4.606566
C      -0.318156     1.114359     5.762514
H       0.455713     1.884016     5.732673
H      -1.299763     1.591174     5.799225
H      -0.177029     0.457876     6.619910
72
     -1725.751336     -1725.218977   2.02   5.39
C       0.634562    -0.678107     2.682501
C       1.506895    -1.511089     1.948658
C       1.102266    -2.817654     1.679724
C      -0.138499    -3.261141     2.111465
C      -0.991129    -2.402747     2.830647
C      -0.610480    -1.105316     3.134011
C       2.454589     0.503367     2.173240
C       2.669902    -0.722277     1.624982
H       1.748886    -3.492131     1.126361
H      -0.439136    -4.277666     1.891824
H      -1.281506    -0.463863     3.692975
H       3.062901     1.394792     2.119477
N       1.233771     0.546892     2.817073
C       0.620766     1.718690     3.395867
H       0.452547     1.591140     4.470547
H       1.282332     2.572625     3.243915
H      -0.336962     1.932096     2.909283
O      -2.234952    -2.769564     3.275300
C      -2.669561    -4.090299     3.022226
H      -2.004915    -4.827260     3.489434
H      -3.663586    -4.171986     3.464204
H      -2.735175    -4.292969     1.946064
N       2.246523    -0.975470    -1.297725
C       1.943874    -2.309221    -1.510595
O       2.804886    -3.161223    -1.416474
C       0.499631    -2.725008    -1.854014
H       0.205806    -3.386555    -1.035215
H       0.611181    -3.372682    -2.727492
C      -0.583023    -1.640308    -2.087951
H      -1.303822    -1.977940    -2.838490
H      -1.130333    -1.442999    -1.165171
C       0.145128    -0.378264    -2.512451
C      -0.429461     1.058213    -2.281836
H      -0.424857     1.687031    -3.177446
C       3.782432    -1.106018     0.696268
H       3.903343    -2.191133     0.677256
H       4.733423    -0.681647     1.035883
C       3.549510    -0.601822    -0.739335
H       3.595482     0.488772    -0.758802
H       4.324667    -0.999033    -1.400214
C       0.757978    -0.517328    -3.914627
H       1.185216    -1.520047    -4.022613
H      -0.071012    -0.469994    -4.631753
C       1.831518     0.504667    -4.299395
H       2.162434     0.323602    -5.326126
H       1.472211     1.536603    -4.251669
H       2.710504     0.422535    -3.653307
O      -1.686058     1.025641    -1.675201
C      -2.044553     2.176253    -0.923516
H      -1.165844     2.563674    -0.389890
H      -2.410869     2.969676    -1.588223
C      -3.096360     1.781960     0.081600
C      -4.299865     2.469156     0.175696
C      -2.850416     0.713486     0.945042
C      -5.251736     2.098458     1.121969
H      -4.500164     3.298107    -0.497831
C      -3.801214     0.335089     1.881733
H      -1.911525     0.174584     0.874100
C      -5.004437     1.030865     1.973824
H      -6.188900     2.642453     1.187733
H      -3.604806    -0.509168     2.535505
H      -5.748187     0.736242     2.707754
C       1.172977    -0.094775    -1.430344
O       0.518400     0.401460    -0.263581
C       0.758524     1.325667    -1.313515
C       1.521435     2.575670    -1.034011
O       2.343825     2.711810    -0.167023
O       1.171323     3.537886    -1.901551
C       1.853024     4.791630    -1.737020
H       1.651887     5.204640    -0.746410
H       2.929387     4.654622    -1.859717
H       1.457395     5.444657    -2.513613
72
     -1725.746187     -1725.218539   5.26   5.67
C      -3.061170     1.976989     1.888649
C      -1.692392     1.757619     1.649884
C      -1.204103     1.956559     0.349304
C      -2.071853     2.332168    -0.649572
C      -3.444558     2.533846    -0.386289
C      -3.961954     2.364204     0.884773
C      -2.113444     1.361747     3.810382
C      -1.100742     1.354568     2.900425
H      -0.155608     1.801971     0.125036
H      -1.724335     2.487375    -1.664917
H      -5.009626     2.516429     1.108642
H      -2.099022     1.098871     4.859530
N      -3.302634     1.738388     3.216357
C      -4.589336     1.808280     3.866706
H      -5.290628     1.088898     3.430760
H      -4.463955     1.569509     4.923902
H      -5.015994     2.813739     3.787492
O      -4.186250     2.903695    -1.472945
C      -5.567669     3.127363    -1.279930
H      -5.745595     3.941514    -0.566058
H      -5.970035     3.409463    -2.253606
H      -6.075040     2.219988    -0.928618
N       0.049824    -1.235475     1.791114
C      -1.281010    -1.512019     1.485658
O      -2.123816    -1.578550     2.352217
C      -1.672704    -1.687521     0.006666
H      -2.133424    -0.728359    -0.252442
H      -2.489982    -2.409627     0.028038
C      -0.595478    -2.065389    -1.055099
H      -0.939741    -2.906869    -1.663628
H      -0.425107    -1.224726    -1.729007
C       0.704922    -2.384181    -0.335467
C       2.117197    -2.017833    -0.912254
H       2.825635    -2.852838    -0.863955
C       0.301896     0.872281     3.128334
H       0.660633     1.196333     4.111658
H       0.974701     1.306147     2.385223
C       0.417781    -0.661773     3.082371
H       1.442108    -0.970645     3.306043
H      -0.250720    -1.105694     3.822247
C       0.801568    -3.814695     0.228696
H       1.051691    -4.456464    -0.625959
H       1.668947    -3.858937     0.900442
C      -0.407325    -4.425329     0.940096
H      -0.183995    -5.466618     1.191927
H      -0.653294    -3.913627     1.872180
H      -1.298239    -4.430590     0.307000
O       2.066479    -1.447077    -2.180592
C       3.310211    -0.930610    -2.635354
H       3.767575    -0.313814    -1.849202
H       4.003165    -1.753113    -2.858804
C       3.064139    -0.089650    -3.860921
C       3.791352    -0.288900    -5.027949
C       2.106999     0.924070    -3.819164
C       3.573893     0.516111    -6.142534
H       4.532976    -1.081953    -5.070333
C       1.885529     1.724706    -4.929798
H       1.534297     1.074917    -2.909336
C       2.620966     1.523976    -6.095054
H       4.149029     0.351577    -7.048410
H       1.137473     2.510541    -4.889694
H       2.447967     2.152176    -6.963189
C       0.907426    -1.289677     0.699475
O       1.265065    -0.064841     0.029822
C       2.294195    -1.018645     0.260086
C       3.561649    -0.660300     0.957602
O       4.602664    -1.228917     0.742170
O       3.407813     0.333737     1.835374
C       4.600514     0.727754     2.532526
H       5.007533    -0.115209     3.094737
H       5.350192     1.083712     1.823078
H       4.294776     1.529244     3.203463
72
     -1725.749081     -1725.218365   3.44   5.78
C      -2.180459    -2.534983    -0.685397
C      -1.286862    -2.224145     0.353150
C      -1.691539    -1.294489     1.322939
C      -2.931950    -0.711049     1.227353
C      -3.803100    -1.023972     0.161051
C      -3.448991    -1.944295    -0.807954
C      -0.321649    -3.736938    -0.984679
C      -0.091009    -3.000991     0.138889
H      -1.029491    -1.022542     2.137381
H      -3.267717     0.013579     1.960475
H      -4.104711    -2.202668    -1.629213
H       0.332020    -4.421067    -1.507196
N      -1.576370    -3.462120    -1.497366
C      -2.155462    -4.060750    -2.676948
H      -2.432161    -3.295585    -3.409860
H      -1.418457    -4.722724    -3.133784
H      -3.045092    -4.649417    -2.427844
O      -4.990662    -0.343790     0.177576
C      -5.916822    -0.612774    -0.854795
H      -6.784151     0.019125    -0.659566
H      -5.502660    -0.363324    -1.839862
H      -6.228144    -1.664904    -0.848292
N       2.238670    -1.424809    -0.713128
C       1.873812    -1.656757    -2.039051
O       2.104305    -2.718931    -2.576069
C       1.128863    -0.561198    -2.824579
H       0.127979    -0.981708    -2.968397
H       1.595094    -0.570395    -3.812405
C       1.036880     0.876017    -2.248615
H       1.102631     1.613785    -3.053382
H       0.085069     1.024428    -1.736572
C       2.167282     1.015902    -1.245948
C       2.114669     2.003785    -0.035870
H       3.006862     2.629349     0.068595
C       1.162159    -2.951141     0.968490
H       1.359219    -3.922294     1.437644
H       1.013779    -2.238311     1.779980
C       2.431802    -2.561405     0.184660
H       3.237636    -2.320950     0.884118
H       2.759515    -3.386037    -0.448613
C       3.541599     1.044568    -1.933180
H       3.549762     0.321379    -2.756234
H       3.638119     2.030235    -2.405078
C       4.758641     0.776602    -1.043595
H       5.674784     0.872271    -1.633522
H       4.836264     1.476366    -0.206896
H       4.737079    -0.237827    -0.634678
O       0.940940     2.756806    -0.029570
C       0.592473     3.330354     1.222538
H       0.776847     2.607556     2.029404
H       1.207555     4.217973     1.421522
C      -0.873060     3.681858     1.194840
C      -1.804116     2.704927     0.840302
C      -1.318112     4.952671     1.536038
C      -3.160049     2.997914     0.829378
H      -1.460162     1.711975     0.570464
C      -2.678675     5.248956     1.530301
H      -0.597919     5.720522     1.805702
C      -3.600250     4.272803     1.177624
H      -3.874162     2.229276     0.549426
H      -3.015993     6.245146     1.799510
H      -4.661240     4.502833     1.170639
C       2.003769    -0.129327    -0.260844
O       0.887404     0.124119     0.595310
C       2.113172     0.773877     0.911001
C       2.746395     0.670904     2.253271
O       3.474240     1.525880     2.692559
O       2.430140    -0.457970     2.893586
C       3.014127    -0.610006     4.197041
H       4.103829    -0.592821     4.128920
H       2.680871     0.195362     4.854641
H       2.664942    -1.574690     4.562664
72
     -1725.745884     -1725.218156   5.45   5.91
C      -1.118987     1.210848     4.744238
C      -1.039961     1.077901     3.346889
C      -0.344570     2.055151     2.617878
C       0.246337     3.100521     3.288652
C       0.162190     3.207075     4.694612
C      -0.521747     2.269719     5.446531
C      -2.235126    -0.631796     4.158942
C      -1.764860    -0.116184     2.989671
H      -0.283898     1.999502     1.535860
H       0.787154     3.876265     2.758067
H      -0.600459     2.336926     6.523633
H      -2.824300    -1.523392     4.328342
N      -1.853012     0.159276     5.229986
C      -2.178780    -0.073510     6.616492
H      -2.770985    -0.986909     6.692611
H      -1.272644    -0.198595     7.219190
H      -2.766016     0.754264     7.028833
O       0.799410     4.295320     5.222539
C       0.756922     4.466050     6.623807
H       1.317498     5.376871     6.837649
H      -0.273522     4.584273     6.982321
H       1.227094     3.622411     7.144895
N      -0.802233    -2.240124    -0.020690
C      -1.540641    -3.410390    -0.094160
O      -1.925544    -3.975302     0.907637
C      -1.899958    -3.980235    -1.483842
H      -2.985525    -3.854472    -1.545327
H      -1.744168    -5.055024    -1.373814
C      -1.225383    -3.436383    -2.781482
H      -0.912855    -4.266812    -3.421340
H      -1.942184    -2.840867    -3.347869
C      -0.054810    -2.545657    -2.395139
C       0.309020    -1.220639    -3.161151
H       1.382168    -1.139556    -3.355124
C      -1.906005    -0.713746     1.622528
H      -2.073279     0.066672     0.874197
H      -2.769053    -1.385246     1.596080
C      -0.660554    -1.527026     1.246971
H       0.218113    -0.880782     1.170208
H      -0.465522    -2.274738     2.017047
C       1.260648    -3.284236    -2.090954
H       1.711399    -3.522329    -3.063030
H       1.944830    -2.574213    -1.607937
C       1.208373    -4.569599    -1.262802
H       0.840418    -4.402252    -0.248462
H       0.584623    -5.334739    -1.732386
H       2.217465    -4.983760    -1.176998
O      -0.439706    -0.997457    -4.321063
C      -0.663339     0.369227    -4.644212
H      -1.263644     0.344068    -5.558036
H      -1.268845     0.846190    -3.863110
C       0.603562     1.164828    -4.874836
C       1.649134     0.630667    -5.626316
C       0.731006     2.449662    -4.356395
C       2.802561     1.368602    -5.853289
H       1.553724    -0.372065    -6.032495
C       1.882628     3.194730    -4.589767
H      -0.074648     2.870410    -3.760721
C       2.921558     2.655317    -5.336604
H       3.610868     0.941003    -6.438381
H       1.966430     4.199672    -4.186960
H       3.821352     3.234545    -5.518447
C      -0.549736    -1.670538    -1.260422
O      -1.508504    -0.723626    -1.787949
C      -0.131350    -0.420947    -1.904664
C       0.416240     0.853851    -1.353871
O      -0.231730     1.755231    -0.893905
O       1.750999     0.838315    -1.450229
C       2.420091     2.027188    -1.001523
H       2.218673     2.196872     0.058558
H       3.481097     1.845956    -1.167149
H       2.084497     2.887769    -1.582019
72
     -1725.743922     -1725.217874   6.68   6.08
C       2.026094     3.506697    -1.825275
C       1.546168     3.729335    -0.516548
C       1.206780     5.029651    -0.147140
C       1.346919     6.066004    -1.055129
C       1.832200     5.814791    -2.352941
C       2.177698     4.533714    -2.754216
C       1.980871     1.545721    -0.754486
C       1.529755     2.453667     0.153908
H       0.828757     5.240692     0.848629
H       1.077981     7.070107    -0.753835
H       2.545874     4.370535    -3.760815
H       2.103857     0.477111    -0.641116
N       2.282072     2.164931    -1.957604
C       2.827221     1.527231    -3.131453
H       2.182634     1.690954    -4.001612
H       3.828838     1.907606    -3.360409
H       2.897889     0.453223    -2.950827
O       1.996222     6.790920    -3.298473
C       1.654577     8.117055    -2.950798
H       2.263708     8.483710    -2.115243
H       1.856437     8.723412    -3.834943
H       0.592709     8.203401    -2.688848
N      -1.063091     1.100739     0.733644
C      -1.421694     1.474661    -0.558682
O      -1.589062     2.634404    -0.858879
C      -1.557073     0.374347    -1.629922
H      -0.614713     0.442874    -2.184207
H      -2.322538     0.751869    -2.309371
C      -1.827295    -1.105245    -1.219595
H      -2.692591    -1.498294    -1.761323
H      -0.970543    -1.727870    -1.479867
C      -2.034993    -1.161337     0.285504
C      -1.491630    -2.332991     1.174602
H      -2.246367    -2.708623     1.875093
C       1.049861     2.166765     1.543832
H       1.383819     2.956316     2.226980
H       1.481966     1.231818     1.902320
C      -0.481853     2.081880     1.648198
H      -0.773809     1.814355     2.667406
H      -0.936430     3.039619     1.390919
C      -3.469056    -0.848746     0.751007
H      -4.051145    -1.762224     0.571818
H      -3.453418    -0.710462     1.840162
C      -4.216938     0.324134     0.114010
H      -5.244591     0.340166     0.489682
H      -3.769183     1.289598     0.355500
H      -4.272306     0.235280    -0.974083
O      -0.907138    -3.371009     0.453581
C      -0.270002    -4.342214     1.269384
H       0.602476    -3.901723     1.770727
H      -0.967260    -4.681170     2.051181
C       0.160188    -5.510083     0.418222
C       1.400529    -6.106749     0.617891
C      -0.693137    -6.028969    -0.553971
C       1.783749    -7.212267    -0.134724
H       2.077294    -5.703437     1.366276
C      -0.311411    -7.129201    -1.309073
H      -1.657582    -5.560992    -0.720923
C       0.927899    -7.726288    -1.099486
H       2.754140    -7.669217     0.032646
H      -0.983451    -7.523709    -2.064968
H       1.224859    -8.587672    -1.689351
C      -0.966989    -0.274651     0.904753
O       0.311516    -0.914455     0.751884
C      -0.511162    -1.327571     1.836107
C       0.026193    -1.262260     3.227753
O       0.871969    -0.497954     3.608156
O      -0.580546    -2.170466     4.007020
C      -0.146378    -2.190475     5.376203
H      -0.727126    -2.976680     5.856478
H       0.921861    -2.409518     5.431484
H      -0.341077    -1.224765     5.847181
72
     -1725.746255     -1725.217476   5.21   6.33
C       4.028657     2.498583     0.205050
C       2.990211     1.551296     0.162401
C       2.967401     0.544492     1.141131
C       3.944440     0.520542     2.108826
C       4.972925     1.487859     2.133151
C       5.035409     2.490396     1.183129
C       2.721072     2.988397    -1.535054
C       2.154776     1.888772    -0.965807
H       2.198012    -0.220044     1.144398
H       3.954045    -0.245016     2.876450
H       5.816165     3.239532     1.182479
H       2.401412     3.553045    -2.401123
N       3.854383     3.370118    -0.840359
C       4.704394     4.494616    -1.152183
H       4.317136     4.996223    -2.040534
H       4.722606     5.215987    -0.328090
H       5.729141     4.167949    -1.359067
O       5.871687     1.339505     3.151369
C       6.928398     2.273167     3.237715
H       6.550879     3.293163     3.383525
H       7.521758     1.982931     4.105538
H       7.561775     2.245499     2.342032
N      -0.033946    -0.829635    -2.485892
C      -0.203927    -1.181390    -3.814655
O       0.590427    -0.851263    -4.668717
C      -1.423331    -2.051433    -4.193596
H      -0.986874    -3.030513    -4.415509
H      -1.738461    -1.652815    -5.159400
C      -2.634682    -2.218233    -3.222294
H      -3.574344    -2.059570    -3.759311
H      -2.653382    -3.234463    -2.827218
C      -2.474086    -1.249814    -2.060749
C      -2.842284    -1.611366    -0.574251
H      -3.408903    -0.814466    -0.084260
C       0.911855     1.191110    -1.427439
H       0.431552     1.784321    -2.212456
H       0.192373     1.125916    -0.601885
C       1.187306    -0.210133    -1.982730
H       1.886872    -0.158551    -2.816472
H       1.616292    -0.860760    -1.214355
C      -2.967459     0.183964    -2.326882
H      -4.057733     0.162744    -2.202582
H      -2.586841     0.828247    -1.523111
C      -2.656161     0.830692    -3.678166
H      -3.117694     1.821976    -3.718261
H      -1.585838     0.965389    -3.846563
H      -3.061757     0.252032    -4.512239
O      -3.464819    -2.853240    -0.417302
C      -3.218850    -3.496096     0.827675
H      -3.769462    -4.439068     0.767406
H      -2.152776    -3.739199     0.920562
C      -3.675347    -2.700028     2.031400
C      -2.858596    -2.586259     3.151845
C      -4.926741    -2.085431     2.039742
C      -3.285780    -1.873928     4.268124
H      -1.878003    -3.054659     3.150992
C      -5.352376    -1.368457     3.149170
H      -5.566642    -2.170915     1.166274
C      -4.532282    -1.262338     4.268727
H      -2.642044    -1.798573     5.139339
H      -6.328183    -0.892769     3.143182
H      -4.866837    -0.705552     5.138379
C      -1.019417    -1.329853    -1.645788
O      -0.779253    -2.607780    -1.013688
C      -1.327846    -1.565577    -0.230688
C      -0.651326    -1.121922     1.024231
O       0.286416    -1.664828     1.543321
O      -1.248599    -0.014020     1.480293
C      -0.713214     0.525116     2.700919
H      -0.755655    -0.225004     3.491872
H       0.320276     0.846202     2.551324
H      -1.348303     1.375175     2.946705
72
     -1725.744202     -1725.216790   6.50   6.76
C       0.933176     3.478601     2.635874
C      -0.060065     2.783359     1.910383
C      -0.365034     1.476208     2.292659
C       0.316128     0.888314     3.345635
C       1.309793     1.602303     4.043199
C       1.628543     2.906197     3.699057
C       0.156718     4.833861     1.044097
C      -0.541269     3.676919     0.884732
H      -1.122061     0.910625     1.762678
H       0.069413    -0.127150     3.627284
H       2.395002     3.434043     4.254936
H       0.114762     5.746878     0.465278
N       1.047686     4.733157     2.096627
C       1.980953     5.747869     2.522311
H       3.014557     5.406212     2.402805
H       1.838768     6.639339     1.909340
H       1.816369     6.017641     3.570868
O       2.019051     1.080411     5.090717
C       1.731783    -0.242807     5.495181
H       0.691085    -0.345036     5.826620
H       1.926823    -0.961070     4.689152
H       2.397742    -0.454034     6.332982
N       0.032825     1.761801    -1.407934
C       1.337755     1.821018    -0.932177
O       1.948601     2.865367    -0.885104
C       1.982743     0.520211    -0.413946
H       1.879534     0.598111     0.673627
H       3.046630     0.645180    -0.619276
C       1.462956    -0.868155    -0.900761
H       2.300261    -1.478271    -1.254102
H       0.997589    -1.399629    -0.068065
C       0.420726    -0.644619    -1.985521
C      -0.889539    -1.525166    -2.136888
H      -1.047282    -1.825293    -3.179302
C      -1.498997     3.358028    -0.225964
H      -2.123317     4.230207    -0.448555
H      -2.175263     2.552273     0.068268
C      -0.785816     2.966123    -1.531163
H      -1.521373     2.790455    -2.319584
H      -0.114468     3.767790    -1.844324
C       0.992313    -0.425736    -3.398630
H       1.250103    -1.421497    -3.784377
H       0.182427    -0.056994    -4.041920
C       2.213800     0.478489    -3.575937
H       2.003581     1.522340    -3.337349
H       3.060195     0.152256    -2.966064
H       2.535384     0.443359    -4.621325
O      -1.086050    -2.596295    -1.265539
C      -0.363522    -3.752902    -1.649792
H      -0.782445    -4.169323    -2.577903
H       0.686578    -3.489396    -1.852861
C      -0.417033    -4.782659    -0.547977
C      -0.538767    -4.401169     0.785823
C      -0.296461    -6.134281    -0.859357
C      -0.535091    -5.360225     1.791421
H      -0.647628    -3.351118     1.032552
C      -0.289311    -7.093757     0.145783
H      -0.208947    -6.441618    -1.898414
C      -0.407572    -6.707960     1.475570
H      -0.633520    -5.052888     2.828027
H      -0.193132    -8.144211    -0.110672
H      -0.403650    -7.455077     2.262881
C      -0.479568     0.472720    -1.484964
O      -1.267377    -0.036395    -0.397803
C      -1.714183    -0.303003    -1.721591
C      -3.100818     0.105178    -2.101695
O      -3.659455     1.089736    -1.695847
O      -3.628075    -0.768863    -2.966576
C      -4.963121    -0.468856    -3.404490
H      -5.233237    -1.271032    -4.089559
H      -5.643279    -0.443710    -2.550784
H      -4.985625     0.497607    -3.912267
72
     -1725.748898     -1725.216616   3.55   6.87
C       3.210166    -1.615728     0.906265
C       3.039632    -0.217244     0.995440
C       3.342802     0.559253    -0.122315
C       3.768733    -0.044195    -1.291467
C       3.903934    -1.443975    -1.361094
C       3.637709    -2.245110    -0.260105
C       2.428967    -1.135302     2.943449
C       2.532839     0.066759     2.315443
H       3.248950     1.639919    -0.083242
H       3.983575     0.570881    -2.155039
H       3.752578    -3.319852    -0.343546
H       2.069610    -1.352828     3.940507
N       2.843802    -2.162375     2.111118
C       2.839967    -3.570310     2.426803
H       2.546613    -3.700321     3.469706
H       2.130450    -4.116724     1.795208
H       3.836526    -4.002648     2.291716
O       4.296961    -2.103404    -2.489434
C       4.472947    -1.346870    -3.673997
H       5.299329    -0.632921    -3.573587
H       4.714782    -2.066931    -4.456635
H       3.556548    -0.808332    -3.943066
N      -0.115134     1.070767     1.774093
C      -0.930336     0.600814     2.789967
O      -0.686787     0.869415     3.949466
C      -2.147313    -0.278793     2.448066
H      -2.979424     0.174044     2.993019
H      -1.945616    -1.225752     2.958910
C      -2.523859    -0.518339     0.966275
H      -3.087628    -1.448599     0.866023
H      -3.164650     0.289371     0.616928
C      -1.218933    -0.520670     0.185628
C      -1.028907    -0.189698    -1.353942
H      -0.281432    -0.872615    -1.762628
C       2.113300     1.395811     2.860705
H       2.948852     2.106071     2.837105
H       1.814050     1.277185     3.903034
C       0.947042     2.027761     2.081120
H       0.528478     2.853561     2.663724
H       1.285451     2.429939     1.127199
C      -0.307001    -1.702681     0.544442
H       0.674154    -1.535956     0.089461
H      -0.127148    -1.735821     1.623159
C      -0.865381    -3.046951     0.074289
H      -1.107518    -3.028706    -0.993284
H      -0.135925    -3.846194     0.235986
H      -1.776863    -3.320039     0.614525
O      -2.085018    -0.206251    -2.270106
C      -2.876595     0.954568    -2.509928
H      -2.285361     1.868301    -2.405881
H      -3.169422     0.871835    -3.561775
C      -4.115254     1.020574    -1.647234
C      -4.951955    -0.090219    -1.552705
C      -4.440429     2.174185    -0.943181
C      -6.087949    -0.051955    -0.757122
H      -4.695628    -0.995171    -2.095662
C      -5.583185     2.219118    -0.150311
H      -3.783456     3.036633    -0.995957
C      -6.407698     1.106047    -0.053441
H      -6.728998    -0.925372    -0.686370
H      -5.824124     3.125030     0.397395
H      -7.297780     1.138426     0.567106
C      -0.571963     0.819485     0.481769
O      -1.330809     1.840836    -0.182464
C      -0.355093     1.131708    -0.950585
C       0.660656     1.868840    -1.758473
O       1.082207     1.448111    -2.805003
O       1.021220     3.033229    -1.208034
C       1.952036     3.810006    -1.976531
H       1.523197     4.056049    -2.950053
H       2.130603     4.714127    -1.396026
H       2.881908     3.256194    -2.124827
72
     -1725.749596     -1725.215972   3.12   7.28
C      -0.560181     1.245218     2.786936
C       0.185770     0.056586     2.881067
C      -0.506070    -1.154682     3.020057
C      -1.881972    -1.147251     3.076969
C      -2.604939     0.062329     3.008685
C      -1.960067     1.276280     2.855162
C       1.601950     1.774635     2.670258
C       1.576750     0.421620     2.806813
H       0.035159    -2.093388     3.091207
H      -2.445487    -2.066748     3.191633
H      -2.497488     2.213880     2.796051
H       2.445644     2.437227     2.544982
N       0.320186     2.286597     2.644889
C      -0.028049     3.679791     2.499044
H      -0.727969     3.818582     1.669105
H      -0.478722     4.079986     3.414128
H       0.877989     4.245520     2.277905
O      -3.965114    -0.075255     3.097267
C      -4.747107     1.101018     3.044914
H      -4.618020     1.625896     2.089591
H      -5.785541     0.781724     3.141016
H      -4.500785     1.781508     3.869271
N       2.168404    -1.307385     0.451393
C       1.594574    -2.540871     0.697882
O       2.042145    -3.272662     1.558854
C       0.371486    -2.991014    -0.123612
H      -0.421027    -3.134147     0.615863
H       0.637992    -3.994943    -0.465459
C      -0.138555    -2.111498    -1.293929
H      -0.587825    -2.735898    -2.069319
H      -0.912274    -1.441586    -0.929840
C       1.055606    -1.310194    -1.785027
C       1.058124     0.085259    -2.547123
H       1.830301     0.044067    -3.316192
C       2.753715    -0.505648     2.760572
H       2.512387    -1.448303     3.256081
H       3.604424    -0.070017     3.295770
C       3.225587    -0.800845     1.329018
H       3.604829     0.113070     0.868265
H       4.028762    -1.542501     1.351110
C       2.134315    -2.203240    -2.420569
H       3.059708    -1.622794    -2.523503
H       2.379297    -3.037046    -1.754624
C       1.720480    -2.756684    -3.785768
H       1.443723    -1.955562    -4.478144
H       2.540594    -3.321530    -4.238393
H       0.863411    -3.431041    -3.701843
O      -0.047609     0.640736    -3.194597
C      -1.075850     1.314056    -2.467891
H      -0.670021     1.852628    -1.608308
H      -1.460784     2.056579    -3.174175
C      -2.192063     0.391660    -2.040537
C      -2.640504     0.364268    -0.724726
C      -2.769858    -0.465511    -2.975363
C      -3.648980    -0.516192    -0.342508
H      -2.170951     1.003384     0.016553
C      -3.774451    -1.344548    -2.598071
H      -2.412584    -0.451343    -4.000815
C      -4.216037    -1.371187    -1.278321
H      -3.976696    -0.547202     0.690432
H      -4.215123    -2.011437    -3.332903
H      -5.000564    -2.060168    -0.980563
C       1.574116    -0.565101    -0.567741
O       0.662356     0.485191    -0.248882
C       1.624491     0.737559    -1.272875
C       2.516038     1.929585    -1.146905
O       2.831305     2.460717    -0.114683
O       2.926905     2.327937    -2.357861
C       3.798102     3.469608    -2.366121
H       4.032443     3.650740    -3.413979
H       3.293709     4.333750    -1.928794
H       4.706485     3.256227    -1.798784
72
     -1725.745408     -1725.215945   5.74   7.29
C      -2.301784    -2.506280     0.858427
C      -1.311414    -1.792031     1.552993
C      -1.614635    -0.500202     2.008516
C      -2.856991     0.030633     1.756494
C      -3.829163    -0.699503     1.038037
C      -3.575059    -1.980326     0.583625
C      -0.480297    -3.792277     0.992772
C      -0.142580    -2.632613     1.623431
H      -0.873066     0.084132     2.541816
H      -3.118094     1.028473     2.090700
H      -4.308455    -2.558044     0.036222
H       0.119680    -4.668682     0.792395
N      -1.779665    -3.729837     0.521576
C      -2.467491    -4.775348    -0.198148
H      -2.793542    -4.425841    -1.183457
H      -1.783726    -5.613449    -0.340268
H      -3.341739    -5.130743     0.358133
O      -5.007412    -0.032293     0.835377
C      -6.030746    -0.705397     0.131998
H      -6.873563    -0.014721     0.082922
H      -5.714765    -0.962509    -0.886977
H      -6.342228    -1.617986     0.655677
N       2.124872    -1.702510    -0.027324
C       1.618044    -2.450862    -1.085717
O       1.739078    -3.656181    -1.126075
C       0.826242    -1.717851    -2.182215
H      -0.214936    -1.854943    -1.866484
H       0.951009    -2.334232    -3.073311
C       1.092295    -0.210346    -2.474737
H       1.335396    -0.063234    -3.531034
H       0.195675     0.372825    -2.263365
C       2.215463     0.271311    -1.570551
C       2.198283     1.685791    -0.889589
H       3.135881     2.236517    -1.023677
C       1.180282    -2.261346     2.233667
H       1.413854    -2.915162     3.082034
H       1.113793    -1.249028     2.632933
C       2.374692    -2.339392     1.264013
H       3.250422    -1.868784     1.720156
H       2.620213    -3.377696     1.038282
C       3.632519     0.033484    -2.120497
H       3.791817     0.804563    -2.885418
H       4.352732     0.249381    -1.320269
C       3.966286    -1.327003    -2.736061
H       4.966855    -1.286864    -3.177059
H       3.969836    -2.131315    -1.998262
H       3.271708    -1.599855    -3.535206
O       1.084428     2.441176    -1.249178
C       0.752033     3.508888    -0.371467
H       0.959790     3.218448     0.667643
H       1.360757     4.393024    -0.602233
C      -0.717151     3.812122    -0.515149
C      -1.647277     2.790220    -0.320029
C      -1.164443     5.091610    -0.818860
C      -3.005882     3.049559    -0.426715
H      -1.300977     1.789251    -0.084497
C      -2.527595     5.355506    -0.923180
H      -0.444231     5.889604    -0.978681
C      -3.448559     4.335737    -0.726969
H      -3.720480     2.246782    -0.272521
H      -2.867560     6.358923    -1.160207
H      -4.511761     4.539414    -0.809294
C       1.967207    -0.330655    -0.196508
O       0.838034     0.315947     0.404076
C       2.091878     0.974545     0.488007
C       2.631232     1.356601     1.825648
O       2.283296     0.886923     2.876442
O       3.573417     2.301438     1.693016
C       4.166115     2.752959     2.921693
H       4.892048     3.512325     2.634801
H       3.402054     3.175793     3.577151
H       4.658059     1.921433     3.430521
72
     -1725.746860     -1725.215672   4.83   7.47
C       0.195454    -2.219391    -2.753514
C       0.533730    -0.852329    -2.667624
C       1.838229    -0.509212    -2.312104
C       2.762750    -1.505372    -2.047853
C       2.391589    -2.862205    -2.117888
C       1.107200    -3.237368    -2.478102
C      -1.618507    -1.016428    -3.260224
C      -0.650822    -0.096812    -2.992350
H       2.129336     0.532505    -2.223821
H       3.772102    -1.227272    -1.772639
H       0.849748    -4.289428    -2.525973
H      -2.659763    -0.868329    -3.510161
N      -1.124275    -2.301905    -3.119006
C      -1.869603    -3.522984    -3.311634
H      -1.889429    -4.120451    -2.393938
H      -2.896283    -3.270920    -3.581296
H      -1.436513    -4.127278    -4.115990
O       3.247106    -3.891478    -1.827608
C       4.519047    -3.567198    -1.301279
H       4.431075    -2.978297    -0.379854
H       5.004250    -4.517990    -1.076363
H       5.127979    -3.015634    -2.027899
N      -2.008345     1.354434    -0.804854
C      -2.909611     0.326054    -0.557006
O      -3.803306     0.066477    -1.335492
C      -2.775218    -0.505549     0.734633
H      -2.600175    -1.526446     0.382596
H      -3.786106    -0.511230     1.151059
C      -1.726274    -0.114305     1.806744
H      -2.085879    -0.382402     2.802716
H      -0.803796    -0.664419     1.634718
C      -1.480112     1.375628     1.638843
C      -0.175488     2.183994     2.040464
H      -0.484631     3.143924     2.456676
C      -0.760850     1.401033    -2.986789
H      -0.899269     1.787840    -4.003371
H       0.179811     1.818621    -2.625688
C      -1.917067     1.951161    -2.135909
H      -1.808029     3.034475    -2.022388
H      -2.877378     1.754185    -2.612856
C      -2.711073     2.223502     1.995394
H      -2.555522     3.244366     1.624415
H      -3.596637     1.848203     1.471938
C      -2.994552     2.260673     3.498536
H      -3.830084     2.931811     3.717463
H      -3.258578     1.270623     3.881345
H      -2.125896     2.612705     4.063589
O       0.787218     1.693558     2.926978
C       1.867625     0.877259     2.473128
H       2.189847     1.168028     1.469239
H       2.686318     1.108762     3.162024
C       1.565949    -0.601767     2.525253
C       1.769556    -1.410528     1.413081
C       1.071923    -1.169929     3.698000
C       1.477930    -2.770006     1.464580
H       2.127992    -0.973136     0.488707
C       0.774471    -2.524350     3.752107
H       0.904998    -0.538948     4.566272
C       0.978217    -3.328723     2.633845
H       1.631609    -3.384816     0.583145
H       0.384804    -2.956981     4.668542
H       0.746876    -4.388739     2.676837
C      -1.057132     1.550713     0.192317
O       0.255860     1.010266     0.037930
C       0.147523     2.337512     0.540078
C       0.886315     3.428948    -0.163959
O       1.466397     3.314858    -1.211306
O       0.815189     4.562264     0.544649
C       1.513032     5.684465    -0.019432
H       1.361278     6.504782     0.680468
H       2.575564     5.455268    -0.122410
H       1.100311     5.931659    -0.999725
72
     -1725.747642     -1725.215523   4.34   7.56
C       0.241285    -3.313259     0.476638
C       1.276112    -2.410293     0.801862
C       1.253521    -1.800062     2.055074
C       0.243271    -2.103834     2.952375
C      -0.771932    -3.015795     2.604386
C      -0.790585    -3.625033     1.359520
C       1.635286    -3.199104    -1.263742
C       2.161172    -2.352608    -0.336206
H       2.010025    -1.073984     2.332428
H       0.241873    -1.624736     3.923046
H      -1.586126    -4.320440     1.117003
H       2.008306    -3.439704    -2.250670
N       0.470064    -3.781069    -0.793395
C      -0.327055    -4.769211    -1.479447
H      -1.360948    -4.427331    -1.594677
H       0.093926    -4.937374    -2.472265
H      -0.330103    -5.721452    -0.937768
O      -1.798208    -3.361300     3.440915
C      -1.800966    -2.828918     4.749809
H      -0.889040    -3.099532     5.295855
H      -1.908384    -1.737736     4.739866
H      -2.664213    -3.267712     5.252271
N       2.050023     0.165701    -1.825090
C       2.065961    -0.529943    -3.019694
O       3.081116    -1.065708    -3.417224
C       0.768325    -0.665513    -3.846870
H       0.554052    -1.738339    -3.834621
H       1.078491    -0.445034    -4.871077
C      -0.494326     0.147040    -3.450057
H      -1.044916     0.453403    -4.344091
H      -1.162578    -0.465805    -2.841350
C      -0.005582     1.331197    -2.636893
C      -0.868217     2.074145    -1.548989
H      -0.779261     3.154551    -1.661122
C       3.391742    -1.513594    -0.505913
H       4.002529    -1.933086    -1.305740
H       3.992146    -1.535613     0.410833
C       3.102539    -0.033459    -0.823702
H       2.766237     0.482660     0.076089
H       4.020312     0.445845    -1.177045
C       0.752996     2.337655    -3.520327
H       1.351401     1.791487    -4.257713
H      -0.001923     2.884001    -4.099469
C       1.672153     3.332006    -2.804168
H       2.487008     2.819071    -2.285424
H       2.123647     4.008168    -3.536189
H       1.144110     3.951458    -2.073976
O      -2.243680     1.796076    -1.496315
C      -2.776043     0.887713    -0.532216
H      -3.834590     0.823823    -0.799091
H      -2.339366    -0.108071    -0.633144
C      -2.638648     1.378303     0.890983
C      -3.144016     2.628685     1.245864
C      -2.017254     0.597278     1.859684
C      -3.037596     3.088806     2.549419
H      -3.621473     3.242078     0.487431
C      -1.901688     1.062081     3.165694
H      -1.602263    -0.369103     1.591458
C      -2.416052     2.302399     3.516037
H      -3.440248     4.061329     2.815447
H      -1.394943     0.453943     3.907315
H      -2.331053     2.660195     4.537804
C       0.825373     0.752754    -1.509348
O      -0.026408     0.106031    -0.571967
C       0.095155     1.523933    -0.472164
C       0.570759     2.127006     0.807817
O       1.266955     1.565637     1.612194
O       0.153142     3.391806     0.911158
C       0.535976     4.066054     2.119203
H       1.623474     4.151526     2.175127
H       0.074018     5.050443     2.062504
H       0.165207     3.517466     2.986053
72
     -1725.740776     -1725.215501   8.65   7.57
C      -2.562055     2.135696    -4.415832
C      -2.112110     1.589821    -3.193042
C      -2.986592     1.600622    -2.106613
C      -4.252853     2.146154    -2.237604
C      -4.670204     2.690080    -3.467292
C      -3.831733     2.689276    -4.570808
C      -0.477363     1.393098    -4.709065
C      -0.761020     1.122745    -3.406458
H      -2.685840     1.176331    -1.155396
H      -4.918329     2.145065    -1.384018
H      -4.179950     3.111785    -5.506388
H       0.429929     1.194864    -5.264469
N      -1.551181     2.006159    -5.333410
C      -1.605527     2.439778    -6.708912
H      -0.657486     2.201824    -7.194147
H      -2.409596     1.930057    -7.250605
H      -1.766826     3.521212    -6.774885
O      -5.904538     3.245013    -3.665634
C      -6.803523     3.278557    -2.575430
H      -7.710581     3.757424    -2.946456
H      -7.047632     2.268461    -2.223811
H      -6.401678     3.865991    -1.740572
N       0.554232    -1.612841    -1.097687
C       1.515165    -2.388423    -1.735033
O       1.483090    -2.559006    -2.934905
C       2.624424    -3.065511    -0.902093
H       3.555861    -2.792133    -1.404073
H       2.488657    -4.131623    -1.107460
C       2.716744    -2.810867     0.623885
H       3.169372    -3.671697     1.121319
H       3.354414    -1.946309     0.815516
C       1.304796    -2.520552     1.103751
C       0.930029    -1.650933     2.367432
H       0.086392    -2.111330     2.884864
C       0.152540     0.469744    -2.413478
H       0.342930     1.135199    -1.566686
H       1.115941     0.266669    -2.889935
C      -0.410208    -0.859390    -1.896204
H      -1.296567    -0.702953    -1.277807
H      -0.688963    -1.494513    -2.737637
C       0.376724    -3.740157     1.023492
H      -0.656240    -3.402099     1.173009
H       0.405992    -4.172489     0.017928
C       0.715053    -4.821378     2.051248
H       1.697984    -5.262789     1.862755
H       0.722088    -4.419195     3.069004
H      -0.020255    -5.630302     2.016169
O       1.879994    -1.365856     3.350898
C       2.699026    -0.206218     3.232726
H       3.427216    -0.312878     2.423227
H       2.076620     0.670360     3.006616
C       3.414088     0.003929     4.543979
C       4.776662     0.279978     4.566842
C       2.712944    -0.044351     5.748259
C       5.434190     0.511514     5.771365
H       5.332974     0.310866     3.633918
C       3.366381     0.182202     6.951123
H       1.651231    -0.267601     5.737141
C       4.729699     0.463503     6.966293
H       6.498299     0.726736     5.773478
H       2.810712     0.139838     7.882914
H       5.239085     0.641890     7.908065
C       0.815657    -1.369241     0.246891
O       1.551587    -0.191831     0.612562
C       0.425874    -0.548041     1.415763
C      -0.656074     0.437168     1.716380
O      -1.367719     0.329836     2.682294
O      -0.725227     1.428781     0.825899
C      -1.692868     2.450473     1.119408
H      -1.664343     3.134454     0.272709
H      -2.687968     2.014826     1.230543
H      -1.421550     2.964525     2.044184
72
     -1725.749357     -1725.214780   3.27   8.03
C       0.424987    -2.951633    -0.002541
C       0.602468    -2.363054     1.261509
C      -0.466660    -2.393088     2.166108
C      -1.654388    -2.978555     1.795692
C      -1.811340    -3.554032     0.516053
C      -0.776576    -3.556847    -0.401377
C       2.508824    -2.161557     0.108630
C       1.948382    -1.854131     1.310808
H      -0.363907    -1.954930     3.153928
H      -2.501507    -3.016547     2.472154
H      -0.877587    -3.997686    -1.384609
H       3.510721    -1.963632    -0.247861
N       1.597454    -2.816935    -0.701106
C       1.847995    -3.311413    -2.033965
H       2.869695    -3.056072    -2.319188
H       1.738344    -4.400276    -2.080205
H       1.163884    -2.855478    -2.757396
O      -3.051534    -4.077793     0.274934
C      -3.308716    -4.588885    -1.018207
H      -3.180375    -3.813990    -1.784515
H      -2.658373    -5.441597    -1.249014
H      -4.347219    -4.921603    -1.013356
N       2.449196     1.032071     0.997938
C       3.660982     0.884694     0.348229
O       4.650164     0.515645     0.949334
C       3.763762     1.162125    -1.167859
H       4.074698     0.206948    -1.600874
H       4.637118     1.812639    -1.259659
C       2.546191     1.744206    -1.933425
H       2.884014     2.404134    -2.737613
H       1.965465     0.937656    -2.386552
C       1.700073     2.469554    -0.904024
C       0.150998     2.709757    -1.033296
H      -0.103013     3.731190    -0.752504
C       2.578941    -1.052635     2.408239
H       3.662308    -1.171092     2.377968
H       2.238122    -1.412283     3.385652
C       2.244429     0.449276     2.327395
H       1.193850     0.612541     2.573918
H       2.858953     0.998500     3.047023
C       2.406175     3.739481    -0.393642
H       3.481030     3.547287    -0.305485
H       2.305143     4.495496    -1.182191
C       1.914420     4.315760     0.938128
H       2.092192     3.619564     1.762902
H       2.461465     5.236045     1.163363
H       0.849732     4.562415     0.932141
O      -0.472154     2.483307    -2.271027
C      -1.091433     1.233737    -2.562544
H      -1.397104     1.336898    -3.607853
H      -0.381421     0.405417    -2.500036
C      -2.308237     0.940039    -1.711603
C      -2.490764    -0.318422    -1.146135
C      -3.279627     1.919903    -1.516081
C      -3.633705    -0.602706    -0.406650
H      -1.724645    -1.077243    -1.267267
C      -4.420028     1.640908    -0.776389
H      -3.134158     2.906336    -1.945222
C      -4.601831     0.376653    -0.224363
H      -3.760882    -1.586770     0.032098
H      -5.170757     2.411136    -0.630218
H      -5.497785     0.157548     0.349154
C       1.397496     1.458504     0.185380
O       0.468765     0.491031    -0.303930
C      -0.059321     1.736332     0.144895
C      -1.112309     1.852740     1.193361
O      -1.696336     2.889145     1.388152
O      -1.301602     0.727908     1.876220
C      -2.361263     0.775745     2.843893
H      -2.125766     1.496958     3.629777
H      -3.296047     1.056092     2.356021
H      -2.430073    -0.232441     3.248789
72
     -1725.747562     -1725.214322   4.39   8.31
C       1.026460    -0.066408     2.758130
C      -0.369165    -0.137192     2.613632
C      -1.104735     1.055614     2.650469
C      -0.446446     2.254854     2.787162
C       0.959918     2.301713     2.908313
C       1.717737     1.144928     2.910052
C       0.461966    -2.211842     2.527585
C      -0.712031    -1.527342     2.452245
H      -2.187474     1.037321     2.582031
H      -0.985623     3.195516     2.813341
H       2.794641     1.161224     3.014202
H       0.639763    -3.277212     2.461144
N       1.523556    -1.345169     2.715595
C       2.914444    -1.718359     2.804156
H       3.383658    -1.261970     3.681355
H       2.984941    -2.802902     2.908683
H       3.468084    -1.418557     1.907109
O       1.483084     3.559286     3.023008
C       2.887032     3.678584     3.126963
H       3.389986     3.264415     2.243684
H       3.098769     4.746471     3.192281
H       3.266374     3.179933     4.027684
N      -2.602515    -0.798365     0.093359
C      -3.622458     0.047025     0.482704
O      -4.459667    -0.312432     1.286943
C      -3.686706     1.479203    -0.090228
H      -3.503618     2.131758     0.768270
H      -4.743526     1.614246    -0.332173
C      -2.778345     1.882639    -1.285699
H      -3.319876     2.550400    -1.961942
H      -1.904279     2.420669    -0.916296
C      -2.350269     0.594157    -1.967963
C      -1.010889     0.399130    -2.776287
H      -1.202564    -0.171188    -3.683667
C      -2.069148    -2.105543     2.187056
H      -2.834880    -1.563630     2.747405
H      -2.099965    -3.144639     2.532789
C      -2.466623    -2.121965     0.703440
H      -1.717258    -2.663444     0.120893
H      -3.426615    -2.636652     0.597303
C      -3.535420    -0.056345    -2.704580
H      -4.448589     0.084117    -2.114822
H      -3.689467     0.516966    -3.627178
C      -3.407823    -1.545737    -3.040819
H      -2.535994    -1.772743    -3.659340
H      -3.341765    -2.156346    -2.135738
H      -4.293457    -1.874666    -3.592324
O      -0.254175     1.503441    -3.194725
C       0.665051     2.133771    -2.310006
H       0.971459     3.033855    -2.851701
H       0.187617     2.448547    -1.379314
C       1.889481     1.299969    -1.997393
C       2.418399     1.294101    -0.710355
C       2.523083     0.563884    -2.995579
C       3.573687     0.577201    -0.427531
H       1.912897     1.839904     0.080004
C       3.672726    -0.162147    -2.711399
H       2.105248     0.555029    -3.997147
C       4.205623    -0.152700    -1.426766
H       3.982020     0.592109     0.578355
H       4.158201    -0.732082    -3.497564
H       5.111242    -0.710436    -1.207807
C      -1.749191    -0.274269    -0.879135
O      -0.503216     0.295138    -0.476690
C      -0.503542    -0.516245    -1.643232
C       0.402521    -1.687754    -1.806621
O       0.509708    -2.261766    -2.861850
O       1.046627    -2.014584    -0.690075
C       1.961897    -3.110382    -0.819625
H       2.738175    -2.863492    -1.545778
H       2.396272    -3.247862     0.169569
H       1.434966    -4.012747    -1.137568
72
     -1725.746470     -1725.213997   5.08   8.52
C      -0.827300     3.531865     1.093600
C      -1.329209     2.214125     1.117138
C      -0.980741     1.386411     2.183808
C      -0.162736     1.870414     3.190516
C       0.323663     3.192063     3.143281
C      -0.001272     4.038795     2.095647
C      -2.094197     3.230498    -0.724058
C      -2.139862     2.041331    -0.062404
H      -1.334605     0.360830     2.220722
H       0.099563     1.219956     4.015213
H       0.387923     5.050569     2.085543
H      -2.541010     3.512413    -1.667360
N      -1.297940     4.137777    -0.043906
C      -1.044724     5.503736    -0.435399
H      -1.482548     6.210621     0.278295
H       0.030951     5.695953    -0.504392
H      -1.489633     5.678823    -1.416161
O       1.137303     3.729847     4.104069
C       1.500779     2.914975     5.199636
H       0.621888     2.601588     5.776637
H       2.055628     2.026401     4.873705
H       2.144670     3.527894     5.831884
N      -1.176943     0.362366    -2.275254
C      -0.681028     1.441107    -2.995106
O      -1.417030     2.203287    -3.586360
C       0.838984     1.704460    -3.000637
H       0.950765     2.583109    -2.355797
H       1.046181     2.056100    -4.013352
C       1.829615     0.583260    -2.571979
H       2.681865     0.549232    -3.256502
H       2.215708     0.788346    -1.572424
C       1.048156    -0.719344    -2.571776
C       1.362715    -1.937858    -1.625822
H       1.283750    -2.870796    -2.182419
C      -2.845728     0.773617    -0.450204
H      -3.931044     0.877749    -0.333863
H      -2.537457    -0.018711     0.232778
C      -2.585792     0.314070    -1.893684
H      -2.946859    -0.711368    -2.023010
H      -3.106610     0.953012    -2.607469
C       0.757847    -1.182869    -4.009520
H       0.532702    -0.307068    -4.629508
H       1.695033    -1.592026    -4.407192
C      -0.368989    -2.203609    -4.194150
H      -1.332569    -1.796317    -3.875188
H      -0.458277    -2.466490    -5.252294
H      -0.197192    -3.132367    -3.643307
O       2.598272    -1.999011    -0.964280
C       2.751265    -1.450486     0.342125
H       3.827496    -1.516228     0.526932
H       2.465611    -0.396740     0.376324
C       2.006757    -2.224354     1.407728
C       2.111285    -3.612798     1.470032
C       1.231525    -1.558773     2.351169
C       1.453637    -4.323130     2.463976
H       2.710530    -4.134683     0.730113
C       0.567833    -2.269323     3.344855
H       1.132423    -0.480075     2.294257
C       0.678864    -3.651593     3.405564
H       1.545735    -5.404287     2.506605
H      -0.042538    -1.742191     4.071515
H       0.163577    -4.206379     4.183583
C      -0.191745    -0.462524    -1.737101
O       0.202553    -0.302029    -0.375577
C       0.054806    -1.633462    -0.859818
C      -0.872888    -2.555853    -0.138738
O      -1.721556    -2.213157     0.640035
O      -0.635467    -3.821639    -0.499006
C      -1.429288    -4.806530     0.180330
H      -2.488388    -4.656190    -0.039747
H      -1.089672    -5.768913    -0.199823
H      -1.265026    -4.737424     1.256984
72
     -1725.746644     -1725.213461   4.97   8.85
C       1.030948     0.010307     2.787681
C      -0.352534    -0.267413     2.781868
C      -1.225822     0.702990     3.270728
C      -0.730256     1.915789     3.721362
C       0.653880     2.171175     3.702472
C       1.551267     1.219460     3.241676
C       0.736922    -2.059892     2.002834
C      -0.516812    -1.604786     2.261289
H      -2.294423     0.515076     3.306043
H      -1.420969     2.659182     4.098339
H       2.612117     1.442257     3.251094
H       1.050836    -3.010981     1.595717
N       1.685047    -1.092959     2.293369
C       3.110998    -1.309539     2.348753
H       3.362370    -2.181937     1.742877
H       3.645224    -0.446418     1.942742
H       3.455994    -1.482292     3.375140
O       1.211054     3.343666     4.133189
C       0.348128     4.349558     4.624775
H       0.989024     5.185297     4.908676
H      -0.359900     4.682688     3.855862
H      -0.208563     4.006201     5.505393
N      -2.356298    -0.732297     0.078482
C      -3.199309     0.172755     0.696094
O      -4.041170    -0.204812     1.487510
C      -3.051308     1.681072     0.404899
H      -2.752470     2.115008     1.362604
H      -4.075888     2.021091     0.236211
C      -2.102099     2.159311    -0.726932
H      -2.513470     3.046202    -1.217593
H      -1.130349     2.429798    -0.308321
C      -1.945700     0.989131    -1.680045
C      -0.706454     0.754115    -2.618310
H      -1.032822     0.455325    -3.613595
C      -1.815479    -2.299414     1.977041
H      -2.589361    -1.933310     2.654968
H      -1.718604    -3.376240     2.153936
C      -2.303073    -2.123584     0.528491
H      -1.630465    -2.645026    -0.155855
H      -3.303531    -2.554591     0.427471
C      -3.257725     0.710999    -2.438025
H      -4.107758     0.876469    -1.767131
H      -3.341719     1.480699    -3.215287
C      -3.412439    -0.676206    -3.069800
H      -2.617532    -0.915559    -3.780694
H      -3.428239    -1.461661    -2.308567
H      -4.361279    -0.727888    -3.611948
O       0.212358     1.797460    -2.816395
C       1.369957     1.914701    -1.996201
H       1.816821     2.861845    -2.312560
H       1.112180     2.000279    -0.938029
C       2.369887     0.796926    -2.200805
C       2.975428     0.177841    -1.111968
C       2.718725     0.397081    -3.489425
C       3.928728    -0.815255    -1.307084
H       2.681535     0.466662    -0.107536
C       3.665341    -0.597940    -3.686458
H       2.236758     0.868426    -4.340043
C       4.277992    -1.203528    -2.593950
H       4.401875    -1.290314    -0.453578
H       3.927986    -0.901631    -4.694789
H       5.025292    -1.976296    -2.746924
C      -1.465200    -0.179266    -0.840760
O      -0.107720     0.036387    -0.451579
C      -0.337120    -0.475044    -1.760069
C       0.278126    -1.733917    -2.265791
O       0.267608    -2.016470    -3.437290
O       0.802668    -2.495141    -1.305452
C       1.452749    -3.686383    -1.771999
H       2.266955    -3.424556    -2.449916
H       1.841383    -4.177786    -0.880565
H       0.739697    -4.332902    -2.288309
72
     -1725.745043     -1725.212286   5.97   9.59
C       1.180499     2.487333    -1.200410
C      -0.218117     2.430073    -1.073797
C      -0.967589     1.967760    -2.165061
C      -0.320598     1.589186    -3.319310
C       1.084423     1.670702    -3.425079
C       1.859566     2.113042    -2.368962
C       0.635680     3.252510     0.822359
C      -0.549317     2.927109     0.238328
H      -2.050600     1.919313    -2.108783
H      -0.871808     1.232485    -4.182443
H       2.938072     2.178047    -2.430435
H       0.828969     3.659362     1.805076
N       1.692475     2.981296    -0.026977
C       3.087344     3.236837     0.241289
H       3.190652     3.597339     1.265885
H       3.679439     2.321896     0.137667
H       3.490623     3.998120    -0.435554
O       1.591877     1.272263    -4.632241
C       2.990886     1.356759    -4.817610
H       3.346394     2.388633    -4.707471
H       3.528856     0.709921    -4.112785
H       3.184436     1.016753    -5.835594
N      -2.196479     0.523293     1.019849
C      -2.998277     0.238319    -0.070084
O      -3.900775     0.988503    -0.386651
C      -2.723874    -1.024445    -0.908538
H      -2.426211    -0.642080    -1.889026
H      -3.712871    -1.465102    -1.056352
C      -1.695328    -2.075799    -0.411917
H      -2.024293    -3.083354    -0.681877
H      -0.737995    -1.903295    -0.896300
C      -1.568801    -1.892849     1.090593
C      -0.320757    -2.257355     1.995506
H      -0.674803    -2.732884     2.908581
C      -1.918620     3.022085     0.843975
H      -2.664616     3.147928     0.056498
H      -1.985262     3.904819     1.489636
C      -2.311260     1.811085     1.704365
H      -1.667861     1.755346     2.584530
H      -3.346884     1.927473     2.037748
C      -2.868107    -2.333963     1.797379
H      -3.725826    -2.073221     1.167892
H      -2.850908    -3.430381     1.830254
C      -3.129035    -1.782807     3.203175
H      -4.065243    -2.197128     3.588843
H      -2.343424    -2.036999     3.919160
H      -3.234357    -0.694094     3.193478
O       0.736157    -3.068902     1.569124
C       1.818071    -2.555972     0.791037
H       2.038094    -1.516333     1.042833
H       2.678773    -3.159822     1.095983
C       1.591846    -2.713481    -0.693658
C       1.694662    -1.634723    -1.565170
C       1.246364    -3.966183    -1.198989
C       1.448519    -1.804027    -2.925168
H       1.930621    -0.648041    -1.178207
C       0.996668    -4.137208    -2.552425
H       1.156000    -4.806143    -0.516450
C       1.098305    -3.053258    -3.419600
H       1.512676    -0.955679    -3.596483
H       0.723234    -5.116307    -2.933923
H       0.902577    -3.183236    -4.479612
C      -1.225134    -0.432741     1.314230
O       0.128509    -0.199633     0.926429
C      -0.096164    -0.751815     2.223029
C       0.454175    -0.146380     3.468389
O       0.582512    -0.784930     4.482756
O       0.769150     1.145836     3.346882
C       1.295686     1.752726     4.536312
H       1.486908     2.793398     4.276654
H       0.571000     1.687015     5.350688
H       2.220497     1.256002     4.836522
