72
     -1725.768992     -1725.240801   0.00   0.00
C      -2.859372    -1.222371     2.848923
C      -2.003640    -0.122438     3.032880
C      -2.392945     1.123823     2.520333
C      -3.583667     1.231008     1.840442
C      -4.423316     0.109021     1.659536
C      -4.081310    -1.132757     2.164683
C      -1.045320    -1.926771     3.943901
C      -0.840990    -0.596134     3.738495
H      -1.760281     1.996165     2.651064
H      -3.912894     2.178339     1.428000
H      -4.711422    -2.002837     2.035307
H      -0.414422    -2.653131     4.438458
N      -2.261211    -2.321529     3.410688
C      -2.809041    -3.656997     3.445007
H      -3.757719    -3.680991     3.991650
H      -2.973805    -4.041046     2.432710
H      -2.102872    -4.316478     3.951990
O      -5.566924     0.361740     0.957665
C      -6.466630    -0.709147     0.755174
H      -6.835041    -1.108279     1.708499
H      -7.304532    -0.300333     0.189439
H      -6.002141    -1.518343     0.177634
N       1.016592     0.610938     1.733127
C       0.812766     1.941386     1.449878
O       0.867613     2.794941     2.315723
C       0.542392     2.254344    -0.014273
H       1.501126     2.219909    -0.545816
H       0.183536     3.283764    -0.053800
C      -0.453894     1.289588    -0.673771
H      -1.434222     1.428492    -0.206965
H      -0.554421     1.537731    -1.731841
C      -0.044476    -0.178444    -0.497794
C       1.090877    -0.684363    -1.469375
H       0.893273    -1.668783    -1.911461
C       0.358875     0.218164     4.117358
H       0.792989    -0.157745     5.050032
H       0.061736     1.254226     4.297832
C       1.471436     0.198694     3.061475
H       2.277034     0.871198     3.368867
H       1.881888    -0.805208     2.955250
C      -1.243070    -1.115948    -0.389343
H      -0.884208    -2.128637    -0.176091
H      -1.844545    -0.807573     0.468035
C      -2.109660    -1.116508    -1.649328
H      -2.554616    -0.133710    -1.829967
H      -1.530936    -1.388299    -2.538726
H      -2.928436    -1.835579    -1.553072
O       1.422503     0.259022    -2.442298
C       2.095944    -0.284484    -3.580907
H       2.958350    -0.872117    -3.250015
H       1.404989    -0.940121    -4.128995
C       2.542262     0.854848    -4.456554
C       1.890394     1.138902    -5.651405
C       3.617139     1.650166    -4.061243
C       2.302531     2.203435    -6.446667
H       1.051248     0.523226    -5.964282
C       4.028643     2.714476    -4.850853
H       4.126569     1.424743    -3.129407
C       3.371931     2.993414    -6.046127
H       1.786077     2.415712    -7.377641
H       4.865713     3.329672    -4.535339
H       3.695267     3.825853    -6.663349
C       0.980023    -0.272243     0.640012
O       1.458888    -1.575893     0.738073
C       2.059613    -0.733312    -0.270322
C       3.523794    -0.501413    -0.213136
O       4.225544    -0.356426    -1.183912
O       3.969660    -0.462276     1.047330
C       5.382511    -0.262678     1.195571
H       5.681505     0.690309     0.753684
H       5.567242    -0.263467     2.268980
H       5.931508    -1.072431     0.710377
72
     -1725.768970     -1725.240482   0.01   0.20
C      -2.776497     1.421510     2.276890
C      -3.025993     1.604202     0.905687
C      -3.649456     0.569473     0.192971
C      -3.984902    -0.592887     0.847349
C      -3.720462    -0.755489     2.225865
C      -3.118555     0.247394     2.965021
C      -2.003644     3.432440     1.689785
C      -2.522249     2.904651     0.546670
H      -3.861564     0.679283    -0.865895
H      -4.465295    -1.413559     0.326168
H      -2.907601     0.139988     4.020860
H      -1.528614     4.390489     1.853107
N      -2.147600     2.546872     2.745312
C      -1.725755     2.774747     4.107118
H      -1.248993     3.754190     4.170889
H      -2.579244     2.760711     4.793388
H      -1.001936     2.017669     4.426872
O      -4.102022    -1.961707     2.739892
C      -3.888755    -2.188085     4.118415
H      -4.264159    -3.191085     4.324134
H      -2.821842    -2.143511     4.370991
H      -4.438121    -1.463789     4.732790
N      -0.956141     1.790246    -1.722075
C      -1.641211     0.985244    -2.599985
O      -2.620243     1.383188    -3.204299
C      -1.069534    -0.414255    -2.776144
H      -0.187062    -0.331712    -3.421970
H      -1.819313    -0.992481    -3.317986
C      -0.687728    -1.094168    -1.453897
H      -1.602440    -1.280271    -0.881540
H      -0.229990    -2.063429    -1.660530
C       0.239283    -0.222895    -0.597612
C       1.759248    -0.219644    -1.018840
H       2.455994    -0.342163    -0.183691
C      -2.534644     3.510890    -0.824108
H      -2.632420     4.599665    -0.756557
H      -3.401416     3.145757    -1.380906
C      -1.264790     3.218999    -1.633508
H      -1.378563     3.604798    -2.649342
H      -0.398120     3.700200    -1.181610
C       0.006086    -0.417905     0.898719
H       0.569512     0.341504     1.451432
H      -1.051067    -0.237081     1.105260
C       0.392344    -1.815786     1.384257
H       1.459171    -2.017040     1.248631
H       0.165659    -1.924292     2.449096
H      -0.160709    -2.594321     0.850025
O       2.039383    -1.120247    -2.056444
C       3.377568    -1.605463    -2.066494
H       3.496071    -2.088718    -3.040303
H       4.084557    -0.770813    -2.015537
C       3.640922    -2.592161    -0.950450
C       2.813355    -3.704020    -0.793843
C       4.695839    -2.407074    -0.063789
C       3.039408    -4.613478     0.228646
H       1.983436    -3.849552    -1.478942
C       4.928143    -3.318677     0.962498
H       5.342265    -1.540237    -0.172244
C       4.100239    -4.422703     1.110490
H       2.388511    -5.475094     0.340025
H       5.756567    -3.162232     1.646205
H       4.278762    -5.134976     1.909725
C       0.171023     1.227500    -1.099690
O       1.079578     2.007110    -0.394423
C       1.600715     1.234946    -1.499928
C       2.220852     2.027115    -2.592964
O       1.804298     3.093690    -2.965289
O       3.296378     1.414684    -3.109437
C       3.935337     2.116380    -4.185593
H       4.296061     3.088502    -3.843185
H       4.767103     1.484899    -4.495773
H       3.234988     2.264054    -5.010360
72
     -1725.767025     -1725.239710   1.23   0.68
C       4.381961    -0.511360     0.297657
C       3.620235    -0.513179     1.486805
C       3.889286     0.460709     2.448355
C       4.887407     1.394625     2.226321
C       5.636269     1.368029     1.033371
C       5.392648     0.416138     0.055188
C       2.905014    -2.187040     0.180127
C       2.674195    -1.597575     1.386316
H       3.323761     0.494782     3.374639
H       5.086067     2.142851     2.982612
H       5.983841     0.421484    -0.853373
H       2.407556    -3.028303    -0.282758
N       3.929022    -1.537989    -0.490829
C       4.465582    -1.907422    -1.779651
H       3.875846    -2.730707    -2.185223
H       4.414666    -1.066395    -2.478774
H       5.508239    -2.232703    -1.695955
O       6.636508     2.256787     0.752148
C       6.936490     3.249987     1.712648
H       7.752922     3.839146     1.293006
H       6.075995     3.905262     1.895754
H       7.262485     2.806173     2.661385
N      -0.217818    -2.034764     0.758699
C      -0.290861    -2.585733    -0.498806
O       0.141761    -3.692905    -0.760860
C      -0.938385    -1.678778    -1.535912
H      -2.017256    -1.635319    -1.347958
H      -0.790927    -2.155205    -2.505901
C      -0.342518    -0.261341    -1.512200
H       0.720528    -0.330405    -1.771907
H      -0.828192     0.355024    -2.270274
C      -0.456172     0.387140    -0.124585
C      -1.888060     0.946342     0.231234
H      -1.870971     1.917797     0.740692
C       1.639787    -1.946679     2.416943
H       1.291798    -1.024356     2.894583
H       2.083216    -2.550184     3.218969
C       0.430341    -2.715534     1.878088
H       0.715392    -3.699367     1.504566
H      -0.304290    -2.848988     2.677013
C       0.702954     1.327223     0.188580
H       0.634596     1.640656     1.236163
H       1.639438     0.768234     0.092148
C       0.731519     2.552952    -0.725789
H       0.852468     2.269297    -1.775726
H      -0.192170     3.135554    -0.644999
H       1.564543     3.210897    -0.462731
O      -2.748447     0.954740    -0.865068
C      -3.882951     1.812632    -0.712960
H      -4.398504     1.574627     0.223098
H      -3.542210     2.856771    -0.678617
C      -4.800346     1.598983    -1.886183
C      -5.553186     0.428355    -1.970440
C      -4.901196     2.546009    -2.899218
C      -6.391155     0.211179    -3.054991
H      -5.474624    -0.308383    -1.176940
C      -5.742694     2.332367    -3.986324
H      -4.315998     3.459848    -2.839648
C      -6.487941     1.163431    -4.065742
H      -6.973138    -0.703450    -3.113764
H      -5.813518     3.078870    -4.771321
H      -7.144392     0.992671    -4.913317
C      -0.713395    -0.727696     0.891337
O      -0.989800    -0.189057     2.149081
C      -2.077834    -0.237969     1.205344
C      -3.299365    -0.996532     1.572841
O      -4.410631    -0.712241     1.198800
O      -3.015478    -2.040253     2.358384
C      -4.143913    -2.823538     2.772790
H      -4.843947    -2.206824     3.340268
H      -4.655797    -3.243195     1.904117
H      -3.736246    -3.616205     3.398670
72
     -1725.763693     -1725.238777   3.33   1.27
C      -4.627096     1.446761    -2.596557
C      -3.468830     1.012193    -1.917516
C      -3.546415     0.776654    -0.544158
C      -4.746436     0.975657     0.118651
C      -5.887211     1.411378    -0.583172
C      -5.843430     1.651925    -1.947846
C      -2.967565     1.277891    -4.083903
C      -2.414023     0.909443    -2.897224
H      -2.675039     0.439968     0.009899
H      -4.795976     0.790695     1.183784
H      -6.737971     1.986233    -2.460640
H      -2.512891     1.338308    -5.064004
N      -4.304409     1.604964    -3.921250
C      -5.210299     2.034908    -4.959123
H      -5.604945     3.034474    -4.747371
H      -4.672899     2.069969    -5.908312
H      -6.050050     1.339170    -5.061756
O      -7.100105     1.626463     0.012084
C      -7.210059     1.401415     1.403154
H      -8.243666     1.631259     1.665356
H      -6.996720     0.356422     1.659887
H      -6.539302     2.057818     1.971196
N       1.063681     1.143021    -1.404536
C       2.226612     1.448199    -2.075115
O       2.238698     2.121065    -3.086013
C       3.480899     0.870147    -1.432889
H       3.681029     1.418861    -0.505519
H       4.306097     1.065203    -2.118614
C       3.346377    -0.631967    -1.134330
H       3.257937    -1.165200    -2.087735
H       4.252555    -0.992259    -0.644685
C       2.105470    -0.943334    -0.284533
C       2.265367    -0.699320     1.265700
H       1.870622    -1.505233     1.892740
C      -0.998381     0.510608    -2.620647
H      -0.466126     0.293715    -3.551962
H      -0.987837    -0.409891    -2.023820
C      -0.242437     1.606411    -1.859962
H      -0.070270     2.468091    -2.504844
H      -0.809399     1.932988    -0.986845
C       1.448071    -2.269004    -0.658476
H       0.504545    -2.364744    -0.110576
H       1.189640    -2.235853    -1.724624
C       2.339329    -3.478224    -0.372674
H       1.842325    -4.404451    -0.675107
H       3.287807    -3.418411    -0.915172
H       2.572733    -3.558406     0.692950
O       3.574742    -0.360180     1.621486
C       3.897082    -0.615123     2.987880
H       4.863903    -0.128799     3.142352
H       3.167431    -0.131591     3.643979
C       3.997934    -2.094976     3.285835
C       3.325452    -2.653467     4.367588
C       4.770741    -2.922338     2.471033
C       3.425441    -4.015076     4.638937
H       2.713228    -2.019141     5.002877
C       4.869810    -4.280647     2.735690
H       5.292682    -2.493748     1.620529
C       4.197045    -4.831233     3.823260
H       2.896250    -4.436181     5.488040
H       5.473922    -4.913582     2.092945
H       4.275919    -5.893445     4.031942
C       1.175974     0.273367    -0.310066
O       0.093566     0.054928     0.546351
C       1.326254     0.515699     1.143954
C       1.284947     1.763380     1.948972
O       1.883774     1.916067     2.984071
O       0.504817     2.690087     1.383100
C       0.387119     3.921663     2.109717
H       1.366381     4.392127     2.220503
H      -0.276762     4.549135     1.516563
H      -0.037657     3.737093     3.098575
72
     -1725.766995     -1725.238602   1.25   1.38
C      -2.627581     2.049098    -1.753965
C      -3.084437     0.902764    -1.068862
C      -3.439548     1.025091     0.274302
C      -3.326094     2.251768     0.907125
C      -2.858324     3.378512     0.202051
C      -2.505364     3.291634    -1.136323
C      -2.615809     0.330509    -3.180734
C      -3.067441    -0.191603    -2.007628
H      -3.802644     0.165197     0.828844
H      -3.603747     2.333268     1.950010
H      -2.150933     4.176399    -1.652343
H      -2.460551    -0.154990    -4.135112
N      -2.347036     1.682817    -3.045917
C      -1.832321     2.556393    -4.073609
H      -2.503856     3.405636    -4.236211
H      -0.839554     2.936180    -3.809307
H      -1.751393     1.997578    -5.007476
O      -2.715507     4.614525     0.767308
C      -3.089149     4.777677     2.121539
H      -4.150578     4.548150     2.275293
H      -2.481796     4.149334     2.784522
H      -2.910528     5.827086     2.359137
N      -1.525290    -1.930939    -0.138129
C      -2.015306    -2.059306     1.139105
O      -3.132455    -2.490740     1.357346
C      -1.048017    -1.644450     2.237767
H      -0.308137    -2.445777     2.353072
H      -1.623714    -1.594688     3.163029
C      -0.341581    -0.312337     1.947902
H      -1.093354     0.482885     1.954058
H       0.372043    -0.092249     2.744204
C       0.360779    -0.293028     0.579384
C       1.746669    -1.043182     0.549467
H       2.528400    -0.520596    -0.009207
C      -3.444461    -1.612066    -1.714728
H      -3.878923    -2.080944    -2.604133
H      -4.209638    -1.637085    -0.934523
C      -2.261177    -2.483179    -1.274980
H      -2.624149    -3.475469    -0.993689
H      -1.544525    -2.596218    -2.088347
C       0.367059     1.129295     0.010726
H      -0.638841     1.541214     0.117739
H       1.010109     1.721692     0.676224
C       0.823986     1.318432    -1.435842
H       1.843200     0.959032    -1.603543
H       0.167481     0.793920    -2.132580
H       0.801058     2.384078    -1.686099
O       2.191703    -1.403972     1.826992
C       3.595010    -1.637221     1.912573
H       3.749791    -2.045719     2.915133
H       3.896570    -2.399461     1.187934
C       4.405277    -0.371181     1.731948
C       5.557159    -0.371674     0.952166
C       4.010207     0.813284     2.352931
C       6.311693     0.787781     0.801602
H       5.866198    -1.286178     0.453264
C       4.758074     1.972552     2.201348
H       3.108148     0.821275     2.956890
C       5.914133     1.962291     1.426211
H       7.209675     0.771235     0.191846
H       4.440282     2.887925     2.691057
H       6.500269     2.868289     1.309424
C      -0.207110    -1.452042    -0.255140
O       0.516347    -1.615908    -1.434593
C       1.084230    -2.186951    -0.237342
C       1.381547    -3.640803    -0.228975
O       2.358474    -4.128283     0.283164
O       0.430945    -4.342529    -0.857384
C       0.655041    -5.758074    -0.922410
H       0.711200    -6.181444     0.082807
H      -0.197380    -6.165454    -1.464555
H       1.585487    -5.969057    -1.453752
72
     -1725.762782     -1725.237960   3.90   1.78
C      -1.485966     3.882753     3.757477
C      -1.371610     2.848047     2.813627
C      -1.716332     1.543280     3.199536
C      -2.150794     1.315054     4.484573
C      -2.256382     2.371302     5.416772
C      -1.927926     3.670176     5.072767
C      -0.745482     4.766496     1.844206
C      -0.895170     3.437995     1.587953
H      -1.641791     0.719587     2.495597
H      -2.425142     0.320518     4.818268
H      -2.003356     4.490775     5.773966
H      -0.407589     5.559533     1.190327
N      -1.099756     5.052385     3.152606
C      -1.072216     6.354812     3.774388
H      -2.071523     6.653750     4.108833
H      -0.393155     6.367213     4.633757
H      -0.719417     7.087550     3.046794
O      -2.701134     1.995816     6.653077
C      -2.831153     2.998931     7.639228
H      -3.192875     2.498051     8.537944
H      -1.866745     3.475750     7.855408
H      -3.555500     3.766062     7.337558
N       0.860680     0.999000    -0.727802
C       1.723941     1.330442    -1.748485
O       2.386952     2.347474    -1.737308
C       1.761748     0.310324    -2.878748
H       2.268761    -0.592940    -2.520232
H       2.372198     0.740054    -3.673601
C       0.354457    -0.045194    -3.386295
H      -0.087610     0.854485    -3.829215
H       0.425886    -0.795968    -4.174690
C      -0.561129    -0.531255    -2.252235
C      -0.366374    -2.040765    -1.834040
H      -1.305840    -2.583385    -1.670399
C      -0.598820     2.703810     0.317643
H      -0.476897     3.403115    -0.515423
H      -1.443719     2.050411     0.066725
C       0.670412     1.852745     0.439894
H       1.550578     2.491023     0.516746
H       0.625027     1.213896     1.323236
C      -2.011771    -0.093493    -2.428631
H      -2.581868    -0.388501    -1.540983
H      -2.039328     1.002835    -2.468518
C      -2.660660    -0.676535    -3.684570
H      -3.708233    -0.371257    -3.758511
H      -2.152538    -0.342762    -4.593966
H      -2.633413    -1.771088    -3.673213
O       0.482226    -2.727890    -2.698857
C       0.365495    -4.152401    -2.627119
H       0.474851    -4.475856    -1.587006
H      -0.626876    -4.450341    -2.992859
C       1.443821    -4.760321    -3.482151
C       1.142389    -5.350085    -4.704678
C       2.769750    -4.723267    -3.052098
C       2.148994    -5.898626    -5.493032
H       0.110970    -5.380982    -5.045715
C       3.776183    -5.266933    -3.837636
H       3.002372    -4.264844    -2.095888
C       3.467731    -5.856381    -5.060440
H       1.901761    -6.356727    -6.445672
H       4.806223    -5.233057    -3.496191
H       4.255923    -6.282006    -5.673678
C       0.077896    -0.148907    -0.916169
O      -0.657316    -0.697156     0.136942
C       0.292164    -1.562174    -0.520578
C       1.375704    -2.170476     0.291816
O       1.864284    -3.250073     0.066671
O       1.751312    -1.368425     1.292298
C       2.793140    -1.880404     2.135387
H       3.697074    -2.067211     1.551757
H       2.970426    -1.108025     2.882469
H       2.472081    -2.809736     2.610385
72
     -1725.767270     -1725.237925   1.08   1.80
C      -3.721543    -1.687962     0.551686
C      -3.337163    -1.403083    -0.769717
C      -2.846311    -2.450780    -1.564294
C      -2.732879    -3.711151    -1.025300
C      -3.116460    -3.970525     0.309842
C      -3.622635    -2.968299     1.117518
C      -4.065915     0.487023     0.179882
C      -3.567850     0.002328    -0.991377
H      -2.555621    -2.271490    -2.594665
H      -2.356722    -4.542065    -1.611893
H      -3.928016    -3.149016     2.139785
H      -4.367127     1.493606     0.436929
N      -4.167595    -0.523067     1.121957
C      -4.636675    -0.372705     2.479276
H      -5.501412    -1.016686     2.670171
H      -3.847303    -0.615291     3.198968
H      -4.938499     0.663949     2.636437
O      -2.948431    -5.265537     0.709416
C      -3.331301    -5.603174     2.027357
H      -2.750770    -5.040626     2.769343
H      -4.401272    -5.424060     2.191333
H      -3.123853    -6.667617     2.141762
N      -0.812263     0.595595    -1.849022
C      -0.432531    -0.425524    -2.689904
O      -0.960704    -0.562614    -3.778938
C       0.620009    -1.403740    -2.196296
H       1.182238    -1.717779    -3.077919
H       0.064787    -2.283575    -1.852562
C       1.543529    -0.872441    -1.101009
H       2.196057    -1.668030    -0.730421
H       2.196949    -0.103434    -1.520753
C       0.721549    -0.272710     0.044204
C       1.492186     0.891623     0.765429
H       1.275084     0.972839     1.835441
C      -3.278709     0.757515    -2.255741
H      -4.042288     1.525096    -2.421832
H      -3.324168     0.073223    -3.105315
C      -1.916479     1.469577    -2.258307
H      -1.702656     1.848592    -3.260685
H      -1.928098     2.306838    -1.564610
C       0.068970    -1.350912     0.911641
H      -0.561300    -1.978196     0.272346
H       0.874488    -1.999619     1.278939
C      -0.769334    -0.867196     2.096246
H      -1.578255    -0.211765     1.771983
H      -1.213258    -1.728586     2.604212
H      -0.169736    -0.324558     2.832900
O       2.864627     0.865307     0.529913
C       3.629754     1.623149     1.468649
H       3.230126     2.641189     1.530630
H       3.558575     1.151677     2.458821
C       5.061302     1.652567     1.005413
C       5.402403     2.375602    -0.137269
C       6.052828     0.964813     1.695480
C       6.716845     2.405124    -0.580308
H       4.626378     2.913414    -0.672992
C       7.372533     0.995290     1.255188
H       5.792211     0.397735     2.585185
C       7.705659     1.714988     0.115735
H       6.974150     2.969206    -1.471572
H       8.138492     0.454433     1.802288
H       8.733849     1.739755    -0.231689
C      -0.161687     0.788985    -0.614768
O      -0.715412     1.649529     0.339543
C       0.652421     1.900839    -0.052212
C       1.031387     3.234171    -0.583382
O       2.115956     3.735574    -0.419382
O       0.037613     3.808904    -1.269804
C       0.330026     5.107548    -1.805600
H       0.568591     5.804048    -0.999221
H       1.174495     5.053023    -2.495763
H      -0.573843     5.419137    -2.327321
72
     -1725.765756     -1725.236986   2.03   2.39
C      -4.377129    -0.514299     0.285393
C      -3.445652    -1.435099     0.795466
C      -3.392154    -1.630697     2.182977
C      -4.238653    -0.918675     2.999760
C      -5.166268     0.002184     2.463107
C      -5.252977     0.220650     1.099719
C      -3.234899    -1.373685    -1.433254
C      -2.714291    -1.972741    -0.325488
H      -2.674718    -2.319051     2.616143
H      -4.214754    -1.041186     4.076711
H      -5.955795     0.921711     0.668804
H      -2.969406    -1.494427    -2.473385
N      -4.235907    -0.485037    -1.077129
C      -5.017917     0.313337    -1.991560
H      -6.078078     0.040877    -1.948780
H      -4.918291     1.380278    -1.765446
H      -4.656920     0.141407    -3.006354
O      -5.940627     0.638089     3.391558
C      -6.904915     1.559547     2.925152
H      -7.637406     1.074063     2.268083
H      -7.414598     1.941819     3.810324
H      -6.435663     2.394939     2.390278
N       0.026220    -1.893176    -1.757512
C      -0.256785    -1.129016    -2.868311
O      -1.054854    -1.472646    -3.719898
C       0.511927     0.182075    -2.936401
H       0.140740     0.839349    -2.141625
H       0.270205     0.641102    -3.895621
C       2.025227    -0.026879    -2.781247
H       2.384080    -0.602351    -3.641951
H       2.535144     0.937596    -2.800051
C       2.360365    -0.801925    -1.499710
C       2.416674     0.057461    -0.184322
H       3.269835    -0.169970     0.464605
C      -1.632170    -3.010596    -0.233216
H      -2.082663    -4.001280    -0.087742
H      -1.031552    -2.822373     0.660643
C      -0.706297    -3.122462    -1.448666
H       0.021406    -3.919578    -1.269222
H      -1.266839    -3.369790    -2.350880
C       3.533356    -1.761756    -1.678760
H       3.640005    -2.364896    -0.771282
H       3.288634    -2.457807    -2.491033
C       4.847483    -1.040729    -1.983339
H       5.125335    -0.359819    -1.172774
H       5.662673    -1.759487    -2.106891
H       4.782721    -0.452047    -2.903465
O       2.312523     1.429777    -0.431978
C       2.633716     2.243711     0.689398
H       2.306289     3.249794     0.413450
H       2.054730     1.935019     1.568930
C       4.113063     2.236319     1.009002
C       5.048061     2.399521    -0.012648
C       4.561317     2.071069     2.315005
C       6.406598     2.400155     0.269655
H       4.703357     2.520823    -1.035174
C       5.923065     2.076148     2.602162
H       3.841532     1.931622     3.117090
C       6.848134     2.240405     1.580227
H       7.125170     2.527165    -0.534111
H       6.258811     1.948073     3.626401
H       7.910690     2.243285     1.801328
C       1.076497    -1.431411    -0.943725
O       1.366665    -2.036706     0.289210
C       1.105892    -0.625576     0.288962
C       0.022182    -0.137288     1.195288
O      -0.324224    -0.695441     2.201589
O      -0.478260     1.021571     0.752043
C      -1.502002     1.606799     1.577238
H      -2.361680     0.940480     1.648802
H      -1.109630     1.804837     2.577180
H      -1.776339     2.536850     1.081256
72
     -1725.766359     -1725.236631   1.65   2.62
C      -2.703729    -2.332018     2.253989
C      -2.300910    -1.021026     2.587442
C      -3.006366     0.052569     2.044550
C      -4.067868    -0.184643     1.187190
C      -4.443021    -1.503551     0.862922
C      -3.767523    -2.592523     1.393288
C      -0.953824    -2.468072     3.635723
C      -1.171776    -1.133899     3.477174
H      -2.728535     1.073724     2.287132
H      -4.606443     0.657032     0.771420
H      -4.081080    -3.595261     1.126989
H      -0.204895    -2.977168     4.227827
N      -1.871005    -3.206223     2.905451
C      -1.929609    -4.645998     2.816961
H      -1.728205    -4.988435     1.796222
H      -1.176114    -5.073967     3.480293
H      -2.912440    -5.016012     3.126295
O      -5.473885    -1.807182     0.018738
C      -6.224775    -0.741740    -0.530097
H      -6.704785    -0.143634     0.253997
H      -5.600839    -0.089768    -1.153685
H      -6.993526    -1.203281    -1.151079
N       0.466022     0.744985     1.834520
C      -0.106686     1.953877     1.516909
O      -0.482505     2.730274     2.375475
C      -0.207274     2.239068     0.025981
H       0.789231     2.527744    -0.329886
H      -0.858319     3.107135    -0.086067
C      -0.729101     1.043006    -0.783505
H      -1.765538     0.853867    -0.488166
H      -0.730717     1.289992    -1.846685
C       0.078756    -0.243221    -0.536855
C       1.451148    -0.296643    -1.312454
H       1.682644    -1.277063    -1.744521
C      -0.394826     0.003875     4.066459
H      -0.015400    -0.268190     5.057252
H      -1.050814     0.867677     4.201852
C       0.811757     0.427199     3.219738
H       1.275977     1.311767     3.664285
H       1.554174    -0.369889     3.183557
C      -0.822955    -1.471644    -0.687640
H      -1.742531    -1.284259    -0.128943
H      -1.115634    -1.512788    -1.745869
C      -0.258341    -2.826503    -0.260046
H       0.652846    -3.093284    -0.802919
H      -0.024464    -2.840765     0.806190
H      -1.001887    -3.606336    -0.453511
O       1.569147     0.717143    -2.263173
C       2.570622     0.474670    -3.254887
H       3.525211     0.255283    -2.765544
H       2.272463    -0.390882    -3.862730
C       2.692339     1.702703    -4.115572
C       2.167067     1.730191    -5.402713
C       3.326603     2.838495    -3.613914
C       2.271531     2.875764    -6.185060
H       1.670165     0.848216    -5.798066
C       3.429906     3.983599    -4.391004
H       3.737124     2.813753    -2.609191
C       2.902547     4.004527    -5.679054
H       1.857899     2.885823    -7.188704
H       3.924299     4.864314    -3.992736
H       2.984566     4.900705    -6.286196
C       0.891214    -0.045268     0.750971
O       1.805658    -1.080587     0.930153
C       2.185703    -0.032847     0.017935
C       3.421607     0.738046     0.297156
O       4.125786     1.222876    -0.554341
O       3.652234     0.842262     1.610385
C       4.837304     1.565073     1.972523
H       4.869000     1.548637     3.061123
H       5.720352     1.076870     1.554876
H       4.785241     2.591825     1.603867
72
     -1725.761606     -1725.236545   4.63   2.67
C      -5.371055    -1.488436    -1.435958
C      -4.214103    -0.683178    -1.380775
C      -4.333790     0.639556    -0.951690
C      -5.578286     1.128306    -0.589499
C      -6.718200     0.303535    -0.653074
C      -6.631357    -1.013829    -1.076521
C      -3.631274    -2.718864    -2.111438
C      -3.107064    -1.497345    -1.821741
H      -3.460437     1.283241    -0.895953
H      -5.661417     2.154538    -0.256573
H      -7.526717    -1.623631    -1.114620
H      -3.136825    -3.611595    -2.471582
N      -4.998554    -2.731354    -1.884604
C      -5.887080    -3.850408    -2.085756
H      -6.654844    -3.614637    -2.830594
H      -5.309082    -4.704043    -2.443952
H      -6.380100    -4.134223    -1.149728
O      -7.973423     0.727267    -0.309380
C      -8.128539     2.060610     0.132687
H      -7.833343     2.778527    -0.642486
H      -9.190096     2.184730     0.351197
H      -7.547765     2.252758     1.043313
N       0.150068    -0.061132    -0.532782
C       0.080561     1.312308    -0.483109
O      -0.980885     1.904935    -0.523684
C       1.423285     2.016629    -0.353091
H       1.770718     1.894507     0.679433
H       1.238504     3.079431    -0.513882
C       2.483571     1.478158    -1.325345
H       2.180879     1.731337    -2.346167
H       3.438296     1.974545    -1.141842
C       2.646951    -0.043162    -1.217357
C       3.528576    -0.533456    -0.003242
H       4.265876    -1.301120    -0.267597
C      -1.678830    -1.056436    -1.902616
H      -1.616556    -0.105992    -2.444251
H      -1.088546    -1.788050    -2.461638
C      -1.074605    -0.858944    -0.506021
H      -1.786961    -0.334724     0.132304
H      -0.841919    -1.816771    -0.041620
C       2.998255    -0.702004    -2.551774
H       3.850449    -0.160871    -2.981892
H       3.338650    -1.725770    -2.365049
C       1.840421    -0.745441    -3.549325
H       1.414488     0.243691    -3.740909
H       2.176021    -1.152152    -4.507705
H       1.038329    -1.389084    -3.180448
O       4.113737     0.524116     0.691035
C       5.247182     0.151561     1.482212
H       4.975724    -0.681042     2.138876
H       6.060409    -0.166859     0.815491
C       5.670334     1.345348     2.293893
C       4.914327     1.733077     3.399356
C       6.798353     2.082192     1.949876
C       5.283106     2.843594     4.145474
H       4.035380     1.154911     3.667766
C       7.172106     3.194144     2.697561
H       7.390700     1.785219     1.088475
C       6.413540     3.576734     3.796022
H       4.688498     3.139727     5.004222
H       8.054775     3.761803     2.419813
H       6.701397     4.444834     4.380831
C       1.434334    -0.626562    -0.483898
O       1.625354    -1.992266    -0.282550
C       2.253218    -1.093675     0.660682
C       1.902570    -1.224211     2.097172
O       2.677029    -1.033975     3.002003
O       0.621022    -1.566332     2.263240
C       0.197266    -1.730868     3.624086
H      -0.855839    -2.003711     3.571503
H       0.776276    -2.520869     4.106855
H       0.326958    -0.798845     4.178344
72
     -1725.762954     -1725.236509   3.79   2.69
C      -0.974812    -5.630541     1.216014
C      -1.421646    -4.445752     0.607310
C      -2.769045    -4.078352     0.748913
C      -3.609535    -4.886480     1.479250
C      -3.138375    -6.073499     2.082955
C      -1.817699    -6.467720     1.963975
C       0.758001    -4.693800     0.161414
C      -0.292072    -3.858729    -0.068019
H      -3.143434    -3.166904     0.291823
H      -4.655932    -4.635389     1.611797
H      -1.440723    -7.373666     2.420057
H       1.785456    -4.614307    -0.168236
N       0.361144    -5.772359     0.936957
C       1.203546    -6.859384     1.374085
H       1.245333    -6.911498     2.467511
H       0.842549    -7.818989     0.988203
H       2.215315    -6.696725     0.998941
O      -4.086085    -6.773972     2.776079
C      -3.687467    -7.972119     3.408499
H      -2.911689    -7.788594     4.162716
H      -4.577138    -8.369177     3.898784
H      -3.318784    -8.706290     2.680889
N      -0.742507    -0.136499    -0.631131
C      -2.053944     0.134145    -0.958320
O      -2.953072    -0.615538    -0.627115
C      -2.347186     1.393872    -1.762713
H      -3.262938     1.812268    -1.339424
H      -2.607550     1.053199    -2.770913
C      -1.223067     2.429504    -1.799992
H      -1.469851     3.240556    -2.488605
H      -1.115118     2.883911    -0.811458
C       0.089218     1.745119    -2.177260
C       1.359202     2.469417    -1.606409
H       2.228232     2.413889    -2.273753
C      -0.303453    -2.570811    -0.831429
H      -1.148490    -2.566319    -1.528949
H       0.610348    -2.467087    -1.423717
C      -0.441234    -1.366769     0.108817
H      -1.261914    -1.528549     0.806524
H       0.473576    -1.209456     0.677734
C       0.190135     1.288080    -3.629219
H       1.106644     0.697177    -3.733382
H      -0.637467     0.605784    -3.856190
C       0.199415     2.444119    -4.630243
H       0.370764     2.075276    -5.645522
H      -0.750113     2.987109    -4.633712
H       0.991839     3.163889    -4.399820
O       1.109855     3.780580    -1.203886
C       2.276908     4.578914    -1.071105
H       3.080185     3.990699    -0.610044
H       2.621403     4.896992    -2.065675
C       1.987116     5.786528    -0.214421
C       2.715170     6.957494    -0.409044
C       1.041607     5.738966     0.807288
C       2.511214     8.062764     0.408421
H       3.449518     7.007592    -1.209000
C       0.835273     6.843931     1.624018
H       0.466237     4.833486     0.958580
C       1.570538     8.007825     1.429665
H       3.087425     8.968365     0.246019
H       0.094443     6.796062     2.416417
H       1.408363     8.869498     2.069455
C       0.300557     0.661276    -1.124216
O       1.598474     0.144338    -1.219241
C       1.435771     1.385404    -0.498211
C       1.878750     1.408834     0.923704
O       1.966754     0.439872     1.631692
O       2.154720     2.658592     1.315036
C       2.561531     2.812382     2.682453
H       2.693377     3.884680     2.824070
H       1.790262     2.425958     3.351817
H       3.496164     2.276924     2.862491
72
     -1725.765029     -1725.236099   2.49   2.95
C       3.185341    -2.542460    -0.154990
C       2.055764    -3.024268    -0.838613
C       2.211144    -3.462625    -2.160971
C       3.449097    -3.395094    -2.757103
C       4.567589    -2.894474    -2.053168
C       4.457283    -2.463434    -0.742899
C       1.428419    -2.420024     1.223775
C       0.934273    -2.926616     0.060169
H       1.362748    -3.847703    -2.718807
H       3.602961    -3.726305    -3.778336
H       5.303251    -2.080538    -0.187130
H       0.926452    -2.211316     2.157336
N       2.789064    -2.180149     1.105258
C       3.638910    -1.625149     2.132738
H       4.065361    -0.666825     1.817358
H       3.042478    -1.458886     3.030688
H       4.455006    -2.311646     2.381510
O       5.730032    -2.880267    -2.769406
C       6.896481    -2.409597    -2.124709
H       6.788976    -1.361959    -1.816679
H       7.144035    -3.022122    -1.248719
H       7.701446    -2.487491    -2.856300
N      -1.699155    -1.569576     1.049685
C      -1.471114    -1.076663     2.317653
O      -1.067134    -1.772104     3.230626
C      -1.774463     0.405129     2.477580
H      -1.018138     0.980326     1.931825
H      -1.670300     0.634840     3.538569
C      -3.179279     0.757437     1.962471
H      -3.917606     0.233560     2.577488
H      -3.361107     1.826991     2.080018
C      -3.359838     0.344256     0.495607
C      -2.704127     1.336551    -0.535387
H      -3.324234     1.531143    -1.420493
C      -0.469026    -3.318159    -0.295745
H      -0.514185    -4.403155    -0.458969
H      -0.733503    -2.857147    -1.251789
C      -1.546905    -2.993008     0.738603
H      -2.507410    -3.370719     0.373000
H      -1.334427    -3.480175     1.690878
C      -4.787002    -0.078454     0.151762
H      -5.465994     0.717819     0.481672
H      -4.883630    -0.142096    -0.937215
C      -5.208583    -1.416545     0.760625
H      -4.602500    -2.235374     0.361596
H      -5.114219    -1.430226     1.850084
H      -6.252714    -1.634288     0.518375
O      -2.278694     2.519229     0.059282
C      -1.886211     3.532897    -0.865040
H      -1.126633     3.136459    -1.550155
H      -2.758857     3.846797    -1.454345
C      -1.328616     4.696750    -0.090506
C      -1.959701     5.934852    -0.105377
C      -0.161746     4.533089     0.656113
C      -1.434315     7.004783     0.613169
H      -2.871664     6.065962    -0.681760
C       0.361356     5.597289     1.375899
H       0.328557     3.564829     0.664341
C      -0.273404     6.836544     1.355297
H      -1.935038     7.967806     0.593928
H       1.269363     5.462551     1.955618
H       0.138379     7.668333     1.918399
C      -2.250476    -0.650537     0.135081
O      -2.285606    -0.911193    -1.243455
C      -1.602723     0.274707    -0.812204
C      -0.160365     0.485754    -1.120815
O       0.497644     1.318358    -0.543143
O       0.291305    -0.293662    -2.096819
C       1.666514    -0.076902    -2.464846
H       1.868376    -0.778527    -3.270721
H       1.801119     0.954195    -2.799331
H       2.321917    -0.281778    -1.618130
72
     -1725.765006     -1725.236051   2.50   2.98
C      -0.820946    -0.293521    -4.370372
C      -0.076220     0.766572    -3.825386
C       1.179446     1.054550    -4.377896
C       1.654205     0.290771    -5.419097
C       0.891427    -0.777610    -5.942326
C      -0.356736    -1.086663    -5.431018
C      -2.004746     0.607102    -2.699587
C      -0.848841     1.325543    -2.745611
H       1.781117     1.870091    -3.987808
H       2.621191     0.487847    -5.868896
H      -0.956244    -1.898823    -5.821052
H      -2.862790     0.715220    -2.052230
N      -1.998695    -0.378250    -3.675781
C      -3.051810    -1.338502    -3.909257
H      -3.870796    -1.137851    -3.217342
H      -3.435854    -1.260105    -4.931782
H      -2.698360    -2.361572    -3.740934
O       1.487101    -1.451642    -6.969690
C       0.776377    -2.523898    -7.555147
H       1.414543    -2.915672    -8.347942
H       0.578166    -3.319019    -6.825424
H      -0.172431    -2.184990    -7.989616
N      -1.484921     1.768889     0.287202
C      -2.729491     1.234354     0.546588
O      -3.723369     1.545829    -0.082781
C      -2.754464     0.231041     1.689269
H      -2.239641    -0.682037     1.369134
H      -3.801340    -0.018206     1.866032
C      -2.091265     0.797082     2.955363
H      -2.673325     1.658571     3.297580
H      -2.118165     0.053215     3.753433
C      -0.646780     1.238458     2.685091
C       0.391125     0.057617     2.638219
H       1.337214     0.276838     3.145962
C      -0.391907     2.463995    -1.882905
H      -0.300724     3.370605    -2.495774
H       0.613998     2.245415    -1.512808
C      -1.296329     2.829729    -0.705951
H      -0.873777     3.703923    -0.199831
H      -2.297754     3.091415    -1.049509
C      -0.205258     2.432901     3.529096
H      -0.407225     2.197200     4.581541
H       0.879867     2.546705     3.436399
C      -0.871998     3.755144     3.147058
H      -1.963417     3.705075     3.196300
H      -0.549044     4.554394     3.820406
H      -0.595784     4.052054     2.130882
O      -0.151800    -1.151156     3.072697
C       0.806073    -2.183860     3.279011
H       0.213961    -3.091312     3.425017
H       1.413860    -2.328725     2.379529
C       1.688635    -1.930572     4.482299
C       1.134286    -1.474887     5.677850
C       3.058974    -2.160967     4.418804
C       1.936518    -1.258665     6.789547
H       0.066138    -1.288292     5.731595
C       3.865482    -1.949325     5.532803
H       3.503049    -2.505851     3.488861
C       3.305938    -1.498021     6.720596
H       1.492749    -0.904112     7.714774
H       4.933029    -2.135561     5.468889
H       3.933010    -1.331023     7.590613
C      -0.460069     1.368630     1.168470
O       0.891423     1.603415     0.880447
C       0.489936     0.241838     1.099107
C       0.688178    -0.794416     0.047328
O       0.186491    -1.889783     0.131665
O       1.480343    -0.397272    -0.944042
C       1.723534    -1.387703    -1.959869
H       0.788742    -1.662371    -2.449862
H       2.394130    -0.917279    -2.675084
H       2.182054    -2.272514    -1.512842
72
     -1725.765471     -1725.235997   2.21   3.01
C       3.372542     0.186203    -0.766913
C       2.433281    -0.306583     0.155471
C       1.286312    -0.944981    -0.341183
C       1.096758    -1.043713    -1.699504
C       2.045438    -0.519080    -2.604504
C       3.198685     0.098746    -2.156509
C       4.132016     0.610707     1.286088
C       2.937158    -0.012679     1.473243
H       0.541035    -1.359822     0.328390
H       0.212770    -1.521553    -2.105945
H       3.941476     0.499453    -2.833777
H       4.810929     1.029567     2.016307
N       4.411365     0.736211    -0.059422
C       5.566443     1.390836    -0.626278
H       6.135527     0.703873    -1.261434
H       5.272569     2.263136    -1.219642
H       6.214040     1.728301     0.184282
O       1.726954    -0.680499    -3.923695
C       2.639708    -0.193097    -4.885142
H       2.207073    -0.421697    -5.859903
H       2.774909     0.892302    -4.795929
H       3.615337    -0.687849    -4.798232
N       0.579918     1.628772     2.128674
C       1.125515     2.507499     1.200683
O       2.211130     3.017402     1.382380
C       0.328632     2.804823    -0.062937
H       1.055786     2.740453    -0.876273
H       0.032419     3.857040    -0.000454
C      -0.867924     1.890128    -0.326961
H      -1.461227     2.268452    -1.162462
H      -0.510562     0.903995    -0.619751
C      -1.696107     1.774362     0.945676
C      -2.513918     0.437704     1.090197
H      -3.532314     0.573286     1.476894
C       2.196328    -0.178182     2.765357
H       2.885274    -0.431905     3.578317
H       1.503173    -1.017927     2.676632
C       1.433633     1.093796     3.189662
H       0.804951     0.891099     4.058300
H       2.146480     1.879370     3.442489
C      -2.468387     3.040437     1.316567
H      -2.922901     2.887022     2.300160
H      -1.764255     3.872276     1.435280
C      -3.546763     3.416833     0.299315
H      -3.118364     3.702576    -0.665513
H      -4.235956     2.584506     0.122017
H      -4.137090     4.263974     0.660147
O      -2.501781    -0.314484    -0.081501
C      -3.494696    -1.338893    -0.146401
H      -3.441163    -1.966534     0.749764
H      -4.490438    -0.877014    -0.198172
C      -3.234166    -2.164862    -1.377675
C      -4.053729    -2.065341    -2.496054
C      -2.141642    -3.031375    -1.408710
C      -3.790115    -2.818605    -3.635965
H      -4.905646    -1.390943    -2.478553
C      -1.874350    -3.781224    -2.545487
H      -1.505381    -3.108978    -0.532936
C      -2.698479    -3.676195    -3.662673
H      -4.437075    -2.732201    -4.503395
H      -1.020233    -4.451253    -2.562145
H      -2.488765    -4.264070    -4.550826
C      -0.764604     1.251658     2.038615
O      -1.541352     1.023091     3.194226
C      -1.521323    -0.014050     2.195855
C      -1.152219    -1.393305     2.615404
O      -1.243301    -2.356702     1.893312
O      -0.722063    -1.446991     3.878658
C      -0.341313    -2.749196     4.344560
H       0.465999    -3.153543     3.729355
H      -0.006849    -2.605483     5.370871
H      -1.195112    -3.429076     4.309709
72
     -1725.764823     -1725.235899   2.62   3.08
C       1.913136    -2.287542     2.359344
C       0.563646    -2.681147     2.318253
C      -0.288117    -2.251678     3.346872
C       0.210714    -1.459617     4.354098
C       1.570567    -1.076982     4.372144
C       2.444476    -1.485933     3.380583
C       1.607794    -3.534036     0.531553
C       0.389907    -3.489330     1.138395
H      -1.336016    -2.535156     3.351976
H      -0.422589    -1.109118     5.161424
H       3.489278    -1.204392     3.379378
H       1.894082    -4.034347    -0.383825
N       2.541050    -2.811406     1.257579
C       3.937869    -2.654734     0.927767
H       4.193594    -1.598923     0.787068
H       4.577967    -3.071455     1.712533
H       4.143641    -3.185929    -0.002788
O       1.926049    -0.288889     5.428712
C       3.274910     0.123080     5.519807
H       3.950863    -0.736682     5.607943
H       3.568196     0.728460     4.652836
H       3.347622     0.730795     6.422350
N      -1.303292    -2.213683    -0.870069
C      -0.821316    -2.651117    -2.077854
O      -0.829734    -3.826492    -2.393646
C      -0.279434    -1.548373    -2.976560
H      -1.127863    -1.008311    -3.412510
H       0.251097    -2.039681    -3.793314
C       0.636901    -0.575731    -2.219844
H       1.512227    -1.134731    -1.869824
H       0.999423     0.201112    -2.896123
C      -0.044275     0.052036    -0.992495
C      -1.070287     1.198613    -1.333518
H      -1.028348     2.056107    -0.657768
C      -0.869974    -4.137989     0.652410
H      -1.352155    -4.688040     1.469312
H      -0.625240    -4.860975    -0.127313
C      -1.895705    -3.142130     0.091182
H      -2.707150    -3.685238    -0.400047
H      -2.330434    -2.532071     0.882717
C       1.000404     0.362341     0.083686
H       1.520930    -0.573567     0.309118
H       1.743990     1.021521    -0.385101
C       0.525782     0.992181     1.394035
H      -0.159806     0.338213     1.933000
H       1.387671     1.173347     2.043238
H       0.027685     1.953002     1.234929
O      -1.001326     1.610550    -2.671252
C      -1.456235     2.939562    -2.893443
H      -1.491241     3.047810    -3.981309
H      -2.474801     3.062456    -2.510172
C      -0.538001     3.980178    -2.288028
C       0.845313     3.854038    -2.409735
C      -1.058622     5.075826    -1.607425
C       1.690592     4.810772    -1.865518
H       1.257205     2.997098    -2.933564
C      -0.213873     6.038715    -1.063721
H      -2.134818     5.177420    -1.495899
C       1.162385     5.908296    -1.191905
H       2.765896     4.701953    -1.967672
H      -0.634451     6.889576    -0.536988
H       1.823465     6.657308    -0.767814
C      -1.249042    -0.828979    -0.638313
O      -2.032641    -0.228789     0.340003
C      -2.225031     0.226252    -1.014130
C      -3.585410     0.009851    -1.570913
O      -4.281538    -0.928842    -1.284058
O      -3.937488     0.978825    -2.429236
C      -5.235782     0.822505    -3.019663
H      -6.006864     0.826107    -2.246496
H      -5.358603     1.672612    -3.689793
H      -5.288826    -0.116488    -3.574606
72
     -1725.764046     -1725.235571   3.10   3.28
C      -1.738253    -1.865861    -2.867848
C      -0.394067    -2.276862    -2.728539
C       0.565740    -1.696944    -3.557920
C       0.191751    -0.737380    -4.483733
C      -1.156281    -0.345298    -4.598359
C      -2.137576    -0.907514    -3.795939
C      -1.641254    -3.399709    -1.246251
C      -0.359376    -3.270610    -1.683352
H       1.609116    -1.987268    -3.482889
H       0.948443    -0.294048    -5.117842
H      -3.166884    -0.586979    -3.908727
H      -2.031319    -4.040276    -0.466475
N      -2.488215    -2.558250    -1.950443
C      -3.916136    -2.441103    -1.774868
H      -4.195419    -1.418832    -1.497598
H      -4.449254    -2.714752    -2.691430
H      -4.232410    -3.114498    -0.976635
O      -1.593271     0.598080    -5.485511
C      -0.642733     1.201421    -6.341106
H      -0.157435     0.460519    -6.988174
H      -1.198358     1.908220    -6.958709
H       0.122689     1.743345    -5.772153
N       1.069153    -2.351524     0.692010
C       0.455422    -2.971365     1.751099
O       0.439053    -4.182059     1.874569
C      -0.197227    -2.021141     2.745249
H       0.590000    -1.565682     3.357129
H      -0.814247    -2.631471     3.406101
C      -1.028574    -0.931556     2.052569
H      -1.852307    -1.419093     1.518688
H      -1.474247    -0.269274     2.797572
C      -0.215860    -0.122153     1.028450
C       0.753916     0.944942     1.664470
H       0.782554     1.900003     1.134682
C       0.837184    -4.003103    -1.158843
H       1.418406    -4.423058    -1.988477
H       0.505463    -4.837294    -0.538545
C       1.780169    -3.120625    -0.327689
H       2.531766    -3.743764     0.163686
H       2.301121    -2.396601    -0.953837
C      -1.132576     0.366136    -0.097294
H      -1.609722    -0.517433    -0.532481
H      -1.935343     0.942477     0.382868
C      -0.518700     1.201558    -1.221743
H      -0.061292     2.123046    -0.849724
H       0.238752     0.643752    -1.772712
H      -1.300721     1.486020    -1.931949
O       0.527921     1.137808     3.034050
C       0.943237     2.409194     3.517424
H       0.851984     2.341183     4.605289
H       1.998074     2.581398     3.278410
C       0.092221     3.542997     2.985604
C      -1.294741     3.413044     2.924754
C       0.678630     4.728666     2.555423
C      -2.079608     4.453625     2.448076
H      -1.757059     2.487101     3.252292
C      -0.105812     5.775208     2.080306
H       1.759591     4.835889     2.586829
C      -1.486504     5.639931     2.025950
H      -3.158534     4.340755     2.406424
H       0.365516     6.695522     1.749894
H      -2.100502     6.454266     1.654784
C       1.029426    -0.947043     0.679109
O       1.915196    -0.206156    -0.094051
C       1.946333     0.025043     1.328470
C       3.235194    -0.291449     1.996305
O       3.967586    -1.179310     1.645040
O       3.477920     0.524108     3.033369
C       4.700763     0.262061     3.736625
H       4.738472     0.992808     4.543737
H       4.697291    -0.754058     4.136594
H       5.555758     0.381268     3.067939
72
     -1725.764544     -1725.235471   2.79   3.34
C       2.694231    -2.028039    -2.673847
C       3.044629    -0.925233    -1.875916
C       4.015908    -1.103550    -0.880367
C       4.589302    -2.341499    -0.708685
C       4.220280    -3.435246    -1.523583
C       3.268795    -3.299345    -2.518734
C       1.467097    -0.277505    -3.327821
C       2.238963     0.190741    -2.306993
H       4.299414    -0.281501    -0.232170
H       5.336243    -2.513071     0.058163
H       2.971568    -4.124551    -3.152637
H       0.727583     0.234328    -3.926322
N       1.727948    -1.618907    -3.554872
C       1.107101    -2.437809    -4.569279
H       0.605221    -3.302864    -4.122894
H       0.361242    -1.841011    -5.095808
H       1.844256    -2.794075    -5.297077
O       4.870047    -4.602704    -1.239353
C       4.564824    -5.735120    -2.027401
H       3.508881    -6.017813    -1.931342
H       4.798902    -5.561397    -3.085227
H       5.188731    -6.546231    -1.650215
N      -0.164906     1.979426    -1.532051
C      -1.154034     1.522977    -2.375672
O      -1.074882     1.602229    -3.587229
C      -2.347830     0.902373    -1.664845
H      -2.021208    -0.040684    -1.211460
H      -3.086963     0.669957    -2.432285
C      -2.929887     1.827370    -0.585756
H      -3.358150     2.707660    -1.074880
H      -3.745677     1.322574    -0.065068
C      -1.854102     2.278831     0.409596
C      -1.536543     1.257244     1.562627
H      -1.467239     1.710995     2.557478
C       2.309203     1.577532    -1.734268
H       3.199600     2.090763    -2.120819
H       2.450367     1.511661    -0.652152
C       1.113323     2.486564    -2.033205
H       1.294606     3.468278    -1.584765
H       0.979231     2.623107    -3.106799
C      -2.045088     3.719354     0.886065
H      -3.078120     3.825882     1.240424
H      -1.396159     3.896229     1.749546
C      -1.739496     4.770924    -0.181882
H      -1.937040     5.775611     0.202881
H      -0.686349     4.732207    -0.477045
H      -2.343539     4.639121    -1.084302
O      -2.401337     0.158544     1.562634
C      -2.303321    -0.652299     2.727114
H      -2.873345    -1.555615     2.492507
H      -1.262642    -0.953034     2.901284
C      -2.863906     0.020701     3.961797
C      -4.066558     0.722629     3.893301
C      -2.198292    -0.062688     5.180331
C      -4.595225     1.325389     5.026178
H      -4.586420     0.796818     2.943198
C      -2.728019     0.536976     6.318607
H      -1.254245    -0.597346     5.242681
C      -3.927778     1.231739     6.243894
H      -5.532519     1.869203     4.960785
H      -2.199039     0.462069     7.263504
H      -4.342437     1.701374     7.130141
C      -0.466149     1.953800    -0.157801
O       0.497032     2.274566     0.812520
C      -0.150344     0.996396     0.914238
C       0.732894    -0.209486     0.952980
O       1.865486    -0.209876     1.354427
O       0.073998    -1.290110     0.519467
C       0.812997    -2.524223     0.567122
H       1.114755    -2.740584     1.594418
H       0.126844    -3.286266     0.200029
H       1.697282    -2.464464    -0.067114
72
     -1725.762680     -1725.235229   3.96   3.50
C      -0.999217    -1.014934     5.548125
C      -1.023698    -0.675396     4.183881
C      -1.554200     0.569837     3.811572
C      -2.027032     1.417663     4.786412
C      -1.989111     1.055254     6.150570
C      -1.477615    -0.163719     6.556855
C      -0.122321    -2.713576     4.395194
C      -0.455436    -1.784628     3.457605
H      -1.597509     0.859716     2.767679
H      -2.443969     2.385972     4.533432
H      -1.441133    -0.459158     7.597200
H       0.334887    -3.685458     4.264935
N      -0.445953    -2.264157     5.665744
C      -0.241945    -2.983780     6.899390
H       0.217629    -3.947842     6.675184
H       0.423543    -2.432746     7.572980
H      -1.192396    -3.165654     7.413023
O      -2.492739     1.996826     7.005348
C      -2.486062     1.700923     8.385806
H      -2.922021     2.566581     8.886074
H      -3.091317     0.812967     8.608733
H      -1.465303     1.545625     8.757868
N       1.303772    -1.150991     0.136706
C       2.037147    -2.276036    -0.187921
O       2.367338    -3.072260     0.669453
C       2.434151    -2.489537    -1.642402
H       2.330909    -3.561596    -1.823447
H       3.506782    -2.274915    -1.697673
C       1.649215    -1.668791    -2.664794
H       2.073513    -1.792202    -3.664116
H       0.620702    -2.035365    -2.715214
C       1.636489    -0.205497    -2.234058
C       0.382909     0.592653    -2.742818
H       0.605946     1.624666    -3.033991
C      -0.223365    -1.882120     1.979422
H      -1.133469    -1.616654     1.434145
H       0.039351    -2.910452     1.720463
C       0.920515    -0.958781     1.542809
H       0.642817     0.086768     1.665003
H       1.802113    -1.163024     2.153117
C       2.974582     0.518661    -2.366852
H       2.886974     1.486062    -1.861141
H       3.742757    -0.040180    -1.819831
C       3.419384     0.732340    -3.813712
H       4.376870     1.260361    -3.844911
H       3.549601    -0.214694    -4.345821
H       2.693601     1.329539    -4.372605
O      -0.325178    -0.079194    -3.742394
C      -1.093977     0.767914    -4.588968
H      -1.776020     0.096607    -5.118393
H      -1.699456     1.458215    -3.991784
C      -0.235914     1.531571    -5.573093
C       0.693441     0.851132    -6.359644
C      -0.355295     2.910095    -5.710350
C       1.485776     1.537960    -7.267698
H       0.797526    -0.224106    -6.247864
C       0.435489     3.602671    -6.623125
H      -1.071035     3.451161    -5.097076
C       1.357287     2.917965    -7.402800
H       2.206899     0.997505    -7.873008
H       0.330197     4.678567    -6.721147
H       1.975698     3.455398    -8.114640
C       1.020027    -0.178289    -0.835273
O       0.776514     1.151130    -0.469847
C      -0.206918     0.512015    -1.313093
C      -1.598871     0.481810    -0.788738
O      -1.888946     0.555412     0.376916
O      -2.494959     0.362604    -1.777313
C      -3.865754     0.315936    -1.356662
H      -4.133371     1.232624    -0.826814
H      -4.449292     0.215675    -2.270839
H      -4.031552    -0.540646    -0.699769
72
     -1725.762521     -1725.235165   4.06   3.54
C      -4.719324    -2.077462    -2.197987
C      -3.685150    -1.290759    -1.663797
C      -3.608403    -1.127554    -0.271990
C      -4.541041    -1.748055     0.526968
C      -5.569609    -2.538870    -0.031752
C      -5.680192    -2.717345    -1.399101
C      -3.486620    -1.302047    -3.892666
C      -2.902728    -0.800628    -2.770056
H      -2.828005    -0.514895     0.169731
H      -4.515434    -1.645778     1.606148
H      -6.463062    -3.317865    -1.843392
H      -3.206958    -1.172936    -4.929787
N      -4.588636    -2.077476    -3.563600
C      -5.454258    -2.760505    -4.494019
H      -6.483982    -2.394299    -4.418150
H      -5.098193    -2.577326    -5.509191
H      -5.449984    -3.841592    -4.316962
O      -6.421587    -3.093107     0.882908
C      -7.475633    -3.897299     0.396822
H      -7.095287    -4.768879    -0.150980
H      -8.028906    -4.237967     1.272864
H      -8.148588    -3.325619    -0.254885
N       0.656629     0.030495    -1.758865
C       1.442978     0.674828    -2.685829
O       1.241706     0.578425    -3.880076
C       2.576198     1.495953    -2.085813
H       2.149240     2.387929    -1.613537
H       3.201346     1.826806    -2.915887
C       3.389115     0.693486    -1.057503
H       3.885224    -0.131858    -1.580545
H       4.172057     1.322467    -0.630610
C       2.497955     0.105287     0.045095
C       2.101954     1.104348     1.197834
H       2.200784     0.686251     2.203984
C      -1.673314     0.046529    -2.658836
H      -1.845773     0.852663    -1.940983
H      -1.424630     0.502990    -3.619490
C      -0.480101    -0.790606    -2.179905
H      -0.767218    -1.404799    -1.326217
H      -0.141731    -1.451256    -2.981988
C       2.971991    -1.264383     0.524795
H       2.222431    -1.680069     1.206409
H       3.011271    -1.935261    -0.342620
C       4.335626    -1.220860     1.216103
H       5.109644    -0.809531     0.561409
H       4.308459    -0.605696     2.120239
H       4.649943    -2.226561     1.509437
O       2.737025     2.348093     1.089773
C       3.047004     2.962773     2.336775
H       3.327432     3.988832     2.084960
H       2.154889     3.000479     2.972007
C       4.179786     2.256873     3.046930
C       3.997724     1.682017     4.299704
C       5.423286     2.142978     2.425130
C       5.038257     1.000450     4.925494
H       3.031995     1.761772     4.791801
C       6.462238     1.463586     3.043526
H       5.570493     2.586265     1.444540
C       6.270882     0.888756     4.297668
H       4.881830     0.556424     5.903533
H       7.425240     1.380921     2.549376
H       7.083558     0.357400     4.782613
C       1.036079     0.162688    -0.415278
O       0.207843    -0.259629     0.620681
C       0.655547     1.111695     0.666415
C      -0.421427     2.136078     0.713934
O      -1.484237     2.031011     0.158967
O      -0.067853     3.185916     1.467429
C      -1.050077     4.227818     1.558358
H      -0.601377     5.000611     2.181095
H      -1.280310     4.619111     0.565140
H      -1.966030     3.847761     2.015704
72
     -1725.760292     -1725.234974   5.46   3.66
C      -5.313191    -1.623521    -1.166163
C      -4.007537    -2.058219    -0.881003
C      -3.807469    -3.393149    -0.498054
C      -4.891898    -4.235969    -0.412618
C      -6.195652    -3.777472    -0.704851
C      -6.431421    -2.468558    -1.085696
C      -3.925554     0.106204    -1.446024
C      -3.130391    -0.932031    -1.070295
H      -2.809538    -3.756831    -0.270392
H      -4.777613    -5.273814    -0.120045
H      -7.423824    -2.101469    -1.312291
H      -3.654336     1.128676    -1.671357
N      -5.251597    -0.297266    -1.510045
C      -6.373811     0.530899    -1.879452
H      -7.104173     0.592962    -1.065238
H      -6.013994     1.538065    -2.095801
H      -6.874097     0.143534    -2.773848
O      -7.173491    -4.725208    -0.578008
C      -8.503545    -4.338686    -0.852730
H      -8.617083    -4.001773    -1.890999
H      -9.118256    -5.225660    -0.694586
H      -8.837987    -3.542730    -0.175224
N       0.089720    -1.005337     0.945705
C       0.691694    -2.233921     0.770174
O       0.037938    -3.211187     0.457983
C       2.196185    -2.339522     0.979475
H       2.555255    -3.019867     0.204316
H       2.337429    -2.862230     1.931585
C       2.955463    -1.012600     0.957209
H       4.002977    -1.179033     1.222422
H       2.947561    -0.600287    -0.055574
C       2.271084    -0.029448     1.900061
C       2.450923     1.494331     1.505657
H       2.646322     2.163437     2.353875
C      -1.651567    -0.918701    -0.837318
H      -1.204842    -0.042137    -1.308779
H      -1.198845    -1.811783    -1.277586
C      -1.346997    -0.893369     0.663983
H      -1.696764     0.038826     1.103740
H      -1.848082    -1.726479     1.160099
C       2.427994    -0.343399     3.386925
H       1.783874     0.340927     3.948002
H       2.040419    -1.349620     3.584135
C       3.864596    -0.237410     3.900120
H       3.902832    -0.441606     4.973890
H       4.531434    -0.951708     3.407795
H       4.273247     0.766211     3.743901
O       3.321715     1.747850     0.444744
C       4.666884     1.975155     0.830292
H       4.694979     2.741991     1.620733
H       5.115776     1.060353     1.240357
C       5.452266     2.445366    -0.368396
C       4.873967     3.313054    -1.293100
C       6.773934     2.048460    -0.542913
C       5.612775     3.779155    -2.372278
H       3.839227     3.612516    -1.164430
C       7.516129     2.517626    -1.621464
H       7.230206     1.364342     0.167775
C       6.936746     3.385278    -2.538091
H       5.154410     4.453496    -3.089148
H       8.547323     2.201951    -1.745808
H       7.513042     3.751939    -3.381587
C       0.820128     0.092112     1.424628
O       0.199668     1.104238     2.173599
C       0.994249     1.510847     1.033647
C       0.292846     2.383944     0.045236
O      -0.821175     2.184486    -0.365638
O       1.045562     3.433814    -0.296480
C       0.450155     4.332297    -1.243665
H      -0.473208     4.753180    -0.840301
H       1.188279     5.116061    -1.408422
H       0.230719     3.808418    -2.176362
72
     -1725.760780     -1725.234859   5.15   3.73
C      -2.810358    -4.263659    -2.513650
C      -2.538717    -3.519205    -1.353639
C      -2.431758    -4.192743    -0.126581
C      -2.593894    -5.558608    -0.097055
C      -2.866249    -6.287185    -1.276302
C      -2.979586    -5.657255    -2.502637
C      -2.637233    -2.112658    -3.092976
C      -2.432820    -2.136910    -1.747432
H      -2.220384    -3.645223     0.787431
H      -2.517473    -6.113800     0.831108
H      -3.187741    -6.200272    -3.415115
H      -2.639361    -1.272004    -3.774157
N      -2.868144    -3.392452    -3.572440
C      -3.128035    -3.750401    -4.946203
H      -4.112226    -4.219433    -5.052762
H      -3.109782    -2.846698    -5.557611
H      -2.365363    -4.439116    -5.325627
O      -3.002453    -7.635044    -1.093195
C      -3.274489    -8.429548    -2.228733
H      -3.344238    -9.457889    -1.872137
H      -4.224734    -8.145611    -2.698542
H      -2.468377    -8.358834    -2.970013
N      -0.428436    -0.092091     0.738686
C      -0.724119    -0.500959     2.021382
O      -1.125434    -1.627572     2.245432
C      -0.557025     0.503556     3.152325
H      -0.088193    -0.043609     3.973451
H      -1.573286     0.734112     3.489062
C       0.225324     1.773794     2.814481
H       0.137384     2.503975     3.624018
H       1.287777     1.534208     2.725086
C      -0.271286     2.367456     1.493018
C       0.856181     3.159153     0.741522
H       0.482485     4.007396     0.155936
C      -2.125620    -0.990176    -0.835541
H      -2.777525    -1.034641     0.044031
H      -2.320112    -0.038363    -1.339107
C      -0.666944    -1.028671    -0.363223
H      -0.418225    -2.023646     0.003660
H       0.008152    -0.779364    -1.178802
C      -1.631456     3.049329     1.640090
H      -2.282095     2.410230     2.247496
H      -1.468412     3.958731     2.233074
C      -2.367984     3.402641     0.347133
H      -3.301630     3.923159     0.581350
H      -1.777782     4.054329    -0.302071
H      -2.616749     2.506729    -0.227286
O       1.899061     3.542142     1.578599
C       2.723438     4.580334     1.044888
H       3.069391     4.295626     0.045267
H       2.136029     5.505893     0.968394
C       3.897099     4.780232     1.965368
C       4.035158     5.946501     2.709008
C       4.862828     3.780462     2.079549
C       5.123910     6.119558     3.558315
H       3.284147     6.727639     2.626119
C       5.947415     3.949079     2.928098
H       4.753468     2.871688     1.496019
C       6.080896     5.120100     3.669447
H       5.221381     7.034799     4.133979
H       6.694315     3.165631     3.012564
H       6.930693     5.250823     4.332208
C      -0.093832     1.246683     0.472093
O      -0.185157     1.733598    -0.839718
C       1.074503     1.916860    -0.158802
C       2.326520     1.402502    -0.770810
O       3.410140     1.897778    -0.585333
O       2.115365     0.330869    -1.541892
C       3.284453    -0.216925    -2.168611
H       3.746354     0.526570    -2.821279
H       4.007272    -0.532930    -1.413591
H       2.933581    -1.070667    -2.746810
72
     -1725.764003     -1725.234815   3.13   3.76
C       3.034241    -2.763556    -0.598191
C       1.774771    -3.141994    -1.111034
C       1.701631    -3.591128    -2.428479
C       2.846907    -3.644827    -3.206698
C       4.089137    -3.249520    -2.672234
C       4.198201    -2.806032    -1.362517
C       1.505407    -2.480885     1.011700
C       0.806242    -2.940921    -0.061113
H       0.751291    -3.896485    -2.856204
H       2.774979    -3.995953    -4.228065
H       5.168089    -2.511683    -0.978010
H       1.161722    -2.227516     2.004204
N       2.852857    -2.365094     0.700308
C       3.891174    -1.904954     1.592099
H       3.448122    -1.678845     2.562928
H       4.658472    -2.673841     1.730934
H       4.367585    -0.996790     1.207376
O       5.256043    -3.271598    -3.383790
C       5.215331    -3.731699    -4.720162
H       4.570135    -3.100370    -5.343470
H       6.239530    -3.673682    -5.090817
H       4.869451    -4.771101    -4.776716
N      -1.535513    -1.391315     1.329816
C      -1.102906    -0.956008     2.565591
O      -0.616185    -1.703977     3.392513
C      -1.296004     0.533058     2.808262
H      -0.589052     1.088649     2.182029
H      -1.036303     0.717583     3.851248
C      -2.735890     0.976473     2.501932
H      -3.412317     0.466097     3.194602
H      -2.840435     2.048221     2.678564
C      -3.136088     0.633190     1.060503
C      -2.559340     1.627196    -0.015174
H      -3.273672     1.884189    -0.808568
C      -0.663511    -3.195829    -0.211607
H      -0.830244    -4.266918    -0.387302
H      -1.021318    -2.681820    -1.108507
C      -1.544617    -2.813852     0.977516
H      -2.576021    -3.106856     0.755644
H      -1.232590    -3.341000     1.879785
C      -4.620339     0.311000     0.898290
H      -5.196329     1.134684     1.338379
H      -4.862804     0.294340    -0.169571
C      -5.046247    -1.020292     1.518799
H      -4.807163    -1.082604     2.584131
H      -6.125894    -1.161636     1.415472
H      -4.557151    -1.859749     1.015807
O      -2.000308     2.765126     0.554750
C      -1.676668     3.791902    -0.382089
H      -1.027795     3.385551    -1.167406
H      -2.599764     4.164395    -0.847412
C      -0.972400     4.902383     0.350135
C      -1.545100     6.163932     0.459507
C       0.273166     4.664511     0.931275
C      -0.884548     7.183832     1.138146
H      -2.517445     6.352906     0.012384
C       0.931456     5.678691     1.611249
H       0.717269     3.678168     0.842693
C       0.354338     6.941682     1.715485
H      -1.340817     8.165737     1.216863
H       1.900242     5.486156     2.061919
H       0.871768     7.734276     2.247075
C      -2.146827    -0.408583     0.525648
O      -2.366224    -0.608585    -0.844832
C      -1.565407     0.519321    -0.463395
C      -0.157088     0.654424    -0.927473
O       0.592258     1.474337    -0.451328
O       0.163577    -0.185087    -1.905106
C       1.515055    -0.067648    -2.387307
H       1.620872    -0.829502    -3.156031
H       1.676065     0.931837    -2.797470
H       2.220941    -0.254109    -1.577484
72
     -1725.764769     -1725.234547   2.65   3.92
C      -2.244366     2.059909    -2.912029
C      -2.167889     2.601353    -1.610437
C      -3.150923     2.252760    -0.684134
C      -4.173370     1.394752    -1.054778
C      -4.234150     0.881519    -2.363989
C      -3.273675     1.208917    -3.308655
C      -0.430694     3.349745    -2.803946
C      -0.996881     3.442137    -1.569523
H      -3.118843     2.645995     0.327015
H      -4.926814     1.129583    -0.324532
H      -3.344947     0.797068    -4.308899
H       0.463722     3.822870    -3.187089
N      -1.177111     2.531114    -3.629909
C      -0.779429     2.065328    -4.938181
H      -1.605290     2.164709    -5.648829
H       0.052482     2.676117    -5.293079
H      -0.456127     1.020106    -4.896296
O      -5.210632     0.023388    -2.794156
C      -6.235136    -0.327780    -1.885604
H      -5.833993    -0.854898    -1.011054
H      -6.794363     0.554523    -1.551167
H      -6.906290    -0.993796    -2.429708
N       0.181930     2.258510     0.947562
C      -0.793081     2.121678     1.907951
O      -1.465329     3.060538     2.290649
C      -0.914739     0.714083     2.468854
H      -1.258516     0.037078     1.679064
H      -1.676800     0.742778     3.248324
C       0.440089     0.240969     3.026841
H       0.714492     0.897408     3.860426
H       0.345102    -0.769887     3.425564
C       1.546461     0.308464     1.960391
C       1.588818    -0.918880     0.981963
H       2.603517    -1.254717     0.739266
C      -0.522035     4.256736    -0.404206
H      -1.368919     4.505588     0.238042
H      -0.099142     5.204125    -0.756194
C       0.561655     3.582190     0.443819
H       1.465841     3.440306    -0.149757
H       0.800670     4.225435     1.297666
C       2.899048     0.730512     2.524143
H       3.595149     0.885535     1.692559
H       2.780379     1.702869     3.018860
C       3.478309    -0.289735     3.505080
H       2.811534    -0.453898     4.357194
H       3.643381    -1.257113     3.021421
H       4.439667     0.053563     3.897970
O       0.789417    -1.982054     1.408530
C       1.061880    -3.213051     0.750923
H       0.218761    -3.862898     1.001856
H       1.064506    -3.076424    -0.337146
C       2.363667    -3.838104     1.204327
C       3.287908    -4.316555     0.281853
C       2.648235    -3.945843     2.565339
C       4.477248    -4.900472     0.708048
H       3.081149    -4.230483    -0.781499
C       3.834875    -4.523352     2.993632
H       1.933295    -3.567961     3.290056
C       4.753190    -5.004572     2.064455
H       5.188476    -5.271234    -0.023323
H       4.045483    -4.600198     4.055826
H       5.680453    -5.458322     2.399443
C       1.026022     1.142657     0.783255
O       1.925384     1.067558    -0.287613
C       0.999212    -0.014846    -0.137264
C       0.133384    -0.357466    -1.303528
O       0.277987     0.052689    -2.423919
O      -0.809961    -1.231141    -0.924940
C      -1.650667    -1.734808    -1.974321
H      -2.335057    -2.430278    -1.489991
H      -2.200848    -0.920896    -2.444162
H      -1.046767    -2.251502    -2.724319
72
     -1725.759497     -1725.234533   5.96   3.93
C      -2.220378    -4.108805     2.926634
C      -1.443828    -3.153789     2.249052
C      -0.698331    -2.234098     3.003066
C      -0.750022    -2.292145     4.376376
C      -1.538502    -3.261337     5.035758
C      -2.285708    -4.184566     4.326826
C      -2.477027    -4.435658     0.731679
C      -1.621124    -3.382468     0.836925
H      -0.088089    -1.481079     2.513021
H      -0.188246    -1.597769     4.991145
H      -2.894753    -4.933419     4.815742
H      -2.866493    -4.919861    -0.154011
N      -2.848619    -4.887448     1.987283
C      -3.739497    -5.989206     2.263745
H      -3.229683    -6.776588     2.829367
H      -4.614556    -5.655543     2.831813
H      -4.083853    -6.412317     1.318678
O      -1.492239    -3.199101     6.399933
C      -2.257166    -4.136948     7.128716
H      -2.083727    -3.918453     8.183027
H      -3.327956    -4.036433     6.910880
H      -1.938737    -5.165366     6.916343
N      -0.856122    -0.329904    -1.278023
C      -1.216973    -0.145619    -2.593846
O      -2.203538    -0.661633    -3.078359
C      -0.260054     0.748385    -3.370404
H      -0.377157     1.781020    -3.022355
H      -0.569357     0.713832    -4.415490
C       1.200973     0.297050    -3.207841
H       1.301721    -0.698274    -3.653979
H       1.861568     0.968558    -3.758507
C       1.634186     0.213287    -1.731338
C       2.004563     1.610032    -1.095661
H       2.880455     1.592037    -0.438196
C      -0.997328    -2.583506    -0.264033
H      -1.103694    -3.094652    -1.225727
H       0.078854    -2.482752    -0.075395
C      -1.616540    -1.185018    -0.373870
H      -2.631212    -1.248383    -0.767112
H      -1.651680    -0.697927     0.601847
C       2.623951    -0.939406    -1.536482
H       2.138828    -1.848576    -1.913510
H       3.470808    -0.750858    -2.209773
C       3.152983    -1.211424    -0.126942
H       3.882915    -2.026150    -0.160198
H       3.655585    -0.341112     0.303645
H       2.354886    -1.501699     0.558976
O       2.107525     2.618853    -2.050931
C       2.820403     3.776363    -1.604461
H       2.379424     4.139697    -0.670512
H       3.869428     3.504116    -1.423668
C       2.728604     4.830847    -2.673499
C       3.820291     5.128710    -3.481470
C       1.528439     5.512654    -2.870823
C       3.721068     6.096141    -4.476299
H       4.757592     4.599044    -3.333149
C       1.425751     6.476210    -3.864191
H       0.678132     5.279220    -2.237512
C       2.522586     6.770385    -4.669262
H       4.580024     6.320663    -5.101029
H       0.487491     7.002003    -4.012279
H       2.441119     7.524852    -5.445551
C       0.363971     0.236315    -0.878108
O       0.674131     0.376170     0.476728
C       0.669020     1.576516    -0.317827
C      -0.255469     2.674474     0.061008
O      -0.038766     3.843098    -0.145611
O      -1.362456     2.205548     0.643187
C      -2.316907     3.198495     1.044467
H      -1.870639     3.879394     1.772229
H      -2.658375     3.769389     0.178358
H      -3.142478     2.645928     1.490773
72
     -1725.765230     -1725.234428   2.36   4.00
C      -2.533307    -2.949904     1.425309
C      -3.105515    -1.722778     1.046256
C      -3.280754    -0.733872     2.025398
C      -2.900654    -0.993108     3.322323
C      -2.355779    -2.243806     3.684364
C      -2.163970    -3.242274     2.746686
C      -2.943075    -3.026884    -0.762938
C      -3.381274    -1.799821    -0.365518
H      -3.707638     0.229555     1.765323
H      -3.019967    -0.249321     4.102247
H      -1.740754    -4.204622     3.003384
H      -2.962110    -3.480581    -1.744825
N      -2.438013    -3.737591     0.308762
C      -1.722988    -4.990408     0.222938
H      -2.089579    -5.696327     0.974165
H      -1.891402    -5.425474    -0.763558
H      -0.647818    -4.834751     0.359575
O      -2.022638    -2.362457     5.005828
C      -1.527928    -3.609280     5.449487
H      -2.253204    -4.413135     5.271997
H      -0.579090    -3.863625     4.959874
H      -1.360336    -3.506783     6.522322
N      -2.102014     0.831878    -1.152068
C      -2.479279     1.838875    -0.294624
O      -3.646001     2.119394    -0.095306
C      -1.313020     2.584100     0.334608
H      -0.768644     1.907056     1.001862
H      -1.734067     3.389863     0.936819
C      -0.372655     3.132020    -0.754802
H      -0.931799     3.857488    -1.356658
H       0.459638     3.664660    -0.292734
C       0.137990     2.013727    -1.679511
C       1.351099     1.196772    -1.109237
H       2.106968     0.944848    -1.861899
C      -4.049386    -0.752082    -1.205042
H      -4.680707    -0.124946    -0.572632
H      -4.707432    -1.226606    -1.941311
C      -3.089971     0.147151    -1.990571
H      -2.527428    -0.445849    -2.713188
H      -3.669847     0.901889    -2.532598
C       0.282337     2.453177    -3.132329
H       0.517163     1.575543    -3.744581
H      -0.689043     2.826997    -3.480056
C       1.356210     3.524989    -3.324272
H       1.138525     4.423517    -2.738731
H       2.341387     3.159903    -3.018696
H       1.423257     3.822230    -4.374783
O       1.929707     1.792278     0.014355
C       3.199255     1.255923     0.363882
H       3.403884     1.638206     1.367842
H       3.151791     0.161583     0.427502
C       4.291971     1.677138    -0.595034
C       4.417372     3.016598    -0.962483
C       5.184051     0.747403    -1.118235
C       5.418429     3.416917    -1.835779
H       3.719313     3.745782    -0.562336
C       6.192254     1.146237    -1.990893
H       5.090603    -0.300585    -0.846528
C       6.311104     2.481364    -2.351634
H       5.504928     4.462320    -2.115330
H       6.882573     0.409824    -2.390072
H       7.095576     2.794756    -3.033032
C      -0.724756     0.768611    -1.439405
O      -0.175170    -0.333220    -2.111227
C       0.388047     0.006040    -0.840177
C       0.438024    -1.046413     0.216537
O       0.346092    -2.229811     0.028530
O       0.647433    -0.469097     1.408774
C       0.851770    -1.359348     2.516191
H       1.856980    -1.786449     2.462501
H       0.742505    -0.749877     3.412324
H       0.110785    -2.155530     2.506669
72
     -1725.760701     -1725.234329   5.20   4.06
C       4.186576     0.233869     3.372799
C       3.163206     0.113339     2.417449
C       3.136295     1.014726     1.341303
C       4.108665     1.983596     1.253105
C       5.129146     2.083616     2.224425
C       5.187991     1.214931     3.299190
C       2.876710    -1.473870     3.970548
C       2.332217    -0.994084     2.819080
H       2.355495     0.958433     0.589299
H       4.117309     2.698568     0.438172
H       5.961549     1.277937     4.053188
H       2.552134    -2.297148     4.593075
N       4.001238    -0.742520     4.318909
C       4.835183    -0.965947     5.475056
H       4.848275    -0.086624     6.128282
H       4.436951    -1.809233     6.041777
H       5.863479    -1.202694     5.180724
O       6.025403     3.092939     2.006941
C       7.072245     3.255264     2.940710
H       7.665182     4.101189     2.590791
H       6.684536     3.476653     3.943240
H       7.709558     2.363076     2.987905
N      -1.186105    -0.861390     1.391304
C      -2.156528    -1.666714     1.946929
O      -2.074503    -2.042778     3.100278
C      -3.332194    -2.095717     1.079685
H      -4.222178    -1.935412     1.693349
H      -3.233775    -3.179143     0.984844
C      -3.487926    -1.411185    -0.283800
H      -4.169666    -1.987934    -0.917798
H      -3.956245    -0.436009    -0.135091
C      -2.145385    -1.198939    -0.983628
C      -2.087762     0.133423    -1.823635
H      -1.547141     0.023379    -2.768808
C       1.106131    -1.479990     2.110375
H       0.769905    -2.429926     2.536988
H       1.338413    -1.659006     1.054020
C      -0.034325    -0.460402     2.205659
H      -0.377769    -0.380446     3.236376
H       0.288837     0.522790     1.869273
C      -1.569941    -2.396671    -1.739888
H      -2.250670    -2.620913    -2.571461
H      -0.627026    -2.070909    -2.191953
C      -1.308227    -3.665029    -0.926042
H      -2.232736    -4.158010    -0.616003
H      -0.746857    -4.384404    -1.529528
H      -0.715366    -3.455569    -0.029582
O      -3.335779     0.731402    -2.021891
C      -3.458819     1.426842    -3.255336
H      -4.410374     1.961458    -3.185691
H      -2.661089     2.172260    -3.354671
C      -3.460347     0.492776    -4.447017
C      -2.751811     0.808466    -5.601463
C      -4.177961    -0.701989    -4.397948
C      -2.764465    -0.049895    -6.696719
H      -2.179789     1.731440    -5.646137
C      -4.187675    -1.562626    -5.486740
H      -4.729591    -0.954073    -3.497581
C      -3.481888    -1.237272    -6.641491
H      -2.208744     0.210317    -7.592135
H      -4.750614    -2.489629    -5.437497
H      -3.491921    -1.909065    -7.493869
C      -1.220033    -0.525689     0.030411
O      -0.053535    -0.101138    -0.619008
C      -1.213248     0.758441    -0.717498
C      -1.030835     2.161151    -0.252819
O      -0.299266     2.494022     0.643274
O      -1.778441     3.012143    -0.967410
C      -1.673888     4.388623    -0.575332
H      -0.647179     4.740871    -0.695050
H      -2.347446     4.933401    -1.235496
H      -1.975563     4.508651     0.467284
72
     -1725.760268     -1725.234283   5.47   4.09
C      -3.162402     2.062193    -4.215136
C      -3.054721     1.593362    -2.895243
C      -4.065193     0.761583    -2.387478
C      -5.127273     0.429450    -3.196490
C      -5.214809     0.912079    -4.521286
C      -4.238772     1.734509    -5.054723
C      -1.276045     2.879051    -3.339147
C      -1.835010     2.131827    -2.348196
H      -4.009414     0.381885    -1.371303
H      -5.926404    -0.211138    -2.840628
H      -4.290658     2.112744    -6.067178
H      -0.356099     3.448627    -3.336671
N      -2.067958     2.848005    -4.476271
C      -1.793986     3.526196    -5.720431
H      -2.585369     4.244242    -5.961482
H      -0.852561     4.070240    -5.627843
H      -1.700423     2.812827    -6.546453
O      -6.324617     0.499372    -5.204501
C      -6.479670     0.941248    -6.536957
H      -5.653557     0.597222    -7.172167
H      -7.413070     0.506190    -6.896119
H      -6.547335     2.035215    -6.591377
N      -0.526473     0.084586     0.563817
C      -1.579993    -0.324319     1.350930
O      -2.697313    -0.451436     0.885173
C      -1.329201    -0.590039     2.827653
H      -1.804347    -1.551319     3.039274
H      -1.931767     0.155080     3.351870
C       0.126773    -0.592329     3.309098
H       0.163716    -0.484140     4.397655
H       0.569836    -1.564559     3.084135
C       0.973237     0.486682     2.629485
C       2.457597     0.019756     2.376124
H       3.188495     0.827920     2.503566
C      -1.306726     1.870540    -0.972356
H      -2.105078     2.028181    -0.238397
H      -0.497794     2.567515    -0.731915
C      -0.797295     0.430675    -0.834718
H      -1.548317    -0.269276    -1.198984
H       0.116752     0.290121    -1.406737
C       0.876269     1.899662     3.202951
H       1.276472     1.872296     4.224653
H       1.554363     2.533474     2.620840
C      -0.509974     2.546287     3.212704
H      -0.426694     3.598857     3.498921
H      -0.980526     2.511688     2.224959
H      -1.184239     2.070736     3.928913
O       2.816141    -1.108667     3.105740
C       4.227752    -1.290125     3.243465
H       4.697957    -1.263431     2.254703
H       4.638542    -0.475838     3.856439
C       4.475974    -2.619109     3.904149
C       4.962117    -2.694038     5.204383
C       4.209688    -3.797245     3.207006
C       5.183155    -3.928551     5.807227
H       5.169125    -1.779146     5.753189
C       4.426093    -5.029480     3.806881
H       3.831767    -3.735872     2.191180
C       4.914186    -5.097952     5.109003
H       5.563324    -3.974748     6.823038
H       4.215041    -5.942182     3.258081
H       5.083826    -6.062863     5.576612
C       0.734148     0.340789     1.127531
O       1.668732     1.108170     0.418424
C       2.099682    -0.190983     0.886754
C       2.647815    -1.175499    -0.082021
O       3.482802    -1.996511     0.205397
O       2.109757    -1.049446    -1.299134
C       2.600651    -1.966585    -2.287904
H       2.060936    -1.726747    -3.203038
H       3.675050    -1.831424    -2.427647
H       2.403315    -2.996081    -1.981986
72
     -1725.760113     -1725.234119   5.57   4.19
C      -4.258965     0.443704     2.141062
C      -3.167901     1.258705     1.790397
C      -2.034910     1.243147     2.612764
C      -2.003750     0.419788     3.714369
C      -3.104661    -0.405173     4.033955
C      -4.250605    -0.402974     3.259712
C      -4.783905     1.549595     0.277568
C      -3.521133     1.954754     0.582232
H      -1.185628     1.877112     2.385093
H      -1.141095     0.387067     4.371229
H      -5.106214    -1.023744     3.491247
H      -5.403902     1.807324    -0.570459
N      -5.245288     0.640373     1.211275
C      -6.518083    -0.039719     1.172551
H      -6.383736    -1.121068     1.062612
H      -7.096875     0.156443     2.081309
H      -7.086911     0.325214     0.316055
O      -2.933753    -1.175146     5.150070
C      -3.998751    -2.019860     5.535692
H      -3.665939    -2.538581     6.435473
H      -4.903870    -1.443522     5.765014
H      -4.226564    -2.758164     4.756559
N      -1.106920     0.858320    -0.840916
C      -1.662592    -0.395804    -0.659739
O      -2.809603    -0.636639    -0.977142
C      -0.792556    -1.455328    -0.001824
H      -1.157605    -2.416676    -0.367475
H      -1.032767    -1.415948     1.067005
C       0.709755    -1.301099    -0.242416
H       1.255746    -2.070605     0.313376
H       0.926791    -1.459405    -1.302183
C       1.163404     0.101360     0.168538
C       2.376455     0.642081    -0.693694
H       3.119411     1.217402    -0.129268
C      -2.609162     2.778317    -0.277255
H      -1.840512     3.262165     0.334052
H      -3.169065     3.579756    -0.771273
C      -1.937187     1.942926    -1.379132
H      -2.702334     1.470718    -1.996134
H      -1.311459     2.568276    -2.013107
C       1.278080     0.226634     1.689966
H       0.324713    -0.077329     2.131298
H       2.009759    -0.525191     2.015339
C       1.681543     1.584651     2.269104
H       0.978356     2.373351     1.996616
H       1.718986     1.521502     3.361332
H       2.671325     1.901573     1.928575
O       2.996846    -0.293611    -1.525546
C       4.053564    -0.998089    -0.895210
H       4.799423    -0.277704    -0.523216
H       3.681052    -1.563438    -0.029455
C       4.691876    -1.937256    -1.887509
C       5.169476    -3.176271    -1.472458
C       4.845526    -1.560665    -3.220209
C       5.801798    -4.027749    -2.371857
H       5.045710    -3.482566    -0.436975
C       5.473231    -2.411484    -4.120292
H       4.463592    -0.600057    -3.548506
C       5.955757    -3.646091    -3.698364
H       6.171700    -4.991166    -2.035062
H       5.586810    -2.110264    -5.157138
H       6.447489    -4.309110    -4.403091
C       0.264107     1.071631    -0.612135
O       0.761085     2.378576    -0.493217
C       1.391184     1.514660    -1.470295
C       1.457450     2.040204    -2.866334
O       0.508493     2.436441    -3.493197
O       2.714350     2.045403    -3.320230
C       2.876310     2.534072    -4.660163
H       2.525404     3.565523    -4.733022
H       3.944227     2.476396    -4.866407
H       2.313419     1.912336    -5.359535
72
     -1725.761110     -1725.234101   4.95   4.20
C      -2.894845     4.672882    -0.581816
C      -2.549993     3.382879    -1.035948
C      -3.309806     2.801350    -2.052242
C      -4.382679     3.496819    -2.584791
C      -4.708704     4.782672    -2.110771
C      -3.970727     5.388188    -1.105632
C      -1.110196     3.979184     0.571937
C      -1.398193     2.956701    -0.277951
H      -3.064704     1.810944    -2.425377
H      -4.966779     3.038123    -3.371816
H      -4.245782     6.379215    -0.763234
H      -0.319588     4.063110     1.305665
N      -2.005007     5.025142     0.402035
C      -2.007397     6.274519     1.123730
H      -1.875182     7.122254     0.442880
H      -2.944233     6.408700     1.675175
H      -1.183093     6.275026     1.838915
O      -5.755605     5.519530    -2.594704
C      -6.548523     4.956745    -3.620263
H      -7.313798     5.698838    -3.851968
H      -5.956789     4.755194    -4.521754
H      -7.033190     4.029279    -3.291066
N      -1.071255    -0.825434    -0.247800
C      -1.251952    -1.241513    -1.551690
O      -1.901917    -0.574041    -2.334069
C      -0.616280    -2.555477    -1.982188
H      -0.290319    -2.401760    -3.012977
H      -1.425071    -3.293012    -2.024606
C       0.531075    -3.037606    -1.094079
H       0.882930    -4.019411    -1.417696
H       1.380310    -2.355678    -1.190081
C       0.064533    -3.052289     0.358119
C       1.220654    -2.863230     1.405045
H       1.089120    -3.460202     2.316977
C      -0.709828     1.634112    -0.417233
H       0.253729     1.648826     0.098534
H      -0.509937     1.439349    -1.475679
C      -1.580056     0.495698     0.132866
H      -1.627552     0.533445     1.220348
H      -2.592751     0.584481    -0.262011
C      -0.947678    -4.143001     0.700225
H      -1.292705    -3.972638     1.725277
H      -1.832623    -4.035735     0.062308
C      -0.382709    -5.558264     0.570419
H      -1.106960    -6.296929     0.925469
H      -0.140922    -5.807917    -0.466749
H       0.531121    -5.677752     1.161568
O       2.482261    -3.046527     0.851136
C       3.524244    -3.221521     1.811727
H       3.503138    -2.395857     2.532154
H       3.367344    -4.165836     2.351549
C       4.844359    -3.245785     1.088981
C       5.643198    -4.383190     1.092677
C       5.278244    -2.109305     0.406415
C       6.864758    -4.392132     0.425664
H       5.308602    -5.272767     1.619766
C       6.493667    -2.117309    -0.262285
H       4.652991    -1.222173     0.407359
C       7.290789    -3.259059    -0.253528
H       7.480541    -5.286160     0.435838
H       6.824129    -1.229400    -0.792571
H       8.242124    -3.262776    -0.776454
C      -0.379060    -1.625712     0.674058
O      -0.629748    -1.520827     2.052358
C       0.741332    -1.401553     1.619045
C       1.524100    -0.193451     1.991412
O       2.715447    -0.098991     1.829433
O       0.763697     0.765500     2.530974
C       1.463025     1.953716     2.922175
H       1.944255     2.417115     2.057283
H       0.705344     2.613651     3.342923
H       2.223075     1.719028     3.670605
72
     -1725.760577     -1725.233964   5.28   4.29
C      -4.142619    -3.395943    -1.809356
C      -3.101311    -2.460175    -1.927629
C      -2.528896    -2.239414    -3.190125
C      -3.000739    -2.947562    -4.271454
C      -4.047539    -3.885277    -4.128994
C      -4.637342    -4.126839    -2.901087
C      -3.753289    -2.527504     0.212348
C      -2.866016    -1.911678    -0.616046
H      -1.723773    -1.520358    -3.312394
H      -2.583781    -2.805390    -5.262189
H      -5.440499    -4.840972    -2.775158
H      -3.904618    -2.398770     1.275825
N      -4.534253    -3.429490    -0.494947
C      -5.582237    -4.256543     0.052421
H      -6.548535    -4.028586    -0.410688
H      -5.362902    -5.319934    -0.093129
H      -5.661012    -4.065585     1.123962
O      -4.410993    -4.512440    -5.288399
C      -5.451422    -5.465032    -5.222971
H      -5.190381    -6.299095    -4.559203
H      -6.390315    -5.010776    -4.881622
H      -5.584107    -5.842498    -6.237609
N       0.639316    -0.499757    -0.312652
C       0.968346     0.187100    -1.456639
O       0.392899     0.004720    -2.511969
C       2.116256     1.172607    -1.285608
H       1.759842     2.020595    -0.689942
H       2.366493     1.546164    -2.279070
C       3.333280     0.522858    -0.605737
H       3.727014    -0.250668    -1.272039
H       4.125868     1.261026    -0.470835
C       2.963883    -0.118068     0.740110
C       2.862234     0.893215     1.942938
H       3.326942     0.529877     2.867145
C      -1.822772    -0.894936    -0.270836
H      -1.988820    -0.475931     0.723146
H      -1.870779    -0.065969    -0.984521
C      -0.419958    -1.509361    -0.337331
H      -0.260105    -2.185162     0.504471
H      -0.303794    -2.078299    -1.261979
C       3.756407    -1.389716     1.042257
H       4.823854    -1.167527     0.919041
H       3.609597    -1.655778     2.094331
C       3.361899    -2.586156     0.174101
H       3.470430    -2.381287    -0.894760
H       3.989325    -3.450795     0.408716
H       2.322039    -2.875000     0.354121
O       3.313559     2.172892     1.612491
C       3.620719     3.005105     2.722079
H       3.035973     2.700534     3.596692
H       4.685785     2.887445     2.971753
C       3.318551     4.451886     2.410400
C       3.304476     5.377519     3.452575
C       3.051337     4.887141     1.117447
C       3.024782     6.715425     3.208387
H       3.509055     5.047509     4.468326
C       2.770041     6.227150     0.870692
H       3.056450     4.173606     0.302219
C       2.754784     7.144741     1.913098
H       3.016507     7.424482     4.030408
H       2.561848     6.553915    -0.143637
H       2.535817     8.189846     1.718768
C       1.439652    -0.255497     0.813426
O       1.062305    -0.689229     2.081218
C       1.323863     0.720219     1.926938
C       0.196835     1.646470     2.223018
O      -0.966417     1.359897     2.114697
O       0.651251     2.842835     2.609638
C      -0.343454     3.848814     2.846980
H      -0.965808     3.978658     1.959239
H      -0.975325     3.565298     3.691579
H       0.214291     4.759457     3.063552
72
     -1725.762468     -1725.233839   4.09   4.37
C      -1.146915    -3.762676    -2.705968
C       0.044810    -3.938708    -1.981257
C       0.968088    -4.891269    -2.438619
C       0.685815    -5.621549    -3.568747
C      -0.520793    -5.427027    -4.277589
C      -1.455855    -4.497017    -3.861175
C      -1.166360    -2.346746    -0.979811
C       0.012748    -3.022099    -0.871298
H       1.902957    -5.055297    -1.911258
H       1.378955    -6.364540    -3.947273
H      -2.384449    -4.332345    -4.391948
H      -1.572808    -1.550181    -0.371674
N      -1.878921    -2.786517    -2.081782
C      -3.153431    -2.273148    -2.525430
H      -3.487054    -1.504484    -1.826859
H      -3.071295    -1.824564    -3.521092
H      -3.908308    -3.065871    -2.554798
O      -0.667683    -6.221560    -5.379732
C      -1.850405    -6.079871    -6.138997
H      -1.945184    -5.065654    -6.547175
H      -1.772406    -6.791816    -6.961523
H      -2.740472    -6.314594    -5.541582
N       1.503210    -0.407711    -0.437422
C       1.098022     0.084091    -1.664217
O       1.291800    -0.507589    -2.704006
C       0.411874     1.440207    -1.584234
H      -0.560925     1.314873    -1.094754
H       0.234339     1.767692    -2.609218
C       1.262050     2.460809    -0.811560
H       2.189751     2.628587    -1.370357
H       0.736635     3.415479    -0.758249
C       1.621823     1.954686     0.593284
C       0.503316     2.145655     1.681168
H       0.872664     2.511675     2.645969
C       1.109271    -2.806878     0.128774
H       1.664225    -3.741226     0.269232
H       0.696635    -2.536631     1.102746
C       2.113637    -1.729594    -0.304799
H       2.925759    -1.657158     0.423927
H       2.534558    -1.972102    -1.281853
C       3.020277     2.374582     1.036108
H       3.254681     1.880462     1.984948
H       3.742288     1.998536     0.300249
C       3.165821     3.889517     1.187746
H       4.181189     4.151080     1.499362
H       2.963031     4.411354     0.247514
H       2.475765     4.282342     1.940695
O      -0.567258     2.911079     1.216701
C      -1.446512     3.369677     2.238123
H      -2.317616     3.760777     1.705892
H      -1.786515     2.532325     2.857078
C      -0.822507     4.448529     3.096425
C      -0.910733     4.397673     4.483468
C      -0.150865     5.515704     2.500504
C      -0.344812     5.399101     5.267045
H      -1.422904     3.565260     4.958452
C       0.418765     6.513376     3.278728
H      -0.073039     5.556991     1.418185
C       0.321341     6.458635     4.666426
H      -0.423559     5.346983     6.348451
H       0.939587     7.338457     2.802619
H       0.764678     7.240223     5.275191
C       1.336687     0.450531     0.661467
O       1.531648    -0.000778     1.972793
C       0.267188     0.612365     1.677409
C      -0.994002    -0.135543     1.920379
O      -2.074775     0.263221     1.557819
O      -0.798182    -1.279111     2.581568
C      -1.973790    -2.067880     2.821485
H      -1.636296    -2.920162     3.409746
H      -2.716143    -1.487612     3.373129
H      -2.403114    -2.405026     1.875454
72
     -1725.760995     -1725.233834   5.02   4.37
C       3.719048     3.943913    -0.165348
C       2.806385     2.867229    -0.155448
C       3.266694     1.604788     0.222416
C       4.596391     1.435979     0.573223
C       5.486379     2.527211     0.551342
C       5.060156     3.793952     0.183262
C       1.721863     4.716369    -0.804294
C       1.526447     3.390373    -0.573309
H       2.592285     0.754429     0.247517
H       4.941730     0.452958     0.866263
H       5.767598     4.615260     0.176729
H       1.013583     5.465525    -1.132940
N       3.040348     5.068657    -0.562888
C       3.612601     6.385139    -0.709291
H       2.833829     7.077240    -1.034099
H       4.020828     6.744499     0.241492
H       4.411887     6.386345    -1.458353
O       6.809484     2.426539     0.884550
C       7.307006     1.159165     1.263950
H       6.803742     0.781771     2.162706
H       7.200225     0.426299     0.454642
H       8.366487     1.303154     1.480032
N      -1.309482     1.132745     0.550960
C      -2.559945     1.417209     0.047745
O      -2.874159     2.542167    -0.286319
C      -3.490260     0.216667    -0.045710
H      -3.144693    -0.428837    -0.861556
H      -4.474833     0.598333    -0.318368
C      -3.540890    -0.582966     1.266110
H      -3.999362     0.043168     2.037640
H      -4.179055    -1.459506     1.141976
C      -2.140750    -1.005307     1.731218
C      -1.563600    -2.285829     1.014896
H      -1.099320    -3.007785     1.698301
C       0.255818     2.610494    -0.707921
H       0.440755     1.713285    -1.304535
H      -0.506201     3.195384    -1.227387
C      -0.292342     2.179099     0.659232
H       0.509860     1.785246     1.283404
H      -0.735675     3.038287     1.168934
C      -1.987152    -1.004724     3.252695
H      -2.819020    -1.577528     3.681129
H      -1.068418    -1.538051     3.517588
C      -1.937154     0.395436     3.867310
H      -1.875418     0.331968     4.957448
H      -1.057247     0.944878     3.518551
H      -2.820820     0.991175     3.621193
O      -2.499703    -2.895117     0.184067
C      -2.191106    -4.248600    -0.158391
H      -1.185695    -4.297020    -0.589961
H      -2.220138    -4.865965     0.750059
C      -3.212287    -4.731320    -1.152431
C      -3.224974    -4.201027    -2.442283
C      -4.152333    -5.694341    -0.804064
C      -4.167214    -4.630093    -3.365838
H      -2.488588    -3.450347    -2.711585
C      -5.096257    -6.128958    -1.729555
H      -4.148921    -6.108946     0.200518
C      -5.105142    -5.596163    -3.011503
H      -4.171374    -4.211748    -4.367692
H      -5.825250    -6.881949    -1.446545
H      -5.841106    -5.931603    -3.735611
C      -1.091357    -0.188678     0.971996
O       0.180201    -0.654675     1.306187
C      -0.534228    -1.386467     0.288865
C       0.092686    -1.542957    -1.048703
O      -0.249742    -2.367688    -1.859581
O       1.076045    -0.661785    -1.246299
C       1.730029    -0.720763    -2.522296
H       1.010735    -0.547999    -3.326037
H       2.480282     0.069124    -2.498535
H       2.199807    -1.696719    -2.661470
72
     -1725.762572     -1725.233821   4.03   4.38
C      -0.254536     1.034139    -4.169485
C       0.202346     2.055725    -3.319257
C       1.399350     2.709622    -3.643222
C       2.097504     2.330274    -4.766682
C       1.621171     1.295140    -5.602307
C       0.439665     0.631869    -5.320703
C      -1.715046     1.251097    -2.488367
C      -0.744618     2.173008    -2.239811
H       1.782168     3.507024    -3.013399
H       3.027339     2.814746    -5.043417
H       0.058231    -0.161007    -5.950808
H      -2.612156     1.023439    -1.930634
N      -1.427426     0.550597    -3.651236
C      -2.250604    -0.480794    -4.237993
H      -3.111804    -0.654292    -3.591536
H      -2.613961    -0.181959    -5.227237
H      -1.696365    -1.420511    -4.334816
O       2.414612     1.023443    -6.679881
C       1.995861     0.006764    -7.568013
H       1.026615     0.246953    -8.022698
H       2.755034    -0.047193    -8.349031
H       1.929041    -0.964586    -7.062042
N      -1.571088     1.700301     0.742338
C      -2.650253     0.841357     0.770459
O      -3.654269     1.021552     0.107751
C      -2.483534    -0.329599     1.726061
H      -1.727096    -1.016348     1.331156
H      -3.437146    -0.858116     1.746932
C      -2.086179     0.157543     3.129352
H      -2.896428     0.784932     3.516708
H      -1.980764    -0.693337     3.803865
C      -0.789703     0.989548     3.111035
C       0.509131     0.105770     3.010284
H       1.357316     0.481537     3.594713
C      -0.609529     3.135249    -1.097487
H      -0.710096     4.162947    -1.471076
H       0.401855     3.056584    -0.688455
C      -1.624351     2.983365     0.035212
H      -1.459873     3.782519     0.766371
H      -2.645037     3.075028    -0.338254
C      -0.831035     2.072336     4.191224
H      -1.754128     2.646306     4.042181
H      -0.947823     1.559935     5.155428
C       0.345512     3.046333     4.271678
H       0.442658     3.638598     3.359127
H       0.196081     3.735941     5.108040
H       1.298112     2.535418     4.435621
O       0.264520    -1.235447     3.283991
C       1.444048    -2.024176     3.438872
H       2.081251    -1.914110     2.553385
H       2.001405    -1.675806     4.319478
C       1.037346    -3.462972     3.610941
C       0.428675    -4.139323     2.553769
C       1.254799    -4.130089     4.810641
C       0.044993    -5.464316     2.700786
H       0.261258    -3.614740     1.618480
C       0.873741    -5.460365     4.959181
H       1.724840    -3.606213     5.638697
C       0.267575    -6.128569     3.904184
H      -0.429015    -5.984164     1.873858
H       1.049022    -5.971886     5.900537
H      -0.032470    -7.165774     4.016898
C      -0.541228     1.400221     1.656010
O       0.744997     1.933863     1.496523
C       0.629590     0.507312     1.513708
C       1.052932    -0.305949     0.342322
O       0.888302    -1.502654     0.300592
O       1.615201     0.413624    -0.621590
C       2.009445    -0.330630    -1.788971
H       2.469290     0.392275    -2.458608
H       2.713988    -1.116857    -1.509567
H       1.130735    -0.772451    -2.261803
72
     -1725.763782     -1725.233718   3.27   4.44
C       3.005413    -2.610974    -0.705193
C       1.741380    -3.106126    -0.339010
C       1.487662    -3.359553     1.017022
C       2.478531    -3.129163     1.943750
C       3.749894    -2.660810     1.548064
C       4.036636    -2.395572     0.221279
C       1.771590    -2.784777    -2.551829
C       0.966869    -3.230551    -1.547196
H       0.518804    -3.730097     1.336558
H       2.313941    -3.312189     2.999771
H       5.002685    -2.029069    -0.100539
H       1.572537    -2.710348    -3.612578
N       3.009581    -2.416721    -2.061203
C       4.037165    -1.728570    -2.808666
H       3.811038    -1.807242    -3.873335
H       4.074618    -0.669041    -2.534791
H       5.014747    -2.187294    -2.632919
O       4.636941    -2.476822     2.573060
C       5.947920    -2.067035     2.242107
H       6.436958    -2.790140     1.577514
H       5.952901    -1.077817     1.766567
H       6.497673    -2.014260     3.182612
N      -1.529589    -1.815589    -0.556968
C      -1.884921    -2.267145     0.692843
O      -2.091597    -3.443515     0.923393
C      -2.030382    -1.166741     1.731957
H      -1.049772    -0.714782     1.917038
H      -2.366867    -1.639237     2.655396
C      -3.028865    -0.097033     1.252120
H      -4.015514    -0.562008     1.160984
H      -3.114971     0.694223     1.998660
C      -2.619097     0.491330    -0.107678
C      -1.524185     1.613813    -0.022865
H      -1.701528     2.453933    -0.703496
C      -0.423784    -3.778786    -1.666350
H      -0.621182    -4.459336    -0.835926
H      -0.516049    -4.365224    -2.587203
C      -1.529337    -2.719835    -1.710128
H      -1.412330    -2.094339    -2.596616
H      -2.502137    -3.221251    -1.760853
C      -3.806967     0.830424    -1.006784
H      -4.500708     1.458025    -0.433158
H      -3.451993     1.440448    -1.844001
C      -4.537588    -0.392240    -1.565008
H      -5.407790    -0.082917    -2.151206
H      -3.883944    -0.968953    -2.226311
H      -4.893288    -1.063046    -0.777429
O      -1.298355     2.059275     1.281788
C      -0.559603     3.270441     1.358867
H      -0.281745     3.368613     2.412290
H       0.367749     3.194704     0.777189
C      -1.358347     4.476842     0.910967
C      -2.705024     4.593835     1.251608
C      -0.757513     5.491550     0.172722
C      -3.435274     5.708734     0.863369
H      -3.180350     3.802580     1.822664
C      -1.485922     6.611871    -0.213954
H       0.289156     5.407695    -0.107401
C      -2.826445     6.723087     0.130824
H      -4.483350     5.788640     1.134889
H      -1.003562     7.396845    -0.787917
H      -3.396985     7.595691    -0.170778
C      -1.542412    -0.415680    -0.718813
O      -1.007248     0.189936    -1.864940
C      -0.487201     0.608008    -0.597290
C       0.985460     0.516620    -0.371649
O       1.819586     0.418820    -1.231073
O       1.238747     0.607968     0.942123
C       2.622812     0.673909     1.316937
H       2.649808     0.487279     2.389745
H       3.197699    -0.081608     0.786293
H       3.017223     1.668297     1.090085
72
     -1725.760519     -1725.233562   5.32   4.54
C       0.476512    -5.372487    -0.097358
C       0.308751    -3.981978     0.034506
C       1.178184    -3.287084     0.891506
C       2.150929    -3.977906     1.576333
C       2.292997    -5.375189     1.430766
C       1.462130    -6.095568     0.592727
C      -1.220123    -4.753920    -1.408060
C      -0.795450    -3.603807    -0.816932
H       1.090765    -2.213267     1.017832
H       2.836071    -3.468472     2.244926
H       1.556116    -7.165979     0.465231
H      -2.022747    -4.900650    -2.118529
N      -0.463747    -5.832862    -0.983268
C      -0.634349    -7.205262    -1.396164
H      -1.458225    -7.260530    -2.109511
H       0.269944    -7.586201    -1.883021
H      -0.873478    -7.848033    -0.541967
O       3.299243    -5.926376     2.172817
C       3.498637    -7.321726     2.077552
H       3.753584    -7.621083     1.053086
H       4.334198    -7.556252     2.738025
H       2.611275    -7.876667     2.407354
N      -0.839890     0.088638    -1.789499
C      -1.679697     0.335958    -2.856828
O      -1.997735    -0.558417    -3.616921
C      -2.174204     1.757681    -3.076662
H      -3.222721     1.668467    -3.369585
H      -1.644767     2.117920    -3.965027
C      -2.005255     2.712902    -1.895408
H      -2.229710     3.739804    -2.198553
H      -2.722693     2.454113    -1.112771
C      -0.585629     2.611197    -1.333117
C      -0.526911     2.957833     0.193494
H       0.402613     3.445628     0.500750
C      -1.366203    -2.232919    -1.025249
H      -1.726427    -1.825371    -0.077314
H      -2.219843    -2.289416    -1.704803
C      -0.328204    -1.276672    -1.619973
H       0.553365    -1.213313    -0.986060
H      -0.022724    -1.639648    -2.603260
C       0.442077     3.289547    -2.240004
H       0.262702     2.974552    -3.274137
H       0.223975     4.365156    -2.210468
C       1.918331     3.062760    -1.910201
H       2.170064     3.390831    -0.898363
H       2.191975     2.008166    -1.993310
H       2.543699     3.630114    -2.606448
O      -1.641986     3.674566     0.630526
C      -1.428101     4.412378     1.829485
H      -2.416189     4.789746     2.107036
H      -1.086286     3.747599     2.629063
C      -0.462655     5.562228     1.633948
C      -0.550537     6.366832     0.498317
C       0.520808     5.834919     2.578982
C       0.326564     7.426685     0.315227
H      -1.313208     6.153834    -0.244526
C       1.398776     6.899831     2.400874
H       0.605991     5.206155     3.461170
C       1.303713     7.697890     1.268709
H       0.247404     8.046001    -0.573024
H       2.159922     7.101773     3.148111
H       1.988336     8.528075     1.126871
C      -0.411147     1.139346    -0.955543
O       0.714485     0.971389    -0.137266
C      -0.491377     1.443611     0.501954
C      -1.016159     0.736068     1.698802
O      -1.657287     1.285162     2.559413
O      -0.695661    -0.560739     1.714502
C      -1.202152    -1.308922     2.832303
H      -2.290386    -1.229118     2.878097
H      -0.896372    -2.339356     2.656202
H      -0.773895    -0.930170     3.762626
72
     -1725.758146     -1725.233332   6.81   4.69
C      -4.289239     2.941822     2.333144
C      -3.452515     1.813898     2.298464
C      -4.009091     0.549820     2.549582
C      -5.354712     0.453351     2.819462
C      -6.177618     1.601245     2.848635
C      -5.663800     2.862742     2.607380
C      -2.216842     3.628177     1.856719
C      -2.122644     2.277054     1.992188
H      -3.388132    -0.341157     2.528374
H      -5.821228    -0.505174     3.017450
H      -6.280125     3.751907     2.625968
H      -1.446815     4.352470     1.626104
N      -3.522264     4.046876     2.060969
C      -3.996180     5.408801     2.001602
H      -4.418625     5.722236     2.962473
H      -3.157973     6.065827     1.763771
H      -4.759036     5.527678     1.224504
O      -7.491909     1.351510     3.129797
C      -8.376254     2.451814     3.174542
H      -8.421995     2.969031     2.207742
H      -9.359908     2.043424     3.409383
H      -8.087185     3.167187     3.954917
N       0.052411    -0.446101     0.497162
C      -0.188335    -1.634740     1.146848
O      -1.255869    -1.846800     1.692030
C       0.918482    -2.677819     1.202207
H       0.443773    -3.625928     0.937223
H       1.167392    -2.762283     2.262636
C       2.166358    -2.441174     0.341696
H       2.987864    -3.065542     0.710062
H       1.959334    -2.769914    -0.679345
C       2.577869    -0.969187     0.293037
C       3.138349    -0.526180    -1.127351
H       4.008676     0.140068    -1.072291
C      -0.913055     1.410342     1.830737
H      -0.843881     0.718127     2.677462
H      -0.002320     2.017348     1.827889
C      -0.983135     0.590403     0.536942
H      -1.946024     0.086345     0.463181
H      -0.859660     1.231593    -0.332547
C       3.418455    -0.452864     1.459890
H       4.371024    -0.999076     1.457563
H       3.660405     0.594755     1.251026
C       2.782463    -0.540984     2.848350
H       1.789751    -0.080260     2.867714
H       2.686888    -1.572435     3.195935
H       3.404145    -0.011701     3.576387
O       3.330854    -1.539271    -2.062993
C       4.641374    -2.081986    -2.079193
H       5.373305    -1.261213    -2.130790
H       4.839250    -2.648298    -1.157876
C       4.786903    -2.976502    -3.284087
C       4.242477    -2.594146    -4.509613
C       5.494588    -4.170181    -3.194518
C       4.413326    -3.398602    -5.628175
H       3.678319    -1.669518    -4.577975
C       5.669105    -4.974164    -4.316314
H       5.912897    -4.478666    -2.239872
C       5.129069    -4.588578    -5.536010
H       3.985126    -3.096171    -6.578924
H       6.225116    -5.902996    -4.234695
H       5.261735    -5.214012    -6.413212
C       1.318897    -0.163299    -0.038797
O       1.681219     1.167641    -0.306367
C       1.822819     0.204614    -1.380429
C       1.209933     0.524993    -2.701768
O       1.826549     0.532584    -3.734025
O      -0.093081     0.813887    -2.594406
C      -0.742800     1.183095    -3.819643
H      -1.777524     1.393614    -3.552087
H      -0.266942     2.067851    -4.247408
H      -0.689774     0.362790    -4.538433
72
     -1725.761608     -1725.233326   4.63   4.69
C       2.850990    -2.990938    -1.220765
C       1.529801    -3.138566    -1.695336
C       1.328667    -3.286206    -3.066680
C       2.411841    -3.271338    -3.931093
C       3.718988    -3.111898    -3.430625
C       3.954400    -2.971409    -2.070772
C       1.462089    -2.925291     0.533443
C       0.654552    -3.081648    -0.550159
H       0.327199    -3.407109    -3.468627
H       2.240367    -3.385110    -4.993672
H       4.971701    -2.853240    -1.715379
H       1.205227    -2.850863     1.580645
N       2.792802    -2.863489     0.142751
C       3.928674    -2.734729     1.024835
H       3.570430    -2.640603     2.050846
H       4.578703    -3.614179     0.962195
H       4.517851    -1.844454     0.780194
O       4.831165    -3.083791    -4.224968
C       4.659736    -3.236584    -5.620140
H       4.204416    -4.203924    -5.865372
H       4.046468    -2.430090    -6.040651
H       5.659392    -3.190231    -6.054053
N      -1.406945    -1.545969     1.227015
C      -0.860566    -1.345013     2.477841
O      -0.370577    -2.243392     3.135496
C      -0.955844     0.090287     2.970812
H      -0.277296     0.721443     2.386917
H      -0.608342     0.092486     4.004440
C      -2.398352     0.613009     2.867296
H      -3.032918    -0.001064     3.515709
H      -2.450936     1.638680     3.235139
C      -2.945360     0.531834     1.429275
C      -2.417008     1.689576     0.502865
H      -3.156051     2.066852    -0.213831
C      -0.840606    -3.163630    -0.625136
H      -1.137365    -4.168307    -0.954427
H      -1.191942    -2.472682    -1.396913
C      -1.595152    -2.891271     0.675698
H      -2.666266    -3.041859     0.501186
H      -1.283170    -3.580591     1.461306
C      -4.451096     0.261142     1.441161
H      -4.616626    -0.634084     2.053488
H      -4.922473     1.089743     1.986221
C      -5.152809     0.072469     0.095281
H      -6.224738    -0.077039     0.256507
H      -5.038777     0.941191    -0.558689
H      -4.767898    -0.796860    -0.442424
O      -1.839592     2.728850     1.223963
C      -1.567596     3.896344     0.449212
H      -0.950823     3.629598    -0.417207
H      -2.514302     4.322967     0.089741
C      -0.841929     4.888008     1.318231
C       0.440950     4.592716     1.779307
C      -1.431808     6.095248     1.673480
C       1.119073     5.496352     2.584288
H       0.898090     3.649110     1.498961
C      -0.751931     7.004739     2.478171
H      -2.432857     6.328119     1.320304
C       0.524264     6.705542     2.935043
H       2.117043     5.259389     2.940155
H      -1.222037     7.945061     2.748952
H       1.057014     7.411822     3.564226
C      -2.025273    -0.416790     0.654168
O      -2.278481    -0.351447    -0.722980
C      -1.449309     0.672624    -0.164370
C      -0.048213     0.858953    -0.628161
O       0.693685     1.663314    -0.114665
O       0.282302     0.064297    -1.639155
C       1.641549     0.191439    -2.095889
H       2.330044    -0.082266    -1.294833
H       1.740449    -0.503754    -2.926222
H       1.833337     1.218499    -2.413569
72
     -1725.759953     -1725.233175   5.67   4.79
C      -5.272398    -2.144386    -0.666779
C      -4.010643    -1.787529    -1.170459
C      -3.476457    -2.521148    -2.241544
C      -4.202499    -3.566809    -2.763366
C      -5.469709    -3.908445    -2.240863
C      -6.027768    -3.207258    -1.187037
C      -4.520616    -0.401489     0.512227
C      -3.544147    -0.662665    -0.399617
H      -2.502117    -2.270665    -2.651618
H      -3.822840    -4.157306    -3.589621
H      -6.996980    -3.455863    -0.775166
H      -4.562139     0.361694     1.278065
N      -5.574474    -1.289379     0.363372
C      -6.783871    -1.310966     1.150589
H      -6.896657    -2.266352     1.674461
H      -6.736679    -0.514352     1.894921
H      -7.666558    -1.145487     0.523321
O      -6.072867    -4.968077    -2.859222
C      -7.342936    -5.368770    -2.389190
H      -8.082349    -4.565017    -2.496823
H      -7.643099    -6.216718    -3.005970
H      -7.300690    -5.683944    -1.338848
N       0.232487    -0.389430    -0.583479
C       0.709860    -0.758643    -1.817818
O       0.053507    -1.420738    -2.598494
C       2.131811    -0.290271    -2.093229
H       2.120723     0.787924    -2.288390
H       2.459506    -0.787351    -3.006947
C       3.070940    -0.610626    -0.917170
H       3.123482    -1.699829    -0.811772
H       4.079326    -0.258153    -1.139883
C       2.579864    -0.018283     0.418878
C       2.882586     1.518606     0.582507
H       3.188935     1.815655     1.588219
C      -2.229027     0.028926    -0.578375
H      -2.204323     0.973147    -0.030788
H      -2.076967     0.266416    -1.636908
C      -1.068949    -0.859805    -0.114393
H      -1.039804    -0.911047     0.976275
H      -1.199809    -1.872227    -0.499619
C       2.959359    -0.943185     1.578374
H       2.517020    -1.925328     1.368521
H       4.047265    -1.085263     1.531728
C       2.570829    -0.516015     2.994851
H       1.489797    -0.410286     3.105702
H       2.912347    -1.269025     3.711803
H       3.030983     0.434368     3.279636
O       3.772051     2.001235    -0.383166
C       4.478291     3.176460     0.007115
H       5.024689     3.484431    -0.888610
H       3.773102     3.972901     0.263563
C       5.440760     2.920368     1.147310
C       6.234513     1.773774     1.155080
C       5.550130     3.822868     2.200253
C       7.123564     1.538331     2.194458
H       6.149744     1.062883     0.338892
C       6.444170     3.592296     3.241391
H       4.927126     4.713118     2.210261
C       7.232779     2.449544     3.240920
H       7.736250     0.642024     2.188156
H       6.520134     4.307022     4.054945
H       7.929848     2.266840     4.052560
C       1.107372     0.357397     0.221055
O       0.623500     1.114595     1.290159
C       1.398431     1.811051     0.292005
C       0.803142     2.998250    -0.373929
O       1.410256     4.017580    -0.587859
O      -0.475049     2.798937    -0.705764
C      -1.131444     3.909122    -1.334276
H      -2.146379     3.570611    -1.539530
H      -1.140384     4.771409    -0.664243
H      -0.619856     4.178354    -2.260806
72
     -1725.758213     -1725.233102   6.76   4.83
C       0.775745     1.192946    -5.459746
C       0.656161     0.614056    -4.184892
C      -0.345859    -0.345742    -3.972169
C      -1.178063    -0.689585    -5.011909
C      -1.038581    -0.094043    -6.285392
C      -0.063290     0.854871    -6.533249
C       2.346433     2.081562    -4.143294
C       1.677926     1.197971    -3.352534
H      -0.469788    -0.811171    -2.998810
H      -1.963605    -1.426091    -4.884576
H       0.057435     1.321179    -7.502165
H       3.181989     2.725450    -3.902520
N       1.813183     2.090134    -5.422193
C       2.269659     2.898665    -6.527203
H       2.610335     2.273474    -7.359664
H       1.474911     3.561980    -6.885343
H       3.107000     3.514067    -6.194076
O      -1.934264    -0.533203    -7.219573
C      -1.856565     0.019471    -8.517167
H      -2.646252    -0.456776    -9.099454
H      -2.023875     1.103911    -8.501577
H      -0.886502    -0.190949    -8.985084
N       0.948688     1.114821     0.381320
C       1.204535     2.067724     1.346167
O       1.507369     3.210259     1.070634
C       1.042303     1.577110     2.779503
H      -0.032022     1.494697     2.981315
H       1.438941     2.361152     3.425668
C       1.727587     0.230395     3.051230
H       2.810195     0.376572     3.001221
H       1.505771    -0.089112     4.072207
C       1.319727    -0.844420     2.035450
C      -0.068800    -1.555367     2.327642
H      -0.046588    -2.649736     2.250561
C       1.913182     0.894713    -1.905074
H       2.874568     1.303358    -1.577321
H       1.956963    -0.191372    -1.765950
C       0.797875     1.472774    -1.029207
H       0.810483     2.561166    -1.074258
H      -0.180135     1.126032    -1.366413
C       2.450147    -1.815685     1.694611
H       2.808996    -2.260468     2.632323
H       2.039490    -2.635267     1.095703
C       3.620431    -1.189331     0.935162
H       3.295093    -0.789120    -0.027457
H       4.092853    -0.374877     1.490992
H       4.389931    -1.941583     0.738801
O      -0.709403    -1.139331     3.498197
C      -0.512542    -2.011923     4.600388
H      -0.888559    -3.013402     4.338863
H       0.557836    -2.111527     4.831158
C      -1.253467    -1.478397     5.800166
C      -0.717906    -1.623352     7.075954
C      -2.498967    -0.871887     5.649558
C      -1.418826    -1.177865     8.191318
H       0.257145    -2.086766     7.202130
C      -3.198129    -0.423261     6.762105
H      -2.913708    -0.748456     4.654894
C      -2.661542    -0.577418     8.036277
H      -0.991098    -1.298409     9.181710
H      -4.167163     0.049455     6.634915
H      -3.210237    -0.227491     8.904911
C       0.629924    -0.171169     0.840187
O       0.168835    -1.160458    -0.029668
C      -0.662229    -0.843189     1.111475
C      -2.046584    -0.400338     0.782527
O      -2.300537     0.418823    -0.062801
O      -2.960398    -1.040157     1.518233
C      -4.321744    -0.667404     1.255811
H      -4.576009    -0.870671     0.213491
H      -4.927418    -1.277091     1.924924
H      -4.468988     0.395067     1.461035
72
     -1725.758525     -1725.233045   6.57   4.87
C      -5.154990    -0.488103     1.282049
C      -3.884195     0.002535     0.937261
C      -3.550104     0.110754    -0.421396
C      -4.466279    -0.276640    -1.372030
C      -5.735601    -0.773937    -1.001425
C      -6.104021    -0.886100     0.326956
C      -4.051417    -0.028335     3.169417
C      -3.188709     0.291694     2.167040
H      -2.579388     0.490570    -0.723673
H      -4.243720    -0.205184    -2.431181
H      -7.072076    -1.263618     0.628807
H      -3.913510     0.033827     4.240747
N      -5.247994    -0.498171     2.650826
C      -6.391403    -0.934095     3.416010
H      -7.275909    -0.332343     3.180835
H      -6.618893    -1.987966     3.221702
H      -6.170914    -0.820146     4.478644
O      -6.538701    -1.121631    -2.051187
C      -7.823334    -1.630487    -1.756916
H      -8.430786    -0.895627    -1.213701
H      -8.293805    -1.844907    -2.717193
H      -7.762916    -2.555780    -1.170127
N       0.578872     0.137805     1.748498
C       1.389562     0.071744     2.862192
O       0.964725    -0.352084     3.919272
C       2.828313     0.554995     2.749449
H       3.434042    -0.217159     3.230275
H       2.888393     1.424876     3.407091
C       3.361417     0.861995     1.344837
H       4.271032     1.467656     1.421694
H       3.649248    -0.074713     0.861648
C       2.317461     1.550592     0.467865
C       2.391128     1.119136    -1.059056
H       2.275290     1.954239    -1.762085
C      -1.774656     0.772198     2.281766
H      -1.548315     1.069277     3.310013
H      -1.627852     1.651440     1.643999
C      -0.804596    -0.332963     1.848763
H      -0.818813    -1.145042     2.575117
H      -1.093835    -0.730550     0.879794
C       2.156218     3.059987     0.653793
H       3.115703     3.534329     0.409140
H       1.438143     3.406954    -0.096470
C       1.685499     3.533985     2.030456
H       1.443226     4.600026     1.992541
H       0.783616     3.004095     2.353569
H       2.450412     3.405887     2.799660
O       3.456847     0.298600    -1.414752
C       4.590767     0.988250    -1.912990
H       4.271927     1.696142    -2.693780
H       5.076237     1.568775    -1.115217
C       5.557508    -0.013308    -2.492848
C       5.083623    -1.120328    -3.195862
C       6.929059     0.178845    -2.364950
C       5.978496    -2.016250    -3.766145
H       4.013787    -1.278954    -3.284367
C       7.824610    -0.716876    -2.939585
H       7.304291     1.034693    -1.809601
C       7.349920    -1.816361    -3.642787
H       5.603078    -2.877364    -4.310434
H       8.893073    -0.555651    -2.834737
H       8.045671    -2.518487    -4.091407
C       1.029996     0.728811     0.559518
O       0.112113     1.234101    -0.376576
C       1.111419     0.305046    -0.863192
C       0.646973    -0.859596    -1.675585
O       1.246216    -1.292712    -2.623945
O      -0.526419    -1.333815    -1.243244
C      -1.101082    -2.395179    -2.018716
H      -1.176676    -2.097656    -3.066473
H      -0.486175    -3.294977    -1.943230
H      -2.090825    -2.560757    -1.594378
72
     -1725.757286     -1725.232952   7.35   4.93
C      -4.723226    -0.178159     3.205215
C      -3.431507    -0.005260     2.663230
C      -3.065607     1.257422     2.194848
C      -3.968908     2.304840     2.271145
C      -5.251540     2.104836     2.817497
C      -5.645869     0.863066     3.290948
C      -3.656501    -2.139440     3.302452
C      -2.763003    -1.282149     2.739420
H      -2.081927     1.425353     1.766379
H      -3.675626     3.279757     1.904166
H      -6.639925     0.739595     3.705301
H      -3.546501    -3.191623     3.530127
N      -4.846447    -1.489233     3.591207
C      -6.016483    -2.078501     4.195718
H      -6.257660    -1.589611     5.145867
H      -6.883629    -2.002383     3.530751
H      -5.822567    -3.134705     4.390370
O      -6.188434     3.097021     2.921032
C      -5.848569     4.386018     2.451751
H      -6.725029     5.011696     2.626059
H      -4.993918     4.801505     2.999873
H      -5.619778     4.376224     1.378867
N       0.084993    -1.763193     0.267994
C       0.589324    -3.036679     0.130948
O      -0.099167    -4.013063     0.357873
C       2.043447    -3.205990    -0.287921
H       2.036066    -3.965631    -1.073566
H       2.528720    -3.677688     0.569491
C       2.801432    -1.956859    -0.755144
H       3.879140    -2.150816    -0.720210
H       2.552531    -1.763706    -1.801320
C       2.440503    -0.714500     0.060178
C       2.393011     0.616966    -0.808700
H       2.831756     1.489282    -0.306590
C      -1.376955    -1.583990     2.261135
H      -1.049786    -2.559206     2.634421
H      -0.680950    -0.833005     2.653520
C      -1.296156    -1.589059     0.730274
H      -1.879998    -2.416854     0.329333
H      -1.676872    -0.661098     0.308698
C       3.166851    -0.536530     1.393309
H       4.239568    -0.429993     1.184026
H       2.837483     0.416321     1.820973
C       2.956629    -1.637429     2.434829
H       3.442811    -2.574176     2.152488
H       3.384260    -1.328517     3.393125
H       1.893661    -1.840389     2.599461
O       2.841007     0.514175    -2.125610
C       4.236037     0.732091    -2.268181
H       4.491441     1.721963    -1.858062
H       4.804842    -0.017979    -1.701238
C       4.605677     0.665096    -3.728371
C       3.761791     1.206606    -4.696128
C       5.812251     0.095060    -4.121222
C       4.125826     1.181333    -6.035698
H       2.815031     1.640927    -4.393207
C       6.180103     0.072677    -5.462230
H       6.472247    -0.338285    -3.374287
C       5.337257     0.617038    -6.422395
H       3.461279     1.603991    -6.782945
H       7.125252    -0.373318    -5.755802
H       5.620811     0.599687    -7.469932
C       0.912452    -0.641101     0.113924
O       0.538400     0.590501     0.677081
C       0.867197     0.570169    -0.733692
C      -0.181465     1.095421    -1.657547
O      -1.326144     0.722473    -1.662519
O       0.307001     2.049141    -2.455357
C      -0.633742     2.605781    -3.385887
H      -1.009256     1.827629    -4.053736
H      -1.472669     3.058024    -2.852888
H      -0.082276     3.360438    -3.944919
72
     -1725.763076     -1725.232883   3.71   4.97
C       2.035939     0.886986     3.718711
C       2.431901    -0.328059     3.132323
C       3.723983    -0.422078     2.593006
C       4.563613     0.665242     2.660048
C       4.147573     1.871053     3.267795
C       2.881041     2.003392     3.808564
C       0.317483    -0.535173     3.832162
C       1.315314    -1.232846     3.222867
H       4.055238    -1.337242     2.111998
H       5.567053     0.627743     2.250773
H       2.543964     2.919675     4.275256
H      -0.694034    -0.837898     4.065317
N       0.736887     0.749145     4.135735
C      -0.055359     1.767717     4.782516
H       0.377904     2.056267     5.746350
H      -0.139001     2.658550     4.151096
H      -1.058475     1.376315     4.958170
O       5.087005     2.863255     3.266159
C       4.748807     4.090929     3.877957
H       5.625044     4.732702     3.779236
H       3.895521     4.566561     3.377918
H       4.517007     3.957482     4.942158
N       0.669816    -1.767061     0.421578
C       1.838281    -1.855142    -0.298195
O       2.643199    -2.741012    -0.074452
C       2.118681    -0.797981    -1.354437
H       2.624850    -1.320655    -2.169191
H       2.866685    -0.138633    -0.907795
C       0.909727    -0.013945    -1.878897
H       1.242682     0.833161    -2.486696
H       0.334601    -0.661503    -2.544764
C      -0.001714     0.455253    -0.743545
C      -1.526496     0.444740    -1.129946
H      -2.083191     1.278683    -0.684550
C       1.270702    -2.634382     2.688021
H       0.883393    -3.325697     3.444553
H       2.284110    -2.960831     2.447996
C       0.388144    -2.785197     1.441487
H       0.546496    -3.769553     0.995062
H      -0.664149    -2.692550     1.701672
C       0.398331     1.758451    -0.045163
H       0.057478     2.578217    -0.692238
H      -0.187831     1.828877     0.878390
C       1.875318     1.967269     0.276014
H       2.003856     2.900026     0.832084
H       2.277425     1.165588     0.896687
H       2.482252     2.044024    -0.630851
O      -1.754758     0.365004    -2.503492
C      -3.063107     0.753829    -2.894845
H      -3.799021     0.353687    -2.185794
H      -3.142304     1.850416    -2.878132
C      -3.368097     0.234057    -4.278004
C      -4.259441     0.928322    -5.091858
C      -2.817240    -0.958865    -4.740191
C      -4.604670     0.436821    -6.345153
H      -4.688499     1.864453    -4.743668
C      -3.159773    -1.450249    -5.993845
H      -2.117392    -1.499864    -4.114620
C      -4.056043    -0.756378    -6.799029
H      -5.302292     0.987980    -6.968067
H      -2.722916    -2.380383    -6.344531
H      -4.323015    -1.142604    -7.777633
C      -0.280569    -0.774191     0.130686
O      -1.306376    -0.488231     1.034960
C      -1.702055    -0.851418    -0.304013
C      -2.581487    -2.043507    -0.450458
O      -2.716304    -2.906769     0.377752
O      -3.200095    -2.034155    -1.637534
C      -4.068323    -3.145543    -1.900909
H      -3.508278    -4.081827    -1.855554
H      -4.879156    -3.174887    -1.169939
H      -4.455843    -2.975564    -2.905064
72
     -1725.760056     -1725.232849   5.61   4.99
C      -4.906489     1.402234    -1.635434
C      -3.551136     1.131714    -1.350299
C      -2.904372     0.125300    -2.068302
C      -3.601913    -0.589356    -3.028549
C      -4.955879    -0.302163    -3.290154
C      -5.624496     0.696872    -2.599806
C      -4.243505     2.787926    -0.011784
C      -3.147313     2.036918    -0.300147
H      -1.860788    -0.105338    -1.879148
H      -3.090147    -1.367994    -3.579678
H      -6.666405     0.895535    -2.823179
H      -4.361589     3.574919     0.721466
N      -5.314922     2.421199    -0.812116
C      -6.637401     2.997610    -0.783888
H      -7.389692     2.245899    -0.521156
H      -6.664112     3.789640    -0.033568
H      -6.897942     3.431843    -1.755101
O      -5.700269    -0.970010    -4.223860
C      -5.072673    -1.993074    -4.969852
H      -4.231945    -1.604682    -5.557789
H      -4.717167    -2.803673    -4.321495
H      -5.833604    -2.383610    -5.646786
N      -0.244152     0.641601     1.700350
C       0.077397     1.173900     2.931006
O      -0.749578     1.781174     3.583543
C       1.495175     0.997961     3.454211
H       1.384332     0.681196     4.494395
H       1.908939     2.007673     3.499855
C       2.414980     0.036697     2.691602
H       3.457329     0.221783     2.967432
H       2.189118    -0.987975     2.995690
C       2.234477     0.140075     1.178980
C       2.397074    -1.242731     0.423635
H       2.945108    -1.160809    -0.519596
C      -1.806609     2.059837     0.366587
H      -1.710418     2.935233     1.015567
H      -1.016087     2.121319    -0.390015
C      -1.611779     0.786950     1.198404
H      -2.274667     0.804017     2.063013
H      -1.843925    -0.091826     0.603053
C       2.979647     1.281195     0.484663
H       4.053096     1.125272     0.652090
H       2.814326     1.171664    -0.592355
C       2.588517     2.703060     0.892295
H       3.051769     3.425052     0.213196
H       1.505080     2.854610     0.842542
H       2.921744     2.953876     1.901974
O       2.868311    -2.304273     1.201109
C       4.102030    -2.854040     0.750966
H       4.281616    -3.715639     1.398398
H       3.990882    -3.218892    -0.278412
C       5.242130    -1.864760     0.844577
C       5.657636    -1.399594     2.092105
C       5.865886    -1.373465    -0.297439
C       6.667182    -0.453789     2.194140
H       5.178575    -1.782974     2.988507
C       6.880692    -0.425683    -0.201000
H       5.553954    -1.731148    -1.275135
C       7.280060     0.038523     1.044693
H       6.980750    -0.099214     3.171070
H       7.356975    -0.050720    -1.101398
H       8.070393     0.778206     1.123497
C       0.733173     0.038299     0.894995
O       0.545105    -0.059013    -0.494503
C       0.880956    -1.277711     0.220850
C       0.043628    -2.481936    -0.051142
O       0.506390    -3.569393    -0.274509
O      -1.264279    -2.197194    -0.062274
C      -2.136638    -3.269017    -0.445984
H      -1.811887    -3.696143    -1.396979
H      -2.136724    -4.049972     0.317902
H      -3.123933    -2.818975    -0.545522
72
     -1725.762708     -1725.232641   3.94   5.12
C      -2.003069     0.836290     3.100260
C      -0.818578     0.101823     3.297362
C       0.270415     0.758921     3.894151
C       0.154507     2.081609     4.249239
C      -1.044751     2.795350     4.035672
C      -2.143979     2.185492     3.459906
C      -2.335997    -1.226262     2.322828
C      -1.053734    -1.227683     2.782325
H       1.208945     0.246834     4.068309
H       0.982687     2.611376     4.706417
H      -3.073798     2.711530     3.287990
H      -2.896405    -2.026977     1.859576
N      -2.924459     0.010213     2.507894
C      -4.264852     0.379613     2.120962
H      -4.839912     0.728972     2.984603
H      -4.254876     1.168103     1.360309
H      -4.767007    -0.495180     1.704790
O      -1.014362     4.099037     4.439349
C      -2.183552     4.871855     4.257804
H      -1.953535     5.866986     4.639959
H      -2.453508     4.946066     3.196846
H      -3.029246     4.455971     4.819769
N       1.553866    -1.117493     1.412142
C       2.516630    -0.146201     1.588414
O       3.185128    -0.059111     2.600249
C       2.667993     0.807391     0.412899
H       3.268689     0.313501    -0.359332
H       3.241405     1.660859     0.777243
C       1.315496     1.248669    -0.162430
H       0.772840     1.788471     0.622872
H       1.468655     1.942599    -0.991654
C       0.441759     0.064855    -0.608382
C       0.906342    -0.628591    -1.944373
H       0.093587    -0.911588    -2.616864
C      -0.142215    -2.422732     2.746394
H      -0.547835    -3.134734     2.022301
H      -0.150635    -2.932583     3.717824
C       1.334869    -2.149461     2.421380
H       1.877344    -1.807529     3.301834
H       1.802319    -3.081697     2.089337
C      -1.037080     0.451366    -0.507699
H      -1.243485     0.679885     0.542110
H      -1.148548     1.398749    -1.051844
C      -2.075962    -0.541358    -1.032065
H      -1.996595    -0.681515    -2.114263
H      -1.979876    -1.518978    -0.558495
H      -3.083258    -0.162446    -0.832146
O       1.887583     0.108028    -2.618415
C       1.985669    -0.183966    -4.009745
H       2.867865     0.366167    -4.348894
H       2.175277    -1.251073    -4.159540
C       0.762371     0.259580    -4.783804
C       0.166345     1.491560    -4.516128
C       0.219677    -0.550309    -5.776130
C      -0.946826     1.907217    -5.233437
H       0.580955     2.124240    -3.737415
C      -0.894140    -0.135066    -6.499480
H       0.668612    -1.517904    -5.983384
C      -1.479577     1.094818    -6.230184
H      -1.400406     2.869506    -5.016583
H      -1.304915    -0.777037    -7.272519
H      -2.348828     1.420661    -6.792553
C       0.962953    -1.170933     0.138015
O       0.361006    -2.339204    -0.330429
C       1.451292    -1.805163    -1.113075
C       2.615197    -2.685721    -1.382745
O       3.202893    -2.720633    -2.435248
O       2.932329    -3.433393    -0.319249
C       4.032698    -4.334460    -0.510880
H       4.939768    -3.779721    -0.760100
H       4.151045    -4.859925     0.435951
H       3.808794    -5.037529    -1.315805
72
     -1725.761438     -1725.232377   4.74   5.29
C       3.714725     1.636453    -0.317927
C       2.653011     2.550857    -0.201916
C       2.144210     3.139221    -1.369008
C       2.705523     2.822245    -2.584825
C       3.789269     1.921669    -2.673115
C       4.308368     1.310187    -1.546170
C       3.178144     1.799974     1.837713
C       2.332739     2.655864     1.198375
H       1.312575     3.835033    -1.317759
H       2.336551     3.259988    -3.505755
H       5.130280     0.608012    -1.594476
H       3.265476     1.576145     2.892489
N       4.026689     1.185994     0.937021
C       4.923966     0.094388     1.237868
H       4.531960    -0.849116     0.844568
H       5.916732     0.283014     0.818047
H       5.023072     0.008136     2.321178
O       4.248713     1.701134    -3.942736
C       5.356934     0.839266    -4.099377
H       5.578933     0.818510    -5.167017
H       6.233626     1.211694    -3.554901
H       5.126037    -0.178648    -3.759752
N      -0.644711     2.160332     1.044867
C      -1.191796     2.860290    -0.005057
O      -1.067940     4.064846    -0.118923
C      -1.997159     1.998706    -0.964279
H      -1.325637     1.310753    -1.488231
H      -2.440258     2.667944    -1.702586
C      -3.081858     1.218217    -0.199257
H      -3.774927     1.943197     0.241378
H      -3.656262     0.600275    -0.891084
C      -2.495006     0.351832     0.934582
C      -1.911086    -1.018322     0.440140
H      -2.067446    -1.847867     1.135231
C       1.299148     3.551952     1.813212
H       1.085305     4.380427     1.135613
H       1.684832     3.990127     2.740460
C      -0.017521     2.855824     2.171941
H       0.155814     2.103503     2.943121
H      -0.721577     3.599383     2.560926
C      -3.451160     0.322523     2.129567
H      -3.623959     1.362609     2.433923
H      -4.416515    -0.047266     1.758762
C      -3.038833    -0.491522     3.357210
H      -2.105547    -0.126876     3.791313
H      -3.817947    -0.422400     4.122653
H      -2.906599    -1.551826     3.124137
O      -2.330101    -1.360394    -0.848240
C      -2.080123    -2.716746    -1.192022
H      -2.293931    -2.782461    -2.262625
H      -1.020201    -2.961753    -1.048969
C      -2.948786    -3.686975    -0.419118
C      -2.417248    -4.866442     0.091792
C      -4.300086    -3.409514    -0.216708
C      -3.222528    -5.762514     0.787908
H      -1.362848    -5.087937    -0.050000
C      -5.104680    -4.299279     0.481211
H      -4.718092    -2.486769    -0.606943
C      -4.567850    -5.480860     0.983998
H      -2.794714    -6.680089     1.179409
H      -6.155450    -4.072282     0.632667
H      -5.197644    -6.177590     1.527906
C      -1.047262     0.814323     1.148175
O      -0.343394    -0.083924     1.964218
C      -0.479610    -0.428417     0.584327
C       0.758930    -0.694003    -0.202706
O       1.847840    -0.908602     0.257785
O       0.467139    -0.698276    -1.511230
C       1.558771    -1.003835    -2.392115
H       1.976428    -1.983773    -2.149705
H       1.132964    -1.005338    -3.394722
H       2.333593    -0.243226    -2.306434
72
     -1725.763224     -1725.232196   3.62   5.40
C       1.781785    -2.865777     1.368197
C       1.017271    -1.732176     1.719211
C      -0.092207    -1.417251     0.935367
C      -0.406193    -2.186273    -0.172024
C       0.391656    -3.295562    -0.512439
C       1.489894    -3.651365     0.254935
C       2.685986    -1.951377     3.190995
C       1.627420    -1.152768     2.891126
H      -0.720316    -0.566734     1.172697
H      -1.268905    -1.914521    -0.767549
H       2.080266    -4.515761    -0.027097
H       3.426283    -1.843207     3.972108
N       2.792121    -2.991127     2.287280
C       3.828713    -3.995032     2.264008
H       4.428091    -3.920304     1.350403
H       4.486035    -3.844973     3.121870
H       3.400938    -5.001138     2.325663
O       0.148655    -4.094465    -1.597061
C      -0.928913    -3.749483    -2.443325
H      -1.888388    -3.790438    -1.913736
H      -0.796187    -2.746995    -2.868242
H      -0.928756    -4.486243    -3.247989
N       2.078996     1.370198     1.457831
C       3.032750     0.630665     0.771107
O       3.981600     0.139003     1.345430
C       2.851109     0.434679    -0.729169
H       3.011702    -0.633645    -0.896053
H       3.690437     0.948179    -1.209023
C       1.506203     0.879604    -1.304527
H       1.532162     0.861478    -2.396690
H       0.733669     0.174974    -0.998012
C       1.170271     2.265974    -0.770634
C      -0.365181     2.590275    -0.693893
H      -0.621383     3.613242    -0.997466
C       1.280440     0.165505     3.513997
H       1.485671     0.145230     4.589633
H       0.210388     0.356227     3.410985
C       2.079836     1.345567     2.922907
H       1.668762     2.292654     3.274937
H       3.123428     1.271948     3.230959
C       2.036454     3.391545    -1.334570
H       1.797587     4.310440    -0.789892
H       3.090186     3.178201    -1.120482
C       1.847907     3.612866    -2.836166
H       0.795065     3.782482    -3.085864
H       2.411881     4.488556    -3.169907
H       2.193233     2.756930    -3.422976
O      -1.145489     1.644959    -1.361122
C      -2.474888     2.067181    -1.637127
H      -2.885787     2.626177    -0.790218
H      -2.465953     2.734051    -2.513338
C      -3.329563     0.855294    -1.908830
C      -4.606047     0.757540    -1.366343
C      -2.860263    -0.172736    -2.725347
C      -5.409050    -0.346639    -1.634939
H      -4.979061     1.553270    -0.727114
C      -3.660234    -1.274268    -2.997354
H      -1.862552    -0.102291    -3.147051
C      -4.937533    -1.365381    -2.451665
H      -6.404791    -0.408422    -1.207064
H      -3.290726    -2.064233    -3.644463
H      -5.562736    -2.226046    -2.666789
C       1.163887     2.162402     0.754459
O       0.708805     3.388859     1.274843
C      -0.289871     2.443544     0.850762
C      -1.306971     2.068668     1.875942
O      -1.251033     2.365412     3.039508
O      -2.296471     1.345744     1.329686
C      -3.317863     0.907147     2.237564
H      -3.817075     1.765507     2.692115
H      -4.013956     0.327629     1.632378
H      -2.883201     0.286836     3.024637
72
     -1725.759812     -1725.232129   5.76   5.44
C      -0.468505    -2.079503     4.388939
C      -1.075317    -1.346637     3.354752
C      -1.721132    -0.143152     3.675970
C      -1.744716     0.284069     4.982918
C      -1.130132    -0.472518     6.006471
C      -0.483623    -1.663600     5.729887
C      -0.140088    -3.175482     2.468559
C      -0.851970    -2.066321     2.126036
H      -2.200895     0.450698     2.903664
H      -2.235287     1.208815     5.265466
H      -0.007014    -2.254416     6.500961
H       0.234333    -3.979868     1.850473
N       0.100969    -3.197064     3.835373
C       0.799990    -4.234634     4.556126
H       1.147820    -4.986930     3.846420
H       1.670269    -3.830026     5.083740
H       0.141900    -4.723351     5.282762
O      -1.233525     0.071509     7.254304
C      -0.638620    -0.626197     8.330046
H       0.444966    -0.727903     8.190632
H      -0.830946    -0.030459     9.222969
H      -1.083858    -1.620935     8.457211
N      -0.851137    -1.786360    -1.669863
C      -2.106237    -1.703172    -2.239027
O      -3.046169    -2.299288    -1.750315
C      -2.280544    -0.867934    -3.497856
H      -3.245635    -0.369074    -3.383325
H      -2.412376    -1.584333    -4.311407
C      -1.176939     0.151703    -3.802657
H      -1.291476     0.539004    -4.819941
H      -1.291887     1.006870    -3.132945
C       0.216720    -0.440511    -3.600526
C       1.274134     0.595568    -3.056575
H       2.263693     0.487782    -3.518821
C      -1.302103    -1.619338     0.767215
H      -1.011283    -0.571254     0.628908
H      -2.394468    -1.642119     0.699133
C      -0.713807    -2.454002    -0.372934
H       0.350594    -2.622716    -0.219083
H      -1.221705    -3.418380    -0.437724
C       0.769088    -1.285881    -4.750226
H       0.871663    -0.628496    -5.623161
H       1.782688    -1.590470    -4.470130
C      -0.021106    -2.536838    -5.138758
H       0.567040    -3.143817    -5.833142
H      -0.246113    -3.160680    -4.267552
H      -0.961210    -2.297225    -5.641084
O       0.828827     1.911393    -3.114748
C       1.865602     2.885572    -2.984817
H       2.444497     2.687076    -2.075941
H       2.535111     2.821122    -3.853915
C       1.233703     4.249540    -2.910915
C       0.454056     4.589630    -1.805504
C       1.412185     5.178695    -3.929111
C      -0.137203     5.842135    -1.726109
H       0.318131     3.861748    -1.011866
C       0.823016     6.437046    -3.849935
H       2.015862     4.917403    -4.794210
C       0.046687     6.769623    -2.748284
H      -0.743840     6.099251    -0.863184
H       0.969727     7.154953    -4.650964
H      -0.415945     7.749589    -2.683720
C       0.239781    -1.091282    -2.216862
O       1.556897    -1.482522    -1.930127
C       1.207110    -0.105365    -1.674965
C       1.420105     0.459460    -0.312955
O       1.354628     1.640956    -0.074565
O       1.693000    -0.477961     0.594626
C       1.881375    -0.004068     1.938245
H       2.760656     0.642308     1.986039
H       1.001658     0.545620     2.276117
H       2.018325    -0.897057     2.545785
72
     -1725.761179     -1725.232008   4.90   5.52
C      -3.740668    -2.644569    -0.817451
C      -3.079894    -1.499421    -0.341064
C      -2.334215    -0.741991    -1.254440
C      -2.268401    -1.125747    -2.572515
C      -2.944503    -2.280282    -3.024525
C      -3.690018    -3.057772    -2.157771
C      -4.143075    -2.471343     1.369102
C      -3.350686    -1.404617     1.071812
H      -1.800962     0.140022    -0.924247
H      -1.695987    -0.556951    -3.297072
H      -4.212261    -3.948063    -2.482967
H      -4.563624    -2.769773     2.320379
N      -4.390263    -3.229488     0.238984
C      -5.161404    -4.448223     0.186058
H      -5.993971    -4.356410    -0.519449
H      -4.536955    -5.297736    -0.111324
H      -5.571530    -4.651669     1.176679
O      -2.794108    -2.544966    -4.356463
C      -3.442013    -3.687760    -4.876094
H      -4.530648    -3.620246    -4.755867
H      -3.199497    -3.719205    -5.938966
H      -3.080699    -4.605908    -4.395875
N      -0.376276    -0.633804     1.549533
C       0.020705    -1.770862     0.865477
O      -0.463177    -2.860683     1.079455
C       1.132494    -1.523804    -0.142215
H       0.760044    -0.860662    -0.929527
H       1.372765    -2.485540    -0.596626
C       2.362143    -0.900441     0.538295
H       2.783786    -1.635532     1.230506
H       3.129323    -0.685448    -0.207142
C       1.994675     0.372699     1.313576
C       1.962945     1.693093     0.456850
H       2.481244     2.538279     0.921562
C      -2.825220    -0.392279     2.046695
H      -3.491584    -0.347358     2.915164
H      -2.820750     0.603884     1.597021
C      -1.418107    -0.704049     2.575553
H      -1.157489     0.006701     3.363731
H      -1.390058    -1.715013     2.987592
C       2.757734     0.511127     2.631998
H       3.828492     0.407431     2.413981
H       2.613916     1.524770     3.019619
C       2.336352    -0.491423     3.707550
H       1.294945    -0.333200     4.003652
H       2.433685    -1.528657     3.374263
H       2.954273    -0.373642     4.602572
O       2.392627     1.489004    -0.857268
C       2.883728     2.658810    -1.505285
H       3.033061     2.359610    -2.546423
H       2.124968     3.446909    -1.489483
C       4.184865     3.152711    -0.908777
C       4.410331     4.514416    -0.733281
C       5.180809     2.250223    -0.537381
C       5.613716     4.971568    -0.205366
H       3.636421     5.226029    -1.008110
C       6.380573     2.702824    -0.005852
H       5.010535     1.186067    -0.667661
C       6.601840     4.066797     0.159482
H       5.775724     6.037279    -0.076900
H       7.148173     1.989438     0.278169
H       7.540964     4.420851     0.572711
C       0.466684     0.486045     1.425447
O       0.152235     1.699286     2.039374
C       0.429592     1.741565     0.622911
C      -0.567736     2.376249    -0.278196
O      -0.283842     2.856422    -1.347170
O      -1.804581     2.358153     0.229557
C      -2.822398     2.927743    -0.607953
H      -3.749141     2.840183    -0.042222
H      -2.596378     3.974657    -0.819747
H      -2.894244     2.373692    -1.546632
72
     -1725.764126     -1725.231829   3.05   5.63
C       0.394207    -1.583767    -1.807067
C      -0.541588    -2.505417    -1.303887
C      -0.079594    -3.770187    -0.904084
C       1.260766    -4.059597    -0.989562
C       2.182959    -3.108500    -1.482283
C       1.767116    -1.858357    -1.900604
C      -1.624424    -0.641407    -1.901938
C      -1.838475    -1.873905    -1.358777
H      -0.768897    -4.507884    -0.509161
H       1.647011    -5.026207    -0.685369
H       2.454254    -1.117779    -2.287412
H      -2.342676     0.126405    -2.147533
N      -0.280955    -0.444077    -2.161459
C       0.306736     0.743613    -2.736944
H       0.559994     0.599954    -3.793282
H      -0.402662     1.567486    -2.650299
H       1.207694     1.026074    -2.187644
O       3.480757    -3.534440    -1.508943
C       4.450581    -2.652309    -2.035658
H       5.404794    -3.176945    -1.975858
H       4.238232    -2.405800    -3.083526
H       4.510486    -1.726300    -1.450212
N      -2.450220    -1.601002     1.400659
C      -1.596136    -2.632471     1.740236
O      -1.945818    -3.787495     1.596533
C      -0.205075    -2.278642     2.247500
H       0.464706    -3.002334     1.780081
H      -0.186336    -2.483492     3.322856
C       0.230877    -0.844354     1.938000
H       1.209924    -0.648560     2.382138
H       0.338649    -0.722551     0.857008
C      -0.845099     0.100972     2.455193
C      -0.955613     1.504901     1.734766
H      -1.039072     2.365997     2.411046
C      -3.135878    -2.447791    -0.857234
H      -3.035800    -3.532963    -0.794852
H      -3.942287    -2.239658    -1.567467
C      -3.583836    -1.904979     0.523892
H      -4.146705    -0.981323     0.407083
H      -4.218955    -2.644016     1.016198
C      -0.949360     0.174663     3.979739
H      -1.814216     0.794882     4.232558
H      -1.171396    -0.822026     4.376976
C       0.302813     0.731753     4.658937
H       1.175490     0.089798     4.506020
H       0.552525     1.730030     4.283934
H       0.145945     0.818233     5.737901
O      -0.013400     1.739208     0.726897
C       1.194548     2.336647     1.172447
H       0.962456     3.218548     1.788535
H       1.774931     1.636336     1.787192
C       1.980409     2.745095    -0.046110
C       1.441205     3.682206    -0.926986
C       3.219589     2.183031    -0.328541
C       2.129747     4.046383    -2.074587
H       0.465716     4.108927    -0.712644
C       3.916939     2.550592    -1.476354
H       3.641759     1.447273     0.349952
C       3.372063     3.480181    -2.351692
H       1.701282     4.774149    -2.756603
H       4.886381     2.109269    -1.685257
H       3.913144     3.767059    -3.247710
C      -2.151217    -0.281145     1.748372
O      -3.140877     0.619751     2.190830
C      -2.282215     1.053380     1.112839
C      -3.018458     1.591204    -0.072569
O      -4.065500     1.163083    -0.484607
O      -2.392942     2.653949    -0.595041
C      -3.063078     3.271275    -1.701397
H      -2.426867     4.101999    -2.004882
H      -3.183059     2.561040    -2.522998
H      -4.047998     3.632335    -1.397286
72
     -1725.756097     -1725.231687   8.09   5.72
C      -2.536371    -0.056134     5.359608
C      -2.148661     0.472652     4.117414
C      -1.840345     1.839532     4.029112
C      -1.925607     2.617977     5.160183
C      -2.317871     2.064917     6.399597
C      -2.629770     0.722890     6.523708
C      -2.555903    -1.714368     3.861893
C      -2.169436    -0.609868     3.166389
H      -1.533951     2.278091     3.083589
H      -1.694115     3.676804     5.132103
H      -2.931668     0.283550     7.465318
H      -2.695224    -2.731190     3.519293
N      -2.782958    -1.395778     5.191346
C      -3.207266    -2.311396     6.223231
H      -2.467655    -2.367592     7.029274
H      -4.170586    -2.008737     6.647856
H      -3.319864    -3.306623     5.790000
O      -2.357519     2.958087     7.433562
C      -2.739847     2.476855     8.705209
H      -2.046951     1.706788     9.067416
H      -2.706687     3.334160     9.378585
H      -3.758701     2.069417     8.690095
N       0.013562     0.185783     0.178807
C      -0.007767     1.519799    -0.144818
O      -0.289309     2.384327     0.662972
C       0.338679     1.806414    -1.598489
H       1.405518     1.609533    -1.751138
H       0.168603     2.870856    -1.764076
C      -0.501594     0.952257    -2.561364
H      -1.550050     1.250862    -2.453769
H      -0.215431     1.173689    -3.591931
C      -0.393870    -0.556420    -2.267037
C       0.922273    -1.234693    -2.843632
H       0.775842    -2.215725    -3.309070
C      -1.805347    -0.498805     1.719039
H      -2.343855     0.344579     1.271179
H      -2.108006    -1.399600     1.174469
C      -0.300990    -0.262097     1.531435
H       0.041909     0.517845     2.210759
H       0.272096    -1.168060     1.731454
C      -1.735649    -1.243491    -2.539694
H      -2.484773    -0.739937    -1.915329
H      -2.012081    -1.014968    -3.578230
C      -1.840228    -2.752917    -2.314670
H      -2.839565    -3.096919    -2.598872
H      -1.119720    -3.312852    -2.917495
H      -1.673512    -3.020690    -1.269975
O       1.706631    -0.406694    -3.651353
C       1.474349    -0.577331    -5.040686
H       1.680388    -1.623704    -5.315393
H       0.422314    -0.373147    -5.287075
C       2.377186     0.348317    -5.816306
C       1.931262     0.937001    -6.995319
C       3.679081     0.592421    -5.383466
C       2.775255     1.752713    -7.741062
H       0.914298     0.759737    -7.335590
C       4.521530     1.409676    -6.125296
H       4.025229     0.142910    -4.458991
C       4.073207     1.989880    -7.307486
H       2.416153     2.204814    -8.660320
H       5.533794     1.595520    -5.779643
H       4.733754     2.627207    -7.886739
C       0.232226    -0.712489    -0.876068
O       0.535775    -2.050208    -0.627008
C       1.478331    -1.298597    -1.418610
C       2.858678    -1.224761    -0.861261
O       3.093799    -0.975173     0.292141
O       3.785448    -1.490722    -1.787502
C       5.141689    -1.438855    -1.320523
H       5.375900    -0.438785    -0.949413
H       5.294640    -2.164272    -0.518809
H       5.759305    -1.684259    -2.183525
72
     -1725.757760     -1725.231594   7.05   5.78
C      -4.335960    -3.926263     0.115371
C      -3.157521    -3.421870    -0.459633
C      -2.311129    -4.301738    -1.152383
C      -2.658374    -5.629945    -1.244553
C      -3.847766    -6.115675    -0.657345
C      -4.706867    -5.277627     0.030818
C      -4.234868    -1.735131     0.541805
C      -3.110990    -2.009868    -0.175292
H      -1.393402    -3.940423    -1.607855
H      -2.030036    -6.340064    -1.770364
H      -5.621845    -5.633559     0.485817
H      -4.578455    -0.793616     0.949297
N      -4.987961    -2.885208     0.726336
C      -6.243084    -2.973644     1.432501
H      -7.046061    -3.316052     0.770573
H      -6.170081    -3.659745     2.283398
H      -6.507456    -1.984634     1.810472
O      -4.061500    -7.455134    -0.829991
C      -5.231196    -8.012558    -0.268513
H      -5.247312    -7.895747     0.822583
H      -6.135671    -7.559973    -0.694522
H      -5.211926    -9.074858    -0.514947
N       0.443669    -0.707783    -0.344949
C       1.125165    -1.289105    -1.385074
O       0.774700    -2.337892    -1.890990
C       2.361611    -0.515073    -1.819518
H       2.043374     0.384786    -2.357347
H       2.903294    -1.148058    -2.523360
C       3.244936    -0.136365    -0.618753
H       3.618988    -1.061999    -0.167695
H       4.118494     0.418763    -0.966958
C       2.480624     0.653135     0.462837
C       2.289676     2.190886     0.125748
H       2.416881     2.868930     0.973979
C      -2.012338    -1.076629    -0.578868
H      -2.307739    -0.033801    -0.449080
H      -1.785862    -1.212137    -1.641282
C      -0.736952    -1.354688     0.225370
H      -0.848837    -1.008033     1.254498
H      -0.535149    -2.427072     0.245935
C       3.001209     0.284594     1.854903
H       2.869351    -0.798652     1.971387
H       4.086644     0.455044     1.851961
C       2.388463     0.991614     3.065270
H       1.319345     0.790735     3.154781
H       2.877069     0.641860     3.979929
H       2.521088     2.076407     3.020707
O       2.993735     2.651175    -0.995664
C       4.263440     3.205221    -0.680960
H       4.866176     2.488933    -0.104653
H       4.757542     3.353686    -1.645937
C       4.177161     4.518928     0.067863
C       3.151591     5.421550    -0.205691
C       5.137395     4.848895     1.019383
C       3.094772     6.639313     0.459872
H       2.391906     5.157119    -0.933638
C       5.084045     6.069747     1.682997
H       5.935015     4.146358     1.247261
C       4.062501     6.968630     1.403154
H       2.291069     7.335648     0.241256
H       5.840978     6.316522     2.420924
H       4.017747     7.921690     1.920512
C       0.985474     0.480548     0.167293
O       0.218352     1.333004     0.961273
C       0.826530     1.902015    -0.217961
C      -0.112881     2.525463    -1.193159
O      -1.090130     1.974430    -1.627699
O       0.252031     3.773555    -1.504715
C      -0.593722     4.436729    -2.455709
H      -0.154854     5.422809    -2.602298
H      -0.614126     3.880674    -3.395269
H      -1.609989     4.521223    -2.065435
72
     -1725.758511     -1725.231561   6.58   5.80
C      -4.714095     0.859893     3.041047
C      -3.306752     0.852445     2.946541
C      -2.573524     1.728784     3.748074
C      -3.239738     2.586001     4.608267
C      -4.646482     2.576817     4.680473
C      -5.402075     1.715008     3.900723
C      -4.122090    -0.682513     1.535392
C      -2.949038    -0.148159     1.970024
H      -1.488254     1.740518     3.700762
H      -2.663373     3.262537     5.225607
H      -6.483032     1.730632     3.980282
H      -4.294626    -1.465286     0.808755
N      -5.199756    -0.084677     2.171821
C      -6.593452    -0.397635     1.968956
H      -7.144864     0.477282     1.608070
H      -6.675953    -1.189307     1.222319
H      -7.057443    -0.747813     2.897313
O      -5.362464     3.398700     5.508335
C      -4.649983     4.303181     6.327675
H      -3.985488     3.777419     7.024457
H      -4.060897     5.009521     5.729720
H      -5.401892     4.853348     6.895128
N       0.489371     0.502536     0.493181
C       1.320537     0.741338     1.566624
O       0.871434     1.151855     2.621002
C       2.812265     0.488737     1.413917
H       3.111653    -0.035885     2.324749
H       3.281218     1.472777     1.474073
C       3.258120    -0.288522     0.170858
H       4.339992    -0.191228     0.033292
H       3.061000    -1.350903     0.328786
C       2.508037     0.162198    -1.080193
C       2.244474    -0.997309    -2.112965
H       2.389708    -0.693838    -3.155011
C      -1.554586    -0.478689     1.535650
H      -1.544272    -1.407492     0.961005
H      -0.925841    -0.629578     2.418302
C      -0.955618     0.657203     0.695031
H      -1.425024     0.699667    -0.286387
H      -1.117619     1.610930     1.199387
C       3.019314     1.434272    -1.759550
H       4.031767     1.224182    -2.128190
H       2.396724     1.599958    -2.644674
C       3.028825     2.716304    -0.925360
H       2.061150     2.894030    -0.444675
H       3.799088     2.703922    -0.150549
H       3.236520     3.575380    -1.569994
O       2.951716    -2.164121    -1.820475
C       3.147834    -3.025045    -2.937132
H       3.554514    -3.947376    -2.513234
H       2.187766    -3.267753    -3.403787
C       4.109788    -2.444472    -3.952165
C       3.873141    -2.583973    -5.315931
C       5.254319    -1.768835    -3.530269
C       4.768596    -2.066695    -6.246847
H       2.978013    -3.098135    -5.655562
C       6.146989    -1.247377    -4.456601
H       5.440886    -1.653625    -2.467008
C       5.907556    -1.397192    -5.819348
H       4.571779    -2.185390    -7.307829
H       7.034987    -0.724174    -4.115209
H       6.606732    -0.991604    -6.543707
C       1.012546     0.125012    -0.753871
O       0.293675     0.360389    -1.934645
C       0.755778    -0.989939    -1.700293
C      -0.225877    -2.105052    -1.762167
O       0.085503    -3.250404    -1.972407
O      -1.486031    -1.690920    -1.581916
C      -2.482853    -2.718000    -1.658173
H      -2.332932    -3.456234    -0.866413
H      -3.437956    -2.208729    -1.535474
H      -2.439431    -3.218891    -2.627584
72
     -1725.758815     -1725.231466   6.39   5.86
C      -5.494287    -0.945767     1.304579
C      -4.087895    -0.883823     1.194178
C      -3.391415    -2.049970     0.873437
C      -4.087912    -3.229520     0.667092
C      -5.490955    -3.261977     0.780286
C      -6.212561    -2.123073     1.101225
C      -4.853539     1.153004     1.721854
C      -3.698933     0.479702     1.469024
H      -2.310030    -2.040456     0.792111
H      -3.535884    -4.126948     0.420414
H      -7.292126    -2.178543     1.182654
H      -4.996756     2.197507     1.965688
N      -5.948524     0.307379     1.628069
C      -7.328595     0.670395     1.837832
H      -7.383684     1.733142     2.080039
H      -7.925066     0.489269     0.936972
H      -7.764001     0.102966     2.667667
O      -6.236449    -4.394542     0.588155
C      -5.557799    -5.588670     0.257161
H      -6.327822    -6.353852     0.148707
H      -5.009870    -5.491503    -0.688303
H      -4.860459    -5.888315     1.049313
N      -0.509436     1.831602    -0.122297
C      -0.463371     3.199238     0.057513
O      -1.477245     3.834437     0.274587
C       0.885620     3.898183    -0.036684
H       0.892895     4.639674     0.765425
H       0.859881     4.468110    -0.971163
C       2.112055     2.988311     0.034897
H       3.021004     3.551152    -0.198012
H       2.227441     2.612761     1.054830
C       1.940986     1.809331    -0.923706
C       2.717765     0.532646    -0.451011
H       3.112070    -0.071553    -1.272734
C      -2.314331     1.052605     1.428870
H      -1.627635     0.423635     2.001932
H      -2.317186     2.048813     1.876820
C      -1.815215     1.164350    -0.016710
H      -1.714512     0.178544    -0.467212
H      -2.529967     1.746829    -0.601345
C       2.129131     2.226023    -2.383751
H       1.565824     3.148444    -2.562631
H       3.188502     2.491891    -2.497449
C       1.745904     1.205867    -3.457029
H       1.966094     1.613912    -4.448415
H       2.301065     0.269851    -3.354692
H       0.681141     0.963600    -3.420366
O       3.712564     0.810285     0.491017
C       4.796515    -0.109332     0.477725
H       5.396062     0.146170     1.356016
H       4.430846    -1.134710     0.607136
C       5.628102    -0.000748    -0.782816
C       6.059299    -1.139437    -1.454758
C       5.967748     1.253676    -1.288550
C       6.826050    -1.031091    -2.611168
H       5.790271    -2.121830    -1.075833
C       6.727181     1.365033    -2.444520
H       5.629141     2.144943    -0.769236
C       7.160848     0.221060    -3.108650
H       7.157609    -1.928303    -3.124383
H       6.985378     2.347001    -2.828834
H       7.757034     0.308001    -4.011390
C       0.646401     1.120028    -0.487446
O       0.541862    -0.139317    -1.086679
C       1.384299    -0.042930     0.080691
C       1.054975    -0.953051     1.208809
O      -0.037388    -1.413992     1.416894
O       2.130805    -1.202394     1.966674
C       1.900809    -2.068336     3.087027
H       1.157201    -1.631514     3.757088
H       1.549608    -3.045215     2.747842
H       2.862862    -2.158654     3.589516
72
     -1725.758914     -1725.231357   6.32   5.93
C      -4.793330    -2.832674    -0.736846
C      -3.773365    -1.865657    -0.775714
C      -4.096363    -0.536429    -0.461158
C      -5.391440    -0.221465    -0.120236
C      -6.397910    -1.211264    -0.084703
C      -6.120456    -2.530730    -0.392393
C      -2.897259    -3.847316    -1.336359
C      -2.559236    -2.539824    -1.165322
H      -3.335907     0.236013    -0.492892
H      -5.675367     0.795163     0.127579
H      -6.878817    -3.302362    -0.371859
H      -2.274685    -4.684375    -1.623153
N      -4.246196    -4.041609    -1.081960
C      -4.955480    -5.294742    -1.169437
H      -5.393113    -5.569579    -0.203409
H      -5.754235    -5.245909    -1.917706
H      -4.255329    -6.078032    -1.464666
O      -7.636462    -0.752812     0.271141
C      -8.691798    -1.688953     0.327612
H      -8.869681    -2.152531    -0.651134
H      -8.492768    -2.473612     1.068684
H      -9.579911    -1.130703     0.626444
N       0.780157    -1.128105     0.016389
C       1.773450    -2.036710    -0.279634
O       1.509076    -3.209598    -0.465337
C       3.215172    -1.557343    -0.358511
H       3.612303    -1.981285    -1.284520
H       3.732494    -2.082342     0.447210
C       3.461431    -0.045786    -0.306986
H       4.507557     0.153010    -0.056997
H       3.292127     0.376022    -1.300454
C       2.531546     0.655630     0.679624
C       2.091137     2.103617     0.207490
H       2.052124     2.832096     1.023117
C      -1.191235    -1.940911    -1.300034
H      -1.232693    -1.026476    -1.896613
H      -0.530405    -2.648882    -1.804371
C      -0.605478    -1.617390     0.079493
H      -1.197523    -0.852761     0.578840
H      -0.608575    -2.520467     0.693697
C       2.950239     0.614397     2.150141
H       3.921826     1.117655     2.232228
H       2.234741     1.225091     2.711048
C       3.023230    -0.767438     2.802871
H       2.102661    -1.338716     2.644641
H       3.861705    -1.360372     2.430493
H       3.160783    -0.660485     3.882982
O       2.771315     2.618505    -0.901641
C       3.544184     3.782572    -0.626808
H       3.926458     4.104239    -1.598759
H       2.891789     4.575993    -0.237989
C       4.682058     3.520410     0.334032
C       5.735824     2.689131    -0.044683
C       4.687278     4.073536     1.610400
C       6.765997     2.405819     0.840082
H       5.742468     2.259689    -1.042473
C       5.719487     3.794653     2.501366
H       3.875215     4.728288     1.915380
C       6.758138     2.956884     2.118874
H       7.580010     1.756268     0.533744
H       5.709284     4.232686     3.494397
H       7.564132     2.736261     2.811406
C       1.103421     0.194535     0.362806
O       0.209885     0.973364     1.109114
C       0.707995     1.536989    -0.129394
C      -0.335289     1.987077    -1.093089
O      -1.328542     1.360553    -1.359888
O      -0.044062     3.188170    -1.600391
C      -0.992930     3.697106    -2.548695
H      -1.974014     3.810101    -2.082333
H      -0.603269     4.664164    -2.863118
H      -1.075576     3.019962    -3.401662
72
     -1725.757622     -1725.231302   7.13   5.96
C      -5.346387    -0.980956     0.669988
C      -3.984955    -0.716151     0.410379
C      -3.534051     0.602923     0.477968
C      -4.424332     1.615611     0.796783
C      -5.778517     1.323811     1.051148
C      -6.257142     0.023982     0.991314
C      -4.333629    -2.918790     0.205629
C      -3.353929    -1.980105     0.112097
H      -2.492597     0.842356     0.285291
H      -4.064234     2.634949     0.848856
H      -7.304669    -0.169737     1.191890
H      -4.274321    -3.988792     0.055731
N      -5.544346    -2.333200     0.542147
C      -6.802521    -3.016680     0.720262
H      -7.549892    -2.659930     0.003221
H      -6.652412    -4.085633     0.559554
H      -7.189693    -2.869971     1.734346
O      -6.706940     2.276876     1.370036
C      -6.282590     3.623021     1.443841
H      -7.167712     4.204583     1.705172
H      -5.518081     3.762200     2.218191
H      -5.891018     3.974864     0.481369
N       0.384576    -1.757358     0.685873
C       1.164297    -2.781121     0.196384
O       0.731146    -3.906889     0.053622
C       2.594247    -2.372817    -0.124428
H       2.590825    -1.751414    -1.027357
H       3.143564    -3.286821    -0.352748
C       3.242141    -1.609856     1.042161
H       3.316718    -2.291615     1.896064
H       4.256864    -1.311236     0.774769
C       2.419005    -0.380706     1.473206
C       2.628857     0.879427     0.550164
H       2.684868     1.831762     1.089172
C      -1.906055    -2.178469    -0.210598
H      -1.602458    -1.454433    -0.971627
H      -1.727137    -3.174906    -0.619926
C      -1.020480    -1.978518     1.028111
H      -1.353497    -1.109308     1.595542
H      -1.083364    -2.856438     1.675967
C       2.535113    -0.174745     2.986479
H       2.231624    -1.114080     3.465023
H       3.603554    -0.054665     3.210166
C       1.753229     0.975383     3.623597
H       0.675086     0.841311     3.516135
H       1.982351     1.025511     4.692468
H       2.010231     1.945351     3.189257
O       3.704880     0.727040    -0.319915
C       4.171357     1.948936    -0.896352
H       3.338782     2.465019    -1.386676
H       4.571788     2.593281    -0.101517
C       5.246699     1.622122    -1.896799
C       4.911737     0.967687    -3.081946
C       6.574711     1.954804    -1.655780
C       5.894843     0.652090    -4.008679
H       3.873671     0.710193    -3.267292
C       7.562190     1.642300    -2.585083
H       6.841739     2.462006    -0.732461
C       7.223015     0.989539    -3.762479
H       5.626385     0.141684    -4.928555
H       8.596013     1.907455    -2.386505
H       7.990933     0.742737    -4.489043
C       1.023034    -0.519015     0.859840
O       0.290365     0.657011     1.025584
C       1.228706     0.631538    -0.063233
C       0.735737     0.866982    -1.443612
O       1.450975     1.143070    -2.375026
O      -0.590038     0.732911    -1.532034
C      -1.155042     0.926652    -2.836710
H      -2.227559     0.781416    -2.712582
H      -0.941181     1.935537    -3.195727
H      -0.745074     0.198424    -3.540101
72
     -1725.760413     -1725.231269   5.38   5.98
C      -0.999140    -0.763324    -5.154530
C      -1.041799    -0.006763    -3.971491
C      -1.520300     1.311818    -4.027451
C      -1.929481     1.823729    -5.237236
C      -1.876752     1.045146    -6.414754
C      -1.413068    -0.258128    -6.397161
C      -0.234997    -2.037956    -3.485854
C      -0.547251    -0.845276    -2.909133
H      -1.565192     1.922185    -3.129840
H      -2.303898     2.837833    -5.320698
H      -1.366647    -0.868006    -7.289775
H       0.164793    -2.936220    -3.034319
N      -0.503159    -2.005018    -4.845602
C      -0.302528    -3.089018    -5.776868
H       0.403391    -2.806283    -6.565360
H       0.107251    -3.946146    -5.239981
H      -1.247671    -3.391798    -6.240679
O      -2.315402     1.685670    -7.540125
C      -2.290553     0.969521    -8.757101
H      -2.673740     1.649195    -9.519174
H      -1.269812     0.667332    -9.023789
H      -2.931616     0.079932    -8.712154
N       0.704596     1.238187    -0.003414
C      -0.129841     2.310008     0.217028
O      -0.794557     2.807487    -0.671463
C      -0.154171     2.800869     1.658986
H      -0.762979     2.097968     2.239793
H      -0.670420     3.761684     1.657092
C       1.248226     2.921333     2.279903
H       1.788817     3.721778     1.765480
H       1.163347     3.216297     3.327567
C       2.053209     1.619019     2.157848
C       1.696323     0.521203     3.231335
H       2.581085    -0.006597     3.605445
C      -0.395326    -0.440195    -1.476221
H      -0.209256    -1.314147    -0.846596
H      -1.325537     0.022545    -1.127558
C       0.740546     0.576514    -1.304157
H       1.710817     0.088149    -1.413371
H       0.661125     1.358694    -2.059854
C       3.549962     1.848886     1.951003
H       3.906187     2.529834     2.734340
H       4.076231     0.899352     2.096225
C       3.907272     2.399760     0.569029
H       3.406674     3.348255     0.354652
H       4.984826     2.571893     0.493763
H       3.629585     1.691949    -0.217925
O       0.910323     0.991014     4.282951
C       1.058232     0.297587     5.521098
H       2.124185     0.105062     5.701215
H       0.708394     0.997994     6.282710
C       0.272541    -0.990553     5.610571
C      -0.962431    -1.010481     6.254369
C       0.765740    -2.176516     5.069967
C      -1.689465    -2.189659     6.361360
H      -1.355269    -0.093187     6.684013
C       0.036034    -3.355179     5.160509
H       1.729868    -2.187176     4.569453
C      -1.191285    -3.365787     5.812575
H      -2.647094    -2.189962     6.872797
H       0.427457    -4.265282     4.718349
H      -1.758862    -4.287825     5.891369
C       1.365538     0.726494     1.124468
O       1.963374    -0.542226     1.112725
C       0.971831    -0.286466     2.118432
C      -0.226334    -1.175645     2.149715
O      -0.271631    -2.292507     1.708562
O      -1.249805    -0.542211     2.733789
C      -2.450523    -1.316338     2.876245
H      -3.139275    -0.685917     3.436824
H      -2.861232    -1.560469     1.893768
H      -2.239482    -2.233916     3.426309
72
     -1725.757985     -1725.231122   6.91   6.07
C      -4.739506     2.039406    -1.931000
C      -3.537479     1.642853    -1.305319
C      -3.214824     2.197443    -0.065824
C      -4.075152     3.111318     0.520358
C      -5.269555     3.486278    -0.124049
C      -5.617400     2.957663    -1.357181
C      -3.715507     0.564173    -3.259798
C      -2.894966     0.692255    -2.182472
H      -2.293132     1.925783     0.437468
H      -3.812627     3.535481     1.480605
H      -6.542769     3.266164    -1.830124
H      -3.598188    -0.055171    -4.139378
N      -4.834534     1.371626    -3.125646
C      -5.914095     1.499708    -4.073700
H      -5.999442     2.529564    -4.437361
H      -5.717486     0.847680    -4.926532
H      -6.869171     1.204896    -3.625376
O      -6.160612     4.382684     0.402771
C      -5.862504     4.955894     1.659295
H      -4.929044     5.531412     1.627984
H      -6.690733     5.627762     1.889113
H      -5.789376     4.191815     2.443116
N      -0.609932    -1.943581    -0.644755
C      -0.305961    -2.904766    -1.587528
O      -1.025792    -3.083782    -2.550557
C       0.943732    -3.749012    -1.381285
H       1.393583    -3.861300    -2.370218
H       0.586659    -4.745002    -1.099624
C       1.953383    -3.205954    -0.369795
H       2.738664    -3.942195    -0.176133
H       2.445672    -2.324028    -0.788084
C       1.237737    -2.818654     0.926112
C       1.973381    -1.666856     1.691315
H       1.872982    -1.726513     2.781488
C      -1.614872    -0.045688    -1.931465
H      -0.835130     0.653089    -1.614321
H      -1.280256    -0.528204    -2.852893
C      -1.808973    -1.120560    -0.855252
H      -2.067478    -0.668457     0.100935
H      -2.616430    -1.790398    -1.156208
C       0.823630    -4.042879     1.743274
H       0.381033    -4.782541     1.067393
H       1.748664    -4.498346     2.120385
C      -0.143834    -3.806938     2.904213
H      -0.323548    -4.748009     3.432888
H       0.244893    -3.088143     3.629982
H      -1.106658    -3.428346     2.552207
O       3.308373    -1.528790     1.316651
C       4.069562    -0.706455     2.187583
H       3.481929     0.173698     2.480560
H       4.313550    -1.264249     3.103221
C       5.336182    -0.255130     1.502777
C       5.395470    -0.098286     0.120237
C       6.454676     0.062510     2.269213
C       6.554752     0.374687    -0.482731
H       4.530615    -0.350304    -0.481463
C       7.613611     0.537913     1.667686
H       6.420924    -0.063791     3.348407
C       7.665901     0.696868     0.288112
H       6.590689     0.490921    -1.561717
H       8.477349     0.783089     2.277871
H       8.569936     1.067080    -0.184907
C       0.182625    -1.794747     0.506370
O      -0.319813    -1.115398     1.625307
C       0.940583    -0.664226     1.104474
C       1.042238     0.758959     0.682211
O       0.123059     1.532298     0.621643
O       2.307558     1.063163     0.369853
C       2.549514     2.419875    -0.028816
H       2.235371     3.109110     0.757865
H       3.624740     2.483988    -0.192469
H       2.003562     2.647592    -0.946959
72
     -1725.763887     -1725.231069   3.20   6.11
C       0.537425     1.295329     2.297344
C       1.820745     1.302444     1.708176
C       2.925574     1.076591     2.529603
C       2.746246     0.839963     3.880158
C       1.452008     0.824488     4.437366
C       0.332367     1.051047     3.653077
C       0.295824     1.713622     0.118420
C       1.639363     1.559675     0.298739
H       3.927173     1.058806     2.114783
H       3.613998     0.657622     4.500490
H      -0.651101     1.037582     4.108376
H      -0.261188     1.916833    -0.785118
N      -0.381614     1.555677     1.311935
C      -1.815531     1.597362     1.487475
H      -2.207556     0.617132     1.776835
H      -2.090708     2.329305     2.252768
H      -2.282976     1.883089     0.546476
O       1.204310     0.591930     5.761841
C       2.308278     0.373144     6.617282
H       1.892355     0.221399     7.614216
H       2.874574    -0.518893     6.322622
H       2.980769     1.239511     6.634136
N       2.452017    -0.908610    -0.817230
C       2.608891    -1.499521     0.435069
O       3.656735    -1.409955     1.036298
C       1.409100    -2.212285     1.045605
H       1.361012    -1.841165     2.072850
H       1.659675    -3.275343     1.112792
C       0.085991    -1.975219     0.314672
H      -0.708814    -2.593831     0.736634
H      -0.216443    -0.935659     0.450026
C       0.301043    -2.250603    -1.167259
C      -0.682259    -1.522235    -2.154132
H      -1.066889    -2.159110    -2.960637
C       2.688786     1.600699    -0.774785
H       3.508929     2.260462    -0.470264
H       2.251028     2.057439    -1.664341
C       3.308534     0.222198    -1.158788
H       3.514013     0.187105    -2.230125
H       4.242406     0.063453    -0.621921
C       0.554401    -3.720119    -1.508390
H       0.786879    -3.786642    -2.575319
H       1.451839    -4.067200    -0.983861
C      -0.625730    -4.634292    -1.175310
H      -0.805040    -4.696822    -0.098091
H      -1.549720    -4.280265    -1.644879
H      -0.439441    -5.649796    -1.536303
O      -1.711441    -0.860996    -1.481980
C      -2.840175    -0.539880    -2.295272
H      -2.513916    -0.063996    -3.223929
H      -3.379159    -1.466751    -2.539711
C      -3.723944     0.398125    -1.517367
C      -4.500356    -0.077079    -0.461774
C      -3.749748     1.756118    -1.820409
C      -5.289698     0.790509     0.280951
H      -4.479803    -1.135946    -0.218851
C      -4.544038     2.627848    -1.082112
H      -3.133722     2.130262    -2.631678
C      -5.313327     2.147361    -0.029621
H      -5.890414     0.409490     1.101052
H      -4.558166     3.685000    -1.328379
H      -5.932634     2.827055     0.547265
C       1.392253    -1.288984    -1.639734
O       1.555592    -1.484968    -3.030415
C       0.491511    -0.613014    -2.605547
C       0.418096     0.737186    -3.229221
O      -0.560842     1.443647    -3.179591
O       1.539082     1.066612    -3.875380
C       1.523420     2.345962    -4.524268
H       0.737956     2.375913    -5.282238
H       1.351628     3.142250    -3.796176
H       2.504577     2.451928    -4.984925
72
     -1725.759989     -1725.231005   5.65   6.15
C      -0.455486     0.094605    -4.849000
C      -0.283598     0.067917    -3.455120
C      -0.993190    -0.882777    -2.704558
C      -1.830429    -1.760162    -3.354629
C      -1.985994    -1.716391    -4.758001
C      -1.305173    -0.791739    -5.529450
C       0.988202     1.707859    -4.295510
C       0.648339     1.114780    -3.118580
H      -0.887051    -0.927661    -1.624955
H      -2.394118    -2.509185    -2.809521
H      -1.413578    -0.743518    -6.604983
H       1.661508     2.534487    -4.479966
N       0.328927     1.102035    -5.353094
C       0.438297     1.470115    -6.744279
H       0.814644     0.634907    -7.344841
H      -0.530264     1.786432    -7.146605
H       1.137725     2.302614    -6.836798
O      -2.848932    -2.647712    -5.263970
C      -3.055063    -2.663999    -6.661240
H      -3.477869    -1.715218    -7.015210
H      -2.122309    -2.869110    -7.201745
H      -3.766091    -3.467881    -6.855406
N       2.404039     0.492300     0.185681
C       3.189127     1.498912     0.705079
O       3.817794     2.256431    -0.006591
C       3.179838     1.574542     2.225949
H       2.230618     2.031426     2.531058
H       3.983445     2.252895     2.514982
C       3.346543     0.199103     2.894073
H       4.345986    -0.181870     2.654698
H       3.292536     0.308873     3.978623
C       2.308135    -0.820210     2.399058
C       0.883830    -0.694433     3.059640
H       0.424060    -1.668902     3.261505
C       1.139872     1.430901    -1.741210
H       0.287693     1.446407    -1.054898
H       1.600427     2.421751    -1.705276
C       2.157745     0.391934    -1.249932
H       1.801167    -0.618833    -1.452747
H       3.110897     0.532316    -1.762848
C       2.856556    -2.240278     2.314061
H       2.094828    -2.886804     1.864315
H       3.711369    -2.240766     1.626179
C       3.279950    -2.797266     3.674070
H       4.095353    -2.214783     4.112937
H       2.446559    -2.786520     4.384747
H       3.623930    -3.831274     3.581151
O       0.846311     0.125167     4.185924
C      -0.200149    -0.170591     5.109473
H      -0.174435    -1.241266     5.354039
H       0.055826     0.389862     6.010871
C      -1.579743     0.218492     4.629268
C      -2.045548     1.518097     4.816942
C      -2.405128    -0.705475     3.993355
C      -3.312754     1.885040     4.387600
H      -1.404627     2.249696     5.299409
C      -3.674063    -0.342267     3.556237
H      -2.061797    -1.725632     3.844731
C      -4.131684     0.953692     3.757125
H      -3.662582     2.900765     4.542797
H      -4.306233    -1.074627     3.064111
H      -5.124971     1.238605     3.423523
C       1.681264    -0.269877     1.118209
O       0.595222    -1.068943     0.723623
C       0.356854    -0.079254     1.735152
C      -0.630003     1.011990     1.508103
O      -0.533369     2.091566     2.034208
O      -1.599578     0.659686     0.660238
C      -2.562873     1.684468     0.373455
H      -3.068665     1.991694     1.290182
H      -2.071352     2.548354    -0.080056
H      -3.266714     1.234511    -0.325363
72
     -1725.757597     -1725.230975   7.15   6.17
C      -2.174475    -4.139968    -2.757992
C      -1.748555    -3.556657    -1.546525
C      -2.114905    -4.160942    -0.342858
C      -2.888658    -5.309554    -0.364071
C      -3.304232    -5.870295    -1.587695
C      -2.953235    -5.295572    -2.799339
C      -0.963368    -2.324731    -3.243424
C      -0.970571    -2.389053    -1.884519
H      -1.797481    -3.736425     0.605423
H      -3.168720    -5.771073     0.573783
H      -3.287484    -5.751561    -3.724214
H      -0.490339    -1.603475    -3.896519
N      -1.686399    -3.375568    -3.788155
C      -1.892759    -3.634412    -5.192486
H      -1.384983    -2.864260    -5.775582
H      -1.483600    -4.609794    -5.476973
H      -2.958559    -3.612803    -5.444239
O      -4.069467    -7.001674    -1.675151
C      -4.462065    -7.634756    -0.474217
H      -5.056128    -8.500734    -0.769537
H      -3.593913    -7.973293     0.104724
H      -5.075475    -6.971681     0.148307
N      -0.862004     0.104427     0.978471
C      -0.563625    -0.626009     2.109164
O      -0.840634    -1.809257     2.175599
C       0.110227     0.074544     3.278458
H       0.879749    -0.618686     3.626828
H      -0.639312     0.105246     4.071804
C       0.712824     1.455941     3.001108
H       0.950357     1.960767     3.942707
H       1.660049     1.328685     2.472543
C      -0.210074     2.316822     2.140590
C       0.562005     3.275684     1.155973
H       0.099577     4.266927     1.064819
C      -0.341493    -1.451823    -0.900449
H       0.374300    -0.796165    -1.402009
H       0.211836    -2.028596    -0.152944
C      -1.405265    -0.611148    -0.180826
H      -1.837014     0.126912    -0.855391
H      -2.203404    -1.261509     0.179231
C      -1.356981     3.022448     2.866632
H      -0.912281     3.723798     3.584297
H      -1.884270     3.630482     2.124277
C      -2.379744     2.135900     3.579802
H      -2.756309     1.343737     2.924379
H      -1.972567     1.670685     4.480473
H      -3.237904     2.738719     3.890812
O       1.918779     3.374006     1.440740
C       2.569651     4.478853     0.811572
H       2.382151     4.450433    -0.267894
H       2.165783     5.417193     1.216551
C       4.046611     4.383572     1.084931
C       4.779066     3.320403     0.556942
C       4.695669     5.339646     1.857284
C       6.140746     3.219914     0.802679
H       4.269275     2.576106    -0.046545
C       6.062320     5.242833     2.101898
H       4.128856     6.167826     2.274317
C       6.786165     4.181899     1.575321
H       6.704165     2.388833     0.389611
H       6.558829     5.995776     2.706139
H       7.851995     4.101970     1.765395
C      -0.599136     1.482002     0.919523
O      -1.286081     2.305628     0.013525
C       0.155412     2.347275    -0.018285
C       0.864720     2.072992    -1.296140
O       2.050801     2.233226    -1.444259
O       0.041285     1.644219    -2.258975
C       0.663983     1.372789    -3.520904
H       1.145474     2.272767    -3.909579
H       1.412443     0.583254    -3.416577
H      -0.141642     1.056336    -4.182361
72
     -1725.765105     -1725.230162   2.44   6.68
C       0.891221    -1.178076     2.293625
C       0.212002    -2.288863     1.763023
C      -1.134739    -2.471960     2.113050
C      -1.765353    -1.533713     2.896584
C      -1.076075    -0.393242     3.364600
C       0.264630    -0.202845     3.083578
C       2.339474    -2.358094     1.074042
C       1.155048    -3.019732     0.950246
H      -1.683387    -3.338284     1.758765
H      -2.808052    -1.643152     3.174197
H       0.813480     0.657625     3.443107
H       3.297836    -2.593953     0.633432
N       2.198030    -1.245731     1.883690
C       3.220040    -0.265793     2.163352
H       3.224007    -0.011828     3.227315
H       4.194944    -0.687928     1.914141
H       3.070819     0.645834     1.574511
O      -1.835708     0.474282     4.099043
C      -1.192399     1.602553     4.657308
H      -1.955994     2.141222     5.219424
H      -0.385343     1.305250     5.338421
H      -0.786507     2.261401     3.879204
N      -0.407479    -2.718909    -1.503906
C      -1.679213    -2.868529    -0.987837
O      -2.094478    -3.970735    -0.683139
C      -2.519215    -1.617371    -0.778204
H      -3.111514    -1.809960     0.116884
H      -3.227909    -1.556727    -1.610639
C      -1.701178    -0.330178    -0.642555
H      -2.364088     0.527723    -0.521469
H      -1.080414    -0.386111     0.252774
C      -0.825597    -0.202289    -1.877678
C       0.531455     0.593552    -1.739040
H       0.696149     1.372414    -2.490769
C       0.858420    -4.205695     0.075886
H       0.022109    -4.766755     0.497869
H       1.719317    -4.881628     0.051837
C       0.527334    -3.843361    -1.390084
H       1.431703    -3.557981    -1.925509
H       0.085341    -4.711599    -1.883590
C      -1.605698     0.153586    -3.147987
H      -0.932619     0.063550    -4.004988
H      -2.392845    -0.591383    -3.306909
C      -2.219915     1.554238    -3.122394
H      -1.451325     2.328465    -3.056879
H      -2.789419     1.733812    -4.039016
H      -2.898393     1.699905    -2.277325
O       0.799666     1.060890    -0.441729
C       0.955005     2.463375    -0.303305
H       1.469137     2.597535     0.653275
H       1.614283     2.851451    -1.090672
C      -0.357709     3.215206    -0.289030
C      -1.356616     2.846424     0.612105
C      -0.584025     4.284316    -1.148316
C      -2.563023     3.530266     0.644179
H      -1.186775     2.009665     1.283717
C      -1.792255     4.975502    -1.116872
H       0.188801     4.581020    -1.852575
C      -2.784231     4.597816    -0.222508
H      -3.334688     3.232768     1.347391
H      -1.955793     5.808869    -1.792731
H      -3.727401     5.134109    -0.195520
C       0.023054    -1.480113    -1.992096
O       0.783253    -1.351365    -3.170539
C       1.296206    -0.718368    -1.975737
C       2.738196    -1.024715    -1.728887
O       3.275407    -2.074111    -1.968603
O       3.389892     0.062472    -1.286300
C       4.806492    -0.095912    -1.146371
H       5.262349    -0.308964    -2.116111
H       5.172903     0.851691    -0.752686
H       5.039371    -0.912838    -0.460067
72
     -1725.760976     -1725.229989   5.03   6.78
C      -1.915894     0.823544    -3.280408
C      -1.692452     1.684297    -2.185444
C      -2.399579     1.448916    -1.005423
C      -3.268548     0.376003    -0.921648
C      -3.466730    -0.470885    -2.028493
C      -2.804737    -0.248043    -3.225634
C      -0.437573     2.375107    -3.905892
C      -0.741150     2.683896    -2.615910
H      -2.288404     2.110359    -0.154313
H      -3.802423     0.204990     0.003654
H      -2.989919    -0.906794    -4.066584
H       0.224493     2.884515    -4.593845
N      -1.123403     1.244599    -4.320118
C      -1.167869     0.730947    -5.668689
H      -2.111375     0.985129    -6.165599
H      -0.344622     1.161037    -6.242201
H      -1.055669    -0.357209    -5.670998
O      -4.310209    -1.544680    -2.014895
C      -4.970614    -1.857156    -0.803789
H      -4.253227    -2.062052    -0.000027
H      -5.644009    -1.049257    -0.492807
H      -5.556241    -2.755512    -1.002887
N       0.736926     2.581491     0.096765
C      -0.171930     2.788632     1.109269
O      -0.864245     3.787216     1.166303
C      -0.209961     1.678954     2.146166
H      -0.539767     0.749178     1.669713
H      -0.949231     1.962480     2.896060
C       1.181140     1.488349     2.772805
H       1.446783     2.410044     3.302569
H       1.151746     0.683190     3.507971
C       2.242607     1.211238     1.697213
C       2.331096    -0.287816     1.228406
H       3.358144    -0.660443     1.116988
C      -0.244821     3.864315    -1.834356
H      -1.055686     4.269912    -1.225787
H       0.057205     4.655585    -2.529128
C       0.965813     3.602512    -0.929775
H       1.813690     3.262722    -1.525424
H       1.240587     4.539647    -0.433477
C       3.585254     1.868289     2.002257
H       4.259469     1.707672     1.154351
H       3.432138     2.952270     2.079114
C       4.225037     1.340192     3.287258
H       3.604830     1.549365     4.163774
H       4.374871     0.256551     3.239846
H       5.201604     1.803524     3.453834
O       1.560818    -1.136427     2.018359
C       1.815719    -2.525380     1.815214
H       1.723890    -2.768392     0.749939
H       2.838145    -2.760698     2.141890
C       0.815062    -3.315944     2.614748
C      -0.543245    -3.217083     2.312134
C       1.223019    -4.145134     3.652592
C      -1.474629    -3.940481     3.042649
H      -0.856751    -2.569324     1.499558
C       0.290143    -4.874627     4.383835
H       2.279644    -4.221574     3.894940
C      -1.060189    -4.772091     4.079829
H      -2.530631    -3.859114     2.804300
H       0.620339    -5.519795     5.192006
H      -1.791387    -5.337821     4.648811
C       1.652939     1.533898     0.317236
O       2.563132     1.141775    -0.672377
C       1.705568     0.126762    -0.132121
C       0.870129    -0.700537    -1.045234
O       0.013815    -1.449081    -0.641632
O       1.230194    -0.574940    -2.321337
C       0.604519    -1.494507    -3.228580
H       0.943481    -2.511156    -3.012751
H      -0.479917    -1.444852    -3.143549
H       0.933047    -1.190309    -4.221224
72
     -1725.758402     -1725.229756   6.65   6.93
C       3.733070    -1.392187    -0.041563
C       3.034224    -1.445344     1.179613
C       3.506774    -0.660261     2.243374
C       4.627468     0.117841     2.069983
C       5.318655     0.139127     0.839980
C       4.884914    -0.614855    -0.235251
C       1.995786    -2.759348    -0.306792
C       1.920530    -2.344597     0.986914
H       2.988050    -0.637241     3.194939
H       5.007826     0.737131     2.874571
H       5.398365    -0.614554    -1.188109
H       1.328580    -3.411625    -0.852332
N       3.084375    -2.197836    -0.941807
C       3.416169    -2.355603    -2.338505
H       2.728698    -3.077112    -2.781335
H       3.306428    -1.410996    -2.880842
H       4.438738    -2.727749    -2.458274
O       6.416539     0.952123     0.812304
C       7.166410     1.003181    -0.383645
H       7.568505     0.016655    -0.646414
H       6.564023     1.383106    -1.218694
H       7.992992     1.689635    -0.196676
N      -0.193799    -0.565003     2.233985
C       0.015607     0.653729     2.852419
O       0.728238     0.779374     3.829080
C      -0.751934     1.814976     2.238085
H      -0.304183     2.066362     1.272314
H      -0.613317     2.666808     2.904973
C      -2.242996     1.478512     2.063888
H      -2.679729     1.309143     3.053608
H      -2.767406     2.329064     1.623812
C      -2.447687     0.223655     1.203646
C      -2.269551     0.463973    -0.338550
H      -3.011202    -0.051955    -0.957512
C       0.904264    -2.840160     1.973398
H       1.366936    -3.572568     2.647984
H       0.128713    -3.375429     1.421092
C       0.263622    -1.792302     2.887459
H      -0.577075    -2.257861     3.416026
H       0.966586    -1.458495     3.648712
C      -3.694544    -0.575468     1.577781
H      -4.545276     0.117108     1.603282
H      -3.903592    -1.297443     0.781337
C      -3.583505    -1.328348     2.903973
H      -4.533549    -1.810554     3.151921
H      -2.824776    -2.113857     2.839791
H      -3.319349    -0.672230     3.738581
O      -2.169892     1.817299    -0.681271
C      -2.256779     2.063119    -2.081544
H      -1.992062     3.117460    -2.199619
H      -1.512393     1.466718    -2.625191
C      -3.637911     1.800813    -2.641574
C      -3.800914     1.094495    -3.828617
C      -4.766257     2.276539    -1.974849
C      -5.071420     0.872875    -4.350891
H      -2.928404     0.708410    -4.348658
C      -6.034821     2.053176    -2.491086
H      -4.644419     2.821941    -1.044003
C      -6.190541     1.352165    -3.683569
H      -5.184296     0.321939    -5.279302
H      -6.906307     2.428253    -1.963516
H      -7.182635     1.179434    -4.088380
C      -1.115580    -0.543342     1.166737
O      -1.202717    -1.597555     0.230137
C      -0.918304    -0.286894    -0.262588
C       0.293547    -0.044456    -1.106249
O       0.568942    -0.653672    -2.106558
O       0.965012     1.016242    -0.648076
C       2.082050     1.450232    -1.437722
H       2.844803     0.673713    -1.474114
H       1.751798     1.697410    -2.449201
H       2.471888     2.333169    -0.932821
72
     -1725.761577     -1725.229605   4.65   7.03
C       0.476701    -0.645607     3.579378
C      -0.381282    -1.383886     2.747823
C      -1.576004    -0.781283     2.323997
C      -1.851637     0.512983     2.692225
C      -0.961849     1.242268     3.510188
C       0.206749     0.671611     3.980978
C       1.373348    -2.667562     3.278780
C       0.212426    -2.687638     2.567839
H      -2.291040    -1.333543     1.726132
H      -2.762394     1.005685     2.371794
H       0.888788     1.207545     4.628092
H       2.106822    -3.450952     3.416408
N       1.557617    -1.436031     3.885642
C       2.584087    -1.122928     4.851910
H       3.017575    -0.138742     4.652125
H       2.190551    -1.130043     5.875050
H       3.379966    -1.866576     4.780051
O      -1.359427     2.515992     3.792381
C      -0.504119     3.311804     4.587957
H      -0.987441     4.285477     4.674887
H      -0.374875     2.882543     5.589461
H       0.478176     3.435791     4.115338
N      -0.558406    -2.694570    -0.418264
C      -1.909172    -2.450102    -0.516304
O      -2.737947    -3.176403    -0.001168
C      -2.261233    -1.213991    -1.326286
H      -1.859017    -0.328720    -0.821807
H      -3.348964    -1.136868    -1.341624
C      -1.684856    -1.320003    -2.746686
H      -2.168563    -2.164459    -3.250146
H      -1.922605    -0.419108    -3.313751
C      -0.169253    -1.565018    -2.713954
C       0.712251    -0.271642    -2.553075
H       1.580954    -0.234593    -3.223881
C      -0.355865    -3.849956     1.807802
H      -1.437820    -3.890230     1.950332
H       0.052914    -4.781672     2.213683
C      -0.056876    -3.867566     0.302715
H       1.019569    -3.903261     0.132819
H      -0.510052    -4.763723    -0.134410
C       0.298439    -2.524415    -3.805005
H       1.366442    -2.723586    -3.669068
H      -0.218253    -3.482970    -3.668327
C       0.041212    -1.990292    -5.215008
H       0.536575    -1.026284    -5.371061
H       0.422599    -2.685026    -5.968678
H      -1.026344    -1.847230    -5.406030
O      -0.045756     0.893794    -2.629032
C       0.718378     2.089772    -2.777767
H       1.478103     2.145983    -1.989414
H       1.224097     2.080306    -3.753313
C      -0.214534     3.267280    -2.682510
C      -0.897020     3.513562    -1.490785
C      -0.407557     4.116112    -3.765822
C      -1.758763     4.596258    -1.391734
H      -0.742905     2.849621    -0.646179
C      -1.269215     5.204656    -3.667072
H       0.118395     3.925404    -4.697540
C      -1.946286     5.445216    -2.479526
H      -2.287007     4.782661    -0.461662
H      -1.411757     5.861498    -4.519547
H      -2.620365     6.292325    -2.398704
C       0.256839    -1.945964    -1.288718
O       1.652845    -2.045498    -1.250384
C       1.086701    -0.733343    -1.117576
C       1.478120     0.115511     0.041545
O       0.935373     1.161208     0.300251
O       2.537878    -0.369191     0.689672
C       3.107249     0.505301     1.673173
H       2.344766     0.856240     2.367317
H       3.863464    -0.086489     2.186664
H       3.570501     1.362550     1.177414
72
     -1725.759052     -1725.229342   6.24   7.19
C      -1.311814    -0.986795    -3.498660
C      -2.135092    -1.699933    -2.608859
C      -3.521918    -1.501605    -2.683064
C      -4.035731    -0.631185    -3.615971
C      -3.187406     0.062566    -4.508312
C      -1.815010    -0.103991    -4.466444
C      -0.004732    -2.256340    -2.209461
C      -1.275743    -2.522272    -1.795168
H      -4.192533    -2.026544    -2.009572
H      -5.103265    -0.458788    -3.697087
H      -1.148706     0.419963    -5.139252
H       0.927325    -2.681975    -1.865273
N      -0.010233    -1.327613    -3.234223
C       1.160667    -0.753392    -3.856072
H       1.263089     0.307812    -3.603822
H       2.044113    -1.280123    -3.492800
H       1.117705    -0.861498    -4.944274
O      -3.833396     0.890168    -5.381687
C      -3.049410     1.598782    -6.320338
H      -2.493771     0.915241    -6.974351
H      -3.747355     2.182722    -6.921222
H      -2.345808     2.278246    -5.822781
N      -0.516291    -2.298011     1.123215
C       0.740431    -2.834297     0.966306
O       0.932611    -3.933186     0.481306
C       1.862302    -1.940407     1.470435
H       1.908337    -1.036815     0.852387
H       2.793812    -2.491880     1.338708
C       1.638760    -1.565894     2.943366
H       1.681040    -2.483420     3.539909
H       2.440515    -0.912835     3.290769
C       0.268050    -0.899506     3.162443
C       0.251908     0.635915     2.812685
H      -0.323349     1.254465     3.511672
C      -1.688434    -3.518625    -0.751685
H      -1.017721    -4.375995    -0.784336
H      -2.694947    -3.886323    -0.981102
C      -1.738094    -2.984747     0.688328
H      -2.544257    -2.257186     0.787603
H      -1.943718    -3.820257     1.367424
C      -0.311472    -1.321215     4.516247
H      -0.329877    -2.418069     4.532797
H       0.418411    -1.021582     5.280272
C      -1.695653    -0.802056     4.909214
H      -1.745891     0.290123     4.912091
H      -2.471741    -1.165742     4.233040
H      -1.940248    -1.143040     5.920005
O       1.530580     1.151740     2.618933
C       1.580824     2.576570     2.554008
H       0.887366     2.937454     1.784885
H       1.279154     2.995999     3.523790
C       2.988261     2.990403     2.218358
C       3.517763     2.682317     0.965351
C       3.773707     3.671880     3.140420
C       4.815592     3.053165     0.644905
H       2.900573     2.150263     0.248299
C       5.074802     4.047737     2.820053
H       3.366918     3.910545     4.119490
C       5.597199     3.737869     1.571814
H       5.221653     2.809333    -0.332022
H       5.679288     4.580236     3.547739
H       6.612243     4.028062     1.318896
C      -0.576566    -1.123816     1.901371
O      -1.745207    -0.355416     1.963307
C      -0.553072     0.307340     1.526192
C      -0.534500     0.983763     0.201003
O       0.476368     1.423691    -0.294340
O      -1.746426     1.074018    -0.336425
C      -1.830292     1.803499    -1.570781
H      -2.823387     1.599932    -1.966604
H      -1.698535     2.870450    -1.373123
H      -1.069761     1.460100    -2.269922
72
     -1725.761348     -1725.229281   4.80   7.23
C      -3.351756    -0.029286    -1.124855
C      -2.242517     0.502255    -1.803170
C      -1.674813     1.690273    -1.316962
C      -2.181779     2.270056    -0.179591
C      -3.282157     1.702240     0.498321
C      -3.895408     0.554796     0.029517
C      -2.924257    -1.335431    -2.883538
C      -1.982737    -0.353385    -2.936879
H      -0.854664     2.165292    -1.841601
H      -1.755872     3.181745     0.223433
H      -4.753227     0.117520     0.523577
H      -3.086949    -2.166445    -3.557024
N      -3.753050    -1.163646    -1.787148
C      -4.954737    -1.917254    -1.516644
H      -5.006259    -2.201282    -0.461397
H      -5.854630    -1.344291    -1.768618
H      -4.944962    -2.830090    -2.115120
O      -3.676652     2.379886     1.614490
C      -4.770068     1.863555     2.346568
H      -4.560103     0.852461     2.716867
H      -4.913413     2.534761     3.194008
H      -5.684743     1.847028     1.740744
N       1.068428    -0.114382    -2.469238
C       1.403647     1.221026    -2.465278
O       1.196598     1.942036    -3.422890
C       2.048268     1.703296    -1.176555
H       1.327303     1.598940    -0.358509
H       2.271772     2.762994    -1.305009
C       3.314493     0.891879    -0.863052
H       4.059303     1.093490    -1.639245
H       3.741203     1.216993     0.087031
C       3.011327    -0.611276    -0.829932
C       2.445903    -1.144162     0.538999
H       2.935933    -2.056326     0.903690
C      -0.933410    -0.175613    -3.994486
H      -0.836469     0.882528    -4.246317
H      -1.251698    -0.691099    -4.907150
C       0.455790    -0.729228    -3.649934
H       0.394878    -1.799683    -3.450703
H       1.118497    -0.569512    -4.507636
C       4.139619    -1.459966    -1.418818
H       5.081351    -1.145876    -0.951579
H       3.983207    -2.506821    -1.140152
C       4.249258    -1.368452    -2.942104
H       4.372816    -0.338739    -3.290772
H       5.109253    -1.942492    -3.298947
H       3.356386    -1.779968    -3.422897
O       2.420016    -0.150211     1.513812
C       2.222399    -0.625478     2.845002
H       1.326708    -1.255840     2.885024
H       3.090782    -1.225789     3.149941
C       2.061501     0.563580     3.754036
C       2.980954     0.822229     4.763428
C       0.975145     1.422104     3.582367
C       2.822287     1.923309     5.599922
H       3.831419     0.159065     4.897597
C       0.817655     2.522264     4.412596
H       0.257927     1.216210     2.794374
C       1.740470     2.775012     5.424432
H       3.546349     2.115137     6.385673
H      -0.029431     3.186944     4.273435
H       1.613984     3.635923     6.073552
C       1.622123    -0.882263    -1.426072
O       1.354115    -2.249283    -1.293280
C       1.082551    -1.413636    -0.155363
C      -0.267973    -1.465512     0.470826
O      -0.604830    -0.728749     1.364513
O      -1.010923    -2.464046    -0.007475
C      -2.230880    -2.713685     0.703528
H      -2.808499    -1.797130     0.815639
H      -2.770956    -3.447843     0.107732
H      -2.001797    -3.122658     1.691256
72
     -1725.761561     -1725.229210   4.66   7.27
C       1.103674     2.832106    -0.809908
C       1.736897     1.720944    -1.406695
C       2.653531     0.998468    -0.643582
C       2.862041     1.326721     0.684655
C       2.154621     2.392152     1.273814
C       1.281488     3.168210     0.529471
C       0.448857     2.720233    -2.938097
C       1.271474     1.647666    -2.772243
H       3.217449     0.185143    -1.087172
H       3.570722     0.749170     1.264292
H       0.763971     3.994617     1.002238
H      -0.079506     3.038756    -3.826858
N       0.339649     3.447940    -1.768189
C      -0.510261     4.594379    -1.547745
H      -1.373574     4.328142    -0.928897
H       0.052315     5.395578    -1.059766
H      -0.863444     4.967817    -2.511289
O       2.276446     2.741874     2.590908
C       3.127536     1.965432     3.409685
H       4.168984     2.015419     3.069145
H       3.057411     2.393506     4.410557
H       2.805592     0.917213     3.440775
N       0.858215    -1.375001    -2.400382
C       2.073827    -1.934472    -2.064714
O       2.982902    -1.964757    -2.873446
C       2.267202    -2.504402    -0.667016
H       3.285316    -2.228261    -0.382462
H       2.280630    -3.589487    -0.787666
C       1.260492    -2.056289     0.397267
H       1.362622    -2.678155     1.293047
H       1.483766    -1.032166     0.693008
C      -0.158711    -2.121360    -0.145510
C      -1.153903    -1.014415     0.374623
H      -2.080187    -1.396578     0.816575
C       1.591346     0.594956    -3.792721
H       2.646875     0.319947    -3.733743
H       1.424860     1.000337    -4.796544
C       0.742134    -0.685576    -3.691135
H      -0.314128    -0.458413    -3.835059
H       1.058876    -1.382015    -4.471500
C      -0.806419    -3.512953    -0.101994
H      -0.747685    -3.869084     0.934444
H      -1.868937    -3.391400    -0.328671
C      -0.241641    -4.573245    -1.050303
H      -0.908840    -5.440017    -1.072880
H      -0.162988    -4.194287    -2.074787
H       0.740997    -4.937048    -0.742549
O      -0.516923    -0.098223     1.217356
C      -1.354599     0.559589     2.158649
H      -0.731922     1.358164     2.571563
H      -2.205157     1.025615     1.652938
C      -1.822908    -0.368051     3.259737
C      -0.942220    -1.290221     3.824535
C      -3.129097    -0.306012     3.734363
C      -1.360356    -2.129987     4.847904
H       0.077261    -1.345313     3.455234
C      -3.550241    -1.143380     4.762912
H      -3.826721     0.401461     3.294384
C      -2.666794    -2.057013     5.322203
H      -0.664648    -2.842588     5.280449
H      -4.572038    -1.081467     5.124194
H      -2.993219    -2.711851     6.123835
C      -0.227715    -1.431494    -1.516360
O      -1.553900    -1.583860    -1.958988
C      -1.272580    -0.476288    -1.070706
C      -1.833687     0.844436    -1.475969
O      -2.035056     1.746649    -0.701030
O      -2.192998     0.872949    -2.764096
C      -2.935607     2.026306    -3.169712
H      -2.367355     2.939934    -2.993100
H      -3.127181     1.893657    -4.233962
H      -3.876839     2.079646    -2.617317
72
     -1725.758235     -1725.228930   6.75   7.45
C       2.403697    -2.066567    -2.225618
C       1.276727    -2.886867    -1.996607
C       0.564172    -3.353645    -3.101240
C       0.969521    -3.016063    -4.381990
C       2.105513    -2.206358    -4.579821
C       2.836370    -1.724239    -3.504945
C       2.167556    -2.328283    -0.020478
C       1.152209    -3.051948    -0.568526
H      -0.312259    -3.980713    -2.968322
H       0.404586    -3.386033    -5.227849
H       3.704956    -1.101596    -3.687029
H       2.432081    -2.209087     1.020970
N       2.928490    -1.724251    -1.005532
C       4.035423    -0.822692    -0.785464
H       4.279043    -0.817983     0.277903
H       4.919218    -1.149468    -1.341830
H       3.780251     0.199285    -1.086891
O       2.560187    -1.834964    -5.814610
C       1.886492    -2.334851    -6.953114
H       0.845002    -1.992139    -6.987493
H       2.421954    -1.940782    -7.817784
H       1.908858    -3.431032    -6.983045
N      -0.878652    -1.930867     1.370515
C      -0.016759    -1.861241     2.440131
O       0.597949    -2.825205     2.855666
C       0.080870    -0.479573     3.067236
H       0.535569     0.211622     2.348921
H       0.746709    -0.565348     3.926573
C      -1.308316     0.025966     3.485389
H      -1.696748    -0.642857     4.260854
H      -1.229611     1.022373     3.922375
C      -2.294459     0.032933     2.302722
C      -2.154243     1.298045     1.375547
H      -3.107377     1.711319     1.025040
C       0.154641    -3.896454     0.167961
H       0.630631    -4.341366     1.040587
H      -0.169974    -4.719763    -0.478385
C      -1.120710    -3.167706     0.618713
H      -1.712331    -2.880640    -0.251204
H      -1.719887    -3.851164     1.231456
C      -3.700150    -0.335821     2.786549
H      -3.620738    -1.297009     3.309532
H      -3.975130     0.401267     3.552914
C      -4.823025    -0.432168     1.752263
H      -4.639515    -1.228421     1.028271
H      -5.769160    -0.646615     2.258842
H      -4.955623     0.497961     1.193101
O      -1.354234     2.287326     1.941012
C      -1.406203     3.539858     1.258920
H      -1.166731     3.394924     0.198573
H      -2.420726     3.954760     1.336439
C      -0.408601     4.471245     1.893067
C       0.955236     4.201429     1.781306
C      -0.824635     5.596453     2.594753
C       1.885259     5.048928     2.365582
H       1.275592     3.321695     1.232119
C       0.106622     6.449801     3.178976
H      -1.886383     5.808605     2.688049
C       1.462807     6.176159     3.065424
H       2.945298     4.832351     2.275360
H      -0.229470     7.326233     3.724319
H       2.192115     6.838675     3.521141
C      -1.672707    -0.784370     1.162889
O      -2.423554    -0.626671    -0.008260
C      -1.477762     0.403049     0.301920
C      -0.417371     0.747665    -0.683381
O       0.498832     1.491687    -0.422973
O      -0.621884     0.178126    -1.866108
C       0.303114     0.541605    -2.903173
H       0.108665     1.568987    -3.221559
H       1.328863     0.451505    -2.550294
H       0.123855    -0.159021    -3.716349
72
     -1725.757928     -1725.228756   6.94   7.56
C      -0.556792    -0.861592     4.683122
C       0.151008    -0.629593     3.491450
C      -0.090441     0.568353     2.805704
C      -0.994170     1.475423     3.305028
C      -1.688788     1.217951     4.507272
C      -1.483190     0.048470     5.215322
C       0.749019    -2.627389     4.297711
C       0.988159    -1.780106     3.258861
H       0.425332     0.778037     1.877716
H      -1.200181     2.407592     2.790371
H      -2.008531    -0.170473     6.135751
H       1.170815    -3.603598     4.497753
N      -0.179286    -2.086923     5.169021
C      -0.694444    -2.718367     6.359990
H      -0.507979    -2.100497     7.244764
H      -1.771381    -2.900616     6.275815
H      -0.192181    -3.677242     6.498684
O      -2.555115     2.203431     4.888206
C      -3.286497     2.009490     6.081166
H      -3.910086     2.895758     6.204383
H      -3.928742     1.122020     6.017268
H      -2.620555     1.913073     6.947986
N       0.257239    -1.660400     0.222700
C      -1.086042    -1.611560     0.551586
O      -1.584241    -2.348529     1.373742
C      -1.865426    -0.580187    -0.248875
H      -1.499543     0.421547    -0.001499
H      -2.907022    -0.646627     0.066874
C      -1.720307    -0.848604    -1.755608
H      -2.190238    -1.813422    -1.974011
H      -2.258584    -0.089213    -2.324567
C      -0.245510    -0.909770    -2.199753
C       0.396840     0.494015    -2.507275
H       1.031061     0.515753    -3.397337
C       1.887141    -2.051763     2.088164
H       2.646676    -2.785165     2.380462
H       2.418779    -1.143069     1.793068
C       1.157387    -2.620549     0.862688
H       1.886445    -2.940663     0.114079
H       0.551253    -3.480469     1.154955
C      -0.070519    -2.004203    -3.259469
H      -0.417534    -2.945416    -2.814383
H      -0.778516    -1.774476    -4.067185
C       1.317225    -2.224570    -3.864332
H       2.046681    -2.532193    -3.112896
H       1.262364    -3.010639    -4.623976
H       1.702148    -1.326345    -4.355259
O      -0.548919     1.522734    -2.535216
C      -0.145021     2.670035    -3.276456
H      -0.925277     3.412900    -3.089338
H       0.795484     3.065861    -2.880683
C      -0.029247     2.389921    -4.759855
C      -0.992539     1.618013    -5.408592
C       1.034658     2.899390    -5.497280
C      -0.894661     1.365593    -6.769837
H      -1.822089     1.212678    -4.837462
C       1.133077     2.652306    -6.863126
H       1.797547     3.491719    -4.999316
C       0.168706     1.884833    -7.502515
H      -1.651668     0.763459    -7.262953
H       1.967858     3.058690    -7.425675
H       0.244038     1.689534    -8.567515
C       0.631900    -0.964126    -0.940848
O       1.977342    -0.827081    -1.285659
C       1.209230     0.387422    -1.198438
C       1.709461     1.487010    -0.333287
O       1.396987     2.642404    -0.479393
O       2.546246     1.051164     0.614747
C       3.061372     2.062062     1.494736
H       3.715491     1.537811     2.190304
H       3.620563     2.808165     0.926508
H       2.245721     2.550825     2.031908
72
     -1725.763812     -1725.228443   3.25   7.75
C      -2.463903    -0.539752     0.802930
C      -1.808380    -1.671613     0.289223
C      -1.686479    -1.790031    -1.102928
C      -2.136313    -0.774551    -1.913150
C      -2.728272     0.385874    -1.366077
C      -2.913088     0.516161    -0.002180
C      -1.943061    -1.872233     2.512794
C      -1.448947    -2.503930     1.411035
H      -1.253837    -2.681866    -1.543301
H      -2.048837    -0.834274    -2.992777
H      -3.369924     1.392837     0.436887
H      -1.910209    -2.184360     3.548001
N      -2.561694    -0.687032     2.162978
C      -3.140417     0.275993     3.070185
H      -4.141705     0.561754     2.734499
H      -3.233608    -0.177238     4.059325
H      -2.512944     1.170315     3.145140
O      -3.101623     1.323392    -2.282229
C      -3.661366     2.528132    -1.793659
H      -2.955672     3.058544    -1.143878
H      -3.867735     3.144352    -2.668594
H      -4.597528     2.339637    -1.253121
N       1.345704    -2.796579     0.221100
C       1.224262    -3.329657    -1.047916
O       0.849064    -4.476542    -1.201175
C       1.537401    -2.448034    -2.251537
H       0.756350    -2.669414    -2.982563
H       2.464934    -2.828589    -2.686975
C       1.618084    -0.948556    -1.962973
H       2.001470    -0.410483    -2.835233
H       0.616796    -0.566932    -1.764550
C       2.497416    -0.716240    -0.744121
C       2.143355     0.572422     0.091866
H       3.010555     1.186381     0.363698
C      -0.659904    -3.779996     1.381539
H      -0.948793    -4.382236     0.516997
H      -0.889476    -4.373228     2.273156
C       0.866811    -3.586595     1.361174
H       1.200226    -3.073432     2.263380
H       1.349385    -4.566381     1.318373
C       4.006501    -0.904453    -0.997564
H       4.227987    -0.554421    -2.013054
H       4.552866    -0.239191    -0.322116
C       4.567431    -2.317514    -0.797935
H       4.135042    -3.054969    -1.476924
H       5.646844    -2.310823    -0.976659
H       4.404376    -2.665207     0.225645
O       1.153396     1.336421    -0.524610
C       1.062380     2.685974    -0.098064
H       0.628842     2.736157     0.904949
H       2.072122     3.123287    -0.058903
C       0.223738     3.478653    -1.073389
C      -0.022872     3.030873    -2.367238
C      -0.278500     4.718837    -0.680702
C      -0.744341     3.818141    -3.258362
H       0.343277     2.059054    -2.674824
C      -0.998891     5.506355    -1.569217
H      -0.100502     5.072649     0.331686
C      -1.229454     5.058974    -2.866296
H      -0.932104     3.452555    -4.263221
H      -1.378110     6.472164    -1.249529
H      -1.788580     5.674034    -3.564697
C       1.936131    -1.540384     0.413167
O       2.743673    -1.249344     1.530516
C       1.654465    -0.343470     1.242582
C       0.776012     0.027829     2.388490
O       0.047672     0.989549     2.386304
O       0.965861    -0.762967     3.449337
C       0.319536    -0.342749     4.654866
H       0.565475    -1.099269     5.399177
H       0.701313     0.633331     4.963830
H      -0.759686    -0.276098     4.517408
72
     -1725.758301     -1725.228401   6.71   7.78
C       3.690577    -1.204042     0.442826
C       3.477970    -0.691442    -0.847841
C       4.395117     0.237324    -1.358960
C       5.458133     0.637587    -0.583431
C       5.642199     0.119811     0.718895
C       4.766512    -0.808843     1.252835
C       1.836012    -2.139531    -0.384784
C       2.272319    -1.292879    -1.358121
H       4.267912     0.647696    -2.356334
H       6.184974     1.355397    -0.947739
H       4.893743    -1.219136     2.246027
H       0.988835    -2.808506    -0.373305
N       2.683757    -2.093654     0.710716
C       2.514788    -2.836073     1.938049
H       3.388093    -3.464961     2.139901
H       2.357033    -2.163706     2.787863
H       1.640526    -3.481091     1.841038
O       6.735204     0.608665     1.375218
C       6.989143     0.129608     2.680528
H       6.163924     0.369866     3.362613
H       7.158351    -0.954462     2.682883
H       7.893978     0.634914     3.019935
N      -0.731201    -1.620806    -2.183876
C      -1.298644    -2.775306    -1.682446
O      -0.755813    -3.858012    -1.803213
C      -2.661692    -2.691367    -1.011142
H      -2.597455    -3.329341    -0.126442
H      -3.331483    -3.213295    -1.699788
C      -3.196759    -1.305712    -0.639527
H      -4.274960    -1.354990    -0.456909
H      -2.740644    -0.998781     0.303588
C      -2.874386    -0.240739    -1.692628
C      -2.543327     1.143131    -1.028787
H      -2.852521     1.998536    -1.644033
C       1.680877    -0.970587    -2.697294
H       2.419691    -1.196192    -3.477672
H       1.503634     0.106186    -2.759284
C       0.416723    -1.727186    -3.097545
H       0.097423    -1.363457    -4.080328
H       0.619140    -2.794207    -3.179362
C      -3.819347    -0.142214    -2.886962
H      -4.792723     0.201655    -2.514063
H      -3.438630     0.651734    -3.539709
C      -4.008663    -1.415196    -3.713203
H      -4.553695    -2.186040    -3.162346
H      -4.586700    -1.193061    -4.614868
H      -3.050321    -1.837733    -4.032773
O      -3.008248     1.264708     0.274762
C      -2.890482     2.580921     0.809430
H      -1.860444     2.941089     0.685599
H      -3.560926     3.260392     0.264965
C      -3.250221     2.545216     2.270664
C      -2.483635     1.782179     3.151625
C      -4.333221     3.266569     2.758645
C      -2.802315     1.745342     4.501215
H      -1.638530     1.219763     2.767273
C      -4.651906     3.233742     4.113088
H      -4.936197     3.858430     2.075122
C      -3.886814     2.472242     4.985643
H      -2.202545     1.148312     5.181282
H      -5.499720     3.801548     4.483649
H      -4.133323     2.442679     6.042465
C      -1.380657    -0.383769    -1.989261
O      -0.905911     0.754789    -2.675167
C      -1.032522     0.842508    -1.247590
C       0.091469     1.205555    -0.338328
O       0.042579     0.958517     0.841856
O       1.075223     1.874691    -0.933541
C       2.113053     2.338870    -0.049392
H       2.856877     2.806234    -0.691377
H       1.697285     3.065133     0.653246
H       2.553506     1.504779     0.495931
72
     -1725.757573     -1725.228262   7.17   7.87
C      -3.677296    -3.955007     0.024869
C      -2.635269    -3.235009    -0.583034
C      -2.101103    -3.707019    -1.792397
C      -2.610926    -4.860038    -2.343543
C      -3.658376    -5.568778    -1.714210
C      -4.210408    -5.132370    -0.523118
C      -3.219828    -2.179995     1.302933
C      -2.356513    -2.095809     0.254080
H      -1.294767    -3.172313    -2.286575
H      -2.223896    -5.256438    -3.275556
H      -5.013249    -5.663130    -0.028537
H      -3.336445    -1.519964     2.152250
N      -4.027116    -3.300421     1.179108
C      -5.061696    -3.707076     2.099285
H      -4.853978    -4.699942     2.512872
H      -5.103253    -2.993323     2.923708
H      -6.041407    -3.726236     1.609474
O      -4.061680    -6.694555    -2.376886
C      -5.104971    -7.456232    -1.806012
H      -4.827916    -7.836017    -0.814369
H      -6.030130    -6.871607    -1.724493
H      -5.271417    -8.298466    -2.478677
N       1.149029    -0.787951    -0.341096
C       1.457462    -0.811373    -1.681466
O       0.943301    -1.597960    -2.453087
C       2.485823     0.230844    -2.100333
H       1.980379     1.201677    -2.151842
H       2.806398    -0.028610    -3.110099
C       3.685339     0.303148    -1.140320
H       4.237198    -0.640280    -1.210786
H       4.364156     1.097365    -1.456258
C       3.269707     0.509539     0.329715
C       2.922511     2.002505     0.691334
H       3.231879     2.281487     1.703190
C      -1.300686    -1.065863     0.000606
H      -1.437781    -0.200108     0.653777
H      -1.379288    -0.710447    -1.032941
C       0.103444    -1.650483     0.201312
H       0.306343    -1.807210     1.262454
H       0.186978    -2.610079    -0.310125
C       4.225628    -0.240076     1.261368
H       4.244402    -1.285871     0.930478
H       5.233889     0.153630     1.075013
C       3.936900    -0.208253     2.763306
H       2.973117    -0.664220     2.998931
H       4.713793    -0.763297     3.298110
H       3.928505     0.808561     3.165980
O       3.379275     2.934284    -0.240758
C       3.646366     4.237355     0.274917
H       4.184496     4.144788     1.227682
H       4.321147     4.697039    -0.450498
C       2.418045     5.100670     0.450721
C       2.085113     6.044839    -0.517394
C       1.605967     4.980914     1.577050
C       0.967318     6.856059    -0.364904
H       2.713136     6.150973    -1.397522
C       0.478447     5.778272     1.727115
H       1.849176     4.256542     2.349238
C       0.159670     6.722855     0.758597
H       0.725674     7.592128    -1.125446
H      -0.152573     5.658069     2.601420
H      -0.716606     7.352348     0.878449
C       1.772191     0.214494     0.418866
O       1.244151     0.619780     1.653518
C       1.413810     1.627663     0.651464
C       0.203370     2.388650     0.226227
O      -0.812193     2.481891     0.862002
O       0.406866     2.944593    -0.973507
C      -0.670655     3.756374    -1.464438
H      -0.309691     4.187365    -2.397131
H      -1.557224     3.142343    -1.638772
H      -0.902059     4.542775    -0.745284
72
     -1725.758317     -1725.228094   6.70   7.97
C      -4.017780     2.838220    -1.173823
C      -2.877668     2.093606    -0.801958
C      -2.125246     2.524226     0.291987
C      -2.514111     3.657961     0.986137
C      -3.658802     4.379524     0.596586
C      -4.424604     3.981518    -0.487980
C      -3.816117     1.120455    -2.587916
C      -2.768758     0.992032    -1.729379
H      -1.232586     1.988154     0.598345
H      -1.920999     3.983110     1.830719
H      -5.299571     4.557951    -0.765948
H      -4.094977     0.494546    -3.425537
N      -4.581153     2.230614    -2.267881
C      -5.761373     2.683912    -2.962737
H      -5.972894     2.001029    -3.787365
H      -6.629428     2.699718    -2.294789
H      -5.615378     3.688908    -3.373538
O      -4.094916     5.505844     1.241253
C      -3.356549     5.961719     2.356446
H      -2.328423     6.224585     2.078309
H      -3.870873     6.854636     2.714684
H      -3.333555     5.212485     3.157443
N      -1.051425    -2.193681    -0.535208
C      -1.215952    -3.221540    -1.439630
O      -2.167252    -3.242149    -2.197043
C      -0.184943    -4.342275    -1.447918
H      -0.058762    -4.622209    -2.495956
H      -0.668343    -5.197737    -0.964058
C       1.158215    -4.012347    -0.793341
H       1.782773    -4.908068    -0.727231
H       1.699736    -3.294917    -1.416508
C       0.928816    -3.404419     0.592142
C       2.076197    -2.418865     1.005543
H       2.242208    -2.391423     2.087653
C      -1.744831    -0.100916    -1.710693
H      -0.742985     0.329749    -1.610842
H      -1.772169    -0.654143    -2.653238
C      -2.006232    -1.080601    -0.560062
H      -1.948366    -0.574506     0.402860
H      -3.003901    -1.507874    -0.670776
C       0.504750    -4.452618     1.621103
H      -0.249970    -5.104749     1.167974
H       1.379923    -5.090161     1.803497
C      -0.040667    -3.933630     2.952602
H      -0.273763    -4.775865     3.611272
H       0.675315    -3.293354     3.474410
H      -0.955327    -3.352646     2.810205
O       3.274816    -2.626141     0.324647
C       4.451527    -2.215238     1.017036
H       4.384895    -2.534865     2.065587
H       5.266125    -2.770299     0.546335
C       4.732016    -0.731600     0.941913
C       5.619594    -0.236530    -0.010711
C       4.126690     0.162892     1.822352
C       5.903695     1.121582    -0.079903
H       6.100356    -0.924517    -0.700508
C       4.396102     1.523912     1.748573
H       3.433991    -0.200678     2.576176
C       5.291168     2.005868     0.800959
H       6.603717     1.490387    -0.823246
H       3.903769     2.207568     2.432081
H       5.509313     3.067977     0.747390
C       0.048295    -2.180141     0.342581
O       0.041816    -1.332652     1.469971
C       1.159009    -1.236995     0.577953
C       1.468177     0.087933    -0.030413
O       1.078971     1.147175     0.384702
O       2.234713    -0.073708    -1.111953
C       2.644863     1.139162    -1.761212
H       1.776073     1.661658    -2.168758
H       3.164854     1.784443    -1.052518
H       3.318173     0.828996    -2.558846
72
     -1725.754381     -1725.227849   9.17   8.13
C      -4.470310    -2.411083     2.498412
C      -3.870099    -1.578237     1.539208
C      -4.433100    -0.316576     1.290796
C      -5.552042     0.066788     1.993581
C      -6.138780    -0.787008     2.953911
C      -5.612337    -2.037396     3.224340
C      -2.703368    -3.485327     1.652132
C      -2.735854    -2.288474     1.004730
H      -3.990251     0.350234     0.556589
H      -6.014542     1.033735     1.830248
H      -6.049411    -2.703454     3.956591
H      -2.007850    -4.307173     1.544958
N      -3.747576    -3.575798     2.559792
C      -4.030839    -4.700150     3.418794
H      -5.019563    -5.121096     3.205895
H      -3.282637    -5.475540     3.246058
H      -3.990028    -4.410599     4.474510
O      -7.244499    -0.272736     3.572152
C      -7.884258    -1.069961     4.546581
H      -8.254726    -2.009111     4.116337
H      -7.212283    -1.295611     5.384373
H      -8.729326    -0.485504     4.912405
N      -0.169329     0.050994    -0.518905
C      -0.814047     1.067855    -1.191700
O      -1.947525     1.396411    -0.896811
C      -0.074068     1.763629    -2.326868
H      -0.325724     2.822952    -2.241864
H      -0.541157     1.413537    -3.253646
C       1.439785     1.549806    -2.349021
H       1.878757     1.996239    -3.243600
H       1.867320     2.082346    -1.498974
C       1.739743     0.058014    -2.242431
C       3.135091    -0.332923    -1.605425
H       3.554249    -1.227124    -2.072283
C      -1.787408    -1.768037    -0.030364
H      -2.354954    -1.360762    -0.874521
H      -1.159832    -2.575998    -0.417243
C      -0.896303    -0.657484     0.540026
H      -1.505798     0.081883     1.058019
H      -0.169364    -1.060016     1.242675
C       1.379827    -0.745148    -3.491774
H       1.493416    -1.807971    -3.254911
H       0.320085    -0.599432    -3.731153
C       2.240335    -0.389427    -4.705138
H       3.306272    -0.499983    -4.481694
H       2.007259    -1.045140    -5.548957
H       2.075803     0.640774    -5.034096
O       4.180254     0.596649    -1.603979
C       4.207076     1.667153    -0.673092
H       3.332665     1.646126    -0.013041
H       5.087238     1.523793    -0.035402
C       4.295279     3.012279    -1.361557
C       3.950249     4.166029    -0.660475
C       4.740099     3.125789    -2.674812
C       4.049884     5.415061    -1.260489
H       3.598124     4.089026     0.365454
C       4.838345     4.375386    -3.277316
H       5.005815     2.230604    -3.225021
C       4.495489     5.523123    -2.573142
H       3.778663     6.305440    -0.701738
H       5.187036     4.451387    -4.302756
H       4.574424     6.497549    -3.044491
C       1.081035    -0.417222    -0.948276
O       1.463841    -1.745148    -0.703508
C       2.385337    -0.698142    -0.302140
C       2.809502    -0.764617     1.128363
O       2.056183    -0.837494     2.063815
O       4.144131    -0.757633     1.232154
C       4.653841    -0.831049     2.573154
H       4.332861    -1.760720     3.047178
H       5.738395    -0.803913     2.476851
H       4.295476     0.015635     3.162531
72
     -1725.758408     -1725.227405   6.64   8.41
C       1.834527    -3.698098    -0.053030
C       2.665332    -2.599847     0.230073
C       3.941907    -2.569179    -0.350602
C       4.340726    -3.596695    -1.172418
C       3.484922    -4.686159    -1.442418
C       2.219338    -4.757314    -0.889030
C       0.731186    -2.334914     1.331031
C       1.933727    -1.731565     1.120241
H       4.616203    -1.739676    -0.166873
H       5.319344    -3.595605    -1.638931
H       1.547640    -5.583037    -1.084398
H      -0.090502    -2.008445     1.953402
N       0.654176    -3.523799     0.625089
C      -0.448266    -4.454237     0.646123
H      -1.203020    -4.093814     1.347012
H      -0.909255    -4.551299    -0.343301
H      -0.119074    -5.444374     0.978703
O       4.011074    -5.632760    -2.277454
C       3.206256    -6.748834    -2.594123
H       2.284420    -6.445845    -3.106812
H       3.799601    -7.373686    -3.262855
H       2.948372    -7.325069    -1.696401
N       1.703784     1.108078    -0.094893
C       1.696609     0.836439    -1.449334
O       2.557195     0.179322    -1.995016
C       0.526593     1.467108    -2.193874
H      -0.400752     0.977857    -1.877493
H       0.674654     1.255058    -3.253375
C       0.442602     2.982496    -1.936355
H       1.330342     3.456372    -2.365735
H      -0.424087     3.399302    -2.452501
C       0.373316     3.305574    -0.435429
C      -1.068557     3.176171     0.186215
H      -1.277099     3.958932     0.924758
C       2.400173    -0.454573     1.752488
H       3.287090    -0.650772     2.369200
H       1.623824    -0.083194     2.426479
C       2.790768     0.657496     0.772323
H       3.158290     1.517536     1.340982
H       3.584405     0.327003     0.102281
C       1.116160     4.584673    -0.052977
H       0.736941     5.399921    -0.682400
H       0.862337     4.842698     0.981070
C       2.638188     4.491267    -0.175272
H       2.962278     4.222606    -1.184536
H       3.099783     5.451355     0.073294
H       3.042203     3.744358     0.514179
O      -2.093197     3.091646    -0.755666
C      -3.362987     3.583397    -0.331008
H      -3.220306     4.520258     0.223723
H      -3.901469     3.815790    -1.252512
C      -4.164762     2.604360     0.495958
C      -3.928571     2.447014     1.860437
C      -5.171925     1.849585    -0.100612
C      -4.674597     1.546760     2.610639
H      -3.152445     3.028893     2.349488
C      -5.930582     0.957668     0.647640
H      -5.369835     1.968090    -1.162304
C      -5.681964     0.803432     2.006631
H      -4.465729     1.425428     3.668262
H      -6.716604     0.382013     0.168805
H      -6.271009     0.105315     2.593238
C       0.742749     2.036416     0.343012
O       0.482918     2.219925     1.712367
C      -0.619525     1.858075     0.873184
C      -1.369758     0.608615     1.183117
O      -1.407493     0.064057     2.254749
O      -2.000071     0.179795     0.084224
C      -2.827574    -0.979118     0.250948
H      -2.208032    -1.857952     0.441237
H      -3.524977    -0.828056     1.075419
H      -3.367926    -1.090242    -0.688079
72
     -1725.752864     -1725.226397  10.12   9.04
C      -5.116003    -0.427897     1.956522
C      -4.184420     0.041983     1.006102
C      -4.656776     0.562386    -0.199046
C      -6.021416     0.607058    -0.436115
C      -6.930337     0.132713     0.529518
C      -6.491961    -0.390220     1.736503
C      -3.060286    -0.713472     2.789440
C      -2.869918    -0.149349     1.567046
H      -3.962679     0.929198    -0.950014
H      -6.379430     1.012196    -1.373587
H      -7.216782    -0.748115     2.458807
H      -2.325276    -1.023319     3.520246
N      -4.413898    -0.887750     3.041819
C      -4.993442    -1.448885     4.237730
H      -5.641224    -0.722524     4.740690
H      -5.581191    -2.344362     4.008008
H      -4.191684    -1.728937     4.923037
O      -8.288572     0.149380     0.356766
C      -8.799160     0.666946    -0.854719
H      -8.524707     1.720524    -0.989897
H      -8.449034     0.088681    -1.718809
H      -9.884773     0.585367    -0.784668
N      -0.090759    -0.510514    -0.994494
C      -0.230002     0.495807    -1.929652
O      -1.310456     1.018780    -2.125500
C       1.002818     0.935138    -2.707910
H       0.913057     2.018087    -2.815945
H       0.901524     0.518198    -3.715230
C       2.336918     0.545407    -2.070395
H       3.171234     0.827932    -2.715414
H       2.450599     1.120207    -1.150835
C       2.320553    -0.947861    -1.766118
C       3.252870    -1.455419    -0.591213
H       3.684027    -2.433643    -0.815285
C      -1.572875     0.167124     0.890688
H      -0.761332     0.179769     1.620284
H      -1.629408     1.156728     0.427397
C      -1.264684    -0.872792    -0.191528
H      -1.068944    -1.843041     0.261413
H      -2.113613    -0.966272    -0.870643
C       2.373646    -1.835613    -3.010674
H       2.217358    -2.871407    -2.694111
H       1.535772    -1.592926    -3.673884
C       3.692903    -1.721101    -3.776289
H       4.548877    -1.927447    -3.125714
H       3.722313    -2.437894    -4.601885
H       3.833638    -0.723524    -4.202469
O       4.336523    -0.675697    -0.174886
C       4.141894     0.490839     0.608840
H       3.081202     0.649672     0.832483
H       4.644501     0.324627     1.568491
C       4.718177     1.723224    -0.054864
C       5.680066     1.624351    -1.054967
C       4.299269     2.985622     0.360548
C       6.214449     2.771830    -1.631083
H       6.006264     0.644368    -1.383518
C       4.833831     4.132691    -0.212635
H       3.545683     3.074786     1.139448
C       5.795092     4.028440    -1.211842
H       6.964808     2.682051    -2.410692
H       4.498806     5.109661     0.121771
H       6.214613     4.922762    -1.661365
C       1.123844    -1.195175    -0.846066
O       1.152485    -2.537927    -0.443664
C       1.988351    -1.606581     0.289834
C       1.778668    -1.646443     1.768547
O       0.703800    -1.694216     2.307064
O       2.949086    -1.656226     2.418494
C       2.856487    -1.715664     3.850070
H       2.336856    -2.625459     4.157109
H       3.884227    -1.721024     4.210547
H       2.317951    -0.845838     4.232361
72
     -1725.759113     -1725.225959   6.20   9.31
C      -2.122711    -1.263873     2.532549
C      -2.321582    -2.006130     1.353699
C      -3.575300    -1.935294     0.727869
C      -4.567457    -1.158354     1.278021
C      -4.348066    -0.435749     2.470475
C      -3.125414    -0.475366     3.117019
C      -0.229753    -2.350038     2.073967
C      -1.089828    -2.706034     1.082099
H      -3.767157    -2.473224    -0.194267
H      -5.543232    -1.081386     0.812011
H      -2.941114     0.066387     4.035527
H       0.800631    -2.641661     2.220267
N      -0.831890    -1.466111     2.950953
C      -0.230603    -0.951163     4.159593
H      -0.532578    -1.528574     5.041097
H       0.854867    -0.987160     4.055781
H      -0.520642     0.092229     4.309992
O      -5.423027     0.283738     2.909543
C      -5.276982     1.020731     4.105933
H      -4.492947     1.782932     4.013812
H      -6.235108     1.511333     4.281049
H      -5.046891     0.364449     4.954664
N      -0.445161    -1.803592    -1.701365
C      -1.192555    -0.874333    -2.400695
O      -2.371847    -1.028131    -2.647249
C      -0.396984     0.330743    -2.883471
H      -0.138496     0.957625    -2.025811
H      -1.061415     0.903722    -3.531377
C       0.873872    -0.104019    -3.634790
H       0.572249    -0.678672    -4.518443
H       1.415461     0.774739    -3.988995
C       1.778961    -0.989336    -2.763169
C       2.629345    -0.202396    -1.701271
H       3.652995    -0.579070    -1.579729
C      -0.783321    -3.671232    -0.021883
H      -1.424659    -4.557708     0.065436
H       0.245330    -4.017157     0.098279
C      -0.988950    -3.137681    -1.445125
H      -0.549295    -3.848942    -2.156059
H      -2.049040    -3.057420    -1.682075
C       2.541325    -2.043816    -3.555556
H       3.081011    -2.690366    -2.854681
H       1.814526    -2.682756    -4.073222
C       3.515332    -1.437374    -4.566738
H       4.236337    -0.775782    -4.075170
H       4.078870    -2.220433    -5.081717
H       2.992776    -0.849984    -5.327518
O       2.607664     1.181283    -1.897763
C       3.363196     1.930931    -0.946847
H       3.751506     1.276487    -0.159117
H       4.223119     2.370135    -1.469593
C       2.524017     3.026634    -0.329759
C       2.732015     3.403439     0.993633
C       1.566476     3.700819    -1.084128
C       2.008614     4.451385     1.552344
H       3.459683     2.867816     1.596473
C       0.839190     4.745336    -0.526915
H       1.392120     3.403607    -2.112679
C       1.061567     5.127190     0.792370
H       2.185264     4.739085     2.584088
H       0.098986     5.266843    -1.125980
H       0.497188     5.946811     1.225765
C       0.926137    -1.504071    -1.594272
O       1.752277    -2.148468    -0.642102
C       1.670008    -0.722208    -0.606656
C       1.284615    -0.011842     0.654377
O       1.957458    -0.016990     1.653253
O       0.164684     0.683844     0.464461
C      -0.294521     1.562771     1.505447
H      -0.306547     2.571659     1.091667
H      -1.301203     1.248754     1.781303
H       0.376594     1.520443     2.361369
72
     -1725.751174     -1725.225814  11.18   9.40
C      -4.543139     2.299641    -2.585830
C      -3.147984     2.137803    -2.613513
C      -2.360034     3.149539    -3.185050
C      -2.976246     4.267938    -3.697077
C      -4.381251     4.410195    -3.657408
C      -5.189185     3.433297    -3.103927
C      -4.052705     0.335538    -1.640119
C      -2.852690     0.866797    -2.001599
H      -1.278583     3.054100    -3.221672
H      -2.401876     5.070782    -4.145540
H      -6.266530     3.526516    -3.065965
H      -4.271185    -0.605574    -1.153083
N      -5.086693     1.190432    -1.987715
C      -6.493254     0.956608    -1.763872
H      -6.617955    -0.007712    -1.268548
H      -6.924997     1.732414    -1.122299
H      -7.044997     0.932678    -2.709866
O      -4.850427     5.572410    -4.202896
C      -6.246647     5.785671    -4.197902
H      -6.772487     5.012272    -4.772030
H      -6.644600     5.811616    -3.175532
H      -6.408935     6.755178    -4.670351
N       0.699125     0.709336    -0.682961
C       1.578132     1.365935    -1.517792
O       1.184536     2.202137    -2.308586
C       3.053746     1.004437    -1.417638
H       3.598424     1.940672    -1.556440
H       3.279740     0.387686    -2.294483
C       3.466762     0.303623    -0.121003
H       4.517408     0.007597    -0.164444
H       3.369659     1.000307     0.715707
C       2.551549    -0.895349     0.121367
C       2.365720    -1.266312     1.634100
H       2.290624    -2.343750     1.823428
C      -1.484525     0.296452    -1.793421
H      -0.914299     0.353327    -2.727034
H      -1.543683    -0.758817    -1.511464
C      -0.716875     1.073516    -0.717937
H      -0.772065     2.143335    -0.916769
H      -1.148533     0.891207     0.268629
C       2.773787    -2.080079    -0.814591
H       1.943243    -2.781283    -0.679754
H       2.719134    -1.739991    -1.855123
C       4.101098    -2.800233    -0.572741
H       4.200721    -3.657574    -1.244761
H       4.958448    -2.143760    -0.747862
H       4.171334    -3.174050     0.453320
O       3.309746    -0.664884     2.462362
C       3.275651    -1.118035     3.810963
H       3.926005    -0.429293     4.356430
H       2.265555    -1.017762     4.227798
C       3.768617    -2.540963     3.957652
C       4.947605    -2.937342     3.327128
C       3.063964    -3.468424     4.717089
C       5.412501    -4.238191     3.456743
H       5.496835    -2.217269     2.727961
C       3.529990    -4.772775     4.853270
H       2.139479    -3.171820     5.205227
C       4.704586    -5.160213     4.222935
H       6.331391    -4.535546     2.960949
H       2.970745    -5.485802     5.450855
H       5.069470    -6.177125     4.326181
C       1.136825    -0.324062     0.156421
O       0.227617    -1.325253     0.580638
C       0.959532    -0.594537     1.587107
C       0.296832     0.219869     2.654863
O       0.827871     1.221132     3.053989
O      -0.865775    -0.186351     3.184864
C      -1.439079    -1.462934     2.866439
H      -2.171098    -1.647276     3.652531
H      -1.931452    -1.437821     1.893482
H      -0.684227    -2.253824     2.876169
72
     -1725.752498     -1725.224855  10.35  10.01
C      -1.280551     4.564780    -2.848052
C      -1.745248     3.622791    -1.906212
C      -3.090762     3.252785    -1.931727
C      -3.934389     3.812879    -2.877112
C      -3.445234     4.750648    -3.807170
C      -2.114449     5.139528    -3.805782
C       0.439981     3.963610    -1.553339
C      -0.619392     3.251842    -1.082960
H      -3.478317     2.529218    -1.219937
H      -4.975800     3.519190    -2.890200
H      -1.768171     5.863682    -4.534294
H       1.466817     3.974578    -1.212064
N       0.058487     4.763115    -2.620120
C       0.911904     5.657235    -3.364509
H       1.924553     5.600448    -2.961531
H       0.944687     5.379050    -4.423444
H       0.564245     6.692850    -3.283303
O      -4.226936     5.338992    -4.764367
C      -5.593436     4.982906    -4.819930
H      -5.722450     3.912526    -5.022735
H      -6.114514     5.239926    -3.889398
H      -6.022223     5.558012    -5.641781
N      -1.163924    -0.114474     0.570011
C      -2.483157    -0.270279     0.932796
O      -3.360439     0.395702     0.415057
C      -2.807689    -1.299809     2.007524
H      -3.749572    -1.760417     1.702153
H      -3.027045    -0.733908     2.919822
C      -1.722298    -2.350805     2.250606
H      -1.995247    -2.998795     3.086676
H      -1.635505    -2.993070     1.369810
C      -0.385101    -1.652334     2.485736
C       0.862391    -2.513277     2.060779
H       1.730577    -2.369592     2.713099
C      -0.649406     2.255938     0.033992
H      -1.487338     2.479579     0.703412
H       0.266980     2.312144     0.628513
C      -0.830307     0.828838    -0.497147
H      -1.642796     0.798463    -1.222323
H       0.079126     0.485579    -0.993622
C      -0.256728    -0.917316     3.816562
H       0.682544    -0.353723     3.803216
H      -1.055370    -0.170881     3.899517
C      -0.288031    -1.844939     5.031765
H       0.481921    -2.620732     4.961087
H      -0.106732    -1.282158     5.951851
H      -1.254592    -2.345807     5.137711
O       0.590080    -3.867367     1.861518
C       1.613401    -4.758008     2.291069
H       1.818086    -4.605700     3.359616
H       1.183425    -5.755438     2.170797
C       2.895888    -4.638392     1.498723
C       2.876671    -4.780789     0.111622
C       4.107982    -4.396013     2.137699
C       4.051193    -4.683631    -0.620312
H       1.933462    -4.955551    -0.396711
C       5.288540    -4.302474     1.406468
H       4.133331    -4.281266     3.218317
C       5.261228    -4.447337     0.025497
H       4.020856    -4.786521    -1.700095
H       6.228001    -4.118274     1.918239
H       6.180163    -4.376407    -0.548073
C      -0.145065    -0.812540     1.234739
O       1.177197    -0.298854     1.249485
C       0.964646    -1.646933     0.772876
C       1.333907    -2.047673    -0.626081
O       0.561141    -2.666581    -1.307254
O       2.538013    -1.706475    -1.097219
C       3.549176    -1.189637    -0.217674
H       4.479827    -1.271540    -0.777427
H       3.350917    -0.147079     0.035952
H       3.626868    -1.794040     0.689598
72
     -1725.749382     -1725.224776  12.31  10.06
C      -4.713756    -3.087623    -0.718090
C      -3.617231    -2.360088    -0.224560
C      -3.810803    -1.020541     0.146542
C      -5.059827    -0.459637     0.015020
C      -6.146893    -1.210701    -0.484684
C      -5.995949    -2.533647    -0.859047
C      -2.934094    -4.437241    -0.701938
C      -2.481410    -3.247399    -0.220161
H      -2.985703    -0.429161     0.531873
H      -5.246209     0.572276     0.291119
H      -6.817610    -3.123586    -1.243377
H      -2.397077    -5.362973    -0.860655
N      -4.283723    -4.357662    -1.007561
C      -5.099344    -5.425141    -1.534671
H      -4.479668    -6.314127    -1.663185
H      -5.918551    -5.671358    -0.850341
H      -5.521529    -5.155148    -2.508756
O      -7.326118    -0.523657    -0.559817
C      -8.457768    -1.210659    -1.052126
H      -8.301825    -1.552745    -2.083103
H      -8.711278    -2.070686    -0.419401
H      -9.281291    -0.495877    -1.032246
N       0.896801    -1.512907    -0.362186
C       2.007039    -2.308983    -0.545743
O       1.922943    -3.388472    -1.097918
C       3.345060    -1.805374    -0.019353
H       4.086196    -2.086325    -0.770517
H       3.566917    -2.410718     0.866400
C       3.415157    -0.311885     0.302182
H       4.369027    -0.083828     0.785440
H       3.385288     0.263361    -0.627330
C       2.221624     0.081858     1.168932
C       1.750448     1.581289     0.986982
H       1.459636     2.068105     1.927598
C      -1.086915    -2.895752     0.197869
H      -0.485685    -3.800832     0.323214
H      -1.109406    -2.381508     1.165546
C      -0.406069    -1.990749    -0.835286
H      -0.236493    -2.543062    -1.759297
H      -1.019504    -1.121837    -1.065713
C       2.264158    -0.429519     2.606717
H       1.292436    -0.226039     3.068992
H       2.366881    -1.520848     2.591910
C       3.377874     0.178155     3.459872
H       3.343575    -0.225726     4.475547
H       4.370911    -0.039126     3.054819
H       3.276663     1.265495     3.538337
O       2.555105     2.418944     0.210238
C       3.633437     3.007934     0.921198
H       3.245251     3.624379     1.745731
H       4.260203     2.222763     1.366850
C       4.462434     3.855023    -0.011713
C       4.559328     3.553435    -1.367815
C       5.183053     4.932109     0.497757
C       5.369837     4.317641    -2.198762
H       3.992346     2.724492    -1.775746
C       5.995939     5.694701    -0.331965
H       5.108135     5.179907     1.553576
C       6.092057     5.387803    -1.683953
H       5.436655     4.075226    -3.254867
H       6.553630     6.530859     0.078160
H       6.725349     5.982336    -2.334605
C       0.977087    -0.323877     0.376284
O      -0.175691     0.187845     1.023560
C       0.570199     1.069666     0.151747
C      -0.156805     1.691553    -1.011144
O      -0.311318     1.107648    -2.047998
O      -0.641617     2.930130    -0.854831
C      -0.557583     3.598927     0.408901
H       0.457380     3.963166     0.583379
H      -1.241350     4.443698     0.332349
H      -0.879972     2.946297     1.225823
72
     -1725.749879     -1725.224485  11.99  10.24
C       1.612411     1.434064    -5.543844
C       1.106329     1.798782    -4.284965
C       0.072279     2.745936    -4.219624
C      -0.414855     3.286120    -5.387466
C       0.109006     2.904258    -6.642525
C       1.128552     1.974961    -6.745573
C       2.728322     0.285065    -3.985977
C       1.838969     1.049787    -3.295442
H      -0.341182     3.046482    -3.261212
H      -1.213552     4.019299    -5.377455
H       1.540994     1.671512    -7.698811
H       3.462085    -0.419616    -3.617622
N       2.604605     0.506498    -5.349041
C       3.384653    -0.124832    -6.386004
H       4.092800    -0.815940    -5.925826
H       2.745208    -0.691810    -7.071346
H       3.950085     0.616023    -6.961755
O      -0.472451     3.523605    -7.713786
C      -0.000897     3.190136    -9.002522
H       1.061470     3.439929    -9.117992
H      -0.148194     2.124638    -9.220173
H      -0.586978     3.783771    -9.705130
N      -0.075019     0.727548    -0.038234
C      -0.750457     1.896546     0.233217
O      -1.050662     2.673164    -0.653990
C      -1.099639     2.204376     1.683346
H      -2.101047     2.639526     1.663487
H      -0.424581     3.010817     1.990408
C      -1.023978     1.022971     2.651537
H      -1.167903     1.376965     3.675961
H      -1.838137     0.324016     2.440745
C       0.309803     0.301579     2.474487
C       0.262822    -1.243291     2.810232
H       1.150355    -1.606212     3.345827
C       1.615961     1.104892    -1.815851
H       1.586182     2.150216    -1.488553
H       2.439859     0.619663    -1.284513
C       0.291237     0.437363    -1.427762
H      -0.515403     0.814596    -2.054977
H       0.341716    -0.642830    -1.552035
C       1.532298     1.054324     2.993213
H       2.427690     0.514905     2.666529
H       1.578453     2.035368     2.506172
C       1.563339     1.233858     4.511252
H       2.470696     1.763630     4.814513
H       0.709215     1.813850     4.873759
H       1.560073     0.269717     5.030175
O      -0.911975    -1.738692     3.382890
C      -0.969933    -1.611318     4.792759
H      -0.105702    -2.123434     5.245056
H      -0.907546    -0.553235     5.081068
C      -2.251648    -2.208182     5.322616
C      -3.176414    -2.830135     4.491042
C      -2.508781    -2.133490     6.691285
C      -4.343330    -3.370534     5.023839
H      -2.985317    -2.891828     3.426487
C      -3.671812    -2.672571     7.222189
H      -1.791171    -1.648261     7.348707
C      -4.594698    -3.294409     6.386805
H      -5.058662    -3.853712     4.365443
H      -3.859851    -2.607762     8.289382
H      -5.505415    -3.716861     6.799074
C       0.376107    -0.100551     0.999240
O       1.491466    -0.947902     0.794525
C       0.270408    -1.533459     1.304312
C      -0.360534    -2.646551     0.511286
O      -1.059217    -2.429826    -0.440170
O      -0.114351    -3.905502     0.895643
C       0.821767    -4.184709     1.943024
H       1.747903    -3.617449     1.809713
H       0.378907    -3.976368     2.919595
H       1.037268    -5.249478     1.859338
72
     -1725.749641     -1725.224287  12.14  10.36
C      -3.055089    -2.450035    -4.214762
C      -2.568038    -1.274813    -3.604918
C      -3.433557    -0.191792    -3.443111
C      -4.744305    -0.295163    -3.879507
C      -5.206228    -1.480288    -4.484396
C      -4.370092    -2.572054    -4.660697
C      -0.905544    -2.773350    -3.692301
C      -1.181524    -1.507177    -3.278945
H      -3.088670     0.726959    -2.976910
H      -5.408740     0.548936    -3.749120
H      -4.755100    -3.470160    -5.129944
H       0.020694    -3.329688    -3.632419
N      -2.026556    -3.358109    -4.261201
C      -2.107592    -4.688568    -4.813970
H      -2.365317    -4.657999    -5.878164
H      -1.137878    -5.177814    -4.707498
H      -2.857665    -5.288293    -4.287191
O      -6.487815    -1.644387    -4.935684
C      -7.390809    -0.567876    -4.783760
H      -7.535061    -0.309688    -3.727350
H      -7.052805     0.321154    -5.330415
H      -8.338985    -0.907635    -5.202746
N       0.007178     0.794014    -0.511534
C      -0.558531     2.046556    -0.625117
O      -1.580392     2.216766    -1.262276
C       0.142167     3.205554     0.070507
H      -0.654338     3.843561     0.459038
H       0.638347     3.783107    -0.717327
C       1.125940     2.804722     1.171930
H       1.642476     3.683630     1.563522
H       0.576670     2.364537     2.008316
C       2.106308     1.769680     0.622583
C       2.675646     0.791925     1.711030
H       3.721141     0.499146     1.539686
C      -0.274819    -0.534341    -2.592505
H      -0.335940     0.440639    -3.088363
H       0.766027    -0.865399    -2.652745
C      -0.671970    -0.347606    -1.123685
H      -1.743438    -0.167244    -1.044508
H      -0.438094    -1.244224    -0.545531
C       3.128469     2.305968    -0.374877
H       3.675095     1.453244    -0.791740
H       2.606702     2.772443    -1.218543
C       4.111486     3.301831     0.241966
H       4.882295     3.581612    -0.481698
H       3.612261     4.220776     0.562269
H       4.614487     2.875629     1.116218
O       2.475558     1.242308     3.008558
C       3.094171     0.433311     4.007309
H       2.825204    -0.620960     3.852150
H       4.186499     0.523147     3.928458
C       2.623465     0.888436     5.362534
C       3.519099     1.394491     6.297174
C       1.270598     0.796406     5.690276
C       3.075542     1.804152     7.551114
H       4.573181     1.472313     6.044284
C       0.826942     1.207638     6.938660
H       0.572182     0.401143     4.959229
C       1.728428     1.711561     7.872703
H       3.783577     2.197495     8.273916
H      -0.227331     1.134507     7.187093
H       1.378418     2.031595     8.849208
C       1.238124     0.614960     0.133380
O       2.055510    -0.496626    -0.195314
C       1.691185    -0.299881     1.185899
C       0.915323    -1.302249     1.982241
O       0.135799    -0.922433     2.815546
O       1.111066    -2.612291     1.789238
C       2.149540    -3.104104     0.928375
H       3.087978    -2.566250     1.087350
H       2.276079    -4.149650     1.208059
H       1.855360    -3.027705    -0.119054
72
     -1725.750239     -1725.223507  11.77  10.85
C      -4.207782    -2.201287    -2.425001
C      -3.246579    -2.019029    -1.416429
C      -3.525860    -1.124491    -0.373238
C      -4.718861    -0.439101    -0.374579
C      -5.665951    -0.629341    -1.405879
C      -5.431166    -1.512803    -2.443966
C      -2.463045    -3.522635    -2.875719
C      -2.130698    -2.875977    -1.725046
H      -2.809866    -0.974665     0.429523
H      -4.969385     0.259879     0.416026
H      -6.147494    -1.673200    -3.238923
H      -1.899152    -4.250834    -3.443407
N      -3.717573    -3.125919    -3.311915
C      -4.394951    -3.604295    -4.493715
H      -4.599039    -2.784315    -5.190695
H      -3.757032    -4.332551    -4.997077
H      -5.340531    -4.093367    -4.235946
O      -6.801448     0.119500    -1.278305
C      -7.794778    -0.014550    -2.274287
H      -8.603262     0.660384    -1.991194
H      -7.413121     0.273797    -3.261808
H      -8.180768    -1.040682    -2.319654
N       1.177066    -1.637528    -0.359114
C       2.269276    -2.477445    -0.424548
O       2.330413    -3.352671    -1.265518
C       3.379015    -2.277834     0.598506
H       4.312545    -2.479254     0.069251
H       3.265294    -3.082375     1.333841
C       3.403520    -0.905660     1.274632
H       4.173031    -0.872995     2.048921
H       3.667341    -0.142557     0.537775
C       2.019263    -0.589481     1.840933
C       1.705862     0.946761     1.906411
H       1.086176     1.234662     2.767298
C      -0.851534    -2.949473    -0.950130
H      -0.337141    -3.898004    -1.122677
H      -1.070015    -2.889074     0.121863
C       0.093066    -1.799878    -1.328416
H       0.536695    -1.985365    -2.307510
H      -0.458438    -0.860035    -1.375379
C       1.616429    -1.397582     3.070007
H       0.565193    -1.180466     3.288794
H       1.662198    -2.467440     2.835323
C       2.475146    -1.098380     4.299444
H       3.512786    -1.413072     4.156545
H       2.481867    -0.027957     4.529745
H       2.089632    -1.625159     5.176908
O       2.837674     1.743055     1.800881
C       2.587196     3.135751     1.978744
H       1.752851     3.449508     1.335669
H       2.304853     3.328254     3.023114
C       3.829922     3.904101     1.617417
C       4.324764     3.843217     0.314523
C       4.489897     4.680638     2.562472
C       5.465787     4.552521    -0.030840
H       3.808502     3.236009    -0.422542
C       5.632767     5.395360     2.216133
H       4.110463     4.727021     3.579812
C       6.122110     5.331324     0.918776
H       5.846399     4.499944    -1.046176
H       6.140353     5.999248     2.961885
H       7.014212     5.886148     0.645249
C       1.072404    -0.666373     0.647666
O      -0.200988    -0.149281     1.002873
C       0.833239     0.780463     0.622400
C       0.739065     1.715126    -0.544403
O       1.732923     1.964882    -1.174849
O      -0.420933     2.301356    -0.855372
C      -1.600540     2.133947    -0.052048
H      -2.108963     1.204583    -0.306798
H      -1.365481     2.152417     1.015022
H      -2.234820     2.984519    -0.301283
72
     -1725.750860     -1725.223076  11.38  11.12
C      -5.121977    -0.349508     0.832444
C      -3.905152    -0.797633     0.290904
C      -3.922061    -1.440775    -0.955833
C      -5.119355    -1.614749    -1.610097
C      -6.330087    -1.155686    -1.044842
C      -6.354729    -0.517062     0.181744
C      -3.487019     0.168209     2.265227
C      -2.863838    -0.455824     1.227157
H      -3.001549    -1.799963    -1.405500
H      -5.168646    -2.107398    -2.574730
H      -7.272875    -0.159274     0.628736
H      -3.077053     0.582444     3.176166
N      -4.854366     0.239751     2.040346
C      -5.829143     0.830996     2.925633
H      -6.352709     1.660865     2.438612
H      -6.567250     0.090003     3.251416
H      -5.318050     1.218081     3.808653
O      -7.439656    -1.396916    -1.805125
C      -8.688272    -0.965841    -1.304107
H      -9.431003    -1.250240    -2.050364
H      -8.928413    -1.455004    -0.351626
H      -8.711555     0.122882    -1.168794
N       0.875771    -0.587914     2.001610
C       1.359581    -1.803713     2.442471
O       0.674195    -2.576243     3.080968
C       2.805655    -2.078935     2.055113
H       2.815936    -2.356799     0.994936
H       3.125792    -2.947965     2.630977
C       3.732499    -0.875827     2.301208
H       3.789053    -0.693727     3.379101
H       4.743899    -1.113671     1.965154
C       3.227459     0.397861     1.608314
C       3.531158     0.468703     0.061270
H       3.865647     1.456422    -0.273337
C      -1.404703    -0.750403     1.041741
H      -1.071989    -0.310251     0.094755
H      -1.250154    -1.831795     0.952282
C      -0.527021    -0.229705     2.178420
H      -0.592079     0.858882     2.253432
H      -0.840204    -0.666220     3.128366
C       3.541489     1.677634     2.382252
H       4.611592     1.679984     2.625256
H       3.365813     2.539712     1.729469
C       2.710440     1.849886     3.655246
H       2.831297     1.013127     4.349020
H       3.005152     2.761305     4.183254
H       1.645477     1.934722     3.418281
O       4.372802    -0.542170    -0.408240
C       5.298208    -0.137349    -1.411925
H       5.922900     0.682977    -1.033460
H       5.941268    -1.007184    -1.566287
C       4.641248     0.270207    -2.711483
C       4.864632     1.529932    -3.258506
C       3.804938    -0.621973    -3.381798
C       4.268135     1.896378    -4.461466
H       5.513286     2.233235    -2.742624
C       3.205388    -0.258030    -4.578726
H       3.613711    -1.601830    -2.955289
C       3.437771     1.001446    -5.123555
H       4.455300     2.880430    -4.879787
H       2.549242    -0.958284    -5.085197
H       2.971999     1.283110    -6.062799
C       1.759504     0.184857     1.231846
O       1.300080     1.268323     0.457501
C       2.024986     0.214057    -0.210118
C       1.367910    -0.605645    -1.280885
O       1.398822    -1.807082    -1.237960
O       0.747846     0.024132    -2.284325
C       0.903809     1.441223    -2.459979
H       0.536676     1.644408    -3.464956
H       0.315966     1.993010    -1.724295
H       1.956578     1.729393    -2.401269
72
     -1725.749103     -1725.222846  12.48  11.27
C      -0.971055     0.862058    -5.305900
C      -0.968623     0.179605    -4.070667
C      -2.031711     0.383360    -3.191444
C      -3.052883     1.253752    -3.537224
C      -3.027126     1.928625    -4.773671
C      -1.988902     1.740627    -5.672995
C       0.862964    -0.412425    -5.212116
C       0.222127    -0.633718    -4.032905
H      -2.066074    -0.138612    -2.239531
H      -3.873833     1.403926    -2.847850
H      -1.998772     2.271440    -6.618035
H       1.793061    -0.828531    -5.576349
N       0.156214     0.488938    -5.993420
C       0.528805     0.952876    -7.308461
H      -0.229040     0.681600    -8.051344
H       0.659519     2.040270    -7.319227
H       1.474293     0.488913    -7.594248
O      -4.002132     2.799408    -5.176219
C      -5.098932     3.020362    -4.312561
H      -5.654699     2.093840    -4.122729
H      -4.778033     3.452987    -3.356812
H      -5.749389     3.729657    -4.825866
N       1.493312    -1.360644    -0.539886
C       2.497809    -2.294587    -0.393054
O       3.268669    -2.526261    -1.303576
C       2.593082    -3.030009     0.936608
H       3.659777    -3.159715     1.130319
H       2.190848    -4.033904     0.759538
C       1.889552    -2.348202     2.111604
H       1.932865    -2.978110     3.002707
H       2.411451    -1.419897     2.358075
C       0.448233    -2.017680     1.723747
C      -0.130794    -0.769231     2.477679
H      -1.205256    -0.844938     2.696352
C       0.660838    -1.480716    -2.879031
H       1.336962    -2.274776    -3.205369
H      -0.213048    -1.964187    -2.428193
C       1.369108    -0.640151    -1.807398
H       2.370388    -0.368510    -2.144198
H       0.810855     0.277692    -1.618828
C      -0.489435    -3.215293     1.613030
H      -1.440254    -2.864050     1.197446
H      -0.086228    -3.929372     0.885490
C      -0.734680    -3.917583     2.949083
H       0.176074    -4.382919     3.336546
H      -1.097017    -3.215735     3.707369
H      -1.485245    -4.705351     2.838956
O       0.598349    -0.422719     3.606456
C       0.019135     0.632267     4.371608
H      -0.222295     1.479799     3.714769
H      -0.913856     0.281653     4.834298
C       1.001674     1.064731     5.426533
C       0.697656     0.946395     6.777569
C       2.232999     1.598527     5.045744
C       1.608898     1.358234     7.745536
H      -0.258534     0.526646     7.078589
C       3.143361     2.006152     6.009808
H       2.469211     1.690036     3.990147
C       2.833227     1.888109     7.362194
H       1.361225     1.261834     8.798075
H       4.100336     2.419627     5.706861
H       3.547253     2.208962     8.114331
C       0.561079    -1.136484     0.484119
O      -0.699888    -0.560560     0.178905
C       0.115643     0.072343     1.185686
C       0.631079     1.475705     1.095249
O       1.712042     1.731749     1.557121
O      -0.114626     2.442175     0.550660
C      -1.460996     2.208933     0.107387
H      -2.008888     1.570886     0.805210
H      -1.922211     3.195933     0.075149
H      -1.465518     1.764237    -0.887441
72
     -1725.747619     -1725.221248  13.41  12.27
C       0.001378     4.354770    -1.388352
C      -1.032372     4.012305    -0.489489
C      -2.263905     4.652788    -0.621732
C      -2.449017     5.600022    -1.615898
C      -1.398849     5.921787    -2.496812
C      -0.161817     5.304065    -2.394480
C       0.782121     2.795951     0.011462
C      -0.504491     3.009272     0.402352
H      -3.086266     4.416587     0.047110
H      -3.410827     6.088041    -1.705568
H       0.627948     5.571214    -3.087491
H       1.517489     2.109400     0.406924
N       1.101760     3.601588    -1.067781
C       2.370520     3.634318    -1.755099
H       2.824145     4.629645    -1.698132
H       3.045352     2.918001    -1.284426
H       2.252805     3.360261    -2.808955
O      -1.512770     6.846721    -3.499807
C      -2.751303     7.508255    -3.656218
H      -3.015133     8.085519    -2.761311
H      -2.626255     8.189999    -4.498661
H      -3.559522     6.801271    -3.881300
N      -1.418420     0.042919     0.464774
C      -1.203165    -0.138400    -0.889118
O      -1.672212     0.594049    -1.732111
C      -0.339356    -1.350331    -1.208619
H       0.678732    -1.148951    -0.857826
H      -0.313190    -1.445249    -2.294767
C      -0.884069    -2.631086    -0.553041
H      -1.853937    -2.866934    -1.001913
H      -0.220695    -3.466996    -0.786664
C      -1.059592    -2.471421     0.966101
C       0.269178    -2.668878     1.805660
H       0.132786    -3.259989     2.722011
C      -1.259211     2.315757     1.494365
H      -1.894079     3.038719     2.020320
H      -0.565373     1.915285     2.239968
C      -2.165568     1.185063     0.987372
H      -2.809745     0.829099     1.796469
H      -2.793736     1.542137     0.169583
C      -2.284349    -3.195852     1.520989
H      -2.254516    -4.238338     1.178208
H      -2.216167    -3.223301     2.614106
C      -3.614633    -2.552281     1.126248
H      -4.452582    -3.140574     1.511080
H      -3.700185    -1.543866     1.541946
H      -3.734469    -2.476128     0.041916
O       1.392952    -3.078845     1.095341
C       1.551032    -4.486170     1.038743
H       1.835939    -4.862502     2.033500
H       0.599622    -4.967645     0.768447
C       2.609223    -4.847045     0.023866
C       3.386165    -3.875837    -0.599269
C       2.817213    -6.190290    -0.286865
C       4.359702    -4.248185    -1.521645
H       3.230794    -2.830343    -0.360371
C       3.788967    -6.560473    -1.205791
H       2.212277    -6.954819     0.195093
C       4.564729    -5.586903    -1.827262
H       4.961724    -3.483325    -2.002718
H       3.941305    -7.609787    -1.438610
H       5.325386    -5.872945    -2.546743
C      -0.947990    -0.978888     1.304134
O      -0.935825    -0.810994     2.704284
C       0.303487    -1.150543     2.055922
C       1.510302    -0.264150     2.121860
O       2.164146    -0.053495     1.134299
O       1.862766     0.276320     3.293361
C       1.196044    -0.091595     4.510368
H       0.231554     0.411390     4.594181
H       1.054639    -1.174111     4.573609
H       1.861406     0.234954     5.308872
72
     -1725.745298     -1725.220239  14.87  12.90
C      -3.911892    -1.475909    -3.405439
C      -3.016842    -0.871022    -2.505999
C      -3.530361     0.010464    -1.543226
C      -4.884294     0.247168    -1.495998
C      -5.764912    -0.380487    -2.404807
C      -5.296841    -1.247954    -3.374754
C      -1.850555    -2.180366    -3.895699
C      -1.693919    -1.338503    -2.837561
H      -2.869462     0.516277    -0.847695
H      -5.312393     0.924646    -0.765509
H      -5.955666    -1.734811    -4.081761
H      -1.104102    -2.741916    -4.441702
N      -3.186338    -2.274496    -4.251952
C      -3.723329    -3.067723    -5.331509
H      -4.436683    -3.810638    -4.958464
H      -4.225200    -2.437027    -6.073370
H      -2.904905    -3.594472    -5.824931
O      -7.081587    -0.054162    -2.239427
C      -8.020696    -0.644901    -3.113824
H      -7.826024    -0.367684    -4.157577
H      -8.020003    -1.738479    -3.023000
H      -8.997469    -0.261048    -2.817142
N       0.916531    -1.572918    -0.069230
C       2.108913    -2.077926    -0.542727
O       2.135612    -2.788067    -1.529057
C       3.391750    -1.751080     0.207617
H       4.132292    -1.528919    -0.564384
H       3.709125    -2.694551     0.657178
C       3.333330    -0.619691     1.240649
H       4.221907    -0.663454     1.879658
H       3.368734     0.339336     0.717299
C       2.052613    -0.665437     2.073755
C       1.484578     0.771976     2.439429
H       1.095395     0.837030     3.465497
C      -0.420478    -1.019111    -2.114092
H      -0.375641     0.047908    -1.876067
H       0.439078    -1.246488    -2.749065
C      -0.308546    -1.849061    -0.828922
H      -1.155137    -1.659986    -0.169335
H      -0.304414    -2.910054    -1.084379
C       2.038275    -1.630968     3.258596
H       2.818526    -1.313127     3.962897
H       1.081876    -1.499776     3.776039
C       2.216090    -3.115406     2.934667
H       2.015371    -3.715585     3.826769
H       1.522311    -3.443960     2.154122
H       3.232401    -3.351117     2.610719
O       2.275169     1.871280     2.126911
C       3.242007     2.179557     3.114732
H       2.736456     2.490457     4.042129
H       3.841012     1.288020     3.351982
C       4.149437     3.282264     2.624116
C       3.980411     3.870176     1.374852
C       5.185482     3.718345     3.449440
C       4.840868     4.882724     0.959834
H       3.175091     3.538711     0.729975
C       6.042240     4.727899     3.034592
H       5.323061     3.262836     4.427414
C       5.871234     5.314050     1.784235
H       4.701254     5.336520    -0.016626
H       6.844859     5.058312     3.686662
H       6.539454     6.103965     1.456193
C       0.884437    -0.780678     1.089419
O      -0.329176    -0.618719     1.803581
C       0.379752     0.565014     1.388779
C      -0.238050     1.610831     0.506183
O       0.395455     2.113066    -0.380364
O      -1.502714     1.993099     0.738595
C      -2.222617     1.530882     1.890950
H      -2.581235     0.510734     1.746263
H      -1.605363     1.580130     2.792353
H      -3.065547     2.213992     1.991522
72
     -1725.746831     -1725.219772  13.91  13.20
C      -3.210478    -4.303944    -0.262642
C      -2.792808    -2.987937     0.029087
C      -2.930970    -2.008624    -0.954104
C      -3.457155    -2.345151    -2.190954
C      -3.859841    -3.668423    -2.458796
C      -3.743536    -4.662578    -1.499503
C      -2.441899    -4.261020     1.835977
C      -2.301016    -2.985450     1.385259
H      -2.632222    -0.983428    -0.755225
H      -3.560354    -1.577049    -2.946681
H      -4.064969    -5.670824    -1.734218
H      -2.189264    -4.679388     2.801383
N      -2.990035    -5.071138     0.853455
C      -3.288175    -6.478077     0.976575
H      -3.003285    -6.815632     1.974461
H      -4.358199    -6.667383     0.838872
H      -2.728810    -7.064466     0.239750
O      -4.387103    -4.066938    -3.656293
C      -4.550614    -3.096460    -4.670820
H      -5.227823    -2.293609    -4.354324
H      -3.588998    -2.662323    -4.971481
H      -4.988421    -3.619966    -5.521668
N       0.264993    -0.288484     2.087210
C       0.690316    -0.104088     3.385564
O       0.639373    -1.011812     4.192180
C       1.204694     1.274618     3.773408
H       2.049375     1.101149     4.443466
H       0.418715     1.724551     4.389604
C       1.599752     2.185651     2.608699
H       1.835422     3.190302     2.971076
H       2.506289     1.797517     2.137901
C       0.473369     2.234410     1.570760
C       1.011874     2.485026     0.120028
H       0.321039     3.047234    -0.521750
C      -1.700754    -1.809599     2.090576
H      -1.748568    -1.932129     3.175549
H      -2.269256    -0.906226     1.841852
C      -0.235865    -1.602195     1.681900
H       0.393681    -2.361940     2.146415
H      -0.130253    -1.685048     0.599711
C      -0.709555     3.082368     2.036911
H      -0.928767     2.835655     3.081475
H      -0.367982     4.125554     2.041827
C      -2.003048     2.968778     1.228757
H      -1.858465     3.222721     0.175431
H      -2.411576     1.955749     1.268703
H      -2.755412     3.651885     1.634305
O       2.285850     3.035830     0.096605
C       2.742474     3.384859    -1.208381
H       2.607810     2.533097    -1.890060
H       2.150171     4.227011    -1.592349
C       4.199295     3.755255    -1.131697
C       5.132957     2.803188    -0.721901
C       4.630588     5.032517    -1.469732
C       6.478846     3.132135    -0.653378
H       4.794675     1.806065    -0.457779
C       5.981033     5.362577    -1.404631
H       3.905957     5.778644    -1.784817
C       6.906522     4.412365    -0.995647
H       7.200196     2.386963    -0.332568
H       6.307274     6.363021    -1.671368
H       7.960568     4.666548    -0.942065
C       0.259413     0.776642     1.171652
O      -0.519708     0.675677    -0.009056
C       0.885954     0.951550    -0.146335
C       1.855321     0.068230    -0.867874
O       2.991913     0.007710    -0.477933
O       1.479418    -0.613567    -1.954635
C       0.177808    -0.460011    -2.542819
H      -0.555719    -1.072823    -2.019243
H      -0.141446     0.585061    -2.544845
H       0.289417    -0.810389    -3.568818
