74
     -1835.294541     -1834.756724   0.00   0.00
C       3.055738    -0.395633     2.174062 
C       3.478249     0.648368     1.324117 
C       4.159861     0.312750     0.153613 
C       4.379525    -1.015338    -0.162624 
C       3.920782    -2.036445     0.692554 
C       3.271713    -1.739390     1.878138 
C       2.382098     1.530418     3.064764 
C       3.026555     1.882395     1.917108 
H       4.503666     1.084807    -0.527579 
H       4.895882    -1.258283    -1.081943 
H       2.926205    -2.539515     2.521665 
H       1.884198     2.165227     3.786019 
N       2.396899     0.161586     3.238319 
C       1.765773    -0.572349     4.312267 
H       0.983255    -1.228911     3.921481 
H       2.502672    -1.169657     4.858841 
H       1.316542     0.139592     5.006580 
O       4.067860    -3.370584     0.420253 
C       4.568650    -3.733417    -0.850942 
H       4.536632    -4.823271    -0.889677 
H       3.945521    -3.321157    -1.654110 
H       5.604805    -3.400715    -0.987087 
N       0.853756     2.860622     0.270515 
C      -0.036336     3.468267     1.135899 
O       0.251447     4.496907     1.715242 
C      -1.386547     2.796483     1.254794 
H      -2.024143     3.489055     1.806225 
H      -1.294139     1.880337     1.842805 
C      -1.998090     2.499897    -0.121355 
H      -3.030784     2.171646     0.024034 
H      -2.041985     3.443901    -0.674711 
C      -1.265068     1.483041    -1.000343 
C      -1.550780     0.117073    -0.816025 
H      -1.588065    -0.555995    -1.669239 
C       3.093581     3.262225     1.338548 
H       4.118971     3.514261     1.043256 
H       2.785815     3.984944     2.097042 
C       2.194361     3.438117     0.098931 
H       2.073186     4.501218    -0.118259 
H       2.631314     2.949586    -0.771576 
C      -1.100373     1.912545    -2.453028 
H      -0.511885     2.836032    -2.490222 
H      -0.522460     1.155989    -2.991020 
C      -2.448189     2.118629    -3.153076 
H      -2.296788     2.375213    -4.206174 
H      -3.055402     1.207947    -3.112322 
H      -3.029657     2.925403    -2.697278 
O      -2.309476    -0.238425     0.264424 
C      -2.996273    -1.481172     0.124855 
H      -2.291233    -2.273680    -0.149858 
H      -3.383731    -1.704092     1.120949 
C      -4.111281    -1.401002    -0.894279 
C      -4.153989    -2.276078    -1.973567 
C      -5.107073    -0.433198    -0.767783 
C      -5.178149    -2.193832    -2.912763 
H      -3.380725    -3.031295    -2.085829 
C      -6.126799    -0.344687    -1.703747 
H      -5.078807     0.255308     0.071612 
C      -6.165646    -1.227954    -2.779518 
H      -5.200387    -2.885445    -3.748961 
H      -6.896612     0.412782    -1.594635 
H      -6.965014    -1.160708    -3.510567 
C       0.598076     1.573915    -0.190934 
O       0.412732     0.581817     0.741926 
C       0.391184    -0.496500    -0.081901 
N       1.262672     1.049309    -1.264638 
N       1.088857    -0.233605    -1.212002 
C       0.279517    -1.831440     0.544571 
O      -0.047853    -2.009278     1.690086 
O       0.558342    -2.799429    -0.331670 
C       0.590238    -4.128496     0.205949 
H      -0.372336    -4.388320     0.652290 
H       0.810358    -4.779190    -0.639422 
H       1.378585    -4.209136     0.956919 
74
     -1835.291982     -1834.755526   1.60   0.75
C       3.448632    -1.549117    -0.340611 
C       3.581934    -0.298967    -0.971449 
C       4.091373     0.770413    -0.221192 
C       4.464997     0.566095     1.086953 
C       4.345412    -0.705965     1.686486 
C       3.827000    -1.780683     0.988929 
C       2.724690    -1.754552    -2.434733 
C       3.104446    -0.449822    -2.320735 
H       4.195618     1.756980    -0.661929 
H       4.872551     1.372166     1.687334 
H       3.710924    -2.760428     1.434344 
H       2.285457    -2.274545    -3.275209 
N       2.918408    -2.428605    -1.248538 
C       2.504847    -3.785282    -0.968866 
H       1.779620    -3.805535    -0.149284 
H       2.026051    -4.192838    -1.860113 
H       3.363256    -4.415005    -0.713259 
O       4.766565    -0.771294     2.987631 
C       4.925825    -2.053831     3.560322 
H       5.364830    -1.895823     4.546144 
H       3.966198    -2.573485     3.675633 
H       5.599120    -2.674945     2.957181 
N       0.621002     1.305365    -2.701683 
C       0.594001     2.658724    -2.402154 
O       1.230345     3.462351    -3.052713 
C      -0.316718     3.052311    -1.259633 
H      -0.394136     4.139926    -1.293834 
H       0.146245     2.776903    -0.309160 
C      -1.708393     2.419930    -1.392007 
H      -2.362830     2.864804    -0.637824 
H      -2.111700     2.707013    -2.368848 
C      -1.783970     0.893881    -1.292710 
C      -1.881380     0.316705    -0.011756 
H      -2.484052    -0.574713     0.144903 
C       2.941487     0.620496    -3.364375 
H       3.515018     0.371713    -4.264800 
H       3.338785     1.569981    -2.994592 
C       1.482467     0.835386    -3.794056 
H       1.435859     1.591559    -4.577950 
H       1.050800    -0.094080    -4.169404 
C      -2.660174     0.239876    -2.355393 
H      -2.253206     0.469918    -3.346451 
H      -2.611871    -0.846893    -2.245800 
C      -4.120086     0.697368    -2.266905 
H      -4.226697     1.771518    -2.444777 
H      -4.729366     0.177274    -3.012622 
H      -4.540216     0.480924    -1.278890 
O      -1.719169     1.129620     1.074460 
C      -2.293548     0.628548     2.282256 
H      -1.915854    -0.378530     2.491644 
H      -1.932894     1.301049     3.063865 
C      -3.805330     0.613821     2.232609 
C      -4.512395    -0.561808     2.458523 
C      -4.508537     1.783723     1.948127 
C      -5.903363    -0.572076     2.407775 
H      -3.974359    -1.480548     2.676027 
C      -5.894411     1.776611     1.892302 
H      -3.962385     2.705099     1.768148 
C      -6.596212     0.596564     2.124310 
H      -6.443097    -1.496192     2.588692 
H      -6.431359     2.693467     1.670126 
H      -7.680759     0.591210     2.083333 
C       0.109524     0.393340    -1.784084 
O       0.629864     0.433654    -0.514226 
C       0.056483    -0.682652     0.000420 
N      -0.144253    -0.912706    -2.112021 
N      -0.221927    -1.560202    -0.991761 
C       0.382869    -1.101472     1.381027 
O       0.120656    -2.186868     1.835322 
O       0.967633    -0.108940     2.052950 
C       1.335839    -0.405016     3.405237 
H       1.907782    -1.332213     3.449672 
H       1.947627     0.432623     3.735468 
H       0.442604    -0.503282     4.028197 
74
     -1835.293613     -1834.755055   0.58   1.04
C       3.135469    -0.163954     2.072091 
C       3.447602     0.953315     1.277834 
C       4.236862     0.759290     0.134696 
C       4.682123    -0.502375    -0.176658 
C       4.357599    -1.608359     0.639817 
C       3.578029    -1.460947     1.771895 
C       2.186178     1.624421     2.998371 
C       2.824179     2.096825     1.890493 
H       4.493407     1.594413    -0.509510 
H       5.291879    -0.683424    -1.054453 
H       3.309080    -2.295950     2.405710 
H       1.584414     2.162354     3.718713 
N       2.365074     0.262126     3.122525 
C       1.838437    -0.572194     4.179670 
H       2.649790    -1.052264     4.736882 
H       1.272768     0.055470     4.870055 
H       1.170671    -1.335438     3.771728 
O       4.875294    -2.800297     0.216158 
C       4.717263    -3.920525     1.059828 
H       5.245378    -4.744414     0.578143 
H       5.154296    -3.739149     2.049779 
H       3.660751    -4.191292     1.177877 
N       0.612086     2.946145     0.207645 
C      -0.360896     3.482137     1.030970 
O      -0.179206     4.527848     1.622203 
C      -1.660610     2.710498     1.086462 
H      -2.374692     3.352704     1.604022 
H      -1.528697     1.803251     1.680577 
C      -2.177823     2.370837    -0.317721 
H      -3.190988     1.970328    -0.225554 
H      -2.258768     3.308624    -0.877474 
C      -1.330067     1.406631    -1.151244 
C      -1.520030     0.025022    -0.964829 
H      -1.470461    -0.655795    -1.811134 
C       2.764523     3.499489     1.368460 
H       3.768954     3.871192     1.133513 
H       2.346356     4.154086     2.136075 
C       1.908677     3.628077     0.095343 
H       1.712693     4.681709    -0.112420 
H       2.416925     3.188204    -0.762528 
C      -1.132087     1.836455    -2.599581 
H      -0.614075     2.801669    -2.620633 
H      -0.475187     1.121721    -3.102979 
C      -2.459131     1.933973    -3.360300 
H      -2.280808     2.193533    -4.408445 
H      -2.996797     0.979966    -3.336407 
H      -3.119760     2.697466    -2.939141 
O      -2.297025    -0.378246     0.087448 
C      -2.917284    -1.650998    -0.087532 
H      -2.165562    -2.403975    -0.349657 
H      -3.324949    -1.905020     0.893019 
C      -4.001923    -1.612004    -1.141026 
C      -3.953705    -2.454782    -2.245479 
C      -5.060130    -0.711874    -1.022100 
C      -4.949236    -2.407520    -3.217296 
H      -3.131288    -3.157136    -2.351853 
C      -6.051829    -0.658162    -1.990211 
H      -5.102788    -0.048756    -0.163053 
C      -5.999297    -1.509038    -3.091266 
H      -4.900309    -3.073424    -4.072991 
H      -6.870928     0.046558    -1.886858 
H      -6.776639    -1.469105    -3.847620 
C       0.481909     1.642028    -0.255790 
O       0.332071     0.641291     0.675032 
C       0.423515    -0.436246    -0.143238 
N       1.231785     1.165306    -1.295171 
N       1.152750    -0.127140    -1.242005 
C       0.357442    -1.774262     0.477714 
O       0.063213    -1.971052     1.629143 
O       0.622593    -2.734820    -0.413895 
C       0.592956    -4.070355     0.099455 
H      -0.420189    -4.342160     0.407291 
H       0.927840    -4.708963    -0.717184 
H       1.260332    -4.163557     0.958598 
74
     -1835.291912     -1834.755011   1.65   1.07
C       2.749026     2.076540     1.634689 
C       2.115484     2.983881     0.757651 
C       1.107303     3.800760     1.268254 
C       0.760539     3.718212     2.606120 
C       1.421444     2.814703     3.459744 
C       2.420435     1.980683     2.984610 
C       3.645366     1.824525    -0.387779 
C       2.704677     2.798158    -0.543826 
H       0.584366     4.502614     0.625993 
H      -0.024834     4.359120     2.986068 
H       2.918346     1.295399     3.661096 
H       4.294701     1.369974    -1.123907 
N       3.680928     1.374119     0.914983 
C       4.476027     0.273328     1.411281 
H       5.037404    -0.152521     0.578578 
H       5.183088     0.611452     2.175847 
H       3.834366    -0.508667     1.829157 
O       1.127677     2.684810     4.791638 
C       0.188232     3.577025     5.356536 
H       0.138804     3.332355     6.418460 
H       0.506894     4.619826     5.239922 
H      -0.806827     3.452337     4.911374 
N       0.528761     1.731318    -2.372530 
C      -0.706757     2.349650    -2.478768 
O      -0.822244     3.446076    -2.987372 
C      -1.881376     1.539492    -1.975366 
H      -2.777929     2.060193    -2.314682 
H      -1.886060     1.535688    -0.882952 
C      -1.862927     0.107243    -2.526735 
H      -2.807757    -0.375766    -2.264363 
H      -1.834966     0.173528    -3.619488 
C      -0.697705    -0.785011    -2.089220 
C      -0.825570    -1.495426    -0.879971 
H      -0.404522    -2.493300    -0.782722 
C       2.285984     3.439437    -1.837026 
H       3.133556     3.947426    -2.311403 
H       1.528500     4.205119    -1.647865 
C       1.723421     2.435585    -2.854805 
H       1.436272     2.956970    -3.768409 
H       2.468567     1.676058    -3.097093 
C      -0.047861    -1.569045    -3.224015 
H       0.353899    -0.865042    -3.961482 
H       0.806184    -2.129361    -2.834061 
C      -1.027239    -2.535547    -3.898630 
H      -1.864696    -2.011875    -4.368982 
H      -0.519255    -3.112472    -4.677683 
H      -1.443064    -3.242979    -3.173259 
O      -1.896072    -1.215695    -0.079111 
C      -2.231467    -2.249905     0.846639 
H      -1.355363    -2.518373     1.447621 
H      -2.978089    -1.803704     1.507335 
C      -2.780247    -3.478770     0.156088 
C      -2.194002    -4.724429     0.350315 
C      -3.879613    -3.372312    -0.694894 
C      -2.699391    -5.852239    -0.290068 
H      -1.333478    -4.818147     1.007290 
C      -4.383413    -4.493045    -1.338285 
H      -4.340815    -2.401845    -0.853242 
C      -3.794219    -5.738242    -1.135331 
H      -2.233801    -6.819113    -0.127575 
H      -5.239860    -4.398243    -1.998441 
H      -4.189849    -6.615837    -1.636574 
C       0.664947     0.607824    -1.563632 
O       0.280486     0.732994    -0.251318 
C       0.735493    -0.450681     0.231942 
N       1.767111    -0.204816    -1.620870 
N       1.770918    -0.890328    -0.521138 
C       0.610131    -0.748273     1.677019 
O       1.234058    -1.611241     2.241572 
O      -0.303083     0.036754     2.250143 
C      -0.494121    -0.160524     3.657805 
H       0.428205     0.049272     4.201044 
H      -1.268924     0.547935     3.947819 
H      -0.814207    -1.185602     3.860236 
74
     -1835.291152     -1834.753893   2.12   1.77
C       3.076050     0.778065     2.049094 
C       3.269364     1.703517     1.010442 
C       4.106238     1.344714    -0.056733 
C       4.686704     0.101038    -0.074839 
C       4.445638    -0.827996     0.961873 
C       3.646285    -0.503363     2.043843 
C       1.898184     2.610241     2.528708 
C       2.491157     2.872021     1.331153 
H       4.288119     2.035117    -0.874290 
H       5.326407    -0.210113    -0.892729 
H       3.462232    -1.198234     2.852894 
H       1.220250     3.227655     3.102988 
N       2.243547     1.350398     2.978451 
C       1.860315     0.767993     4.241869 
H       2.735448     0.588236     4.875636 
H       1.194079     1.458735     4.761109 
H       1.328140    -0.174671     4.089197 
O       5.059064    -2.033923     0.799679 
C       4.730146    -3.065947     1.708905 
H       5.048166    -2.818477     2.729434 
H       3.652819    -3.271521     1.695424 
H       5.270450    -3.951118     1.371944 
N       0.257111     2.883127    -0.510351 
C      -0.828196     3.440500     0.139271 
O      -0.837698     4.613545     0.455930 
C      -1.999349     2.509271     0.362868 
H      -2.825904     3.135172     0.702391 
H      -1.763373     1.799506     1.158906 
C      -2.391089     1.772247    -0.925445 
H      -3.329274     1.240287    -0.747101 
H      -2.597452     2.528831    -1.689760 
C      -1.360361     0.799889    -1.504758 
C      -1.353944    -0.523481    -1.028760 
H      -1.127343    -1.346513    -1.702083 
C       2.242761     4.068004     0.465239 
H       3.187096     4.519490     0.138880 
H       1.699152     4.823578     1.036177 
C       1.429052     3.721845    -0.795561 
H       1.073550     4.639457    -1.268298 
H       2.037118     3.169545    -1.511615 
C      -1.140261     0.938174    -3.006737 
H      -0.784368     1.951238    -3.225593 
H      -0.345364     0.255953    -3.320004 
C      -2.412967     0.641275    -3.807518 
H      -3.217905     1.345589    -3.577274 
H      -2.212933     0.708448    -4.881544 
H      -2.784346    -0.367304    -3.595939 
O      -2.145143    -0.831065     0.046501 
C      -2.574122    -2.193396     0.086478 
H      -1.707508    -2.863007     0.036570 
H      -3.045933    -2.311039     1.064758 
C      -3.545208    -2.514429    -1.027778 
C      -3.265846    -3.516575    -1.950051 
C      -4.729637    -1.789380    -1.153015 
C      -4.155977    -3.796464    -2.982962 
H      -2.343685    -4.085024    -1.864366 
C      -5.617379    -2.062376    -2.183062 
H      -4.953282    -1.003927    -0.436970 
C      -5.332112    -3.069429    -3.101414 
H      -3.926537    -4.582936    -3.694927 
H      -6.536288    -1.491325    -2.270956 
H      -6.027655    -3.284971    -3.906239 
C       0.344337     1.502610    -0.650435 
O       0.280590     0.736990     0.491380 
C       0.573783    -0.477849    -0.042796 
N       1.218491     0.914979    -1.522528 
N       1.315465    -0.326496    -1.163756 
C       0.655152    -1.678654     0.812904 
O       1.040110    -2.753258     0.429992 
O       0.194096    -1.438468     2.048742 
C       0.166915    -2.576221     2.915850 
H      -0.428603    -3.381055     2.479013 
H       1.179576    -2.945187     3.098399 
H      -0.286109    -2.232090     3.845297 
74
     -1835.291452     -1834.753818   1.94   1.82
C       2.408173    -0.366933     2.390689 
C       1.241773     0.062591     3.049163 
C       0.302400    -0.905640     3.431514 
C       0.554297    -2.234169     3.178587 
C       1.747264    -2.639321     2.542246 
C       2.688584    -1.715097     2.129695 
C       2.490681     1.850441     2.560955 
C       1.310843     1.496650     3.146240 
H      -0.620383    -0.618286     3.925822 
H      -0.149291    -3.005534     3.472334 
H       3.602405    -2.002418     1.625635 
H       2.914199     2.832539     2.400019 
N       3.160094     0.740171     2.093676 
C       4.374644     0.751886     1.309539 
H       5.183124     0.223737     1.825587 
H       4.205299     0.293473     0.330099 
H       4.677797     1.788182     1.154932 
O       1.875363    -3.990989     2.367709 
C       3.140996    -4.483703     1.976200 
H       3.923658    -4.161944     2.674025 
H       3.064331    -5.571508     1.994881 
H       3.410088    -4.161667     0.962465 
N      -0.972926     2.705040     1.510173 
C      -2.295299     2.323698     1.672784 
O      -2.910730     2.589149     2.684888 
C      -2.914117     1.614805     0.488050 
H      -3.986537     1.573739     0.683031 
H      -2.540400     0.589590     0.439665 
C      -2.644292     2.357192    -0.827264 
H      -3.245136     1.894773    -1.614628 
H      -3.010984     3.382208    -0.709184 
C      -1.184362     2.438810    -1.283530 
C      -0.668908     1.362547    -2.035303 
H       0.042663     1.538132    -2.840045 
C       0.260932     2.433578     3.676145 
H       0.664839     3.044214     4.491962 
H      -0.572840     1.864310     4.096579 
C      -0.290486     3.394581     2.612626 
H      -1.021439     4.065639     3.064248 
H       0.514348     3.987134     2.174386 
C      -0.750290     3.822613    -1.754200 
H      -0.845638     4.527860    -0.921150 
H       0.310690     3.798671    -2.017431 
C      -1.561775     4.319767    -2.955106 
H      -2.625086     4.425912    -2.721138 
H      -1.196576     5.297770    -3.283081 
H      -1.474300     3.630020    -3.801374 
O      -1.434991     0.238430    -2.145116 
C      -1.072304    -0.635114    -3.204175 
H      -1.351866    -0.175937    -4.162254 
H       0.016517    -0.778809    -3.214994 
C      -1.766510    -1.966700    -3.049345 
C      -2.402177    -2.335752    -1.869061 
C      -1.733322    -2.865658    -4.113828 
C      -2.994030    -3.589513    -1.755534 
H      -2.424988    -1.646144    -1.034844 
C      -2.321682    -4.118109    -4.000346 
H      -1.242081    -2.583673    -5.042055 
C      -2.954890    -4.484147    -2.817393 
H      -3.489448    -3.867111    -0.830036 
H      -2.287603    -4.808783    -4.837052 
H      -3.417251    -5.461741    -2.725778 
C      -0.228560     2.161280     0.467953 
O      -0.151244     0.791891     0.407128 
C       0.783049     0.660790    -0.568386 
N       0.978393     2.684907     0.081011 
N       1.574352     1.759706    -0.601754 
C       1.266909    -0.689004    -0.936336 
O       2.260951    -0.892183    -1.587115 
O       0.438881    -1.626349    -0.478682 
C       0.786500    -2.982928    -0.788112 
H       0.133246    -3.601018    -0.175889 
H       0.614480    -3.182712    -1.848310 
H       1.831978    -3.169823    -0.542813 
74
     -1835.284924     -1834.752104   6.03   2.90
C       5.544955    -3.007041    -0.237441 
C       4.732102    -1.863344    -0.386049 
C       5.308470    -0.602347    -0.226881 
C       6.656714    -0.501318     0.074599 
C       7.446185    -1.658990     0.218802 
C       6.903136    -2.925408     0.064789 
C       3.468212    -3.682238    -0.715336 
C       3.400257    -2.323632    -0.694956 
H       4.707426     0.296072    -0.335240 
H       7.094759     0.480502     0.197285 
H       7.537191    -3.796793     0.181874 
H       2.687806    -4.406777    -0.907763 
N       4.757804    -4.112455    -0.441467 
C       5.206565    -5.482656    -0.384755 
H       5.981579    -5.674705    -1.134650 
H       5.607215    -5.724706     0.605529 
H       4.360832    -6.142544    -0.585492 
O       8.781605    -1.626470     0.515669 
C       9.395477    -0.365115     0.687488 
H       9.335086     0.239616    -0.225802 
H       8.946240     0.191018     1.519573 
H      10.442965    -0.567502     0.915176 
N       0.753842     0.254020     0.202528 
C       1.223608     1.502946    -0.147032 
O       2.419598     1.697263    -0.262579 
C       0.247734     2.625781    -0.427750 
H       0.259357     2.761964    -1.514899 
H       0.711979     3.521775    -0.009558 
C      -1.173151     2.471138     0.090560 
H      -1.173649     2.454477     1.182811 
H      -1.753158     3.353026    -0.202840 
C      -1.872452     1.224176    -0.424184 
C      -3.076394     0.894690     0.206771 
H      -3.833488     0.315138    -0.315144 
C       2.205872    -1.446681    -0.906471 
H       1.375280    -2.010936    -1.338070 
H       2.460551    -0.645004    -1.607707 
C       1.754436    -0.809690     0.412266 
H       1.312763    -1.562735     1.068013 
H       2.604132    -0.362339     0.926749 
C      -1.811282     0.929645    -1.916465 
H      -0.774391     0.773958    -2.232192 
H      -2.323950    -0.018319    -2.103083 
C      -2.453983     2.040745    -2.751515 
H      -2.445610     1.777646    -3.813737 
H      -3.493944     2.204895    -2.450898 
H      -1.923079     2.991563    -2.642502 
O      -3.522604     1.673007     1.237525 
C      -4.941392     1.679784     1.401675 
H      -5.315120     0.653124     1.484509 
H      -5.111127     2.185750     2.354556 
C      -5.635811     2.398724     0.266524 
C      -6.605162     1.757996    -0.496081 
C      -5.292869     3.715251    -0.039498 
C      -7.231633     2.421078    -1.547787 
H      -6.875622     0.729934    -0.270393 
C      -5.911288     4.377823    -1.089269 
H      -4.532240     4.219160     0.549676 
C      -6.885184     3.731245    -1.846042 
H      -7.988826     1.909761    -2.133630 
H      -5.636521     5.402502    -1.318869 
H      -7.371076     4.250611    -2.665864 
C      -0.580048    -0.122026     0.369864 
O      -1.097309    -0.063101     1.645321 
C      -2.243407    -0.758896     1.455414 
N      -1.054556    -1.245311    -0.243574 
N      -2.124016    -1.598885     0.411940 
C      -3.151805    -0.932610     2.613572 
O      -2.956979    -0.453136     3.697490 
O      -4.219128    -1.666568     2.277157 
C      -5.136561    -1.932234     3.347856 
H      -5.540875    -0.999025     3.747587 
H      -5.928682    -2.540077     2.912212 
H      -4.633369    -2.476191     4.150108 
74
     -1835.286223     -1834.752020   5.22   2.95
C       3.235932    -2.756184    -4.306272 
C       2.775791    -1.660501    -3.557075 
C       3.428086    -0.424842    -3.693885 
C       4.496989    -0.324530    -4.553897 
C       4.942869    -1.440052    -5.297463 
C       4.323993    -2.672582    -5.189185 
C       1.497565    -3.435675    -3.078156 
C       1.655547    -2.117846    -2.774900 
H       3.097840     0.440796    -3.126740 
H       5.026624     0.612313    -4.685124 
H       4.652890    -3.536631    -5.751330 
H       0.770882    -4.146165    -2.706896 
N       2.446211    -3.837220    -4.004692 
C       2.581219    -5.161818    -4.562253 
H       1.814477    -5.807717    -4.131345 
H       2.449707    -5.147570    -5.649602 
H       3.562765    -5.589039    -4.330254 
O       6.013266    -1.190719    -6.109555 
C       6.516329    -2.260008    -6.883324 
H       7.356061    -1.857306    -7.450896 
H       6.871037    -3.081946    -6.248614 
H       5.759469    -2.641186    -7.580548 
N       1.081399     0.112747     0.237380 
C       1.326033     1.436362    -0.081545 
O       2.090991     1.738795    -0.975703 
C       0.533039     2.450214     0.709974 
H       0.784894     3.427442     0.296167 
H       0.830309     2.434302     1.760268 
C      -0.974428     2.192215     0.566931 
H      -1.510399     3.035376     1.009869 
H      -1.210660     2.194354    -0.502454 
C      -1.511771     0.888891     1.160254 
C      -1.885825     0.871574     2.512932 
H      -2.734270     0.273941     2.836432 
C       0.870468    -1.285233    -1.810476 
H      -0.044997    -1.801080    -1.506826 
H       0.573610    -0.346962    -2.293344 
C       1.699276    -0.947322    -0.565950 
H       1.817195    -1.827178     0.068066 
H       2.686689    -0.590249    -0.857139 
C      -2.418591     0.097228     0.227394 
H      -1.869908    -0.145867    -0.689270 
H      -2.685286    -0.854056     0.695194 
C      -3.697184     0.870161    -0.117697 
H      -3.482428     1.804457    -0.644612 
H      -4.343640     0.267342    -0.763265 
H      -4.260685     1.121665     0.786758 
O      -1.604160     1.972743     3.286783 
C      -2.602763     2.264020     4.272348 
H      -2.740521     1.399781     4.930759 
H      -2.182836     3.083971     4.859271 
C      -3.918656     2.664015     3.644189 
C      -3.988301     3.780791     2.812222 
C      -5.068440     1.913186     3.863361 
C      -5.184266     4.134959     2.205472 
H      -3.094975     4.373867     2.639050 
C      -6.271487     2.266775     3.259246 
H      -5.023758     1.039781     4.508263 
C      -6.330472     3.376532     2.427933 
H      -5.226006     5.005740     1.558815 
H      -7.161348     1.671826     3.438998 
H      -7.266949     3.654114     1.954687 
C       0.237188    -0.217690     1.282522 
O       0.588557     0.190120     2.544810 
C      -0.385537    -0.443652     3.254347 
N      -0.370978    -1.436528     1.367120 
N      -0.788294    -1.552534     2.591445 
C      -0.435448    -0.324690     4.733039 
O      -1.349618    -0.741701     5.396185 
O       0.628633     0.320224     5.210931 
C       0.640016     0.514869     6.632899 
H       0.612813    -0.447175     7.148887 
H       1.568975     1.040792     6.848749 
H      -0.220756     1.113172     6.940331 
74
     -1835.289407     -1834.751909   3.22   3.02
C       3.355254     0.849100     1.316851 
C       3.063011     1.876060     0.401036 
C       2.524923     3.072081     0.896950 
C       2.322975     3.217396     2.250051 
C       2.652366     2.180628     3.149175 
C       3.163380     0.977786     2.699295 
C       3.872695     0.121017    -0.721220 
C       3.399170     1.385907    -0.909797 
H       2.267593     3.884934     0.224980 
H       1.918718     4.135430     2.662531 
H       3.407407     0.163634     3.369700 
H       4.208809    -0.606082    -1.447913 
N       3.845153    -0.220530     0.613534 
C       4.147023    -1.524741     1.159491 
H       4.991806    -1.476340     1.854361 
H       3.273658    -1.938166     1.673780 
H       4.408402    -2.192746     0.337820 
O       2.413745     2.464103     4.467257 
C       2.962099     1.590899     5.434298 
H       4.045743     1.485479     5.302127 
H       2.758145     2.043692     6.405344 
H       2.498403     0.596942     5.399083 
N       0.859473     1.191719    -2.611400 
C      -0.030535     2.235392    -2.807355 
O       0.276252     3.210622    -3.462960 
C      -1.398860     2.054585    -2.187806 
H      -2.020467     2.858119    -2.585241 
H      -1.325481     2.190546    -1.105912 
C      -2.026351     0.692690    -2.515867 
H      -3.047407     0.687715    -2.125717 
H      -2.110955     0.607526    -3.602994 
C      -1.291085    -0.547333    -1.998535 
C      -1.612539    -0.985418    -0.697535 
H      -1.644682    -2.046929    -0.465120 
C       3.176857     2.067191    -2.231973 
H       4.125141     2.187421    -2.768596 
H       2.778878     3.073663    -2.074021 
C       2.217990     1.302746    -3.156491 
H       2.132709     1.820455    -4.111990 
H       2.581801     0.288581    -3.331627 
C      -1.139671    -1.676215    -3.019178 
H      -0.688992    -2.542408    -2.524149 
H      -2.158534    -1.972285    -3.304602 
C      -0.351883    -1.365505    -4.293793 
H       0.707335    -1.221552    -4.078330 
H      -0.440535    -2.205710    -4.989287 
H      -0.720611    -0.474050    -4.809094 
O      -2.394313    -0.176363     0.076434 
C      -3.054958    -0.837510     1.156685 
H      -2.333841    -1.416549     1.744084 
H      -3.441409    -0.030904     1.783866 
C      -4.172630    -1.735992     0.678116 
C      -4.177965    -3.091200     0.988109 
C      -5.211828    -1.211659    -0.089351 
C      -5.209416    -3.914241     0.545257 
H      -3.370673    -3.511246     1.582088 
C      -6.239620    -2.029095    -0.535462 
H      -5.211872    -0.154234    -0.337610 
C      -6.241220    -3.384610    -0.216911 
H      -5.202953    -4.970179     0.796295 
H      -7.043653    -1.610210    -1.132364 
H      -7.046187    -4.024340    -0.564389 
C       0.571562     0.205867    -1.673415 
O       0.356270     0.622557    -0.384501 
C       0.314770    -0.580531     0.240803 
N       1.223956    -0.997538    -1.643275 
N       1.018505    -1.495016    -0.463526 
C       0.170712    -0.631304     1.712754 
O       0.372568    -1.617689     2.375621 
O      -0.242293     0.543164     2.190908 
C      -0.413238     0.611326     3.611583 
H      -1.273811     0.010811     3.918921 
H       0.479026     0.245180     4.120014 
H      -0.573824     1.663451     3.840116 
74
     -1835.291085     -1834.751638   2.17   3.19
C       0.985956    -1.678600    -3.283328 
C       1.313764    -2.715728    -2.394912 
C       0.356816    -3.712205    -2.144585 
C      -0.865057    -3.644902    -2.770641 
C      -1.169744    -2.588760    -3.658740 
C      -0.249877    -1.594928    -3.935620 
C       3.038942    -1.293778    -2.499095 
C       2.639239    -2.453133    -1.902074 
H       0.566956    -4.521599    -1.452838 
H      -1.629583    -4.393879    -2.595600 
H      -0.473064    -0.767578    -4.594632 
H       3.959864    -0.738074    -2.381501 
N       2.047717    -0.810315    -3.330813 
C       2.158337     0.346447    -4.187786 
H       1.228714     0.920522    -4.163899 
H       2.965729     0.983607    -3.821858 
H       2.375038     0.061270    -5.223590 
O      -2.425351    -2.635208    -4.194522 
C      -2.828185    -1.541584    -4.995254 
H      -2.760772    -0.597720    -4.440257 
H      -2.221985    -1.469269    -5.907069 
H      -3.867133    -1.730441    -5.268806 
N       1.889331    -2.005849     0.809774 
C       0.872683    -2.888501     1.122711 
O       1.085499    -4.080643     1.221849 
C      -0.472045    -2.254447     1.389306 
H      -1.122447    -3.052789     1.749629 
H      -0.891189    -1.868321     0.457766 
C      -0.358642    -1.149996     2.451151 
H      -1.367280    -0.832204     2.727348 
H       0.087410    -1.597964     3.345470 
C       0.474197     0.082206     2.086269 
C      -0.167217     1.138374     1.417604 
H       0.103553     2.168551     1.635496 
C       3.341410    -3.223396    -0.824156 
H       4.404467    -3.348754    -1.056123 
H       2.907282    -4.222932    -0.751671 
C       3.235205    -2.531312     0.547457 
H       3.480284    -3.235855     1.344467 
H       3.916702    -1.682499     0.601896 
C       1.477948     0.506585     3.150918 
H       2.174738    -0.318642     3.337005 
H       2.077071     1.340270     2.774459 
C       0.791925     0.921861     4.457385 
H       0.092537     1.747771     4.288556 
H       0.229622     0.097922     4.906486 
H       1.534518     1.253169     5.190129 
O      -1.447789     0.938532     0.966246 
C      -2.257600     2.114627     0.957191 
H      -1.755001     2.913440     0.399910 
H      -3.159789     1.831318     0.411004 
C      -2.587970     2.583990     2.356464 
C      -2.196587     3.842073     2.799970 
C      -3.273131     1.741274     3.230788 
C      -2.484794     4.257802     4.096742 
H      -1.658472     4.506438     2.129167 
C      -3.560588     2.150175     4.524469 
H      -3.580102     0.756358     2.891181 
C      -3.166559     3.412463     4.960669 
H      -2.174464     5.243263     4.429297 
H      -4.094669     1.485459     5.196060 
H      -3.392697     3.733802     5.972377 
C       1.606365    -0.670989     0.552024 
O       0.717571    -0.361238    -0.451028 
C       0.854416     0.988020    -0.456973 
N       2.578748     0.289650     0.583962 
N       2.089332     1.330312    -0.014285 
C       0.085812     1.770187    -1.450400 
O      -0.676666     1.300789    -2.253654 
O       0.341145     3.078788    -1.319964 
C      -0.320653     3.929298    -2.264388 
H      -1.405271     3.823587    -2.186217 
H      -0.014030     4.943770    -2.012580 
H      -0.010440     3.680066    -3.281790 
74
     -1835.285335     -1834.751627   5.77   3.19
C       4.659770     0.342864     3.987836 
C       3.318845     0.512448     3.604376 
C       2.528587     1.442053     4.298586 
C       3.089577     2.159244     5.329664 
C       4.440726     1.972564     5.697908 
C       5.249177     1.064668     5.037667 
C       4.244367    -1.039314     2.282451 
C       3.070534    -0.387250     2.506945 
H       1.489039     1.596129     4.024201 
H       2.511426     2.886734     5.888174 
H       6.285573     0.909679     5.307191 
H       4.482419    -1.796103     1.546723 
N       5.216640    -0.609109     3.171649 
C       6.578797    -1.081975     3.234760 
H       6.728799    -1.835242     2.459610 
H       7.288236    -0.265068     3.063918 
H       6.793461    -1.539246     4.206727 
O       4.859277     2.753131     6.738815 
C       6.200376     2.622405     7.162096 
H       6.329007     3.321757     7.989053 
H       6.412426     1.604829     7.514057 
H       6.901473     2.881223     6.358491 
N       0.134549     0.732901     0.361021 
C      -0.854170     1.247885     1.179267 
O      -0.577967     1.661413     2.289404 
C      -2.270735     1.371791     0.658786 
H      -2.375493     2.411806     0.328191 
H      -2.910159     1.268635     1.537766 
C      -2.707061     0.408493    -0.434189 
H      -2.677962    -0.617610    -0.060410 
H      -3.753699     0.613852    -0.685198 
C      -1.871692     0.499621    -1.698960 
C      -2.026433    -0.546859    -2.611383 
H      -1.809150    -0.395579    -3.665292 
C       1.777052    -0.521933     1.764918 
H       0.952322    -0.630022     2.477494 
H       1.784859    -1.419217     1.139335 
C       1.509057     0.713254     0.896660 
H       1.636666     1.620006     1.485922 
H       2.195719     0.749750     0.049689 
C      -1.626920     1.874941    -2.303711 
H      -1.076527     2.507537    -1.599757 
H      -0.973423     1.758230    -3.172951 
C      -2.929778     2.562836    -2.722501 
H      -2.719157     3.530163    -3.189093 
H      -3.483481     1.952040    -3.442853 
H      -3.587510     2.745515    -1.866864 
O      -2.886164    -1.577794    -2.325523 
C      -3.579935    -2.081716    -3.472245 
H      -2.858564    -2.399705    -4.232582 
H      -4.111581    -2.965486    -3.112086 
C      -4.542183    -1.059404    -4.034114 
C      -5.547770    -0.529284    -3.226162 
C      -4.423850    -0.613349    -5.345318 
C      -6.416752     0.431365    -3.721817 
H      -5.642953    -0.871792    -2.199798 
C      -5.295705     0.348791    -5.847639 
H      -3.639879    -1.016873    -5.980369 
C      -6.292133     0.873089    -5.036552 
H      -7.195522     0.837358    -3.083907 
H      -5.192451     0.687830    -6.873570 
H      -6.973003     1.623625    -5.425313 
C      -0.066793     0.052014    -0.840947 
O      -0.301363    -1.306555    -0.778233 
C      -0.163825    -1.615852    -2.090894 
N       0.728220     0.309244    -1.917533 
N       0.620057    -0.718024    -2.711989 
C      -0.380749    -3.001348    -2.573821 
O      -0.439175    -3.291082    -3.740561 
O      -0.523743    -3.856338    -1.560738 
C      -0.780134    -5.217048    -1.938577 
H      -0.869225    -5.768289    -1.003525 
H      -1.706723    -5.282091    -2.513352 
H       0.044451    -5.607159    -2.539022 
74
     -1835.288583     -1834.751588   3.74   3.22
C       4.027987     0.016899    -0.365094 
C       3.341538    -0.664514    -1.391338 
C       3.048884    -2.015897    -1.212142 
C       3.426176    -2.653777    -0.044808 
C       4.112414    -1.949396     0.962700 
C       4.429764    -0.608640     0.813423 
C       3.575097     1.478753    -1.994600 
C       3.058642     0.294888    -2.427411 
H       2.508994    -2.573783    -1.969881 
H       3.174174    -3.697582     0.086877 
H       4.955718    -0.091025     1.607423 
H       3.546427     2.455109    -2.460318 
N       4.165804     1.326318    -0.752223 
C       4.833419     2.360198     0.002304 
H       4.378546     2.476680     0.991221 
H       5.897757     2.134437     0.127754 
H       4.739416     3.305774    -0.534022 
O       4.491269    -2.518748     2.148443 
C       4.162111    -3.878890     2.365685 
H       4.534998    -4.122519     3.361472 
H       3.077455    -4.038914     2.332654 
H       4.648395    -4.529207     1.628933 
N       0.351450     1.306310    -2.618385 
C       0.297165     2.624179    -2.189710 
O       0.854318     3.521759    -2.788981 
C      -0.561976     2.868043    -0.966541 
H      -0.689345     3.949544    -0.900818 
H      -0.036064     2.536715    -0.068822 
C      -1.930747     2.182481    -1.082260 
H      -2.562466     2.534726    -0.262470 
H      -2.397895     2.527041    -2.011079 
C      -1.934282     0.652458    -1.102675 
C      -1.913234    -0.028274     0.129277 
H      -2.458946    -0.961074     0.249970 
C       2.261670     0.028006    -3.670647 
H       1.911507    -1.005730    -3.641859 
H       2.883968     0.117904    -4.568266 
C       1.055137     0.965358    -3.861237 
H       1.366531     1.922228    -4.277776 
H       0.344680     0.503339    -4.553635 
C      -2.839223     0.037028    -2.162633 
H      -2.508496     0.367647    -3.153826 
H      -2.728527    -1.050749    -2.146401 
C      -4.311793     0.404835    -1.951016 
H      -4.656937     0.087719    -0.961215 
H      -4.481874     1.482514    -2.032158 
H      -4.940512    -0.086234    -2.700305 
O      -1.729140     0.708971     1.268270 
C      -2.245581     0.104267     2.455476 
H      -1.838117    -0.905835     2.573506 
H      -1.869999     0.725159     3.272016 
C      -3.757508     0.057726     2.458498 
C      -4.495072     1.230563     2.301489 
C      -4.431278    -1.149674     2.604062 
C      -5.881607     1.194964     2.291794 
H      -3.975201     2.177002     2.184759 
C      -5.822691    -1.189109     2.599464 
H      -3.866369    -2.070437     2.722044 
C      -6.549701    -0.017361     2.442981 
H      -6.445392     2.114415     2.169065 
H      -6.336027    -2.138205     2.716869 
H      -7.634682    -0.045251     2.438241 
C      -0.043912     0.300687    -1.747423 
O       0.547050     0.277567    -0.508762 
C       0.052596    -0.900510    -0.047337 
N      -0.245320    -0.989425    -2.160295 
N      -0.232269    -1.719675    -1.087731 
C       0.458454    -1.393380     1.289444 
O       0.189472    -2.488377     1.713527 
O       1.106805    -0.443761     1.966086 
C       1.547994    -0.804216     3.281952 
H       1.935017     0.115113     3.720148 
H       0.715471    -1.190160     3.874551 
H       2.337923    -1.555001     3.223732 
74
     -1835.287508     -1834.751561   4.41   3.24
C       3.343998    -2.316232    -1.111504 
C       2.358374    -2.898522    -0.295471 
C       1.444348    -3.784331    -0.885581 
C       1.529094    -4.051062    -2.231455 
C       2.527695    -3.450517    -3.030129 
C       3.451541    -2.576513    -2.485946 
C       3.625395    -1.555299     0.970775 
C       2.548860    -2.389313     1.039862 
H       0.667114    -4.253423    -0.290164 
H       0.837335    -4.731100    -2.715995 
H       4.224674    -2.107765    -3.080508 
H       4.087620    -0.957469     1.742834 
N       4.111010    -1.497288    -0.324264 
C       5.247518    -0.721703    -0.763660 
H       6.048597    -1.369083    -1.136317 
H       4.961784    -0.021062    -1.555080 
H       5.630289    -0.148583     0.081745 
O       2.491918    -3.805694    -4.348409 
C       3.464426    -3.246084    -5.207492 
H       3.385714    -2.152170    -5.242615 
H       4.479497    -3.527254    -4.899983 
H       3.264717    -3.652149    -6.199735 
N       1.005656    -0.385018     2.724162 
C       1.811635     0.723333     2.510290 
O       2.952627     0.777712     2.922775 
C       1.189771     1.812863     1.665448 
H       2.004430     2.488090     1.399774 
H       0.458616     2.377815     2.246569 
C       0.552033     1.225212     0.399075 
H       0.325365     2.043845    -0.290048 
H       1.303029     0.594654    -0.090970 
C      -0.705425     0.378107     0.595026 
C      -1.936113     1.026972     0.786803 
H      -2.847604     0.611686     0.364124 
C       1.707415    -2.738357     2.235410 
H       2.117777    -3.615363     2.751814 
H       0.707953    -3.024102     1.895851 
C       1.563026    -1.624867     3.278046 
H       0.907464    -1.964460     4.083983 
H       2.527974    -1.354778     3.706880 
C      -0.761660    -0.874789    -0.266435 
H       0.070624    -1.530609    -0.004321 
H      -1.681242    -1.425617    -0.049213 
C      -0.698260    -0.552147    -1.762683 
H      -1.511717     0.118635    -2.059328 
H       0.246410    -0.074069    -2.035344 
H      -0.779687    -1.471371    -2.349672 
O      -1.927554     2.385448     0.976562 
C      -3.108505     3.057963     0.529372 
H      -3.995727     2.602847     0.982178 
H      -3.009265     4.076640     0.911322 
C      -3.232072     3.053928    -0.977261 
C      -2.221875     3.602928    -1.766107 
C      -4.346128     2.498211    -1.596154 
C      -2.326787     3.598301    -3.149188 
H      -1.348264     4.037141    -1.288671 
C      -4.457166     2.494873    -2.983767 
H      -5.136370     2.063354    -0.990158 
C      -3.448126     3.044793    -3.761965 
H      -1.534844     4.029720    -3.753337 
H      -5.333590     2.060412    -3.454131 
H      -3.531864     3.043317    -4.844076 
C      -0.359036    -0.281453     2.503477 
O      -1.023293     0.728341     3.158439 
C      -2.299268     0.410798     2.805086 
N      -1.185061    -1.369096     2.431958 
N      -2.393566    -0.920328     2.576878 
C      -3.438365     1.225378     3.291544 
O      -4.580827     1.022937     2.970285 
O      -3.028066     2.219379     4.080945 
C      -4.065149     3.082128     4.570090 
H      -3.562936     3.815445     5.199556 
H      -4.574456     3.574542     3.738236 
H      -4.793445     2.511302     5.149965 
74
     -1835.289465     -1834.751456   3.18   3.30
C      -0.807237    -3.782827    -0.283836 
C      -1.081277    -3.524319     1.075707 
C      -2.400916    -3.273601     1.454576 
C      -3.406383    -3.303029     0.503966 
C      -3.106065    -3.585151    -0.843529 
C      -1.804686    -3.827104    -1.253744 
C       1.120656    -3.848083     0.839638 
C       0.172392    -3.581848     1.781891 
H      -2.647050    -3.046220     2.486869 
H      -4.425596    -3.107919     0.811487 
H      -1.601656    -4.024830    -2.299533 
H       2.192558    -3.949617     0.949474 
N       0.547200    -3.963079    -0.412334 
C       1.238094    -4.303496    -1.633754 
H       1.057047    -5.345696    -1.920184 
H       0.909960    -3.647664    -2.444363 
H       2.310357    -4.161089    -1.486138 
O      -4.053097    -3.638725    -1.829664 
C      -5.398587    -3.397581    -1.472751 
H      -5.531214    -2.389297    -1.061128 
H      -5.976895    -3.488480    -2.393323 
H      -5.760063    -4.134690    -0.745022 
N       0.303693    -0.860842     2.589989 
C      -0.993310    -0.453279     2.836459 
O      -1.615490    -0.881238     3.788533 
C      -1.529944     0.592775     1.888204 
H      -2.496052     0.904310     2.287867 
H      -1.694517     0.151933     0.902754 
C      -0.581095     1.798527     1.807266 
H      -1.078327     2.591238     1.242525 
H      -0.441259     2.176072     2.825749 
C       0.807497     1.551024     1.210497 
C       0.956971     1.661924    -0.181973 
H       1.869972     2.075841    -0.602957 
C       0.369674    -3.276231     3.236544 
H       1.062190    -3.987914     3.698669 
H      -0.585976    -3.375278     3.755838 
C       0.921083    -1.858068     3.472610 
H       0.739074    -1.551244     4.504340 
H       1.992619    -1.825184     3.277108 
C       1.959838     2.117353     2.030613 
H       1.944880     1.667438     3.029868 
H       2.909462     1.826667     1.573012 
C       1.893845     3.645001     2.139497 
H       0.986803     3.982060     2.649815 
H       2.751204     4.025089     2.703945 
H       1.909292     4.110381     1.148056 
O      -0.173083     1.803576    -0.946669 
C       0.015725     2.566133    -2.139343 
H       0.844763     2.151298    -2.724032 
H      -0.906187     2.431337    -2.708836 
C       0.268296     4.027294    -1.841675 
C      -0.682271     4.771051    -1.143574 
C       1.451746     4.642748    -2.233243 
C      -0.452197     6.105290    -0.843025 
H      -1.608193     4.295790    -0.833065 
C       1.686187     5.982216    -1.935947 
H       2.202023     4.072463    -2.774343 
C       0.735007     6.714978    -1.240189 
H      -1.199685     6.674190    -0.299199 
H       2.613987     6.450368    -2.249096 
H       0.914954     7.759555    -1.006884 
C       0.950035    -0.481789     1.421176 
O       0.378420    -0.797943     0.210051 
C       1.377962    -0.393804    -0.614427 
N       2.309043    -0.562801     1.295493 
N       2.568446    -0.469693     0.028844 
C       1.213134    -0.583891    -2.072268 
O       0.234646    -1.043781    -2.597865 
O       2.296970    -0.152090    -2.730405 
C       2.260174    -0.330910    -4.151860 
H       1.414539     0.206811    -4.587160 
H       3.202832     0.069161    -4.523301 
H       2.173050    -1.391554    -4.398287 
74
     -1835.285498     -1834.751252   5.67   3.43
C       5.045708     0.075569     3.607146 
C       4.166473     0.653702     2.676223 
C       4.643939     1.671628     1.835724 
C       5.955764     2.070438     1.946542 
C       6.822410     1.474519     2.889866 
C       6.386804     0.469958     3.735396 
C       3.054039    -0.912872     3.825283 
C       2.889565     0.005529     2.833813 
H       3.988312     2.136640     1.105249 
H       6.360952     2.852373     1.314218 
H       7.037494     0.003341     4.463168 
H       2.339216    -1.606999     4.247058 
N       4.354140    -0.882297     4.304774 
C       4.890235    -1.709762     5.358781 
H       5.240557    -1.100914     6.199300 
H       4.105296    -2.376039     5.720327 
H       5.722248    -2.322289     4.994908 
O       8.095401     1.971929     2.885953 
C       9.019630     1.422894     3.802014 
H       9.170302     0.350337     3.625312 
H       9.960915     1.948867     3.638202 
H       8.696064     1.577195     4.839222 
N       0.746850     0.259761    -0.300313 
C       0.913333     1.512278    -0.861833 
O       1.911951     2.164385    -0.622514 
C      -0.114637     2.037438    -1.841529 
H       0.292967     1.832165    -2.838333 
H      -0.095182     3.122860    -1.725031 
C      -1.536932     1.513449    -1.717771 
H      -1.957650     1.800070    -0.751205 
H      -2.156794     1.999679    -2.479212 
C      -1.650961     0.008018    -1.881831 
C      -2.865291    -0.560097    -1.487843 
H      -3.196472    -1.500926    -1.919764 
C       1.662137     0.288447     2.024431 
H       1.485865     1.368812     1.986988 
H       0.782432    -0.167723     2.487631 
C       1.818825    -0.227147     0.588784 
H       2.763639     0.114691     0.168972 
H       1.801866    -1.317715     0.563153 
C      -0.972921    -0.638508    -3.081576 
H       0.109674    -0.481958    -3.036500 
H      -1.120047    -1.720611    -3.020495 
C      -1.525560    -0.113597    -4.410207 
H      -2.605794    -0.276836    -4.479762 
H      -1.343497     0.958725    -4.532054 
H      -1.050011    -0.626631    -5.251859 
O      -3.858154     0.240774    -0.979308 
C      -5.170713    -0.134748    -1.400387 
H      -5.355179    -1.186682    -1.153696 
H      -5.846695     0.481805    -0.803445 
C      -5.375307     0.105949    -2.879631 
C      -5.191816     1.383313    -3.408305 
C      -5.717923    -0.935738    -3.733739 
C      -5.345632     1.611901    -4.767555 
H      -4.921141     2.200335    -2.745879 
C      -5.876480    -0.710031    -5.098349 
H      -5.858352    -1.936048    -3.333109 
C      -5.689168     0.563316    -5.617004 
H      -5.199621     2.609984    -5.168358 
H      -6.144754    -1.532397    -5.753924 
H      -5.811295     0.742272    -6.680490 
C      -0.421434    -0.504190    -0.329371 
O      -1.365645    -0.276049     0.648631 
C      -2.160507    -1.353028     0.448647 
N      -0.357413    -1.844650    -0.571941 
N      -1.467183    -2.356663    -0.122237 
C      -3.350289    -1.507499     1.322011 
O      -3.600970    -0.786513     2.248940 
O      -4.099272    -2.541560     0.923373 
C      -5.251506    -2.807638     1.736729 
H      -4.946909    -3.025324     2.762585 
H      -5.925892    -1.948010     1.738079 
H      -5.734007    -3.675658     1.288929 
74
     -1835.284774     -1834.750928   6.13   3.63
C       5.737739    -1.395305     0.112222 
C       4.351967    -1.143856     0.025149 
C       3.510594    -2.162596    -0.425502 
C       4.050885    -3.390579    -0.771681 
C       5.437851    -3.616025    -0.673947 
C       6.299021    -2.623455    -0.232071 
C       5.366951     0.707150     0.773577 
C       4.138869     0.216813     0.454430 
H       2.439089    -2.000899    -0.505889 
H       3.392313    -4.175522    -1.120036 
H       7.361715    -2.827261    -0.168186 
H       5.640397     1.688214     1.139243 
N       6.345267    -0.253627     0.572033 
C       7.761487    -0.090419     0.796670 
H       8.326158    -0.231923    -0.131165 
H       7.949123     0.919741     1.164542 
H       8.125927    -0.804191     1.543234 
O       6.031742    -4.804605    -0.999897 
C       5.208517    -5.859377    -1.455550 
H       4.683922    -5.589628    -2.380462 
H       5.875947    -6.699190    -1.653603 
H       4.474106    -6.153594    -0.695609 
N       0.623475     0.849642     1.741265 
C       0.297325     2.040342     2.369022 
O       1.133036     2.685574     2.967211 
C      -1.137477     2.486198     2.198838 
H      -1.212021     3.464963     2.674367 
H      -1.812916     1.801553     2.715901 
C      -1.508272     2.596405     0.712407 
H      -2.487803     3.075427     0.637869 
H      -0.788806     3.274070     0.240751 
C      -1.523384     1.298288    -0.096743 
C      -2.697448     0.528803    -0.111954 
H      -2.988912    -0.004398    -1.013284 
C       2.812126     0.900360     0.555937 
H       2.240495     0.724561    -0.361201 
H       2.936427     1.981930     0.663919 
C       2.008688     0.367899     1.746993 
H       1.979412    -0.722452     1.729569 
H       2.462415     0.691522     2.683912 
C      -0.788095     1.377539    -1.427906 
H       0.253150     1.666270    -1.248468 
H      -0.765451     0.389422    -1.895023 
C      -1.447065     2.377988    -2.385205 
H      -2.489719     2.107214    -2.580781 
H      -1.438928     3.395600    -1.983847 
H      -0.915876     2.395247    -3.342068 
O      -3.725551     0.882524     0.728924 
C      -5.030773     0.670110     0.176667 
H      -5.152219    -0.382597    -0.099746 
H      -5.718408     0.895722     0.994817 
C      -5.293229     1.562387    -1.015417 
C      -5.249493     2.949163    -0.877062 
C      -5.554579     1.017105    -2.267677 
C      -5.456083     3.774213    -1.972739 
H      -5.049282     3.382160     0.098732 
C      -5.765848     1.841228    -3.369268 
H      -5.588595    -0.062512    -2.386047 
C      -5.714623     3.220473    -3.223750 
H      -5.418429     4.852378    -1.853107 
H      -5.968924     1.402298    -4.340981 
H      -5.877962     3.865625    -4.081131 
C      -0.347519     0.092736     1.110920 
O      -1.374002    -0.401545     1.877492 
C      -1.986734    -1.178320     0.942396 
N      -0.040294    -0.824050     0.147140 
N      -1.083788    -1.588149     0.022729 
C      -3.192799    -1.968572     1.295859 
O      -3.858064    -2.553805     0.480890 
O      -3.449475    -1.915726     2.602561 
C      -4.625321    -2.621819     3.025726 
H      -4.542789    -3.681886     2.776822 
H      -4.677315    -2.483138     4.104697 
H      -5.511863    -2.205839     2.541573 
74
     -1835.283871     -1834.750858   6.69   3.68
C       3.293561     2.015365     2.898924 
C       3.731085     2.022241     1.562988 
C       4.483669     3.116636     1.113177 
C       4.775097     4.142465     1.981428 
C       4.326848     4.109817     3.320463 
C       3.580168     3.049661     3.802498 
C       2.564616     0.144819     1.919826 
C       3.255632     0.809286     0.951875 
H       4.835470     3.162461     0.086994 
H       5.354127     5.002519     1.664057 
H       3.226702     3.008365     4.824520 
H       2.040537    -0.799637     1.863597 
N       2.578614     0.863027     3.103203 
C       1.963053     0.461579     4.345539 
H       1.453489    -0.491314     4.195090 
H       2.711557     0.333027     5.134791 
H       1.224630     1.200022     4.675213 
O       4.690290     5.193760     4.069321 
C       4.272766     5.229857     5.418110 
H       4.682268     4.385551     5.987109 
H       4.658097     6.162264     5.832423 
H       3.178358     5.223889     5.498979 
N       1.070512     0.807567    -1.131551 
C       0.282328     1.729474    -0.455603 
O       0.694100     2.832022    -0.168314 
C      -1.130831     1.278822    -0.156951 
H      -1.638180     2.143909     0.272389 
H      -1.117912     0.486414     0.594772 
C      -1.873209     0.809773    -1.415692 
H      -2.915560     0.623618    -1.144066 
H      -1.883383     1.633628    -2.134806 
C      -1.322343    -0.432049    -2.118269 
C      -1.772317    -1.684141    -1.668842 
H      -1.931015    -2.496671    -2.372782 
C       3.437401     0.399829    -0.478180 
H       3.306401    -0.682449    -0.579278 
H       4.460232     0.621602    -0.804619 
C       2.473725     1.113987    -1.434767 
H       2.572623     2.195819    -1.350050 
H       2.675930     0.813029    -2.465452 
C      -1.186037    -0.311649    -3.635176 
H      -0.870148    -1.277520    -4.042181 
H      -2.200524    -0.128071    -4.015633 
C      -0.261285     0.783551    -4.169926 
H      -0.377620     0.861345    -5.255212 
H      -0.484550     1.766059    -3.744693 
H       0.783455     0.551112    -3.961966 
O      -2.518547    -1.736688    -0.516553 
C      -3.527342    -2.754614    -0.512352 
H      -3.076741    -3.727841    -0.733575 
H      -3.900782    -2.771246     0.514203 
C      -4.642238    -2.453369    -1.486888 
C      -4.911086    -3.310957    -2.547757 
C      -5.408533    -1.297930    -1.339387 
C      -5.931443    -3.023566    -3.449741 
H      -4.317465    -4.212560    -2.672528 
C      -6.424578    -1.006017    -2.237339 
H      -5.204468    -0.624252    -0.512008 
C      -6.688796    -1.870703    -3.296230 
H      -6.131510    -3.702174    -4.272905 
H      -7.014612    -0.103526    -2.112547 
H      -7.484473    -1.643581    -3.998601 
C       0.614713    -0.482574    -1.346619 
O       0.317546    -1.253040    -0.247386 
C       0.064174    -2.436153    -0.870880 
N       1.125781    -1.289738    -2.320362 
N       0.747287    -2.499776    -2.034281 
C      -0.285945    -3.637090    -0.074125 
O      -0.671583    -4.666648    -0.563054 
O      -0.142731    -3.417032     1.235504 
C      -0.500874    -4.519251     2.082431 
H      -1.552981    -4.777913     1.943219 
H       0.117456    -5.390262     1.855659 
H      -0.322655    -4.176177     3.100822 
74
     -1835.284366     -1834.750855   6.38   3.68
C       4.596780     2.933266     2.561593 
C       3.594004     2.322038     1.778359 
C       3.947578     1.255494     0.950417 
C       5.262341     0.819924     0.919060 
C       6.242707     1.446007     1.713462 
C       5.924434     2.509809     2.543248 
C       2.664443     3.982977     2.957588 
C       2.359019     3.016636     2.049935 
H       3.202496     0.765796     0.329831 
H       5.527550    -0.007553     0.273989 
H       6.701059     2.971864     3.141857 
H       2.018065     4.716828     3.420751 
N       4.012745     3.947250     3.277785 
C       4.695768     4.825393     4.196820 
H       3.975501     5.528590     4.618342 
H       5.148834     4.259766     5.018105 
H       5.479904     5.395969     3.687483 
O       7.556254     1.063463     1.728255 
C       7.945378    -0.018057     0.905819 
H       9.015043    -0.153714     1.071391 
H       7.418204    -0.940722     1.178321 
H       7.769311     0.199317    -0.154946 
N      -0.780741     0.959432     1.424841 
C      -1.969285     1.581704     1.754081 
O      -1.985873     2.452685     2.601984 
C      -3.245073     1.211195     1.025828 
H      -3.459927     2.057791     0.364127 
H      -4.026285     1.224664     1.789249 
C      -3.272981    -0.101886     0.259334 
H      -3.184784    -0.942208     0.951714 
H      -4.249830    -0.205396    -0.225990 
C      -2.184941    -0.212536    -0.795093 
C      -1.989249    -1.481792    -1.345439 
H      -1.550600    -1.593442    -2.333456 
C       1.016765     2.688038     1.474807 
H       1.099012     2.535731     0.393750 
H       0.315584     3.509645     1.641681 
C       0.443719     1.416678     2.109457 
H       1.171057     0.604378     2.059770 
H       0.196407     1.595714     3.155879 
C      -1.981660     0.957662    -1.747128 
H      -1.704699     1.858726    -1.189777 
H      -1.128541     0.732828    -2.393550 
C      -3.223119     1.229394    -2.602060 
H      -4.086552     1.507504    -1.989606 
H      -3.035317     2.050634    -3.300697 
H      -3.500240     0.344845    -3.184519 
O      -2.753916    -2.534946    -0.913178 
C      -3.085133    -3.468039    -1.947743 
H      -2.169182    -3.841728    -2.417769 
H      -3.570033    -4.299129    -1.430519 
C      -4.008461    -2.853700    -2.975748 
C      -5.235831    -2.321227    -2.581977 
C      -3.640207    -2.784141    -4.314326 
C      -6.077128    -1.727885    -3.511386 
H      -5.527475    -2.370109    -1.536825 
C      -4.482937    -2.191890    -5.250935 
H      -2.683475    -3.191812    -4.629306 
C      -5.701423    -1.662085    -4.850678 
H      -7.029961    -1.316272    -3.193690 
H      -4.183330    -2.144765    -6.293122 
H      -6.360249    -1.199332    -5.578571 
C      -0.599834    -0.048938     0.478806 
O      -0.666776    -1.353266     0.922299 
C      -0.180151    -1.985391    -0.173892 
N       0.396044     0.045600    -0.447086 
N       0.609218    -1.165167    -0.885124 
C      -0.101811    -3.465818    -0.229353 
O       0.158563    -4.073836    -1.235060 
O      -0.378332    -4.015543     0.952776 
C      -0.366565    -5.450518     0.979856 
H      -1.112278    -5.848344     0.287829 
H       0.619935    -5.828416     0.702851 
H      -0.609548    -5.725636     2.005217 
74
     -1835.286489     -1834.750702   5.05   3.78
C      -1.885333    -2.963842    -2.402521 
C      -0.485697    -2.789976    -2.469341 
C       0.326843    -3.702228    -1.796197 
C      -0.242704    -4.741658    -1.080636 
C      -1.642726    -4.887940    -1.029471 
C      -2.480208    -4.002304    -1.690055 
C      -1.463403    -1.159485    -3.653410 
C      -0.237512    -1.615544    -3.271502 
H       1.407592    -3.601504    -1.821177 
H       0.402216    -5.441562    -0.565323 
H      -3.553894    -4.140232    -1.634172 
H      -1.723494    -0.294682    -4.246733 
N      -2.466718    -1.958647    -3.131205 
C      -3.884811    -1.782072    -3.339210 
H      -4.408734    -1.669537    -2.384417 
H      -4.045297    -0.879262    -3.930051 
H      -4.314128    -2.633255    -3.878541 
O      -2.270857    -5.888541    -0.341111 
C      -1.470446    -6.826586     0.350141 
H      -0.813549    -7.376661    -0.334838 
H      -0.862557    -6.342748     1.124644 
H      -2.162749    -7.525144     0.821893 
N       0.669750     1.208366    -2.607782 
C      -0.565569     1.838250    -2.635564 
O      -1.206737     1.950959    -3.660960 
C      -1.080148     2.297337    -1.289533 
H      -2.129585     2.553887    -1.441306 
H      -0.555446     3.197875    -0.965323 
C      -0.952024     1.178893    -0.246265 
H      -1.536260     1.455557     0.636056 
H      -1.414629     0.277699    -0.665116 
C       0.465394     0.809762     0.191843 
C       1.113486     1.619822     1.138591 
H       1.765229     1.175887     1.886976 
C       1.117421    -1.050524    -3.592851 
H       1.513920    -1.500545    -4.511853 
H       1.813943    -1.322270    -2.794758 
C       1.163891     0.470061    -3.776393 
H       2.194172     0.781243    -3.967164 
H       0.545105     0.788014    -4.615416 
C       0.709625    -0.684583     0.342159 
H       0.574584    -1.171198    -0.625417 
H       1.747374    -0.855864     0.642135 
C      -0.232812    -1.325275     1.365828 
H      -0.135819    -0.849771     2.347676 
H      -1.279175    -1.249188     1.058460 
H      -0.002072    -2.388812     1.475389 
O       0.520508     2.806472     1.487608 
C       0.808011     3.248771     2.817529 
H       1.890944     3.288671     2.975569 
H       0.414189     4.266759     2.862662 
C       0.160579     2.370605     3.863907 
C      -1.221717     2.187817     3.869703 
C       0.931154     1.728847     4.826897 
C      -1.821646     1.379680     4.824139 
H      -1.829080     2.685188     3.119094 
C       0.332738     0.919950     5.788870 
H       2.009738     1.861025     4.827590 
C      -1.043974     0.744361     5.788953 
H      -2.898826     1.245668     4.819921 
H       0.945679     0.427024     6.536831 
H      -1.513245     0.114027     6.537581 
C       1.483770     1.364698    -1.496422 
O       1.772552     2.651697    -1.108802 
C       2.669078     2.382260    -0.120111 
N       2.583282     0.584954    -1.265042 
N       3.291634     1.207214    -0.374018 
C       3.311695     3.485965     0.632581 
O       4.070791     3.306618     1.549662 
O       2.907575     4.678938     0.193279 
C       3.454484     5.807094     0.891350 
H       4.544155     5.807570     0.819705 
H       3.037001     6.685201     0.400599 
H       3.163477     5.780760     1.944187 
74
     -1835.288542     -1834.750626   3.76   3.82
C      -2.293252    -1.890465     2.152106 
C      -2.108951    -0.756779     2.960613 
C      -1.153692    -0.816222     3.986301 
C      -0.410161    -1.957601     4.155635 
C      -0.586319    -3.071695     3.305005 
C      -1.534985    -3.061390     2.297524 
C      -3.700860    -0.307871     1.453337 
C      -3.015859     0.256398     2.485905 
H      -0.987984     0.034984     4.639134 
H       0.344850    -2.028343     4.930237 
H      -1.691485    -3.911017     1.645606 
H      -4.459559     0.130685     0.818722 
N      -3.279443    -1.606271     1.240456 
C      -3.833557    -2.529154     0.279450 
H      -4.605761    -2.016985    -0.296763 
H      -3.062760    -2.879293    -0.412263 
H      -4.288405    -3.392049     0.777765 
O       0.239087    -4.123814     3.566823 
C       0.235603    -5.204764     2.654877 
H       0.997965    -5.900722     3.006222 
H      -0.735895    -5.714494     2.640162 
H       0.492402    -4.865404     1.644003 
N      -1.381122     2.238972     1.163288 
C      -2.105768     2.801166     0.130368 
O      -3.078523     3.495596     0.351186 
C      -1.579410     2.529598    -1.261287 
H      -2.154899     3.166250    -1.934833 
H      -1.777020     1.489168    -1.530220 
C      -0.081576     2.841826    -1.393674 
H       0.197390     2.723385    -2.443820 
H       0.070254     3.897574    -1.151217 
C       0.874536     2.014205    -0.529442 
C       1.344688     0.803114    -1.074139 
H       2.361507     0.470048    -0.882177 
C      -3.086820     1.689182     2.914987 
H      -3.227609     1.768721     3.999400 
H      -3.942794     2.170908     2.437666 
C      -1.812169     2.470237     2.547930 
H      -1.985066     3.541468     2.669255 
H      -0.979313     2.173339     3.185182 
C       1.939666     2.825559     0.209298 
H       2.620761     2.134947     0.716896 
H       2.528933     3.336706    -0.564363 
C       1.450633     3.871079     1.214135 
H       2.299609     4.471173     1.555607 
H       0.717286     4.558074     0.782091 
H       1.002707     3.398731     2.089007 
O       0.775730     0.355696    -2.235186 
C       1.603596    -0.517796    -3.005180 
H       1.979557    -1.333098    -2.376774 
H       0.937452    -0.942106    -3.760147 
C       2.758004     0.213606    -3.651215 
C       2.514089     1.283010    -4.511817 
C       4.071714    -0.160173    -3.392293 
C       3.566740     1.963930    -5.105010 
H       1.489904     1.581520    -4.716069 
C       5.130888     0.518321    -3.988312 
H       4.273250    -0.989596    -2.719715 
C       4.880007     1.580904    -4.845051 
H       3.365350     2.795021    -5.773541 
H       6.151934     0.215011    -3.779683 
H       5.704076     2.112311    -5.310338 
C      -0.400597     1.291293     0.894058 
O      -0.776760     0.159170     0.210334 
C       0.374811    -0.555694     0.314449 
N       0.559310     0.954004     1.807011 
N       1.065070    -0.171602     1.410647 
C       0.466511    -1.918552    -0.248060 
O       1.391365    -2.665451    -0.058053 
O      -0.577784    -2.197842    -1.041727 
C      -0.522571    -3.473477    -1.687475 
H       0.391726    -3.569511    -2.277518 
H      -0.552544    -4.279685    -0.949950 
H      -1.397683    -3.517977    -2.335366 
74
     -1835.288233     -1834.750367   3.96   3.99
C       3.049544     0.973517     1.454396 
C       3.079514     1.551470     0.174113 
C       3.638214     0.812227    -0.877789 
C       4.122596    -0.451090    -0.633581 
C       4.069938    -1.011804     0.660611 
C       3.547325    -0.307202     1.727809 
C       2.066973     2.975158     1.574258 
C       2.438332     2.835737     0.269899 
H       3.678157     1.217350    -1.883539 
H       4.548047    -1.050789    -1.430526 
H       3.489098    -0.724584     2.724012 
H       1.526635     3.779260     2.056159 
N       2.432064     1.857641     2.301603 
C       2.202401     1.654504     3.712419 
H       3.147375     1.571622     4.259776 
H       1.647862     2.507959     4.105544 
H       1.611864     0.749118     3.885096 
O       4.552947    -2.288965     0.749608 
C       4.444154    -2.940395     1.999961 
H       3.397425    -3.004952     2.321536 
H       4.843347    -3.945267     1.856016 
H       5.031966    -2.426450     2.770466 
N      -0.297088     3.088807    -0.627788 
C      -1.164893     3.256891     0.440969 
O      -1.148517     4.252131     1.136910 
C      -2.174956     2.144239     0.627431 
H      -2.915745     2.526253     1.331313 
H      -1.696060     1.275205     1.083140 
C      -2.854778     1.762122    -0.695065 
H      -3.686647     1.089361    -0.470888 
H      -3.288130     2.673238    -1.121209 
C      -1.965026     1.126971    -1.767095 
C      -1.742054    -0.264253    -1.694565 
H      -1.663077    -0.858779    -2.603196 
C       2.133701     3.752491    -0.878271 
H       2.439253     3.261163    -1.804167 
H       2.714265     4.679811    -0.814104 
C       0.649801     4.154698    -0.983067 
H       0.418447     4.971048    -0.300371 
H       0.437484     4.489728    -2.003055 
C      -2.169581     1.684020    -3.170547 
H      -1.925070     2.752176    -3.169543 
H      -1.463285     1.207629    -3.856230 
C      -3.598111     1.478204    -3.685500 
H      -3.695124     1.863045    -4.705307 
H      -3.860073     0.414990    -3.703819 
H      -4.338660     1.992721    -3.066227 
O      -2.188329    -0.917032    -0.584032 
C      -2.379135    -2.325652    -0.737717 
H      -3.079197    -2.506334    -1.562967 
H      -1.423023    -2.800258    -0.987778 
C      -2.934457    -2.882554     0.544864 
C      -4.212084    -3.428950     0.581118 
C      -2.169170    -2.851956     1.710308 
C      -4.725613    -3.947213     1.765701 
H      -4.813169    -3.449768    -0.324136 
C      -2.681644    -3.365274     2.893212 
H      -1.172732    -2.423725     1.682401 
C      -3.960162    -3.915257     2.923500 
H      -5.724051    -4.372823     1.782642 
H      -2.081192    -3.337996     3.797169 
H      -4.357685    -4.317192     3.850213 
C      -0.161085     1.825609    -1.186290 
O       0.152741     0.791534    -0.337440 
C       0.378887    -0.185733    -1.250365 
N       0.484062     1.624813    -2.378110 
N       0.770019     0.361682    -2.427764 
C       0.839617    -1.494361    -0.737216 
O       0.812943    -1.799400     0.427852 
O       1.248029    -2.288752    -1.727109 
C       1.810822    -3.544096    -1.313318 
H       2.702360    -3.373336    -0.706486 
H       1.081490    -4.121306    -0.740143 
H       2.069916    -4.062650    -2.235699 
74
     -1835.288233     -1834.750366   3.96   3.99
C       3.200484     0.992247     1.066859 
C       3.127936     1.438218    -0.263514 
C       3.563170     0.576427    -1.279885 
C       4.029922    -0.674452    -0.951751 
C       4.081676    -1.101026     0.392671 
C       3.682749    -0.273572     1.424509 
C       2.294327     3.033145     1.068340 
C       2.537609     2.749977    -0.242892 
H       3.521037     0.877519    -2.321432 
H       4.360666    -1.366838    -1.717896 
H       3.705423    -0.587077     2.459507 
H       1.825997     3.901964     1.511730 
N       2.691994     1.980049     1.870851 
C       2.589300     1.927602     3.309987 
H       1.990052     1.068221     3.627239 
H       3.578387     1.861863     3.775638 
H       2.100437     2.837421     3.661679 
O       4.532077    -2.381084     0.568586 
C       4.521377    -2.899917     1.883982 
H       3.507914    -2.890819     2.303548 
H       4.874939    -3.929078     1.808730 
H       5.193968    -2.335336     2.541410 
N      -0.260894     3.020229    -0.912262 
C      -1.019520     3.327938     0.207287 
O      -0.908073     4.386013     0.793085 
C      -2.040920     2.280174     0.597052 
H      -2.700777     2.759292     1.321750 
H      -1.548037     1.442497     1.094642 
C      -2.852632     1.795648    -0.612710 
H      -3.679834     1.181899    -0.246761 
H      -3.296213     2.676297    -1.089384 
C      -2.086589     1.022418    -1.689565 
C      -1.900054    -0.362448    -1.495043 
H      -1.924347    -1.046963    -2.341304 
C       2.154767     3.559188    -1.447109 
H       2.357464     2.966460    -2.341332 
H       2.766502     4.464633    -1.531035 
C       0.680392     4.007261    -1.458788 
H       0.538602     4.895964    -0.845498 
H       0.383885     4.247300    -2.484539 
C      -2.404463     1.444909    -3.118650 
H      -2.128753     2.497376    -3.249199 
H      -1.780055     0.875203    -3.812559 
C      -3.880428     1.245580    -3.479245 
H      -4.174983     0.197004    -3.364756 
H      -4.543973     1.847974    -2.851973 
H      -4.060631     1.530696    -4.520282 
O      -2.260215    -0.883479    -0.287831 
C      -2.506978    -2.291769    -0.278406 
H      -3.286058    -2.525819    -1.014630 
H      -1.593113    -2.826271    -0.563154 
C      -2.956881    -2.695989     1.099168 
C      -2.085575    -2.580110     2.181880 
C      -4.241569    -3.184907     1.305852 
C      -2.500770    -2.952558     3.452420 
H      -1.083530    -2.196680     2.020815 
C      -4.657808    -3.562069     2.578663 
H      -4.924878    -3.271713     0.465153 
C      -3.787014    -3.445611     3.653645 
H      -1.818016    -2.859433     4.291229 
H      -5.662785    -3.943908     2.728765 
H      -4.108342    -3.737347     4.648639 
C      -0.215961     1.703372    -1.348112 
O       0.144389     0.747204    -0.429284 
C       0.254535    -0.324167    -1.253701 
N       0.308610     1.359705    -2.566182 
N       0.550296     0.087567    -2.511442 
C       0.721296    -1.592524    -0.652456 
O       0.794255    -1.778965     0.535426 
O       1.011233    -2.496929    -1.588265 
C       1.571923    -3.726211    -1.100057 
H       2.520973    -3.531391    -0.596473 
H       0.882140    -4.214265    -0.407506 
H       1.727969    -4.343731    -1.983875 
74
     -1835.285269     -1834.750358   5.82   3.99
C       4.037237     0.984826     1.593529 
C       3.558384     1.399361     0.333299 
C       3.661604     0.513703    -0.741224 
C       4.215464    -0.737516    -0.550080 
C       4.678483    -1.127793     0.722245 
C       4.603560    -0.269772     1.807077 
C       3.185404     3.038164     1.813691 
C       3.013557     2.721933     0.499185 
H       3.301813     0.790934    -1.727713 
H       4.284137    -1.416922    -1.389626 
H       4.964446    -0.599316     2.774813 
H       2.883529     3.924136     2.355717 
N       3.805466     2.001728     2.485919 
C       4.137614     1.978638     3.890370 
H       3.803618     2.911291     4.347683 
H       3.638530     1.146124     4.397119 
H       5.218634     1.884661     4.038681 
O       5.229545    -2.352378     0.976847 
C       5.117134    -3.346183    -0.022924 
H       4.069115    -3.501465    -0.305655 
H       5.703369    -3.091314    -0.914332 
H       5.514772    -4.262528     0.415546 
N       0.100436     2.761846     0.319097 
C      -0.326280     2.750304     1.638435 
O      -0.054450     3.645185     2.412446 
C      -1.217102     1.585054     2.010524 
H      -1.609353     1.810032     3.003281 
H      -0.630468     0.666740     2.078199 
C      -2.373200     1.424198     1.012423 
H      -3.082731     0.699376     1.420599 
H      -2.899112     2.383299     0.955154 
C      -2.000849     1.013333    -0.413968 
C      -1.830724    -0.355447    -0.686262 
H      -2.150122    -0.768230    -1.640243 
C       2.323282     3.534821    -0.556804 
H       2.338151     2.981435    -1.499043 
H       2.854506     4.474850    -0.745050 
C       0.872789     3.895298    -0.203116 
H       0.839304     4.650248     0.581401 
H       0.365123     4.287966    -1.088773 
C      -2.708966     1.804433    -1.505899 
H      -2.459335     2.866414    -1.401835 
H      -2.332851     1.491695    -2.484001 
C      -4.229364     1.614837    -1.459074 
H      -4.708133     2.157795    -2.279972 
H      -4.495469     0.556586    -1.553965 
H      -4.660645     1.982911    -0.523509 
O      -1.823923    -1.224267     0.372758 
C      -2.269691    -2.543604     0.058970 
H      -1.701865    -2.941653    -0.789442 
H      -2.028611    -3.140825     0.940599 
C      -3.751086    -2.581271    -0.243298 
C      -4.669306    -2.135689     0.706753 
C      -4.217836    -3.036439    -1.471086 
C      -6.028814    -2.146839     0.432662 
H      -4.311458    -1.776374     1.667200 
C      -5.581654    -3.052859    -1.749348 
H      -3.511482    -3.381914    -2.221250 
C      -6.488819    -2.607762    -0.798215 
H      -6.734242    -1.797784     1.180151 
H      -5.932027    -3.413098    -2.711389 
H      -7.552777    -2.618721    -1.012226 
C      -0.055324     1.628048    -0.463039 
O       0.493345     0.452059    -0.011024 
C       0.273706    -0.326362    -1.101987 
N       0.062026     1.670592    -1.825888 
N       0.226281     0.444489    -2.216744 
C       0.755708    -1.726589    -1.068745 
O       1.199206    -2.272549    -0.094666 
O       0.584468    -2.312101    -2.262414 
C       1.044298    -3.665409    -2.350766 
H       0.826497    -3.984992    -3.369239 
H       2.119062    -3.713701    -2.159816 
H       0.524467    -4.299675    -1.628720 
74
     -1835.288048     -1834.750315   4.07   4.02
C       2.044080     1.083698     2.903367 
C       1.835361     2.285901     2.203618 
C       0.775901     3.111290     2.606190 
C      -0.004981     2.741408     3.676752 
C       0.246083     1.543628     4.379705 
C       1.265422     0.690700     4.000532 
C       3.569383     1.213481     1.288210 
C       2.826476     2.349985     1.162065 
H       0.566187     4.039143     2.083157 
H      -0.824063     3.365567     4.017166 
H       1.464742    -0.240618     4.515087 
H       4.396430     0.859429     0.687867 
N       3.106073     0.435999     2.327534 
C       3.569579    -0.891409     2.663631 
H       3.978439    -0.921771     3.678918 
H       2.754994    -1.617319     2.575756 
H       4.356137    -1.172383     1.962132 
O      -0.596671     1.306500     5.432539 
C      -0.241052     0.280218     6.337242 
H       0.766719     0.439851     6.739467 
H      -0.966670     0.324699     7.150299 
H      -0.287619    -0.711952     5.870797 
N       1.410622     2.280529    -1.549788 
C       0.377032     3.150773    -1.862494 
O       0.575312     4.338817    -2.013711 
C      -0.976883     2.502674    -2.052687 
H      -1.616540     3.261285    -2.505884 
H      -1.399993     2.241248    -1.080343 
C      -0.892463     1.272519    -2.964978 
H      -1.907479     0.938099    -3.195463 
H      -0.447512     1.595582    -3.911904 
C      -0.073370     0.075871    -2.458741 
C      -0.735674    -0.851540    -1.623121 
H      -0.516084    -1.912108    -1.675603 
C       2.959446     3.388096     0.082497 
H       3.952954     3.850314     0.112054 
H       2.236525     4.192603     0.243811 
C       2.756480     2.825869    -1.332329 
H       2.897657     3.617975    -2.067992 
H       3.467353     2.022546    -1.532969 
C       0.866716    -0.474793    -3.537675 
H       0.333631    -0.365806    -4.491044 
H       1.739408     0.183348    -3.609584 
C       1.325247    -1.929570    -3.421896 
H       1.841353    -2.132271    -2.482069 
H       0.480308    -2.620526    -3.513219 
H       2.015942    -2.157015    -4.239267 
O      -1.993522    -0.527505    -1.194203 
C      -2.779068    -1.639847    -0.762816 
H      -2.234807    -2.217628    -0.007650 
H      -3.657240    -1.194834    -0.289651 
C      -3.177806    -2.538865    -1.911413 
C      -2.825230    -3.883822    -1.917412 
C      -3.897029    -2.021892    -2.988141 
C      -3.188411    -4.706017    -2.980086 
H      -2.261008    -4.296267    -1.085233 
C      -4.258425    -2.837170    -4.050400 
H      -4.172755    -0.971295    -2.991134 
C      -3.904972    -4.183982    -4.047870 
H      -2.908769    -5.754745    -2.971245 
H      -4.818005    -2.423732    -4.883553 
H      -4.188733    -4.822666    -4.878238 
C       1.105122     0.993669    -1.117413 
O       0.262812     0.888292    -0.038465 
C       0.365427    -0.444423     0.196748 
N       2.055379     0.006459    -1.026925 
N       1.566988    -0.896290    -0.239596 
C      -0.337334    -1.031987     1.358804 
O      -0.105503    -2.128536     1.802733 
O      -1.275301    -0.201528     1.816126 
C      -2.020217    -0.666409     2.947908 
H      -2.683729    -1.484379     2.654044 
H      -1.345482    -1.015644     3.729866 
H      -2.593326     0.190477     3.297578 
74
     -1835.285756     -1834.750138   5.51   4.13
C       2.321125     0.697017    -3.814466 
C       1.701658    -0.467702    -3.310083 
C       0.313231    -0.574958    -3.398209 
C      -0.421316     0.451360    -3.966858 
C       0.223056     1.601548    -4.463416 
C       1.600547     1.739926    -4.392833 
C       3.909796    -0.643011    -2.997887 
C       2.744733    -1.315045    -2.789517 
H      -0.196234    -1.445618    -2.998039 
H      -1.498207     0.357398    -4.022802 
H       2.068551     2.636284    -4.783423 
H       4.920233    -0.914167    -2.724679 
N       3.672441     0.571851    -3.614983 
C       4.669512     1.552798    -3.972148 
H       4.682539     1.726591    -5.053432 
H       4.482601     2.504133    -3.463275 
H       5.650840     1.186015    -3.667553 
O      -0.443434     2.649617    -5.038997 
C      -1.846481     2.551259    -5.175574 
H      -2.341602     2.471643    -4.199701 
H      -2.168031     3.470906    -5.666359 
H      -2.130702     1.692149    -5.795628 
N       2.159846    -1.471577     0.110208 
C       2.884690    -0.330244     0.412984 
O       4.062031    -0.244580     0.123697 
C       2.186910     0.844510     1.066859 
H       1.953681     1.543037     0.254907 
H       2.954764     1.330483     1.671965 
C       0.951867     0.552144     1.904489 
H       1.212928    -0.096769     2.743888 
H       0.591685     1.490298     2.341359 
C      -0.174247    -0.084575     1.110578 
C      -1.221724    -0.635217     1.854171 
H      -2.212579    -0.736610     1.419561 
C       2.553862    -2.629243    -2.090894 
H       3.207695    -3.397600    -2.519311 
H       1.526276    -2.967109    -2.241263 
C       2.850582    -2.574009    -0.584579 
H       2.551590    -3.513812    -0.110948 
H       3.914916    -2.422747    -0.410556 
C      -0.570608     0.565097    -0.206451 
H       0.271160     0.564002    -0.903554 
H      -1.344811    -0.047803    -0.676565 
C      -1.087381     1.993589    -0.015688 
H      -0.327039     2.647654     0.423032 
H      -1.372285     2.422710    -0.981161 
H      -1.963061     2.015723     0.641026 
O      -1.176490    -0.595403     3.224363 
C      -2.457065    -0.412611     3.837864 
H      -3.142680    -1.200615     3.508467 
H      -2.275525    -0.539433     4.907637 
C      -3.027027     0.956444     3.542075 
C      -2.309145     2.101364     3.886718 
C      -4.254153     1.095025     2.903898 
C      -2.810639     3.361396     3.596014 
H      -1.348031     1.998867     4.382242 
C      -4.762319     2.357994     2.612576 
H      -4.817875     0.208340     2.626881 
C      -4.041139     3.492363     2.957273 
H      -2.243342     4.245750     3.868696 
H      -5.722171     2.451985     2.114578 
H      -4.434735     4.478273     2.731223 
C       0.853720    -1.748704     0.520195 
O       0.708720    -2.411868     1.723549 
C      -0.600798    -2.746602     1.638323 
N      -0.064185    -2.243632    -0.358568 
N      -0.992199    -2.815791     0.355830 
C      -1.282478    -3.450830     2.751358 
O      -2.473730    -3.619580     2.792351 
O      -0.417683    -3.837386     3.688854 
C      -0.998401    -4.490491     4.827275 
H      -1.524020    -5.396869     4.519213 
H      -0.162987    -4.734343     5.482053 
H      -1.699225    -3.820991     5.331171 
74
     -1835.285311     -1834.750104   5.79   4.15
C       0.225864     3.269937    -3.276465 
C       0.999581     2.645478    -2.272684 
C       0.490327     2.607215    -0.974185 
C      -0.751487     3.156815    -0.702250 
C      -1.503812     3.765187    -1.726075 
C      -1.023385     3.831695    -3.024213 
C       2.106536     2.522884    -4.212206 
C       2.203933     2.165675    -2.903038 
H       1.056642     2.149042    -0.171484 
H      -1.132214     3.116754     0.310256 
H      -1.621984     4.308051    -3.792148 
H       2.788630     2.327849    -5.028934 
N       0.922743     3.193503    -4.453888 
C       0.465205     3.680866    -5.733055 
H       0.285384     4.760496    -5.699665 
H       1.231895     3.480635    -6.483178 
H      -0.458166     3.177030    -6.037442 
O      -2.734445     4.327344    -1.525930 
C      -3.265947     4.319416    -0.216237 
H      -3.413667     3.296604     0.151852 
H      -2.620536     4.865661     0.482497 
H      -4.232563     4.820935    -0.279627 
N       1.697460    -0.597375    -1.780502 
C       0.511161    -0.543803    -2.497518 
O       0.521604    -0.321106    -3.690555 
C      -0.812400    -0.765693    -1.793519 
H      -1.233704    -1.674046    -2.236251 
H      -1.445411     0.058291    -2.133766 
C      -0.823968    -0.831758    -0.274881 
H      -0.598837     0.150678     0.143622 
H      -1.837729    -1.080485     0.058718 
C       0.145901    -1.850295     0.297134 
C       0.365897    -1.785906     1.674764 
H       0.698531    -2.663243     2.223326 
C       3.260101     1.288623    -2.299014 
H       3.385239     1.520042    -1.236446 
H       4.226467     1.476290    -2.779880 
C       2.942486    -0.206823    -2.468084 
H       2.808569    -0.441369    -3.523791 
H       3.749862    -0.821726    -2.065695 
C       0.163513    -3.246429    -0.309261 
H       0.427944    -3.197211    -1.370542 
H       0.959785    -3.822474     0.170998 
C      -1.177055    -3.966963    -0.135300 
H      -1.446514    -4.047284     0.922854 
H      -1.990181    -3.441627    -0.646000 
H      -1.125236    -4.978551    -0.549950 
O      -0.268776    -0.824502     2.420032 
C      -0.638626    -1.264334     3.731868 
H       0.248328    -1.616898     4.269215 
H      -1.010909    -0.367568     4.232595 
C      -1.700556    -2.339676     3.681228 
C      -2.916707    -2.091103     3.045559 
C      -1.473753    -3.592436     4.239352 
C      -3.886372    -3.079782     2.968339 
H      -3.098379    -1.115009     2.605073 
C      -2.445384    -4.586755     4.166424 
H      -0.527146    -3.796720     4.732256 
C      -3.652011    -4.332241     3.530090 
H      -4.829219    -2.875386     2.470865 
H      -2.255537    -5.560381     4.607034 
H      -4.411226    -5.105651     3.471414 
C       1.845767    -0.996555    -0.450462 
O       1.924270    -0.012513     0.513615 
C       2.333836    -0.760209     1.566716 
N       2.719106    -1.992492    -0.124274 
N       2.973261    -1.863472     1.147574 
C       2.509881    -0.149279     2.904816 
O       2.715218    -0.788947     3.903268 
O       2.383790     1.178835     2.855422 
C       2.498145     1.851909     4.117908 
H       1.717361     1.510141     4.801110 
H       3.476419     1.660717     4.564055 
H       2.377198     2.911481     3.896538 
74
     -1835.288422     -1834.749997   3.84   4.22
C       1.564065    -0.131225     2.594256 
C       0.426050     0.646908     2.866926 
C      -0.816525     0.001926     2.949054 
C      -0.887784    -1.361187     2.769242 
C       0.276290    -2.122340     2.523662 
C       1.517965    -1.522475     2.433874 
C       2.206303     1.997193     2.760953 
C       0.861343     2.015444     2.976100 
H      -1.718726     0.567765     3.159404 
H      -1.833421    -1.888337     2.833116 
H       2.419882    -2.088529     2.241663 
H       2.914228     2.815729     2.759814 
N       2.646344     0.707778     2.526726 
C       4.010421     0.311800     2.270376 
H       4.653523     1.190284     2.344391 
H       4.350472    -0.425315     3.005305 
H       4.116396    -0.109492     1.265722 
O       0.070641    -3.469772     2.392502 
C       1.213488    -4.302839     2.376620 
H       1.828772    -4.148192     3.271204 
H       0.844294    -5.329330     2.367661 
H       1.823923    -4.135551     1.480240 
N      -1.250034     2.944305     1.049147 
C      -2.520530     2.596030     1.459236 
O      -2.971817     3.049213     2.495142 
C      -3.370916     1.675521     0.611956 
H      -4.148619     2.310215     0.173225 
H      -3.884742     1.023268     1.322251 
C      -2.661818     0.851399    -0.448188 
H      -1.975427     0.150311     0.033398 
H      -3.399604     0.242914    -0.982416 
C      -1.890728     1.699087    -1.447780 
C      -1.033888     0.987994    -2.301050 
H      -0.766514     1.371844    -3.283094 
C       0.002379     3.220971     3.212823 
H       0.569816     3.983369     3.757918 
H      -0.854099     2.955775     3.836407 
C      -0.504540     3.875271     1.921178 
H      -1.168355     4.707245     2.165400 
H       0.331088     4.258270     1.333852 
C      -2.589380     2.903517    -2.062975 
H      -2.835491     3.636174    -1.287657 
H      -1.883608     3.406389    -2.730607 
C      -3.852735     2.517549    -2.837341 
H      -4.303885     3.399368    -3.302039 
H      -3.621458     1.800805    -3.632210 
H      -4.608242     2.062358    -2.189387 
O      -0.936284    -0.362600    -2.132667 
C      -0.477591    -1.103737    -3.254103 
H      -1.298270    -1.196344    -3.979203 
H       0.351283    -0.579330    -3.743613 
C      -0.027902    -2.472685    -2.801340 
C       0.641851    -3.294601    -3.705788 
C      -0.267848    -2.935325    -1.512000 
C       1.067145    -4.561403    -3.328429 
H       0.838392    -2.937410    -4.713635 
C       0.149376    -4.208128    -1.136898 
H      -0.773180    -2.302691    -0.792966 
C       0.819152    -5.023283    -2.039677 
H       1.589167    -5.191121    -4.042065 
H      -0.064122    -4.557644    -0.132410 
H       1.143119    -6.016368    -1.744703 
C      -0.607849     2.525929    -0.124334 
O       0.226796     1.432727    -0.051669 
C       0.842443     1.538982    -1.252724 
N      -0.042506     3.452375    -0.957218 
N       0.818904     2.811975    -1.690948 
C       1.855164     0.546976    -1.679879 
O       2.404814     0.581419    -2.751187 
O       2.041788    -0.394684    -0.754796 
C       2.940945    -1.450605    -1.121567 
H       2.604521    -1.942563    -2.034772 
H       3.949265    -1.055581    -1.267176 
H       2.916630    -2.153698    -0.290233 
74
     -1835.286794     -1834.749795   4.86   4.34
C      -1.527520    -1.043775     3.423079 
C      -2.504905    -1.392786     2.464650 
C      -2.580532    -2.721852     2.049000 
C      -1.716782    -3.663479     2.581499 
C      -0.758831    -3.288489     3.543687 
C      -0.651036    -1.974540     3.973986 
C      -2.630728     0.810355     2.845617 
C      -3.207600    -0.182407     2.114983 
H      -3.301032    -3.025057     1.296113 
H      -1.786278    -4.690058     2.246217 
H       0.099547    -1.715352     4.711946 
H      -2.871914     1.864867     2.867881 
N      -1.611171     0.308996     3.638374 
C      -0.805290     1.060759     4.571053 
H      -1.077804     2.115380     4.506393 
H      -0.971231     0.721530     5.599106 
H       0.258990     0.962643     4.334624 
O       0.121953    -4.165506     4.111512 
C       0.061097    -5.522065     3.716669 
H       0.835216    -6.037332     4.286735 
H      -0.914823    -5.964679     3.950612 
H       0.264488    -5.637637     2.645005 
N      -2.736385     0.576784    -0.701733 
C      -2.772194     1.957812    -0.631660 
O      -3.781499     2.544486    -0.294791 
C      -1.469571     2.661281    -0.940898 
H      -1.607096     3.699411    -0.634669 
H      -1.284334     2.648303    -2.017235 
C      -0.295178     2.034405    -0.179839 
H       0.572356     2.693748    -0.275050 
H      -0.559326     2.010913     0.882885 
C       0.110418     0.617735    -0.585454 
C       0.927587     0.445363    -1.713572 
H       1.690637    -0.328900    -1.725084 
C      -4.334933    -0.024747     1.142368 
H      -4.782239     0.961632     1.267672 
H      -5.116496    -0.765866     1.349002 
C      -3.925958    -0.202194    -0.327160 
H      -3.684563    -1.243960    -0.535436 
H      -4.758120     0.099087    -0.971082 
C       0.416429    -0.308727     0.581686 
H      -0.480589    -0.425534     1.190799 
H       0.669458    -1.302734     0.203081 
C       1.569304     0.214495     1.443901 
H       1.785816    -0.493279     2.250143 
H       2.480890     0.345577     0.850961 
H       1.331501     1.178639     1.902787 
O       1.165598     1.533794    -2.515122 
C       2.438542     1.521651    -3.168400 
H       2.568298     0.585689    -3.722154 
H       2.391082     2.344236    -3.885638 
C       3.579120     1.716232    -2.195476 
C       4.570297     0.750703    -2.059866 
C       3.642554     2.867002    -1.410696 
C       5.615404     0.930478    -1.158086 
H       4.527230    -0.151577    -2.663887 
C       4.680490     3.048930    -0.508763 
H       2.870350     3.624229    -1.511017 
C       5.672000     2.079416    -0.381611 
H       6.384060     0.169925    -1.063977 
H       4.720404     3.949490     0.095937 
H       6.485592     2.222214     0.322400 
C      -1.680670    -0.046481    -1.351731 
O      -1.445074     0.314518    -2.658538 
C      -0.471033    -0.585964    -2.959440 
N      -1.402631    -1.376795    -1.209986 
N      -0.616410    -1.692787    -2.194043 
C       0.133223    -0.616718    -4.313154 
O       1.045843    -1.342661    -4.612732 
O      -0.430504     0.281110    -5.122427 
C       0.121345     0.345989    -6.445515 
H      -0.456679     1.107969    -6.966524 
H       1.176694     0.625923    -6.403808 
H       0.025144    -0.619760    -6.946106 
74
     -1835.287162     -1834.749405   4.63   4.59
C       3.178152     0.519712     1.811543 
C       3.437031     1.340295     0.701472 
C       4.151417     0.798729    -0.377500 
C       4.551083    -0.513772    -0.335834 
C       4.244978    -1.331067     0.775135 
C       3.563979    -0.827448     1.869513 
C       2.299507     2.528902     2.218182 
C       2.851008     2.626457     0.976988 
H       4.379197     1.403023    -1.249947 
H       5.092071    -0.964372    -1.160058 
H       3.333192    -1.436409     2.733921 
H       1.750721     3.272503     2.780761 
N       2.490740     1.263317     2.738289 
C       2.107272     0.823972     4.058166 
H       1.579662     1.636099     4.560854 
H       1.437815    -0.038419     4.001257 
H       2.985420     0.558502     4.656676 
O       4.674381    -2.619947     0.669298 
C       4.258021    -3.534885     1.664163 
H       4.648623    -4.507795     1.364357 
H       4.666911    -3.271926     2.647799 
H       3.163632    -3.584007     1.717917 
N       0.533279     2.848356    -0.744512 
C      -0.413187     3.595562    -0.067883 
O      -0.235213     4.774157     0.167379 
C      -1.684120     2.856740     0.288543 
H      -2.392370     3.613466     0.628959 
H      -1.496932     2.170866     1.117314 
C      -2.255382     2.110089    -0.924299 
H      -3.243130     1.722189    -0.661842 
H      -2.410431     2.846820    -1.719319 
C      -1.409339     0.971075    -1.512417 
C      -1.565581    -0.310249    -0.940306 
H      -1.513559    -1.206747    -1.547866 
C       2.723378     3.788830     0.042033 
H       3.700859     4.075310    -0.363661 
H       2.329084     4.650430     0.584576 
C       1.793500     3.486770    -1.147724 
H       1.544895     4.415134    -1.665625 
H       2.272507     2.807711    -1.852575 
C      -1.292661     1.066909    -3.038070 
H      -2.255914     1.454848    -3.393750 
H      -0.553970     1.837099    -3.285114 
C      -0.985993    -0.211909    -3.819373 
H      -1.796529    -0.941823    -3.719134 
H      -0.898384     0.026632    -4.883458 
H      -0.052753    -0.681450    -3.503914 
O      -2.327946    -0.408841     0.194408 
C      -2.896541    -1.701375     0.412302 
H      -2.113615    -2.467714     0.385049 
H      -3.305629    -1.660215     1.424443 
C      -3.975176    -2.028406    -0.595521 
C      -5.094077    -1.205153    -0.714316 
C      -3.862452    -3.139425    -1.423863 
C      -6.083002    -1.490090    -1.644101 
H      -5.186644    -0.334064    -0.072092 
C      -4.853936    -3.430583    -2.356289 
H      -2.992592    -3.785684    -1.342445 
C      -5.965015    -2.606469    -2.467915 
H      -6.949656    -0.841987    -1.728038 
H      -4.754828    -4.302319    -2.995322 
H      -6.739252    -2.830754    -3.194698 
C       0.409189     1.463758    -0.791573 
O       0.310214     0.790665     0.404957 
C       0.391813    -0.486097    -0.056235 
N       1.144141     0.699783    -1.660941 
N       1.092359    -0.513028    -1.215927 
C       0.375067    -1.625430     0.883799 
O       0.608952    -2.763487     0.567993 
O       0.009682    -1.244574     2.116451 
C      -0.107273    -2.306739     3.067916 
H       0.862625    -2.782421     3.234787 
H      -0.468084    -1.845481     3.986927 
H      -0.815179    -3.062149     2.719320 
74
     -1835.287938     -1834.749357   4.14   4.62
C       3.166287     1.338758     0.351396 
C       3.317565     0.062133    -0.228310 
C       3.424208    -1.042862     0.615402 
C       3.376163    -0.870359     1.986372 
C       3.226070     0.416260     2.537994 
C       3.126800     1.537737     1.729874 
C       3.116199     1.568976    -1.871589 
C       3.279842     0.233623    -1.657492 
H       3.526869    -2.044251     0.210754 
H       3.442365    -1.739918     2.626561 
H       3.005797     2.515039     2.182830 
H       3.006534     2.109953    -2.802340 
N       3.048010     2.249555    -0.668388 
C       2.906332     3.677221    -0.507852 
H       3.789927     4.111432    -0.027947 
H       2.785621     4.133281    -1.491748 
H       2.024288     3.916076     0.094906 
O       3.149273     0.648717     3.884462 
C       3.195468    -0.468295     4.753780 
H       3.094167    -0.067104     5.763131 
H       2.373079    -1.165840     4.553629 
H       4.151297    -0.999124     4.670580 
N       0.840849    -0.492043    -3.038422 
C       0.178891     0.649080    -3.464355 
O       0.638004     1.385114    -4.314236 
C      -1.184813     0.868630    -2.843539 
H      -1.660203     1.655225    -3.431019 
H      -1.071384     1.234047    -1.821109 
C      -2.040241    -0.405698    -2.877405 
H      -3.059508    -0.144560    -2.580917 
H      -2.090002    -0.743378    -3.918040 
C      -1.550113    -1.583569    -2.031248 
C      -1.913344    -1.613443    -0.668956 
H      -2.128532    -2.558441    -0.173532 
C       3.312210    -0.872921    -2.670729 
H       3.337869    -1.827012    -2.140440 
H       4.225500    -0.831780    -3.275125 
C       2.122470    -0.869544    -3.647917 
H       2.275970    -0.145746    -4.447044 
H       2.020806    -1.862167    -4.097199 
C      -1.581646    -2.930391    -2.743276 
H      -0.923539    -2.886677    -3.618430 
H      -1.166428    -3.697852    -2.084131 
C      -2.994742    -3.337079    -3.173959 
H      -3.428466    -2.630917    -3.888075 
H      -2.979969    -4.322029    -3.650482 
H      -3.667007    -3.393562    -2.311202 
O      -2.534257    -0.510736    -0.151585 
C      -3.250998    -0.732224     1.054717 
H      -4.189825    -1.253782     0.821201 
H      -2.671033    -1.380344     1.723825 
C      -3.548064     0.578908     1.742549 
C      -3.139949     1.800236     1.220289 
C      -4.246402     0.554632     2.948837 
C      -3.425915     2.982376     1.896706 
H      -2.590674     1.826945     0.287683 
C      -4.530162     1.732754     3.625572 
H      -4.570413    -0.396626     3.364420 
C      -4.119004     2.953486     3.099625 
H      -3.104548     3.931261     1.477802 
H      -5.074502     1.699173     4.564140 
H      -4.341192     3.876645     3.625208 
C       0.411453    -1.123735    -1.878888 
O       0.313471    -0.355083    -0.745851 
C       0.057246    -1.330352     0.164996 
N       0.849954    -2.372713    -1.522800 
N       0.577545    -2.506902    -0.262263 
C      -0.079524    -0.976076     1.597970 
O      -0.145167    -1.787380     2.486172 
O      -0.176317     0.343888     1.746093 
C      -0.345349     0.820610     3.089913 
H       0.582404     0.693587     3.649819 
H      -0.593062     1.876373     2.993270 
H      -1.160508     0.290791     3.585358 
74
     -1835.288149     -1834.749088   4.01   4.79
C       1.677249    -0.805254    -4.012914 
C       2.676180    -0.441102    -3.092391 
C       3.508693    -1.446721    -2.579255 
C       3.337239    -2.745947    -2.993837 
C       2.334903    -3.084409    -3.930060 
C       1.487197    -2.123507    -4.452465 
C       1.514758     1.391256    -3.645648 
C       2.560454     0.978892    -2.876950 
H       4.274823    -1.210398    -1.847828 
H       3.963857    -3.545415    -2.614683 
H       0.710951    -2.364771    -5.166858 
H       1.107295     2.386366    -3.764313 
N       0.965847     0.322808    -4.335751 
C      -0.120111     0.392591    -5.285146 
H      -0.502537     1.414121    -5.311208 
H       0.216314     0.123426    -6.292142 
H      -0.937800    -0.274602    -4.994930 
O       2.282988    -4.409132    -4.255043 
C       1.304581    -4.820943    -5.187926 
H       0.291037    -4.615134    -4.821336 
H       1.446311    -4.330526    -6.159132 
H       1.431136    -5.897461    -5.307425 
N       1.770408     1.635629    -0.095498 
C       1.035510     2.796646    -0.250236 
O       1.541667     3.809903    -0.689549 
C      -0.429962     2.692489     0.108700 
H      -0.898421     3.606209    -0.259625 
H      -0.544199     2.668388     1.194526 
C      -1.084531     1.463848    -0.534534 
H      -2.167576     1.540711    -0.403469 
H      -0.890508     1.509930    -1.611309 
C      -0.613838     0.095508    -0.039298 
C      -1.180623    -0.424773     1.137802 
H      -1.369490    -1.491367     1.236380 
C       3.404451     1.844319    -1.992855 
H       3.207192     2.892286    -2.220507 
H       4.467099     1.662043    -2.193690 
C       3.186562     1.613309    -0.491110 
H       3.570931     0.638818    -0.192085 
H       3.717606     2.386716     0.072437 
C      -0.355764    -0.920056    -1.142451 
H       0.450392    -0.554001    -1.779372 
H      -0.003392    -1.856627    -0.702106 
C      -1.601407    -1.196031    -1.989233 
H      -1.374154    -1.946616    -2.752641 
H      -2.423901    -1.578101    -1.375005 
H      -1.958040    -0.297761    -2.501806 
O      -1.980127     0.396813     1.885433 
C      -2.930888    -0.257784     2.719059 
H      -3.856054    -0.399033     2.144021 
H      -2.557134    -1.244699     3.011811 
C      -3.206029     0.562100     3.956935 
C      -3.935799    -0.015576     4.994564 
C      -2.757844     1.870937     4.089962 
C      -4.211523     0.703151     6.149797 
H      -4.285863    -1.040508     4.900869 
C      -3.032286     2.591793     5.247695 
H      -2.182801     2.323963     3.291926 
C      -3.758072     2.012145     6.280061 
H      -4.781020     0.241365     6.950348 
H      -2.677012     3.613615     5.340071 
H      -3.972932     2.576669     7.181826 
C       1.246571     0.591588     0.655016 
O       0.875228     0.872182     1.949956 
C       0.572165    -0.386775     2.367321 
N       1.755453    -0.677236     0.613448 
N       1.293127    -1.289237     1.660236 
C       0.146896    -0.626555     3.771106 
O      -0.285361    -1.682908     4.154588 
O       0.287149     0.467233     4.515409 
C      -0.118049     0.339580     5.889326 
H      -1.176000     0.080937     5.952191 
H       0.481018    -0.426394     6.386423 
H       0.059818     1.317087     6.334369 
74
     -1835.282034     -1834.748999   7.85   4.84
C       3.254602    -4.789111     2.301647 
C       2.883114    -3.428550     2.260405 
C       2.959265    -2.673976     3.431948 
C       3.392230    -3.273775     4.603113 
C       3.756369    -4.634460     4.617769 
C       3.693391    -5.409715     3.469965 
C       2.634665    -4.296434     0.211148 
C       2.489478    -3.134685     0.904019 
H       2.679693    -1.624219     3.430786 
H       3.447034    -2.681203     5.506860 
H       3.980766    -6.454006     3.513794 
H       2.444805    -4.501789    -0.834225 
N       3.097092    -5.306993     1.040596 
C       3.374154    -6.669171     0.653551 
H       4.427833    -6.919010     0.818487 
H       2.752969    -7.372672     1.218331 
H       3.152984    -6.789235    -0.408370 
O       4.191313    -5.284572     5.740568 
C       4.276117    -4.550149     6.945072 
H       3.295951    -4.163540     7.250475 
H       4.637271    -5.249464     7.700422 
H       4.982902    -3.715620     6.858686 
N       0.183756    -0.119227     0.708445 
C       0.640067     0.840111     1.588739 
O       1.335719     0.522049     2.535221 
C       0.313984     2.299344     1.349927 
H       1.248912     2.753381     1.003534 
H       0.127949     2.719465     2.340903 
C      -0.836244     2.627706     0.409770 
H      -1.779400     2.281223     0.837540 
H      -0.916098     3.717601     0.322753 
C      -0.668564     2.044709    -0.985554 
C      -1.812705     2.081807    -1.793066 
H      -1.741547     2.066523    -2.873961 
C       1.992938    -1.811257     0.411811 
H       1.968829    -1.781939    -0.680588 
H       2.669618    -1.018857     0.748899 
C       0.591863    -1.514792     0.957182 
H      -0.146112    -2.169441     0.489440 
H       0.562395    -1.676981     2.033959 
C       0.699450     2.257947    -1.632932 
H       1.033536     3.259303    -1.329637 
H       1.422126     1.555589    -1.204857 
C       0.763346     2.171448    -3.158014 
H       0.414090     1.204066    -3.525963 
H       0.167739     2.962232    -3.625498 
H       1.797850     2.301845    -3.488991 
O      -2.965537     2.631334    -1.289903 
C      -3.777859     3.277862    -2.276367 
H      -4.034409     2.569420    -3.070817 
H      -4.694152     3.549059    -1.746819 
C      -3.103606     4.502436    -2.852659 
C      -2.680916     5.531967    -2.012558 
C      -2.885579     4.614156    -4.221066 
C      -2.052625     6.653204    -2.533997 
H      -2.845897     5.448715    -0.942187 
C      -2.258679     5.739550    -4.748779 
H      -3.207670     3.814391    -4.882545 
C      -1.841222     6.760214    -3.906291 
H      -1.727561     7.448601    -1.870711 
H      -2.096924     5.815226    -5.819449 
H      -1.351411     7.638447    -4.314650 
C      -0.626554     0.092909    -0.406897 
O      -1.987483    -0.018063    -0.228660 
C      -2.379022    -0.030633    -1.527515 
N      -0.295811    -0.460578    -1.609508 
N      -1.389466    -0.487992    -2.315158 
C      -3.816714    -0.103358    -1.885516 
O      -4.222039     0.020421    -3.012243 
O      -4.580897    -0.292736    -0.810056 
C      -5.993379    -0.333262    -1.060829 
H      -6.235440    -1.149385    -1.744934 
H      -6.458385    -0.495173    -0.089393 
H      -6.328258     0.611771    -1.494589 
74
     -1835.284175     -1834.748814   6.50   4.96
C       3.180528     0.999905     1.994369 
C       3.219208     1.201933     0.598854 
C       3.575948     0.128151    -0.218629 
C       3.886233    -1.094289     0.347533 
C       3.841154    -1.266126     1.745118 
C       3.491025    -0.222014     2.585638 
C       2.568905     3.108220     1.578893 
C       2.823790     2.565059     0.355322 
H       3.608562     0.237716    -1.298525 
H       4.164312    -1.917350    -0.297726 
H       3.459714    -0.386208     3.656736 
H       2.212319     4.097000     1.834141 
N       2.781690     2.176353     2.578048 
C       2.618520     2.398052     3.994948 
H       3.569955     2.283255     4.525334 
H       2.252000     3.413440     4.153730 
H       1.892011     1.697311     4.419167 
O       4.136396    -2.446645     2.367806 
C       4.362953    -3.582822     1.559228 
H       3.498823    -3.788689     0.915873 
H       5.259502    -3.464761     0.938237 
H       4.510340    -4.418268     2.245101 
N       0.176784     2.922658    -0.817309 
C      -0.648172     3.268268     0.242449 
O      -0.487373     4.288806     0.880109 
C      -1.803272     2.321566     0.484807 
H      -2.455675     2.818500     1.204072 
H      -1.445852     1.394192     0.936675 
C      -2.572569     2.036274    -0.813251 
H      -3.493473     1.506085    -0.556970 
H      -2.868569     2.999479    -1.242309 
C      -1.824716     1.254643    -1.897004 
C      -1.828376    -0.152264    -1.809553 
H      -1.879536    -0.762932    -2.709392 
C       2.665516     3.212703    -0.989241 
H       2.878095     2.473900    -1.765685 
H       3.393068     4.020711    -1.128562 
C       1.271322     3.810589    -1.227209 
H       1.132353     4.721895    -0.647023 
H       1.151679     4.050652    -2.287691 
C      -1.968760     1.824170    -3.302868 
H      -1.553202     2.837852    -3.322010 
H      -1.367435     1.231686    -3.998102 
C      -3.424033     1.849917    -3.782569 
H      -3.856168     0.843604    -3.781757 
H      -4.055600     2.483988    -3.153591 
H      -3.481448     2.236397    -4.804737 
O      -2.332828    -0.711201    -0.671142 
C      -2.804485    -2.054142    -0.806804 
H      -3.591767    -2.084252    -1.570321 
H      -1.982391    -2.699702    -1.138253 
C      -3.348295    -2.516565     0.517753 
C      -2.504567    -2.623410     1.623142 
C      -4.692876    -2.843268     0.651043 
C      -3.006764    -3.054775     2.842633 
H      -1.455090    -2.366612     1.522798 
C      -5.196551    -3.279334     1.872408 
H      -5.354504    -2.755981    -0.206773 
C      -4.353084    -3.385192     2.970000 
H      -2.344827    -3.135255     3.699214 
H      -6.247877    -3.533223     1.964952 
H      -4.742366    -3.723622     3.925139 
C       0.091966     1.650880    -1.363347 
O       0.259180     0.577993    -0.520247 
C       0.282685    -0.421779    -1.438461 
N       0.658297     1.346932    -2.573759 
N       0.730443     0.053873    -2.627790 
C       0.515287    -1.799900    -0.953569 
O       0.572527    -2.110889     0.206903 
O       0.614852    -2.654665    -1.978534 
C       0.867476    -4.017862    -1.616759 
H       0.066136    -4.405858    -0.983318 
H       0.914467    -4.567731    -2.555931 
H       1.816481    -4.097026    -1.081447 
74
     -1835.287822     -1834.748212   4.21   5.34
C       2.398950     0.108804     2.107169 
C       3.034829     1.087104     1.324970 
C       4.099166     0.694791     0.499454 
C       4.471789    -0.625538     0.454847 
C       3.791400    -1.598118     1.221435 
C       2.752544    -1.247588     2.065833 
C       1.411270     2.066538     2.512801 
C       2.375267     2.338864     1.590096 
H       4.622450     1.422543    -0.112825 
H       5.281564    -0.961365    -0.182795 
H       2.228367    -1.978383     2.667777 
H       0.687701     2.734859     2.960458 
N       1.414936     0.724611     2.839730 
C       0.570232     0.091127     3.823916 
H      -0.061827    -0.672259     3.362482 
H       1.169314    -0.367471     4.617667 
H      -0.074619     0.847849     4.273553 
O       4.244904    -2.872270     1.056108 
C       3.507830    -3.915839     1.663214 
H       3.532915    -3.840382     2.757579 
H       2.468085    -3.915583     1.314431 
H       3.990598    -4.844987     1.358835 
N       0.824074     2.963905    -0.770328 
C      -0.305047     3.642683    -0.352412 
O      -0.231848     4.757310     0.125030 
C      -1.613632     2.923906    -0.593898 
H      -2.403876     3.648515    -0.393264 
H      -1.719936     2.100637     0.115184 
C      -1.715277     2.420991    -2.039937 
H      -2.729813     2.051473    -2.210177 
H      -1.583509     3.286725    -2.697219 
C      -0.707392     1.349528    -2.484310 
C      -1.050601     0.001777    -2.232129 
H      -0.791180    -0.789992    -2.927892 
C       2.581972     3.643693     0.885899 
H       3.637689     3.938726     0.907628 
H       2.013244     4.425717     1.392981 
C       2.141336     3.589200    -0.588589 
H       2.087930     4.600969    -0.995278 
H       2.844930     3.007169    -1.183088 
C      -0.060137     1.693032    -3.830479 
H      -0.843422     2.173023    -4.431468 
H       0.698425     2.465440    -3.663423 
C       0.537072     0.555704    -4.661169 
H      -0.235041    -0.151256    -4.983221 
H       0.988701     0.970015    -5.567346 
H       1.310318     0.004585    -4.123843 
O      -2.159987    -0.226095    -1.461764 
C      -2.729365    -1.518999    -1.595353 
H      -3.270351    -1.576874    -2.550240 
H      -1.936802    -2.278479    -1.621188 
C      -3.672983    -1.801937    -0.450771 
C      -3.864983    -0.902349     0.591096 
C      -4.356973    -3.016584    -0.434577 
C      -4.727727    -1.215221     1.637322 
H      -3.333498     0.040898     0.587963 
C      -5.215683    -3.330992     0.609710 
H      -4.215859    -3.725052    -1.247485 
C      -5.402971    -2.428645     1.652012 
H      -4.872688    -0.503372     2.444408 
H      -5.741606    -4.280559     0.609681 
H      -6.075517    -2.670459     2.468708 
C       0.732685     1.615156    -1.099206 
O       0.223303     0.757296    -0.151158 
C       0.472594    -0.427483    -0.771685 
N       1.732506     0.968042    -1.778880 
N       1.537677    -0.296971    -1.600594 
C       0.146295    -1.706981    -0.105378 
O       0.502683    -2.783350    -0.510144 
O      -0.640274    -1.519071     0.960594 
C      -1.089938    -2.714966     1.610404 
H      -0.249321    -3.225397     2.087788 
H      -1.821218    -2.393560     2.350681 
H      -1.562639    -3.388779     0.894069 
74
     -1835.286195     -1834.747918   5.23   5.52
C       0.843574    -3.494750    -0.567242 
C      -0.211925    -2.718550    -1.078616 
C      -1.213591    -2.292570    -0.193316 
C      -1.132608    -2.631660     1.135886 
C      -0.055039    -3.399811     1.627077 
C       0.948675    -3.848304     0.787337 
C       1.177591    -3.225974    -2.758077 
C       0.022595    -2.553229    -2.490609 
H      -2.043599    -1.685623    -0.533459 
H      -1.895110    -2.308489     1.834733 
H       1.780750    -4.441888     1.142828 
H       1.723375    -3.317345    -3.686491 
N       1.685208    -3.798147    -1.607207 
C       2.900908    -4.571464    -1.513816 
H       3.361300    -4.624232    -2.501422 
H       3.612640    -4.103031    -0.825921 
H       2.695574    -5.591332    -1.171213 
O      -0.095048    -3.648649     2.972789 
C       0.950148    -4.418058     3.530040 
H       1.923134    -3.928449     3.396891 
H       0.733376    -4.502584     4.595746 
H       0.986895    -5.421823     3.088308 
N       0.700745     0.239849    -3.127504 
C       2.055120     0.011972    -2.959485 
O       2.667527    -0.713026    -3.719198 
C       2.788073     0.675578    -1.813242 
H       3.432071     1.440754    -2.258370 
H       3.460890    -0.095856    -1.431135 
C       1.940347     1.241201    -0.687161 
H       1.367032     0.437361    -0.216866 
H       2.598211     1.644710     0.090313 
C       0.990714     2.331619    -1.154183 
C       0.020880     2.742141    -0.230563 
H      -0.389539     3.748876    -0.258516 
C      -0.802147    -1.742297    -3.451680 
H      -1.673003    -1.346623    -2.923032 
H      -1.192837    -2.371460    -4.259971 
C      -0.027915    -0.585059    -4.107956 
H       0.722006    -0.969120    -4.797112 
H      -0.711492     0.065491    -4.659100 
C       1.541302     3.426146    -2.057745 
H       1.877950     3.001332    -3.008245 
H       0.723812     4.106935    -2.312657 
C       2.680811     4.210208    -1.400526 
H       2.353080     4.662659    -0.458817 
H       3.543818     3.574342    -1.180710 
H       3.022288     5.015147    -2.058159 
O      -0.052500     2.093623     0.968003 
C      -0.657275     2.822796     2.026698 
H       0.068962     3.549661     2.416163 
H      -1.519468     3.385145     1.648490 
C      -1.093213     1.885626     3.127970 
C      -1.740736     2.421653     4.239910 
C      -0.862847     0.516529     3.068140 
C      -2.150828     1.600236     5.281016 
H      -1.923528     3.492656     4.293297 
C      -1.269805    -0.307687     4.113246 
H      -0.372196     0.086146     2.204561 
C      -1.913747     0.230634     5.219704 
H      -2.653466     2.028849     6.142553 
H      -1.077385    -1.374290     4.054305 
H      -2.230940    -0.413776     6.033657 
C      -0.086261     1.150241    -2.412677 
O      -0.911413     0.634626    -1.440136 
C      -1.686464     1.718944    -1.199945 
N      -0.752374     2.150861    -3.064251 
N      -1.713808     2.531325    -2.274401 
C      -2.771239     1.572928    -0.200840 
O      -3.034944     0.537529     0.349820 
O      -3.391645     2.735921     0.017982 
C      -4.452116     2.681623     0.986039 
H      -4.842367     3.696507     1.050102 
H      -5.230585     1.992035     0.653446 
H      -4.066379     2.352743     1.954525 
74
     -1835.282401     -1834.747446   7.61   5.82
C       1.720761     1.878536    -3.927473 
C       2.016316     1.643379    -2.566031 
C       1.110805     2.095994    -1.605760 
C      -0.050175     2.740207    -1.999832 
C      -0.321802     2.952355    -3.365671 
C       0.561220     2.527050    -4.345364 
C       3.662835     0.789630    -3.815796 
C       3.269676     0.932753    -2.521253 
H       1.304151     1.946946    -0.549640 
H      -0.742743     3.082981    -1.241845 
H       0.328676     2.705827    -5.388881 
H       4.533803     0.288670    -4.216699 
N       2.743480     1.358174    -4.676327 
C       2.811029     1.355903    -6.118030 
H       3.739032     0.873091    -6.428266 
H       1.970609     0.801970    -6.549253 
H       2.801998     2.377360    -6.512501 
O      -1.446975     3.581550    -3.822310 
C      -2.373226     4.064937    -2.870297 
H      -3.176019     4.533605    -3.441048 
H      -2.789281     3.250625    -2.264277 
H      -1.916734     4.811374    -2.208780 
N       1.991519    -1.228390    -0.843654 
C       1.139834    -1.389998    -1.926647 
O       1.584903    -1.608329    -3.034453 
C      -0.359292    -1.295889    -1.729684 
H      -0.753329    -2.282214    -1.993985 
H      -0.697882    -0.614377    -2.514935 
C      -0.884429    -0.828143    -0.381226 
H      -0.662109     0.230779    -0.241772 
H      -1.977137    -0.917542    -0.380381 
C      -0.336694    -1.620756     0.795808 
C      -0.587698    -1.069434     2.058779 
H      -0.603149    -1.683193     2.951574 
C       3.914351     0.300345    -1.323768 
H       3.712556     0.892186    -0.425344 
H       5.002449     0.275512    -1.449210 
C       3.440482    -1.146874    -1.106279 
H       3.634278    -1.739623    -1.999905 
H       3.957273    -1.600414    -0.258425 
C      -0.357029    -3.140816     0.636969 
H      -1.282237    -3.381898     0.096685 
H       0.464050    -3.453929    -0.015565 
C      -0.318683    -3.970192     1.920888 
H       0.568885    -3.753689     2.519766 
H      -1.208883    -3.794695     2.533789 
H      -0.300336    -5.034492     1.668476 
O      -1.288982     0.107388     2.144197 
C      -2.084376     0.223864     3.329732 
H      -1.448817     0.127696     4.216230 
H      -2.481218     1.241296     3.297827 
C      -3.203250    -0.792517     3.365866 
C      -4.130002    -0.854047     2.325846 
C      -3.317477    -1.683882     4.426576 
C      -5.153033    -1.790392     2.348738 
H      -4.044039    -0.162078     1.492998 
C      -4.344955    -2.622689     4.455142 
H      -2.597018    -1.645905     5.239230 
C      -5.263724    -2.677447     3.416519 
H      -5.868886    -1.829404     1.533704 
H      -4.424155    -3.311089     5.290628 
H      -6.065382    -3.408843     3.435573 
C       1.615783    -1.129106     0.497669 
O       1.521379     0.130761     1.049769 
C       1.427028    -0.204788     2.360045 
N       2.164217    -1.968425     1.425868 
N       1.997754    -1.400770     2.584535 
C       1.261215     0.842929     3.393926 
O       1.049108     0.602238     4.553897 
O       1.348657     2.066872     2.867612 
C       1.157079     3.146262     3.793831 
H       0.160230     3.092171     4.237310 
H       1.906819     3.105305     4.586783 
H       1.266923     4.057753     3.207785 
74
     -1835.285744     -1834.747356   5.52   5.87
C       2.869153     2.019215     1.769163 
C       3.296986     1.093956     0.794707 
C       3.581725    -0.210637     1.195874 
C       3.442620    -0.569245     2.524185 
C       3.022748     0.377566     3.477609 
C       2.735491     1.683937     3.115144 
C       2.869786     3.044491    -0.217545 
C       3.289413     1.774491    -0.474589 
H       3.894948    -0.958693     0.475001 
H       3.649615    -1.590304     2.815643 
H       2.407267     2.389238     3.870052 
H       2.695191     3.865266    -0.900910 
N       2.613867     3.208038     1.133162 
C       2.180096     4.427224     1.772849 
H       1.243767     4.269736     2.317746 
H       2.936865     4.799051     2.471892 
H       2.010258     5.186695     1.008010 
O       2.849387     0.078945     4.802199 
C       3.111348    -1.247467     5.222418 
H       4.159768    -1.519731     5.052381 
H       2.902891    -1.270098     6.292939 
H       2.461498    -1.966910     4.709030 
N       1.135050     1.249559    -2.358620 
C       0.280739     2.338953    -2.441460 
O       0.634199     3.400004    -2.916159 
C      -1.130953     2.100399    -1.948343 
H      -1.710829     2.964962    -2.274563 
H      -1.139055     2.085588    -0.856203 
C      -1.749332     0.811580    -2.508139 
H      -2.802096     0.785838    -2.213862 
H      -1.735626     0.870852    -3.600264 
C      -1.088950    -0.504948    -2.093551 
C      -1.494393    -1.070442    -0.868233 
H      -1.572390    -2.149237    -0.759145 
C       3.597119     1.147774    -1.803105 
H       3.753219     0.077375    -1.653891 
H       4.532723     1.539072    -2.219060 
C       2.508412     1.357495    -2.869235 
H       2.569974     2.356151    -3.298987 
H       2.647673     0.630373    -3.674884 
C      -0.902362    -1.517607    -3.222745 
H      -0.518721    -2.452079    -2.800274 
H      -1.908221    -1.736900    -3.606839 
C      -0.014797    -1.102658    -4.398089 
H      -0.101483    -1.842835    -5.199323 
H      -0.296659    -0.132289    -4.816873 
H       1.032764    -1.056729    -4.099264 
O      -2.307580    -0.324838    -0.057807 
C      -3.095328    -1.084990     0.860869 
H      -2.457623    -1.771260     1.428619 
H      -3.508887    -0.346783     1.551866 
C      -4.196762    -1.853420     0.166641 
C      -4.280803    -3.236317     0.281402 
C      -5.140117    -1.178707    -0.607128 
C      -5.295938    -3.939339    -0.361047 
H      -3.548196    -3.772570     0.878590 
C      -6.151125    -1.875818    -1.251770 
H      -5.078413    -0.098507    -0.702949 
C      -6.232094    -3.260428    -1.128317 
H      -5.351622    -5.018712    -0.261321 
H      -6.880273    -1.340228    -1.851551 
H      -7.024064    -3.806256    -1.631151 
C       0.774107     0.167855    -1.566722 
O       0.475859     0.432594    -0.255156 
C       0.357171    -0.837028     0.211683 
N       1.399858    -1.046516    -1.639194 
N       1.096133    -1.679376    -0.547036 
C       0.089442    -1.061425     1.652414 
O       0.112148    -2.142917     2.181972 
O      -0.227762     0.084612     2.256641 
C      -0.515234    -0.007452     3.657995 
H      -1.348594    -0.691804     3.834579 
H       0.363440    -0.349226     4.206416 
H      -0.778437     1.003840     3.965616 
74
     -1835.282188     -1834.747177   7.75   5.99
C       0.044219    -3.124507    -4.989650 
C       0.284303    -2.475125    -3.767108 
C       1.113325    -1.341999    -3.754182 
C       1.661696    -0.900963    -4.936318 
C       1.405230    -1.569226    -6.154379 
C       0.595398    -2.689559    -6.205018 
C      -1.063673    -4.223027    -3.390658 
C      -0.435831    -3.198686    -2.750699 
H       1.320342    -0.817456    -2.825568 
H       2.306574    -0.029811    -4.967828 
H       0.389188    -3.213304    -7.129078 
H      -1.706082    -4.995081    -2.988409 
N      -0.782560    -4.192526    -4.746967 
C      -1.268081    -5.124979    -5.736192 
H      -1.859290    -4.613501    -6.503384 
H      -0.439845    -5.652852    -6.221150 
H      -1.905657    -5.862158    -5.245481 
O       2.016846    -1.017724    -7.244730 
C       1.805550    -1.631704    -8.499245 
H       2.371587    -1.046194    -9.224653 
H       2.171835    -2.666102    -8.505974 
H       0.743916    -1.621235    -8.776759 
N      -1.273725    -1.098176     0.301362 
C      -2.149019    -1.555288     1.271774 
O      -3.006806    -2.373698     1.013996 
C      -1.910219    -1.002287     2.658636 
H      -2.600803    -1.524932     3.321351 
H      -2.149216     0.062500     2.686205 
C      -0.464099    -1.251212     3.109223 
H      -0.378714    -0.979027     4.164528 
H      -0.283322    -2.329487     3.049126 
C       0.652497    -0.550862     2.321117 
C       1.010714     0.753561     2.722700 
H       2.039755     1.094890     2.682614 
C      -0.491390    -2.838629    -1.299571 
H       0.520736    -2.626508    -0.939407 
H      -0.884524    -3.668266    -0.704625 
C      -1.366678    -1.602331    -1.073002 
H      -1.066477    -0.795225    -1.742673 
H      -2.413292    -1.842198    -1.261390 
C       1.769934    -1.518564     1.922283 
H       1.886729    -2.209069     2.767658 
H       1.415921    -2.135479     1.090078 
C       3.149011    -0.945724     1.591337 
H       3.601013    -0.466113     2.465663 
H       3.815453    -1.760296     1.292862 
H       3.118975    -0.221720     0.776180 
O       0.222871     1.362547     3.665039 
C       0.859740     2.371842     4.441710 
H       1.316906     1.896752     5.320430 
H       1.655067     2.848851     3.859204 
C      -0.141082     3.416697     4.874037 
C       0.327663     4.599601     5.443231 
C      -1.510587     3.232691     4.723851 
C      -0.558804     5.585750     5.854208 
H       1.397459     4.753870     5.559633 
C      -2.399855     4.220784     5.133903 
H      -1.882213     2.320350     4.273842 
C      -1.928805     5.398640     5.699045 
H      -0.180438     6.502259     6.296168 
H      -3.467519     4.065777     5.011531 
H      -2.624215     6.167586     6.020265 
C      -0.353437    -0.106512     0.596256 
O      -0.839189     1.114796     0.995443 
C       0.329627     1.814718     1.016059 
N       0.756975     0.098517    -0.178071 
N       1.192527     1.282574     0.116094 
C       0.323627     3.264837     1.347567 
O       1.330571     3.899169     1.529597 
O      -0.915585     3.740099     1.433420 
C      -1.024101     5.133021     1.774522 
H      -2.092476     5.340066     1.805512 
H      -0.572456     5.322678     2.749346 
H      -0.533711     5.743897     1.013564 
74
     -1835.284751     -1834.746633   6.14   6.33
C       3.220138    -0.339065     2.330972 
C       2.966594    -1.434251     1.479513 
C       2.114526    -2.442363     1.928511 
C       1.537146    -2.349522     3.181477 
C       1.809645    -1.245802     4.011753 
C       2.659691    -0.230733     3.602139 
C       4.312144     0.000247     0.410087 
C       3.676796    -1.194019     0.249986 
H       1.880607    -3.294627     1.299298 
H       0.863304    -3.130743     3.507064 
H       2.848465     0.608680     4.261523 
H       4.922733     0.555813    -0.289531 
N       4.048081     0.527425     1.662314 
C       4.569265     1.766691     2.188141 
H       5.214586     1.588787     3.054995 
H       5.157091     2.260221     1.412604 
H       3.756256     2.436937     2.485203 
O       1.250842    -1.085713     5.251153 
C       0.352435    -2.081097     5.706621 
H       0.848723    -3.054611     5.796983 
H       0.018217    -1.755226     6.692579 
H      -0.513640    -2.174802     5.040019 
N       2.147956    -0.310864    -2.050004 
C       2.417581     1.027853    -2.295592 
O       3.512389     1.411456    -2.654927 
C       1.230150     1.956703    -2.152193 
H       1.533488     2.903086    -2.602172 
H       1.022413     2.137995    -1.096025 
C      -0.008914     1.406571    -2.871240 
H      -0.777439     2.184139    -2.885662 
H       0.269639     1.223605    -3.914456 
C      -0.620619     0.109261    -2.324921 
C      -1.523643     0.224406    -1.244841 
H      -2.381389    -0.433371    -1.157788 
C       3.620885    -2.060573    -0.973975 
H       2.925308    -2.880815    -0.785484 
H       4.593562    -2.522499    -1.178208 
C       3.194288    -1.320433    -2.254629 
H       4.031036    -0.772512    -2.685453 
H       2.843337    -2.048394    -2.992470 
C      -0.950255    -0.889566    -3.438919 
H      -1.287089    -0.291541    -4.295732 
H      -0.021630    -1.372683    -3.762517 
C      -2.013976    -1.953104    -3.160767 
H      -1.768104    -2.574430    -2.297915 
H      -2.996370    -1.497934    -2.995694 
H      -2.106131    -2.609461    -4.031141 
O      -1.668194     1.462612    -0.674966 
C      -2.899768     1.654634     0.024083 
H      -3.047762     0.854439     0.757246 
H      -2.771366     2.596496     0.562267 
C      -4.084048     1.722060    -0.913744 
C      -5.138308     0.823530    -0.793810 
C      -4.124868     2.683769    -1.922367 
C      -6.222780     0.884344    -1.664150 
H      -5.114808     0.067235    -0.013821 
C      -5.202334     2.746057    -2.793525 
H      -3.302997     3.386707    -2.023436 
C      -6.256225     1.845126    -2.665097 
H      -7.040303     0.178264    -1.558083 
H      -5.223164     3.498870    -3.575229 
H      -7.100275     1.894271    -3.345635 
C       0.986851    -0.641640    -1.364242 
O       0.774765    -0.015539    -0.161399 
C      -0.315341    -0.708917     0.260519 
N       0.535835    -1.934185    -1.268279 
N      -0.302136    -1.953023    -0.281216 
C      -0.896242    -0.414582     1.591888 
O      -1.749020    -1.083478     2.117585 
O      -0.386268     0.713066     2.090213 
C      -0.879847     1.107306     3.377548 
H      -1.971245     1.153137     3.373464 
H      -0.543598     0.405900     4.142890 
H      -0.456676     2.094422     3.560616 
74
     -1835.282812     -1834.746234   7.36   6.58
C      -0.031171     3.933285    -0.201595 
C       0.370711     3.517481     1.086886 
C       1.727606     3.292481     1.316374 
C       2.641981     3.482426     0.296063 
C       2.213535     3.910802    -0.975813 
C       0.872908     4.143978    -1.239979 
C      -1.857259     3.743861     1.069341 
C      -0.822445     3.412548     1.890027 
H       2.073543     2.948450     2.285053 
H       3.690122     3.294200     0.488579 
H       0.572508     4.471913    -2.228582 
H      -2.915450     3.772808     1.292296 
N      -1.397903     4.058447    -0.198193 
C      -2.205331     4.476949    -1.318857 
H      -3.256587     4.451168    -1.027489 
H      -1.954958     5.497427    -1.627912 
H      -2.065598     3.805853    -2.172729 
O       3.063030     4.118454    -2.026802 
C       4.446058     3.914586    -1.815899 
H       4.661429     2.874569    -1.541564 
H       4.933076     4.143971    -2.764632 
H       4.836160     4.582675    -1.038363 
N      -1.175607     0.626826     2.503968 
C      -2.527765     0.669667     2.227030 
O      -3.276415     1.316106     2.935198 
C      -3.049031     0.001179     0.973427 
H      -3.092987     0.800660     0.223489 
H      -4.083706    -0.271286     1.190008 
C      -2.280379    -1.198852     0.439241 
H      -2.339294    -2.022430     1.153598 
H      -2.768537    -1.546279    -0.478922 
C      -0.820594    -0.904263     0.124912 
C      -0.020132    -2.040216    -0.068714 
H       0.903305    -1.987300    -0.633459 
C      -0.940623     3.000226     3.325693 
H      -1.941971     3.245915     3.678487 
H      -0.229354     3.566230     3.939013 
C      -0.672900     1.503038     3.579784 
H       0.398764     1.317932     3.644272 
H      -1.135291     1.204558     4.524786 
C      -0.568915     0.332838    -0.738262 
H      -1.373494     0.355143    -1.486175 
H      -0.696055     1.234334    -0.132061 
C       0.771987     0.407337    -1.468287 
H       0.881446    -0.412614    -2.185922 
H       0.830642     1.345145    -2.025829 
H       1.613946     0.384807    -0.773297 
O      -0.592227    -3.283430     0.001703 
C       0.058289    -4.273317    -0.803567 
H       1.119207    -4.329233    -0.540190 
H      -0.417292    -5.215423    -0.521345 
C      -0.110268    -4.005629    -2.281929 
C      -1.385336    -3.897051    -2.835861 
C       0.999518    -3.858133    -3.106035 
C      -1.545585    -3.647026    -4.190697 
H      -2.256029    -4.008165    -2.196067 
C       0.843004    -3.610594    -4.467026 
H       1.996899    -3.938474    -2.682210 
C      -0.429298    -3.504346    -5.010961 
H      -2.542910    -3.564333    -4.611116 
H       1.717988    -3.500183    -5.099805 
H      -0.554453    -3.310418    -6.071467 
C      -0.275623    -0.296291     1.968359 
O      -0.256911    -1.563787     2.521174 
C       0.883354    -2.031163     1.956974 
N       1.009159     0.078596     1.699109 
N       1.708517    -1.017691     1.643135 
C       1.340014    -3.418311     2.207313 
O       2.286292    -3.912662     1.650309 
O       0.558659    -4.040030     3.090703 
C       0.904693    -5.406206     3.360177 
H       1.917813    -5.470366     3.762855 
H       0.177233    -5.753044     4.092748 
H       0.842291    -6.000315     2.445528 
74
     -1835.283461     -1834.746176   6.95   6.62
C       2.108613     3.154965    -0.870187 
C       0.960088     3.569961    -0.172999 
C       1.030793     3.674926     1.223933 
C       2.208645     3.381115     1.866598 
C       3.354079     2.982559     1.141821 
C       3.325745     2.863361    -0.236045 
C       0.477436     3.484889    -2.357571 
C      -0.075606     3.788286    -1.149691 
H       0.159626     3.967430     1.800087 
H       2.292277     3.447328     2.945514 
H       4.191896     2.558583    -0.808749 
H       0.021314     3.509380    -3.338052 
N       1.797162     3.096864    -2.205356 
C       2.700465     2.726620    -3.268769 
H       2.158720     2.748056    -4.215620 
H       3.542063     3.424389    -3.335347 
H       3.090724     1.714832    -3.117034 
O       4.455173     2.729815     1.909112 
C       5.641324     2.338162     1.249149 
H       5.987694     3.113760     0.554596 
H       6.390466     2.193231     2.028333 
H       5.503406     1.396892     0.702133 
N      -2.114962     1.803189    -0.721610 
C      -2.244682     1.542434    -2.071339 
O      -2.692691     2.392310    -2.817587 
C      -1.720796     0.236548    -2.628725 
H      -0.716545     0.471243    -3.002603 
H      -2.331062     0.022612    -3.508238 
C      -1.682858    -0.967178    -1.698256 
H      -2.700150    -1.256042    -1.426821 
H      -1.251707    -1.816016    -2.241936 
C      -0.866170    -0.741470    -0.433881 
C      -1.061329    -1.701077     0.570887 
H      -0.316235    -1.869111     1.339724 
C      -1.487024     4.237720    -0.921369 
H      -1.920031     4.529186    -1.877962 
H      -1.498683     5.122426    -0.273684 
C      -2.393411     3.178233    -0.263764 
H      -2.245179     3.173463     0.815510 
H      -3.440894     3.414681    -0.470614 
C       0.535989    -0.170397    -0.648931 
H       0.931205    -0.656760    -1.551453 
H       0.464820     0.894801    -0.887039 
C       1.543666    -0.361090     0.484254 
H       1.206556     0.107298     1.411078 
H       1.738522    -1.422352     0.671308 
H       2.492401     0.104877     0.206962 
O      -1.909846    -2.751567     0.338992 
C      -1.576031    -3.943541     1.059830 
H      -1.525169    -3.728429     2.131808 
H      -2.416828    -4.618143     0.882836 
C      -0.281241    -4.557068     0.577417 
C      -0.128120    -4.913206    -0.762044 
C       0.773735    -4.768075     1.457796 
C       1.059371    -5.471978    -1.210835 
H      -0.947934    -4.747584    -1.455058 
C       1.966018    -5.331900     1.012099 
H       0.663980    -4.491037     2.502812 
C       2.110569    -5.684114    -0.322427 
H       1.167521    -5.745273    -2.255756 
H       2.780953    -5.493774     1.710579 
H       3.039259    -6.122932    -0.673023 
C      -1.901139     0.839589     0.265460 
O      -2.993187     0.102439     0.685727 
C      -2.455474    -0.475405     1.787459 
N      -1.132474     1.135704     1.354167 
N      -1.452271     0.273931     2.275703 
C      -3.239989    -1.433620     2.600761 
O      -2.776081    -2.049400     3.525811 
O      -4.493106    -1.541367     2.158522 
C      -5.313272    -2.483516     2.864546 
H      -6.288451    -2.441955     2.381373 
H      -4.888889    -3.487251     2.788026 
H      -5.392760    -2.205457     3.917656 
74
     -1835.284619     -1834.746154   6.22   6.63
C       2.390241     0.398064     2.393055 
C       3.004208     0.479056     1.126152 
C       3.406240    -0.702917     0.505074 
C       3.194805    -1.917351     1.131298 
C       2.578580    -1.968642     2.396013 
C       2.174712    -0.813552     3.046702 
C       2.445620     2.546515     1.778169 
C       3.025947     1.868509     0.748853 
H       3.869917    -0.686377    -0.475763 
H       3.498347    -2.826110     0.628823 
H       1.697487    -0.884831     4.017401 
H       2.236665     3.603584     1.876926 
N       2.059226     1.672588     2.779520 
C       1.432147     2.036001     4.028107 
H       2.072375     1.784274     4.880324 
H       1.253453     3.112385     4.033642 
H       0.471185     1.524842     4.145511 
O       2.319489    -3.139966     3.055017 
C       2.661911    -4.353255     2.409650 
H       2.348062    -5.150767     3.084559 
H       2.139064    -4.458529     1.451258 
H       3.743415    -4.425383     2.243977 
N       1.095036     2.756536    -1.226973 
C       0.123833     3.506437    -0.580632 
O       0.368821     4.578294    -0.065272 
C      -1.272182     2.921937    -0.630896 
H      -1.942937     3.713816    -0.294846 
H      -1.351604     2.090913     0.072107 
C      -1.648430     2.481280    -2.051846 
H      -2.713100     2.233234    -2.070275 
H      -1.518246     3.347033    -2.709752 
C      -0.850870     1.318412    -2.659693 
C      -1.278172     0.008866    -2.339575 
H      -1.220344    -0.798693    -3.062796 
C       3.508354     2.408057    -0.566020 
H       3.807485     1.567891    -1.196193 
H       4.402368     3.028796    -0.436910 
C       2.471262     3.260115    -1.319443 
H       2.427862     4.270065    -0.914354 
H       2.753561     3.323756    -2.374650 
C      -0.412718     1.609423    -4.098451 
H      -1.234828     2.171554    -4.560564 
H       0.437130     2.300359    -4.069505 
C      -0.081588     0.425669    -5.009252 
H      -0.963902    -0.197407    -5.190561 
H       0.250418     0.800387    -5.981950 
H       0.711907    -0.204922    -4.605181 
O      -2.262185    -0.110863    -1.395167 
C      -2.958919    -1.348718    -1.400388 
H      -3.677392    -1.348711    -2.232772 
H      -2.259528    -2.176891    -1.567715 
C      -3.683101    -1.548251    -0.090718 
C      -3.839896    -0.518552     0.829844 
C      -4.214447    -2.803589     0.197682 
C      -4.514617    -0.743118     2.025611 
H      -3.425302     0.458770     0.615673 
C      -4.885828    -3.030109     1.391465 
H      -4.095026    -3.615478    -0.515710 
C      -5.037594    -1.997649     2.311431 
H      -4.630986     0.068824     2.737053 
H      -5.292747    -4.013747     1.604301 
H      -5.563323    -2.171324     3.244814 
C       0.817654     1.431577    -1.538751 
O       0.391601     0.626099    -0.512796 
C       0.407935    -0.574565    -1.149815 
N       1.624846     0.691707    -2.367102 
N       1.331812    -0.549463    -2.144511 
C       0.069968    -1.805431    -0.392960 
O       0.238084    -2.919742    -0.818997 
O      -0.490920    -1.494656     0.773651 
C      -0.903385    -2.590601     1.605644 
H      -1.349805    -3.382693     1.003667 
H      -0.044115    -2.975059     2.157287 
H      -1.645002    -2.177712     2.288488 
74
     -1835.285276     -1834.746101   5.81   6.66
C       1.824498    -1.256331    -3.852706 
C       2.786989    -0.892605    -2.893825 
C       3.476551    -1.912712    -2.221540 
C       3.204910    -3.226330    -2.521264 
C       2.243060    -3.565523    -3.498608 
C       1.535798    -2.589584    -4.178284 
C       1.846416     0.971072    -3.702443 
C       2.791708     0.546160    -2.819208 
H       4.208601    -1.674096    -1.456795 
H       3.719585    -4.036869    -2.017587 
H       0.790300    -2.830300    -4.924753 
H       1.542630     1.981518    -3.941302 
N       1.250939    -0.107294    -4.335350 
C       0.221564    -0.037931    -5.345279 
H      -0.684410    -0.560859    -5.020737 
H      -0.029679     1.008669    -5.523516 
H       0.564260    -0.476207    -6.288392 
O       2.079140    -4.906356    -3.695288 
C       1.135207    -5.319964    -4.662353 
H       1.396763    -4.948682    -5.661119 
H       1.160597    -6.410169    -4.666396 
H       0.123371    -4.983540    -4.403344 
N       1.849355     1.512391    -0.186119 
C       1.227302     2.707637    -0.498487 
O       1.844267     3.630012    -0.992705 
C      -0.260745     2.754680    -0.231538 
H      -0.628507     3.657279    -0.721549 
H      -0.439942     2.856263     0.840601 
C      -0.976426     1.520487    -0.792406 
H      -2.056042     1.686867    -0.734751 
H      -0.726758     1.448578    -1.856317 
C      -0.650450     0.164303    -0.154748 
C      -1.327246    -0.185018     1.031285 
H      -1.623134    -1.209828     1.229637 
C       3.640947     1.418045    -1.947006 
H       3.557042     2.452256    -2.282036 
H       4.695098     1.129991    -2.039066 
C       3.286173     1.348645    -0.455133 
H       3.565309     0.381689    -0.038291 
H       3.831945     2.130843     0.081627 
C      -0.422553    -0.921721    -1.206374 
H      -1.145195    -0.719580    -2.008390 
H       0.560619    -0.766392    -1.653824 
C      -0.572058    -2.386007    -0.793012 
H      -0.323831    -3.021728    -1.647532 
H       0.092774    -2.659548     0.027271 
H      -1.601142    -2.619486    -0.498950 
O      -2.099401     0.779976     1.627248 
C      -3.164643     0.298641     2.439447 
H      -4.054204     0.173682     1.806998 
H      -2.905048    -0.679065     2.859190 
C      -3.454910     1.264701     3.563194 
C      -4.299959     0.858849     4.594766 
C      -2.909370     2.542577     3.597072 
C      -4.593682     1.716244     5.646360 
H      -4.726961    -0.140765     4.578916 
C      -3.201646     3.402264     4.650989 
H      -2.244920     2.862368     2.803943 
C      -4.042651     2.993500     5.677758 
H      -5.253485     1.387525     6.443279 
H      -2.769511     4.398216     4.666335 
H      -4.271233     3.666215     6.498278 
C       1.189365     0.596655     0.622586 
O       0.756572     1.042998     1.849687 
C       0.320670    -0.137577     2.367968 
N       1.595736    -0.704357     0.751934 
N       1.025068    -1.159613     1.822170 
C      -0.211397    -0.190960     3.755539 
O      -0.753192    -1.164171     4.212648 
O      -0.029282     0.962733     4.391898 
C      -0.534242     1.015804     5.737326 
H      -0.305956     2.019556     6.091702 
H      -1.611877     0.846158     5.746597 
H      -0.035440     0.265122     6.354069 
74
     -1835.283253     -1834.745227   7.08   7.21
C      -0.654597     3.503288     0.444297 
C      -0.956738     2.669260     1.542113 
C      -2.271270     2.233257     1.703943 
C      -3.244006     2.618261     0.797451 
C      -2.912195     3.444076    -0.293537 
C      -1.616144     3.898202    -0.484039 
C       1.229610     3.150644     1.596937 
C       0.270547     2.451797     2.264026 
H      -2.541233     1.586157     2.532671 
H      -4.259463     2.269304     0.934365 
H      -1.391701     4.533444    -1.333429 
H       2.288695     3.236211     1.800295 
N       0.684698     3.792085     0.494828 
C       1.397064     4.637092    -0.433891 
H       1.319643     4.250375    -1.455496 
H       1.007916     5.660800    -0.414714 
H       2.450946     4.661506    -0.152657 
O      -3.820048     3.845089    -1.237141 
C      -5.172962     3.477869    -1.057709 
H      -5.571981     3.865362    -0.112350 
H      -5.720379     3.924236    -1.889053 
H      -5.303598     2.388680    -1.084732 
N       2.268089     0.192088     2.473720 
C       3.456076     0.567398     1.873339 
O       4.083818     1.533423     2.265257 
C       4.031060    -0.292383     0.765574 
H       4.803844    -0.903472     1.246522 
H       4.562521     0.399360     0.108799 
C       3.074807    -1.159098    -0.040181 
H       2.386643    -0.522987    -0.601048 
H       3.652819    -1.723009    -0.781419 
C       2.275072    -2.139331     0.806452 
C       1.183906    -2.733257     0.146888 
H       0.772448    -3.680460     0.477751 
C       0.416455     1.577129     3.474292 
H      -0.341509     0.787843     3.429460 
H       0.201181     2.140947     4.390906 
C       1.797219     0.942920     3.656064 
H       2.556290     1.697506     3.851696 
H       1.763748     0.253827     4.504853 
C       3.087310    -2.978410     1.793490 
H       4.030016    -3.231076     1.289044 
H       3.362479    -2.359712     2.653854 
C       2.446352    -4.271496     2.299517 
H       1.487870    -4.085441     2.789103 
H       2.292638    -4.988681     1.486506 
H       3.108576    -4.746197     3.029370 
O       0.947491    -2.417399    -1.161692 
C       0.157805    -3.364681    -1.877984 
H       0.818975    -4.164290    -2.240403 
H      -0.591892    -3.808123    -1.215070 
C      -0.531882    -2.687711    -3.036754 
C       0.001704    -1.551212    -3.636667 
C      -1.716785    -3.225244    -3.532354 
C      -0.642263    -0.961166    -4.718258 
H       0.918505    -1.121271    -3.250208 
C      -2.358913    -2.639595    -4.616385 
H      -2.149121    -4.101401    -3.057185 
C      -1.822451    -1.503941    -5.212838 
H      -0.218139    -0.073404    -5.177346 
H      -3.282360    -3.068541    -4.992796 
H      -2.322858    -1.043627    -6.058818 
C       1.381721    -0.768980     1.976168 
O       0.483691    -0.356260     1.019107 
C      -0.357864    -1.418249     1.027174 
N       0.742341    -1.613148     2.842730 
N      -0.313645    -2.047119     2.218326 
C      -1.535301    -1.419271     0.123925 
O      -2.298170    -2.347175     0.024090 
O      -1.607286    -0.278656    -0.552078 
C      -2.719032    -0.136536    -1.448554 
H      -2.642011    -0.852800    -2.267755 
H      -3.656720    -0.289657    -0.909851 
H      -2.658064     0.885030    -1.820508 
74
     -1835.280895     -1834.745029   8.56   7.34
C       3.110812     0.693371     2.159857 
C       3.162780     1.060250     0.798784 
C       3.491842     0.082110    -0.141158 
C       3.761865    -1.208402     0.274470 
C       3.703234    -1.545656     1.641050 
C       3.380698    -0.599765     2.600483 
C       2.565724     2.854121     1.999986 
C       2.810029     2.454230     0.720318 
H       3.533993     0.319635    -1.199951 
H       4.018813    -1.956149    -0.464457 
H       3.338322    -0.890440     3.644002 
H       2.237920     3.815503     2.371765 
N       2.745025     1.802967     2.880158 
C       2.580929     1.857674     4.313140 
H       2.245807     2.857794     4.592426 
H       1.830284     1.134617     4.648611 
H       3.525287     1.649478     4.827487 
O       3.958294    -2.801297     2.117501 
C       4.146026    -3.839785     1.178053 
H       4.261114    -4.756255     1.758543 
H       3.276834    -3.935321     0.515973 
H       5.048109    -3.680747     0.574467 
N       0.181941     3.024953    -0.414225 
C      -0.631016     3.250754     0.686973 
O      -0.445186     4.177931     1.448183 
C      -1.805654     2.305447     0.811887 
H      -2.448301     2.722263     1.588521 
H      -1.468679     1.321713     1.143344 
C      -2.579067     2.206619    -0.510305 
H      -3.509659     1.662924    -0.327664 
H      -2.861175     3.223181    -0.804109 
C      -1.853137     1.567121    -1.703445 
C      -1.891010     0.157111    -1.793508 
H      -1.961070    -0.346444    -2.752986 
C       2.678935     3.263413    -0.536810 
H       2.876166     2.617674    -1.395892 
H       3.429786     4.061168    -0.575278 
C       1.303761     3.925191    -0.706011 
H       1.185073     4.761536    -0.018434 
H       1.199731     4.297684    -1.729205 
C      -2.019829     2.386045    -2.986970 
H      -3.041351     2.787389    -2.960819 
H      -1.359657     3.258671    -2.931535 
C      -1.826653     1.679331    -4.330091 
H      -2.583215     0.902678    -4.484835 
H      -1.943912     2.405385    -5.139960 
H      -0.838939     1.226313    -4.428007 
O      -2.418967    -0.517005    -0.727139 
C      -2.937297    -1.815215    -1.025598 
H      -3.721348    -1.724403    -1.787686 
H      -2.137280    -2.445367    -1.432621 
C      -3.503395    -2.415690     0.232673 
C      -4.857502    -2.717158     0.321545 
C      -2.670648    -2.677573     1.320418 
C      -5.381617    -3.280809     1.480530 
H      -5.510545    -2.509334    -0.521993 
C      -3.193096    -3.236337     2.478108 
H      -1.613695    -2.441028     1.254888 
C      -4.549028    -3.540744     2.560601 
H      -6.440294    -3.513560     1.538532 
H      -2.539548    -3.437214     3.321269 
H      -4.954205    -3.979097     3.467274 
C       0.062378     1.833892    -1.114697 
O       0.194432     0.661125    -0.409447 
C       0.191746    -0.217657    -1.444835 
N       0.632764     1.664356    -2.351266 
N       0.676670     0.387879    -2.560264 
C       0.385452    -1.651328    -1.132619 
O       0.429324    -2.104583    -0.019585 
O       0.465689    -2.375459    -2.255175 
C       0.676300    -3.779810    -2.063991 
H       1.620287    -3.952561    -1.542012 
H      -0.138948    -4.218322    -1.483492 
H       0.710745    -4.210976    -3.063739 
74
     -1835.282518     -1834.744783   7.54   7.49
C       2.147953    -2.482640     2.076607 
C       3.144380    -1.790514     1.362843 
C       3.895540    -0.821811     2.045301 
C       3.635523    -0.570019     3.373062 
C       2.618667    -1.269522     4.060581 
C       1.863806    -2.239378     3.427078 
C       2.158047    -3.248883    -0.014023 
C       3.127320    -2.290570     0.012834 
H       4.677192    -0.266581     1.536072 
H       4.196330     0.176713     3.924553 
H       1.074787    -2.781530     3.930815 
H       1.807621    -3.853959    -0.838442 
N       1.549559    -3.367557     1.218353 
C       0.450018    -4.253053     1.532891 
H       0.755751    -5.025722     2.246246 
H      -0.396269    -3.694540     1.943951 
H       0.119221    -4.734765     0.611932 
O       2.441974    -0.892158     5.360908 
C       1.389385    -1.504681     6.080239 
H       0.420765    -1.326155     5.596531 
H       1.551160    -2.584942     6.181868 
H       1.390319    -1.046901     7.070072 
N       2.128317    -0.207950    -1.928171 
C       2.617891     1.084658    -1.842087 
O       3.770812     1.341456    -2.122388 
C       1.613725     2.138160    -1.427572 
H       2.099423     3.100841    -1.593065 
H       1.409958     2.047351    -0.358212 
C       0.314780     2.059423    -2.240673 
H      -0.298301     2.929983    -1.992966 
H       0.582552     2.152644    -3.298227 
C      -0.526385     0.789965    -2.088818 
C      -1.465858     0.727667    -1.044935 
H      -2.411105     0.210458    -1.186610 
C       3.921078    -1.781476    -1.158189 
H       4.582267    -2.561632    -1.552923 
H       4.565072    -0.957398    -0.839694 
C       3.041920    -1.290799    -2.318221 
H       3.671471    -0.904801    -3.120643 
H       2.426273    -2.102003    -2.709307 
C      -0.995875     0.185160    -3.406999 
H      -0.121452    -0.076445    -4.013533 
H      -1.526729    -0.749760    -3.208378 
C      -1.912292     1.135824    -4.184917 
H      -2.263697     0.658771    -5.105155 
H      -2.790401     1.409560    -3.590286 
H      -1.401836     2.061300    -4.467621 
O      -1.471155     1.730304    -0.107651 
C      -2.738231     1.932289     0.531054 
H      -3.079012     1.000916     0.995300 
H      -2.538202     2.658005     1.322671 
C      -3.782107     2.450928    -0.431810 
C      -3.553876     3.624570    -1.149179 
C      -4.973011     1.760333    -0.626367 
C      -4.500412     4.096914    -2.046242 
H      -2.625830     4.169457    -1.002412 
C      -5.927487     2.233766    -1.521968 
H      -5.158328     0.842644    -0.074739 
C      -5.692066     3.401573    -2.233913 
H      -4.312006     5.011445    -2.599758 
H      -6.854017     1.686226    -1.662756 
H      -6.434099     3.772447    -2.933817 
C       0.885592    -0.513458    -1.388014 
O       0.696019    -0.244742    -0.054468 
C      -0.519740    -0.826547     0.128296 
N       0.208633    -1.656019    -1.702250 
N      -0.688076    -1.817943    -0.779859 
C      -1.214913    -0.865140     1.445720 
O      -2.209373    -1.531513     1.571337 
O      -0.771289    -0.148741     2.483182 
C       0.350414     0.754262     2.456371 
H       0.150282     1.587323     1.781938 
H       0.432129     1.111617     3.482936 
H       1.269499     0.247295     2.175701 
74
     -1835.284301     -1834.744364   6.42   7.75
C       3.013276     1.191505     2.052096 
C       2.764414     0.986921     0.682424 
C       2.430452    -0.308751     0.257828 
C       2.309870    -1.318497     1.181774 
C       2.533885    -1.078160     2.554716 
C       2.899264     0.174267     3.013222 
C       3.304543     3.134411     0.999317 
C       2.946053     2.255182     0.022099 
H       2.257815    -0.530584    -0.787280 
H       2.043519    -2.321058     0.867861 
H       3.085853     0.377584     4.059536 
H       3.496505     4.196806     0.933858 
N       3.351784     2.508337     2.227855 
C       3.650767     3.142727     3.489665 
H       2.796228     3.083952     4.171886 
H       4.520029     2.678396     3.967191 
H       3.876192     4.195019     3.310579 
O       2.364019    -2.169593     3.363356 
C       2.589094    -2.002505     4.747799 
H       1.899898    -1.266067     5.180010 
H       2.409244    -2.975560     5.206777 
H       3.622252    -1.693314     4.950188 
N       0.167937     2.617571    -1.020146 
C      -0.193531     2.773646     0.311389 
O       0.244322     3.679665     0.988600 
C      -1.187781     1.766196     0.835222 
H      -1.389234     2.043732     1.870457 
H      -0.734298     0.772306     0.832174 
C      -2.492533     1.770497     0.030052 
H      -3.204375     1.114067     0.537277 
H      -2.916268     2.777802     0.068887 
C      -2.393931     1.347515    -1.437695 
C      -2.501536    -0.030228    -1.706665 
H      -3.045636    -0.395785    -2.574538 
C       2.631992     2.597501    -1.407726 
H       2.582825     1.682028    -2.007020 
H       3.426977     3.213409    -1.842906 
C       1.308664     3.371002    -1.555499 
H       1.350782     4.306654    -0.997867 
H       1.108427     3.587015    -2.606699 
C      -3.120789     2.259930    -2.423029 
H      -3.060290     1.825236    -3.425995 
H      -4.181405     2.238554    -2.135890 
C      -2.667439     3.720732    -2.478282 
H      -2.677820     4.198155    -1.494491 
H      -1.660806     3.808732    -2.887817 
H      -3.344481     4.288041    -3.124168 
O      -2.421531    -0.876766    -0.635203 
C      -2.972001    -2.174505    -0.807548 
H      -4.054759    -2.128250    -0.629001 
H      -2.823870    -2.509069    -1.841476 
C      -2.329653    -3.149981     0.151662 
C      -2.879461    -4.424735     0.272910 
C      -1.202038    -2.821759     0.896368 
C      -2.310961    -5.359776     1.127390 
H      -3.763965    -4.688196    -0.302748 
C      -0.633165    -3.756342     1.756030 
H      -0.757361    -1.839373     0.803912 
C      -1.184580    -5.025898     1.872326 
H      -2.748569    -6.349548     1.213994 
H       0.245638    -3.484416     2.332464 
H      -0.739203    -5.755053     2.541997 
C      -0.347534     1.578738    -1.783647 
O       0.009178     0.295746    -1.458675 
C      -0.539422    -0.366813    -2.510008 
N      -0.466341     1.667118    -3.141834 
N      -0.621647     0.456053    -3.581701 
C      -0.256393    -1.821126    -2.603730 
O       0.508493    -2.399452    -1.879835 
O      -0.972285    -2.393660    -3.575756 
C      -0.769640    -3.808642    -3.721070 
H      -1.421179    -4.115730    -4.538086 
H       0.274362    -4.016896    -3.963096 
H      -1.036840    -4.326667    -2.796015 
74
     -1835.277803     -1834.742144  10.50   9.15
C       2.497384    -1.046228    -3.636534 
C       1.343125    -0.329149    -3.249366 
C       0.345528    -1.010877    -2.550967 
C       0.511507    -2.350275    -2.240018 
C       1.677804    -3.036382    -2.631877 
C       2.683304    -2.393505    -3.336062 
C       2.718021     1.057510    -4.340333 
C       1.513694     1.027152    -3.708140 
H      -0.561069    -0.502526    -2.243784 
H      -0.271318    -2.863050    -1.696019 
H       3.568694    -2.946301    -3.628412 
H       3.230265     1.891816    -4.800562 
N       3.322509    -0.184472    -4.310405 
C       4.621873    -0.512737    -4.846172 
H       5.042005     0.373634    -5.324034 
H       5.303513    -0.834750    -4.052000 
H       4.547890    -1.308901    -5.594341 
O       1.903889    -4.357389    -2.359591 
C       0.898565    -5.078835    -1.676312 
H       1.272278    -6.099016    -1.579177 
H       0.715274    -4.665174    -0.676995 
H      -0.041584    -5.090499    -2.241200 
N       1.015160     2.049449    -0.921109 
C       2.132645     1.297540    -0.586646 
O       3.194326     1.493401    -1.141103 
C       2.034941     0.207013     0.460669 
H       2.803649     0.434920     1.202704 
H       2.382717    -0.693160    -0.056520 
C       0.687921    -0.085236     1.106493 
H       0.066557    -0.639328     0.401101 
H       0.851835    -0.754638     1.959854 
C      -0.104348     1.118953     1.591439 
C      -1.457467     0.864219     1.845810 
H      -2.012082     1.481736     2.546461 
C       0.649490     2.211037    -3.389496 
H      -0.396464     1.903251    -3.292360 
H       0.690906     2.940667    -4.205698 
C       1.098406     2.926428    -2.103619 
H       2.138631     3.238004    -2.195438 
H       0.477976     3.804136    -1.912310 
C       0.525806     2.113152     2.571450 
H      -0.274908     2.772524     2.923333 
H       0.838739     1.521283     3.442679 
C       1.698476     3.000102     2.140465 
H       1.422948     3.655327     1.313921 
H       1.981083     3.634515     2.986618 
H       2.586308     2.433980     1.856237 
O      -1.970199    -0.389869     1.631106 
C      -3.002595    -0.761852     2.551692 
H      -3.805647    -0.017532     2.531493 
H      -3.396558    -1.703458     2.161787 
C      -2.471846    -0.937807     3.956182 
C      -1.437004    -1.838118     4.207397 
C      -2.997344    -0.200694     5.011024 
C      -0.939310    -1.998338     5.492119 
H      -1.019905    -2.414187     3.386385 
C      -2.503326    -0.361343     6.302559 
H      -3.799977     0.507404     4.823378 
C      -1.473868    -1.259871     6.544808 
H      -0.133442    -2.701854     5.676252 
H      -2.924052     0.219144     7.117519 
H      -1.085887    -1.386494     7.550519 
C      -0.203946     2.068441    -0.242512 
O      -1.220706     1.278355    -0.730622 
C      -2.259522     1.770491    -0.012814 
N      -0.739031     3.241599     0.199519 
N      -2.011680     3.027918     0.383013 
C      -3.616738     1.194551    -0.162868 
O      -4.540582     1.479772     0.553434 
O      -3.665140     0.313025    -1.164265 
C      -4.935472    -0.327053    -1.355386 
H      -5.214927    -0.888601    -0.461009 
H      -5.707181     0.415049    -1.570634 
H      -4.800515    -0.997998    -2.202704 
74
     -1835.275390     -1834.740748  12.01  10.02
C       4.726477    -2.715262    -2.969722 
C       4.041917    -2.200485    -1.856134 
C       4.320378    -2.730204    -0.586132 
C       5.251290    -3.736380    -0.470493 
C       5.927518    -4.239121    -1.604537 
C       5.679936    -3.740750    -2.871075 
C       3.340330    -1.115818    -3.685341 
C       3.156214    -1.171034    -2.337490 
H       3.806695    -2.354991     0.294401 
H       5.492112    -4.171298     0.492987 
H       6.188991    -4.114441    -3.749702 
H       2.867343    -0.477795    -4.420124 
N       4.288600    -2.044075    -4.083697 
C       4.743661    -2.266650    -5.435376 
H       4.540006    -3.294107    -5.755739 
H       4.213913    -1.586461    -6.104310 
H       5.818069    -2.073989    -5.526846 
O       6.823004    -5.236031    -1.336735 
C       7.536644    -5.789711    -2.422701 
H       8.186969    -6.557002    -2.001030 
H       6.860284    -6.251654    -3.153049 
H       8.151335    -5.032796    -2.926184 
N       0.292042    -0.564271     0.076324 
C       0.728764    -0.670028     1.382532 
O       1.700986    -1.336585     1.674968 
C      -0.052553     0.133918     2.396630 
H       0.455048    -0.002213     3.352325 
H      -1.060813    -0.273787     2.485007 
C      -0.069285     1.622512     2.016258 
H      -0.471503     2.205067     2.847975 
H       0.975564     1.934730     1.920687 
C      -0.768757     1.998322     0.707821 
C      -2.131438     2.376390     0.655567 
H      -2.404681     3.102439    -0.103739 
C       2.214522    -0.368584    -1.495227 
H       1.815415     0.478984    -2.059559 
H       2.750731     0.036235    -0.629042 
C       1.054081    -1.231134    -0.986882 
H       0.365202    -1.466393    -1.799031 
H       1.433125    -2.162842    -0.568040 
C       0.114233     2.843008    -0.212797 
H       1.034750     2.289372    -0.428528 
H      -0.390767     2.989838    -1.170430 
C       0.456578     4.207370     0.393337 
H      -0.453258     4.778334     0.605169 
H       1.019025     4.117272     1.327492 
H       1.065076     4.792315    -0.303093 
O      -3.054376     2.468779     1.656396 
C      -3.159632     1.545918     2.747492 
H      -3.154556     0.519658     2.377215 
H      -2.322424     1.685804     3.436425 
C      -4.458433     1.843554     3.453170 
C      -5.489424     0.911782     3.473685 
C      -4.636483     3.073146     4.085432 
C      -6.687583     1.204744     4.118690 
H      -5.360744    -0.039905     2.969317 
C      -5.829870     3.367334     4.728321 
H      -3.834974     3.806162     4.065080 
C      -6.859944     2.430685     4.746384 
H      -7.487750     0.471187     4.127122 
H      -5.959719     4.328455     5.216079 
H      -7.794586     2.659705     5.248660 
C      -0.828112     0.185464    -0.249056 
O      -2.046177    -0.213710     0.251444 
C      -2.849505     0.649009    -0.434218 
N      -1.013186     0.657977    -1.518857 
N      -2.266546     0.987850    -1.604611 
C      -4.308907     0.576462    -0.191348 
O      -4.818488    -0.249958     0.521778 
O      -4.951142     1.557724    -0.817019 
C      -6.359208     1.637370    -0.541020 
H      -6.720469     2.488095    -1.117114 
H      -6.859829     0.718999    -0.854033 
H      -6.521706     1.797494     0.527884 
74
     -1835.279941     -1834.740157   9.16  10.39
C      -3.390379     0.051270    -0.230980 
C      -2.959322     0.267781    -1.550337 
C      -2.633315    -0.846015    -2.340372 
C      -2.738547    -2.107499    -1.803282 
C      -3.172655    -2.296813    -0.471653 
C      -3.513902    -1.224966     0.331686 
C      -3.305203     2.253355    -0.578492 
C      -2.911909     1.690634    -1.756652 
H      -2.286136    -0.719449    -3.360923 
H      -2.491227    -2.989373    -2.384152 
H      -3.826036    -1.348503     1.359256 
H      -3.381967     3.297002    -0.303597 
N      -3.593326     1.275538     0.354192 
C      -4.120552     1.505690     1.678902 
H      -3.926157     2.541727     1.962608 
H      -5.200838     1.325626     1.718938 
H      -3.623763     0.852122     2.400306 
O      -3.213061    -3.599546    -0.062934 
C      -3.570130    -3.846459     1.283050 
H      -2.885665    -3.340101     1.974925 
H      -4.597940    -3.522147     1.488738 
H      -3.498301    -4.925639     1.424124 
N      -0.089147     1.809355    -2.107909 
C       0.303322     0.709481    -2.843891 
O       0.037612     0.616493    -4.025860 
C       1.088443    -0.332603    -2.086364 
H       1.431630    -1.059523    -2.823863 
H       0.400154    -0.847258    -1.413551 
C       2.299657     0.266933    -1.354003 
H       2.882189    -0.545205    -0.918005 
H       2.937981     0.709788    -2.124685 
C       2.041273     1.365918    -0.316271 
C       1.970441     1.084439     1.069450 
H       2.310644     1.863374     1.744422 
C      -2.365128     2.383041    -2.969321 
H      -2.961151     3.266604    -3.221298 
H      -2.412586     1.707677    -3.826500 
C      -0.907347     2.837136    -2.768537 
H      -0.446711     3.061508    -3.732229 
H      -0.865932     3.724825    -2.138705 
C       2.805002     2.660013    -0.611508 
H       2.524758     3.016917    -1.609400 
H       2.490432     3.434867     0.092202 
C       4.324307     2.484579    -0.525841 
H       4.622077     2.141278     0.470493 
H       4.700543     1.758717    -1.252823 
H       4.829970     3.436106    -0.717155 
O       2.090336    -0.107144     1.729178 
C       1.541590    -1.337432     1.259821 
H       1.045971    -1.777809     2.130563 
H       0.766550    -1.161865     0.516592 
C       2.596973    -2.292572     0.748256 
C       2.231177    -3.300515    -0.140838 
C       3.917468    -2.212848     1.178807 
C       3.171825    -4.217407    -0.593835 
H       1.201928    -3.369085    -0.484468 
C       4.859591    -3.128991     0.724812 
H       4.207367    -1.429219     1.869945 
C       4.490265    -4.134059    -0.161031 
H       2.873791    -4.999377    -1.285345 
H       5.887302    -3.057016     1.067215 
H       5.226492    -4.849290    -0.513362 
C       0.121819     1.876403    -0.733737 
O      -0.450946     0.928108     0.089417 
C      -0.161838     1.486415     1.295877 
N       0.083035     3.085295    -0.091331 
N      -0.045760     2.826560     1.172091 
C      -0.593717     0.798280     2.528622 
O      -1.150507    -0.271887     2.549699 
O      -0.269971     1.509797     3.608695 
C      -0.626267     0.921690     4.866413 
H      -0.293092     1.628849     5.624886 
H      -1.707422     0.777329     4.927659 
H      -0.126069    -0.040908     4.993199 
74
     -1835.276762     -1834.740025  11.15  10.48
C      -3.442280     1.310339    -0.519980 
C      -3.326040     0.174853     0.301123 
C      -3.376456    -1.092260    -0.300968 
C      -3.542978    -1.189149    -1.661899 
C      -3.665920    -0.032833    -2.464740 
C      -3.617651     1.233919    -1.910682 
C      -3.159812     2.001063     1.584984 
C      -3.149038     0.639951     1.651833 
H      -3.272770    -1.994997     0.293472 
H      -3.575446    -2.153206    -2.156547 
H      -3.705838     2.131164    -2.509190 
H      -3.023076     2.732685     2.369318 
N      -3.335309     2.420110     0.278385 
C      -3.417535     3.792888    -0.162996 
H      -2.651811     4.009526    -0.914846 
H      -4.403104     4.015451    -0.585830 
H      -3.252086     4.447618     0.693654 
O      -3.818489    -0.278763    -3.798643 
C      -3.990030     0.829599    -4.658283 
H      -4.883063     1.408252    -4.391002 
H      -3.112874     1.488871    -4.642984 
H      -4.113514     0.420782    -5.661703 
N      -0.510132     0.298403     2.912367 
C       0.081140     1.541320     2.756926 
O      -0.375727     2.542969     3.269020 
C       1.369521     1.543900     1.962596 
H       1.798371     2.539134     2.087399 
H       1.155908     1.402012     0.901417 
C       2.355207     0.480933     2.466814 
H       3.317398     0.645622     1.974333 
H       2.513049     0.656951     3.536044 
C       1.942589    -0.982840     2.293388 
C       2.219639    -1.610831     1.063685 
H       2.508559    -2.659091     1.024042 
C      -2.960621    -0.220692     2.868272 
H      -2.880270    -1.265021     2.556175 
H      -3.835373    -0.166795     3.526816 
C      -1.733160     0.148809     3.710610 
H      -1.871966     1.105866     4.211870 
H      -1.564365    -0.621663     4.468055 
C       2.153855    -1.850553     3.528336 
H       1.547125    -1.455174     4.350595 
H       1.783332    -2.860031     3.329475 
C       3.624418    -1.921802     3.952744 
H       3.738433    -2.576442     4.822071 
H       4.246570    -2.325652     3.146961 
H       4.025358    -0.940615     4.223406 
O       2.643683    -0.830452     0.022109 
C       3.424855    -1.512453    -0.971376 
H       4.416230    -1.719242    -0.547094 
H       2.951786    -2.464242    -1.230866 
C       3.533986    -0.629416    -2.185131 
C       4.213778     0.585182    -2.108070 
C       2.950066    -1.006950    -3.389307 
C       4.309302     1.410802    -3.219012 
H       4.668724     0.884457    -1.168111 
C       3.045380    -0.181612    -4.505232 
H       2.406991    -1.944664    -3.450494 
C       3.724169     1.027088    -4.422446 
H       4.840499     2.354796    -3.148486 
H       2.585449    -0.484359    -5.440717 
H       3.797944     1.671065    -5.293042 
C      -0.077972    -0.772657     2.143768 
O      -0.129172    -0.633828     0.776562 
C       0.187276    -1.909004     0.409873 
N      -0.397180    -2.062951     2.461377 
N      -0.183982    -2.766041     1.392145 
C       0.279492    -2.366221    -1.007101 
O       0.577108    -3.509923    -1.235119 
O       0.072006    -1.525578    -2.022227 
C      -0.128463    -0.105275    -1.904894 
H       0.757058     0.369964    -1.481929 
H      -0.269121     0.228457    -2.932439 
H      -1.013635     0.128489    -1.318635 
74
     -1835.278588     -1834.739693  10.01  10.68
C      -3.360191     0.160535    -0.156255 
C      -3.034386    -0.236274    -1.466678 
C      -3.045943    -1.606907    -1.766029 
C      -3.364320    -2.515289    -0.782598 
C      -3.675401    -2.089142     0.528040 
C      -3.683407    -0.747301     0.861154 
C      -2.925895     1.992799    -1.345019 
C      -2.747051     0.959090    -2.215566 
H      -2.803813    -1.958163    -2.764264 
H      -3.377439    -3.580956    -0.983576 
H      -3.908291    -0.398615     1.860169 
H      -2.792703     3.054809    -1.496858 
N      -3.282303     1.527313    -0.096004 
C      -3.507513     2.345485     1.074968 
H      -3.244295     3.376027     0.833198 
H      -4.557236     2.312166     1.385866 
H      -2.873185     2.021486     1.905511 
O      -3.936524    -3.097414     1.411182 
C      -4.193713    -2.737342     2.754481 
H      -3.345753    -2.193726     3.189749 
H      -5.099492    -2.123863     2.836744 
H      -4.342500    -3.671723     3.296859 
N       0.170077     1.101793    -2.932911 
C       0.775888    -0.042118    -3.425800 
O       0.493782    -0.483967    -4.520582 
C       1.831556    -0.653703    -2.531139 
H       2.338718    -1.409638    -3.132270 
H       1.351811    -1.161125    -1.691770 
C       2.844671     0.388113    -2.039443 
H       3.646727    -0.133482    -1.510820 
H       3.299148     0.843844    -2.925037 
C       2.318535     1.529310    -1.155665 
C       2.274664     1.301017     0.238648 
H       2.465868     2.100769     0.946892 
C      -2.236581     1.048518    -3.626557 
H      -2.941130     1.593563    -4.265354 
H      -2.140755     0.045452    -4.050327 
C      -0.876114     1.753035    -3.732905 
H      -0.537468     1.747696    -4.769564 
H      -0.945719     2.785366    -3.387708 
C       2.789257     2.903118    -1.647822 
H       3.810785     2.757986    -2.022711 
H       2.191294     3.181892    -2.522490 
C       2.817677     4.063576    -0.651396 
H       3.141955     4.972288    -1.167007 
H       1.840736     4.261719    -0.208008 
H       3.535753     3.879505     0.154923 
O       2.546955     0.037085     0.692230 
C       2.977154    -0.025511     2.059651 
H       3.988846     0.396955     2.122970 
H       2.313200     0.574204     2.690195 
C       2.968603    -1.463117     2.504709 
C       2.125549    -1.881569     3.528128 
C       3.804106    -2.391992     1.886382 
C       2.118585    -3.212784     3.932563 
H       1.461908    -1.165022     4.002127 
C       3.797353    -3.720640     2.286007 
H       4.462178    -2.068986     1.084831 
C       2.953202    -4.133652     3.312944 
H       1.456949    -3.530188     4.732432 
H       4.451254    -4.436417     1.797828 
H       2.947109    -5.172336     3.627801 
C       0.347054     1.451654    -1.599577 
O      -0.002409     0.518245    -0.653595 
C       0.133984     1.271245     0.471855 
N       0.025876     2.693626    -1.120593 
N      -0.068175     2.578518     0.163969 
C      -0.184357     0.750491     1.830462 
O      -0.197273     1.506071     2.768402 
O      -0.439311    -0.544567     2.030653 
C      -0.307467    -1.591947     1.049232 
H      -0.999193    -1.454308     0.222695 
H       0.719701    -1.652361     0.692395 
H      -0.561154    -2.500222     1.595056 
74
     -1835.271954     -1834.739397  14.17  10.87
C       0.234296    -4.120855    -4.665400 
C       0.625909    -3.527999    -3.446521 
C       1.969310    -3.583209    -3.071907 
C       2.883295    -4.212848    -3.900757 
C       2.466493    -4.796680    -5.113046 
C       1.139063    -4.759381    -5.511654 
C      -1.580878    -3.242122    -3.701010 
C      -0.560314    -2.970966    -2.843420 
H       2.302481    -3.134698    -2.140108 
H       3.922913    -4.249779    -3.602906 
H       0.849730    -5.217810    -6.450334 
H      -2.631316    -2.995054    -3.619701 
N      -1.118611    -3.937675    -4.807354 
C      -1.914355    -4.398532    -5.919575 
H      -1.570394    -3.954364    -6.859828 
H      -1.871623    -5.489374    -6.008929 
H      -2.953320    -4.105594    -5.759226 
O       3.319105    -5.432204    -5.974008 
C       4.687266    -5.502722    -5.626479 
H       5.177743    -6.041045    -6.438658 
H       5.131358    -4.503729    -5.535752 
H       4.836400    -6.051254    -4.688241 
N       0.303426    -0.230698    -0.368968 
C       1.462844    -0.544623     0.320385 
O       2.284055    -1.311245    -0.140324 
C       1.651212     0.173989     1.637554 
H       2.683081    -0.011294     1.938770 
H       0.998598    -0.262793     2.396841 
C       1.400484     1.681381     1.509120 
H       1.722237     2.163644     2.436290 
H       2.050296     2.061217     0.713758 
C      -0.029213     2.121462     1.190503 
C      -0.947911     2.228358     2.243860 
H      -1.701057     3.011114     2.249527 
C      -0.604551    -2.222381    -1.548446 
H      -0.074851    -2.792139    -0.776776 
H      -1.638153    -2.097361    -1.209019 
C       0.062390    -0.848008    -1.677911 
H       1.031661    -0.942628    -2.165437 
H      -0.560129    -0.169816    -2.262859 
C      -0.133954     3.209779     0.130375 
H       0.303824     2.845845    -0.805624 
H      -1.187464     3.415697    -0.077437 
C       0.560342     4.503478     0.570714 
H       1.634069     4.361831     0.725389 
H       0.435946     5.280391    -0.190035 
H       0.135471     4.876948     1.508456 
O      -0.582207     1.732518     3.470267 
C      -1.191460     2.385336     4.595631 
H      -2.276753     2.256940     4.563001 
H      -0.803467     1.847328     5.462867 
C      -0.844968     3.854052     4.662966 
C       0.480814     4.262590     4.800632 
C      -1.843955     4.816776     4.565959 
C       0.801197     5.611789     4.838879 
H       1.265671     3.515458     4.877542 
C      -1.527016     6.171105     4.608308 
H      -2.878046     4.502542     4.450409 
C      -0.204362     6.570140     4.743847 
H       1.836614     5.919410     4.946224 
H      -2.315613     6.913194     4.533552 
H       0.045617     7.625848     4.776691 
C      -0.737919     0.411593     0.281441 
O      -1.246148    -0.180949     1.418509 
C      -2.302616     0.654574     1.647700 
N      -1.761337     1.009491    -0.389290 
N      -2.709446     1.198662     0.479259 
C      -3.227127     0.551413     2.813494 
O      -4.063716     1.399953     2.972461 
O      -3.095715    -0.423008     3.721333 
C      -2.164888    -1.510228     3.623338 
H      -2.290130    -2.059256     2.688406 
H      -1.138135    -1.153770     3.718378 
H      -2.412085    -2.157752     4.464311 
74
     -1835.275339     -1834.739230  12.05  10.97
C      -2.048386    -1.397751    -3.568641 
C      -1.658214    -0.046650    -3.555133 
C      -2.652540     0.934992    -3.427203 
C      -3.968027     0.554855    -3.302199 
C      -4.334333    -0.810043    -3.311068 
C      -3.384990    -1.807503    -3.446576 
C       0.179698    -1.313820    -3.727206 
C      -0.222367    -0.014458    -3.647299 
H      -2.391549     1.988733    -3.410703 
H      -4.758661     1.289028    -3.194689 
H      -3.646953    -2.857494    -3.456358 
H       1.177229    -1.726059    -3.792817 
N      -0.915769    -2.160962    -3.681442 
C      -0.871453    -3.602431    -3.762487 
H       0.170187    -3.919051    -3.829399 
H      -1.315570    -4.060788    -2.872641 
H      -1.402025    -3.964667    -4.649474 
O      -5.673120    -1.040824    -3.176643 
C      -6.118296    -2.381855    -3.212288 
H      -7.202975    -2.345703    -3.105554 
H      -5.864631    -2.861916    -4.165694 
H      -5.693971    -2.967382    -2.386942 
N       2.075084     0.418993    -1.723411 
C       2.760092    -0.768440    -1.540095 
O       3.240668    -1.368282    -2.483780 
C       2.991449    -1.292097    -0.137036 
H       4.021645    -1.009765     0.110425 
H       2.994078    -2.379895    -0.232852 
C       2.032336    -0.857918     0.959367 
H       1.031209    -1.239588     0.746347 
H       2.342811    -1.324441     1.900913 
C       1.960955     0.647353     1.150910 
C       0.893981     1.111970     1.927186 
H       0.956814     2.063456     2.448046 
C       0.622575     1.224845    -3.613497 
H       0.110260     1.986745    -3.015844 
H       0.721859     1.654767    -4.618216 
C       2.038132     1.021638    -3.072439 
H       2.615337     0.358690    -3.713578 
H       2.545552     1.989166    -3.023672 
C       3.265501     1.419248     1.291479 
H       3.866277     1.318616     0.381431 
H       3.027634     2.483771     1.374422 
C       4.077841     0.970379     2.509320 
H       4.388724    -0.076162     2.428886 
H       4.983439     1.576245     2.611469 
H       3.495023     1.074108     3.430376 
O      -0.007793     0.212808     2.434634 
C      -0.633644     0.626773     3.656852 
H      -1.131193     1.591127     3.513541 
H      -1.397469    -0.130815     3.845393 
C       0.354795     0.700647     4.798232 
C       0.530601     1.882458     5.508651 
C       1.114658    -0.416941     5.142120 
C       1.448893     1.950885     6.552633 
H      -0.053943     2.759502     5.244283 
C       2.033766    -0.351572     6.178792 
H       0.983383    -1.342687     4.589200 
C       2.202104     0.834719     6.888378 
H       1.574766     2.879204     7.100812 
H       2.620009    -1.227589     6.438017 
H       2.919293     0.885381     7.701472 
C       1.362472     1.110288    -0.739413 
O       0.046239     0.748858    -0.530558 
C      -0.362990     1.799667     0.228517 
N       1.459023     2.466120    -0.661495 
N       0.407326     2.876521    -0.010987 
C      -1.721773     1.926131     0.834199 
O      -1.979610     2.905596     1.483182 
O      -2.631227     0.957561     0.708508 
C      -2.417207    -0.297574     0.036648 
H      -3.383642    -0.798676     0.086809 
H      -2.136883    -0.154752    -1.003335 
H      -1.662516    -0.885291     0.561213 
74
     -1835.273654     -1834.739086  13.10  11.06
C       1.401699    -5.119363     2.493732 
C       0.798500    -3.976630     1.940988 
C      -0.339364    -4.138553     1.134405 
C      -0.826545    -5.405020     0.908461 
C      -0.202685    -6.539053     1.474602 
C       0.918766    -6.419041     2.275242 
C       2.565238    -3.331846     3.155742 
C       1.561278    -2.836237     2.381321 
H      -0.832109    -3.278217     0.690867 
H      -1.702684    -5.569486     0.291182 
H       1.409087    -7.276508     2.716893 
H       3.357017    -2.806726     3.673330 
N       2.482022    -4.712349     3.234927 
C       3.372615    -5.576313     3.972475 
H       4.135533    -4.966422     4.458994 
H       2.831914    -6.133898     4.744839 
H       3.872574    -6.288109     3.306792 
O      -0.796855    -7.729549     1.163653 
C      -0.226743    -8.908235     1.693767 
H      -0.241629    -8.902297     2.791015 
H      -0.840430    -9.733763     1.331350 
H       0.804928    -9.045882     1.346032 
N       1.270683     0.208841     0.128167 
C       2.182176     1.245922     0.223330 
O       3.305123     1.068179     0.646154 
C       1.683077     2.587559    -0.260846 
H       2.555500     3.240684    -0.308184 
H       1.012026     2.991831     0.499119 
C       1.021145     2.510991    -1.645615 
H       0.795413     3.522673    -1.983139 
H       1.785193     2.133935    -2.332104 
C      -0.200176     1.597239    -1.812419 
C      -1.530839     2.074775    -1.734532 
H      -2.270257     1.545379    -2.327190 
C       1.306823    -1.408067     2.011630 
H       1.893224    -0.736721     2.646139 
H       0.249441    -1.165489     2.172526 
C       1.664099    -1.142362     0.546343 
H       2.740090    -1.222669     0.397605 
H       1.162693    -1.856961    -0.106609 
C      -0.020652     0.570363    -2.935097 
H       0.877327    -0.024149    -2.730895 
H      -0.861352    -0.127731    -2.926926 
C       0.084892     1.221185    -4.317335 
H      -0.814882     1.802822    -4.543344 
H       0.943636     1.894504    -4.394419 
H       0.193120     0.456376    -5.092538 
O      -2.014412     3.329136    -1.510622 
C      -1.392299     4.286151    -0.656122 
H      -2.212953     4.725581    -0.081378 
H      -0.735618     3.798408     0.061539 
C      -0.673106     5.373227    -1.424262 
C       0.347470     6.088719    -0.802444 
C      -1.034191     5.700871    -2.727222 
C       0.998368     7.117968    -1.471402 
H       0.638963     5.838360     0.214339 
C      -0.382485     6.729579    -3.398298 
H      -1.828066     5.148243    -3.217197 
C       0.634059     7.441750    -2.773280 
H       1.790991     7.668312    -0.974108 
H      -0.673054     6.976292    -4.414859 
H       1.140647     8.245315    -3.298118 
C      -0.066176     0.453600    -0.156789 
O      -0.776884     1.300654     0.672063 
C      -2.026290     1.089479     0.167745 
N      -0.890518    -0.575716    -0.529754 
N      -2.105009    -0.141825    -0.374111 
C      -3.156098     1.849407     0.745334 
O      -3.019708     2.728710     1.557681 
O      -4.316409     1.456912     0.221910 
C      -5.476095     2.147971     0.708895 
H      -5.567706     2.020775     1.789693 
H      -5.410209     3.212671     0.474365 
H      -6.322868     1.693832     0.195965 
74
     -1835.272360     -1834.738730  13.92  11.29
C      -4.801073    -3.222476     0.416490 
C      -3.633802    -2.450586     0.546143 
C      -3.283596    -1.966153     1.816697 
C      -4.090887    -2.258226     2.891532 
C      -5.260209    -3.035769     2.736530 
C      -5.636515    -3.531362     1.501292 
C      -3.861985    -3.040582    -1.601638 
C      -3.042911    -2.347353    -0.763935 
H      -2.388176    -1.366862     1.955231 
H      -3.853225    -1.901769     3.887600 
H      -6.528407    -4.128464     1.364500 
H      -3.775811    -3.203740    -2.667715 
N      -4.930445    -3.577540    -0.902400 
C      -5.995047    -4.377088    -1.460098 
H      -6.017687    -5.374690    -1.008357 
H      -6.968462    -3.898112    -1.309181 
H      -5.829487    -4.488860    -2.532853 
O      -5.961605    -3.244039     3.890494 
C      -7.144232    -4.012618     3.812599 
H      -6.937831    -5.031131     3.460141 
H      -7.545753    -4.058254     4.825586 
H      -7.884273    -3.543448     3.151979 
N      -0.793222     0.680950    -1.214972 
C      -0.370690     1.059466    -2.479860 
O      -1.007186     0.773569    -3.471612 
C       0.889298     1.896820    -2.512325 
H       0.962743     2.295104    -3.525134 
H       1.762925     1.264907    -2.339229 
C       0.838602     3.045705    -1.496916 
H       1.688297     3.707862    -1.684003 
H      -0.065862     3.628034    -1.700844 
C       0.817606     2.662556    -0.014485 
C       2.044521     2.410365     0.624885 
H       2.208015     2.697691     1.661364 
C      -1.800935    -1.588113    -1.112836 
H      -1.455941    -1.853507    -2.116539 
H      -0.998318    -1.851250    -0.413144 
C      -2.039325    -0.076082    -1.054414 
H      -2.709650     0.233763    -1.855395 
H      -2.479802     0.206125    -0.097355 
C      -0.205023     3.424104     0.819934 
H      -1.208990     3.212344     0.436102 
H      -0.182568     3.053338     1.848388 
C       0.046845     4.935525     0.818478 
H      -0.685197     5.443617     1.453418 
H       1.044189     5.167304     1.207070 
H      -0.029336     5.366861    -0.183848 
O       3.162720     2.293177    -0.152007 
C       4.405780     2.594526     0.501149 
H       4.503349     3.686314     0.561144 
H       4.403206     2.188640     1.516900 
C       5.529416     1.994107    -0.300778 
C       6.388036     1.064199     0.274197 
C       5.710807     2.357090    -1.634323 
C       7.419496     0.504563    -0.472975 
H       6.240177     0.764312     1.307028 
C       6.736940     1.798240    -2.382606 
H       5.038989     3.079659    -2.088298 
C       7.595583     0.869554    -1.801187 
H       8.084057    -0.221532    -0.015314 
H       6.869663     2.086931    -3.420601 
H       8.399798     0.432241    -2.384446 
C       0.075818     0.768421    -0.139174 
O       1.286329     0.113946    -0.239528 
C       1.745816     0.304703     1.032739 
N      -0.356976     0.674841     1.152632 
N       0.696055     0.439698     1.875117 
C       3.065448    -0.184529     1.528083 
O       3.401075     0.076581     2.653152 
O       3.891419    -0.876392     0.739142 
C       3.712258    -1.089471    -0.669640 
H       4.632838    -1.578677    -0.986382 
H       2.856084    -1.737533    -0.864525 
H       3.606240    -0.141540    -1.196865 
74
     -1835.272370     -1834.738350  13.91  11.53
C      -1.046326    -5.576341    -2.190612 
C      -0.358373    -4.360965    -1.989992 
C       0.968525    -4.261325    -2.411435 
C       1.577622    -5.351184    -3.011425 
C       0.868505    -6.553612    -3.199688 
C      -0.450721    -6.682977    -2.793098 
C      -2.441069    -4.140480    -1.195763 
C      -1.277818    -3.451935    -1.349780 
H       1.526328    -3.339886    -2.269262 
H       2.607031    -5.264983    -3.333558 
H      -0.969485    -7.621418    -2.951852 
H      -3.377612    -3.819217    -0.759008 
N      -2.319169    -5.426001    -1.699270 
C      -3.347792    -6.438153    -1.713965 
H      -3.586515    -6.741842    -2.738924 
H      -3.036890    -7.322783    -1.147881 
H      -4.251239    -6.034014    -1.254144 
O       1.412800    -7.664069    -3.784977 
C       2.755974    -7.597815    -4.219989 
H       3.440028    -7.401523    -3.385148 
H       2.983267    -8.575126    -4.647996 
H       2.892549    -6.826816    -4.988304 
N       0.580962    -0.702438     0.482722 
C       1.699980    -0.318935    -0.233928 
O       2.258124    -1.086555    -0.992018 
C       2.124809     1.119672    -0.052205 
H       2.962107     1.280560    -0.732250 
H       2.475941     1.290638     0.967317 
C       0.974581     2.075618    -0.397601 
H       1.369377     3.094656    -0.424648 
H       0.641118     1.839047    -1.413603 
C      -0.251923     2.039053     0.515896 
C      -0.243278     2.822380     1.679266 
H      -1.150530     3.308495     2.028396 
C      -0.962551    -2.051256    -0.928333 
H      -1.874780    -1.511040    -0.659335 
H      -0.497189    -1.513399    -1.762527 
C       0.006786    -2.033892     0.259202 
H      -0.500742    -2.341150     1.174607 
H       0.839698    -2.711895     0.075768 
C      -1.584867     1.988487    -0.218846 
H      -1.612987     1.096398    -0.854192 
H      -2.398257     1.884376     0.504117 
C      -1.815804     3.244357    -1.066951 
H      -1.793090     4.145675    -0.445693 
H      -1.057208     3.358998    -1.846661 
H      -2.792106     3.197512    -1.559434 
O       0.938364     3.415956     2.055655 
C       0.781687     4.691028     2.695551 
H       0.118802     4.595893     3.561320 
H       1.781916     4.946446     3.051634 
C       0.258812     5.738850     1.740283 
C       0.991473     6.079132     0.603720 
C      -0.963522     6.361802     1.966848 
C       0.509249     7.023870    -0.290054 
H       1.947751     5.597173     0.421488 
C      -1.450525     7.311731     1.073670 
H      -1.543047     6.101334     2.848288 
C      -0.715471     7.643525    -0.055895 
H       1.088892     7.281038    -1.171021 
H      -2.405706     7.791223     1.263109 
H      -1.092832     8.384244    -0.753741 
C      -0.025573     0.166371     1.372454 
O       0.706836     0.581122     2.461904 
C      -0.269019     1.258410     3.137564 
N      -1.325367     0.021145     1.752407 
N      -1.477576     0.736199     2.826046 
C      -0.053757     1.993603     4.419380 
O      -0.960817     2.630686     4.883767 
O       1.140863     2.010476     5.020264 
C       2.289176     1.272882     4.577274 
H       3.039806     1.449251     5.347451 
H       2.075563     0.204759     4.510266 
H       2.646232     1.648952     3.617376 
74
     -1835.271924     -1834.738274  14.19  11.57
C       3.461995    -5.123478    -0.536270 
C       2.440666    -4.227888    -0.917962 
C       2.115023    -4.115107    -2.270358 
C       2.799101    -4.877366    -3.203040 
C       3.815721    -5.763318    -2.795846 
C       4.160610    -5.899163    -1.459825 
C       2.671748    -4.137127     1.307520 
C       1.946386    -3.606108     0.286359 
H       1.332958    -3.434207    -2.594232 
H       2.540518    -4.782595    -4.249497 
H       4.947271    -6.589804    -1.178376 
H       2.612795    -3.937041     2.369366 
N       3.592216    -5.056854     0.828207 
C       4.525678    -5.821816     1.619169 
H       4.346686    -6.896872     1.509291 
H       5.558849    -5.605250     1.326905 
H       4.401780    -5.556850     2.670573 
O       4.527520    -6.542625    -3.666773 
C       4.225473    -6.449211    -5.044250 
H       4.899907    -7.142304    -5.549013 
H       3.188159    -6.741254    -5.249525 
H       4.397874    -5.435360    -5.426144 
N       0.282752    -0.258166    -0.408613 
C      -0.475645    -0.378583    -1.555485 
O      -0.218101    -1.244566    -2.370380 
C      -1.655862     0.542668    -1.782600 
H      -2.547764    -0.064549    -1.591843 
H      -1.657053     0.747283    -2.855535 
C      -1.700006     1.841442    -0.993558 
H      -0.854511     2.475361    -1.271345 
H      -2.602220     2.394706    -1.276768 
C      -1.700214     1.639721     0.511954 
C      -1.460824     2.773714     1.289315 
H      -1.833822     2.842296     2.307390 
C       0.874542    -2.563124     0.348487 
H       0.530322    -2.413964     1.375068 
H       0.013376    -2.887341    -0.245084 
C       1.376524    -1.229785    -0.216230 
H       2.108214    -0.782423     0.459718 
H       1.851860    -1.383113    -1.184365 
C      -2.677456     0.633284     1.101842 
H      -2.471786    -0.370526     0.715504 
H      -2.506860     0.577887     2.180799 
C      -4.134624     1.016257     0.826098 
H      -4.814856     0.301830     1.299934 
H      -4.360240     2.012682     1.219876 
H      -4.358345     1.024229    -0.245337 
O      -1.187678     3.969440     0.671982 
C      -1.722040     5.111372     1.355753 
H      -1.339789     5.142543     2.381307 
H      -1.323926     5.971240     0.812794 
C      -3.233736     5.105811     1.344283 
C      -3.923612     5.081090     0.132512 
C      -3.955005     5.093364     2.532572 
C      -5.309865     5.041753     0.111601 
H      -3.365419     5.088415    -0.799276 
C      -5.346498     5.056708     2.516040 
H      -3.425268     5.106778     3.481178 
C      -6.025467     5.029447     1.306090 
H      -5.836479     5.022416    -0.837375 
H      -5.897452     5.047908     3.451212 
H      -7.110341     5.000342     1.290241 
C       0.103836     0.668491     0.618114 
O       0.861853     1.822217     0.561278 
C       0.636847     2.304555     1.813318 
N       0.032801     0.261225     1.913148 
N       0.313473     1.302038     2.647458 
C       1.117751     3.625873     2.317102 
O       0.765614     3.996346     3.404702 
O       1.885673     4.418742     1.563760 
C       2.345879     4.096608     0.243483 
H       2.931189     3.175342     0.238560 
H       1.509201     4.017901    -0.451936 
H       2.982124     4.936409    -0.035023 
74
     -1835.274451     -1834.738256  12.60  11.59
C       3.780522     0.061511     1.689854 
C       3.479082    -0.913221     0.722662 
C       3.968808    -0.731656    -0.579535 
C       4.713558     0.385136    -0.875682 
C       4.999604     1.351771     0.114056 
C       4.541668     1.206773     1.411213 
C       2.547177    -1.527426     2.663690 
C       2.675512    -1.923373     1.365168 
H       3.757664    -1.460876    -1.355630 
H       5.105360     0.553242    -1.872674 
H       4.751921     1.934708     2.183784 
H       2.009088    -1.990518     3.478069 
N       3.204201    -0.326720     2.871324 
C       3.288908     0.380851     4.127655 
H       4.324729     0.442943     4.478331 
H       2.885570     1.394513     4.034639 
H       2.702022    -0.155949     4.874062 
O       5.747616     2.408165    -0.321654 
C       6.076347     3.413116     0.615868 
H       6.672628     3.008834     1.443510 
H       6.668004     4.152727     0.075279 
H       5.176443     3.895026     1.018373 
N      -0.277543    -2.609206     1.193264 
C      -0.697301    -1.962077     2.345921 
O      -0.360508    -2.334145     3.451428 
C      -1.536174    -0.724638     2.116808 
H      -1.580655    -0.210756     3.078052 
H      -2.555275    -0.998129     1.837174 
C      -0.901068     0.184252     1.056590 
H      -1.399257     1.157468     1.088597 
H       0.143840     0.351020     1.342949 
C      -0.909119    -0.330574    -0.383195 
C      -2.088891    -0.220179    -1.135785 
H      -2.052635     0.002779    -2.198505 
C       2.117364    -3.149491     0.698435 
H       2.822046    -3.986659     0.780346 
H       2.001673    -2.951258    -0.370695 
C       0.771762    -3.634911     1.247926 
H       0.434456    -4.499956     0.671327 
H       0.851982    -3.926034     2.295122 
C       0.376347    -0.066356    -1.153514 
H       1.201994    -0.588610    -0.666505 
H       0.288567    -0.480412    -2.162049 
C       0.703752     1.427689    -1.238731 
H      -0.110113     1.986803    -1.712564 
H       0.878747     1.862345    -0.250817 
H       1.612881     1.580211    -1.827246 
O      -3.233488     0.153211    -0.478660 
C      -4.230784     0.792321    -1.290234 
H      -4.563098     0.116913    -2.082536 
H      -5.065255     0.962167    -0.606754 
C      -3.747738     2.091105    -1.891534 
C      -3.348862     3.146458    -1.072505 
C      -3.689924     2.245639    -3.272602 
C      -2.900637     4.336749    -1.626339 
H      -3.392015     3.031612     0.006853 
C      -3.244105     3.439525    -3.831730 
H      -3.992776     1.423087    -3.915172 
C      -2.849096     4.486167    -3.009794 
H      -2.593717     5.152806    -0.979676 
H      -3.205254     3.549170    -4.910898 
H      -2.500924     5.418185    -3.443597 
C      -0.918550    -2.345820    -0.006937 
O      -2.286150    -2.521206    -0.034993 
C      -2.505488    -2.323165    -1.369023 
N      -0.412401    -2.725897    -1.215544 
N      -1.393706    -2.660285    -2.062546 
C      -3.848274    -2.350738    -2.015863 
O      -3.940914    -2.082439    -3.184081 
O      -4.956077    -2.594697    -1.305751 
C      -4.973412    -2.972506     0.078367 
H      -6.020096    -3.192607     0.287615 
H      -4.367871    -3.862762     0.256006 
H      -4.632704    -2.151736     0.711229 
74
     -1835.273207     -1834.738015  13.38  11.74
C       4.768196     3.170984    -1.517229 
C       3.652441     2.319911    -1.368178 
C       3.688981     1.054489    -1.956408 
C       4.813245     0.663576    -2.665607 
C       5.914330     1.532005    -2.797810 
C       5.907046     2.795454    -2.227182 
C       3.228161     4.244906    -0.304851 
C       2.673893     3.034780    -0.585589 
H       2.845658     0.375906    -1.862214 
H       4.834058    -0.319028    -3.118681 
H       6.769493     3.441055    -2.346929 
H       2.820043     5.071650     0.261603 
N       4.493868     4.344644    -0.860810 
C       5.376003     5.483718    -0.777012 
H       4.891783     6.266024    -0.190079 
H       6.318210     5.216039    -0.286852 
H       5.597868     5.884061    -1.772149 
O       7.051987     1.205562    -3.484087 
C       7.124345    -0.070361    -4.087890 
H       6.340096    -0.203109    -4.843386 
H       8.100714    -0.120372    -4.571821 
H       7.049126    -0.872602    -3.343444 
N       0.250859     0.777074     1.280840 
C      -0.603708     1.330084     2.216713 
O      -0.331500     2.366173     2.786637 
C      -1.884446     0.564717     2.449144 
H      -2.474332     1.152147     3.153780 
H      -1.636940    -0.383820     2.929283 
C      -2.681563     0.366119     1.150014 
H      -3.641886    -0.088491     1.393486 
H      -2.914887     1.366887     0.774098 
C      -1.998098    -0.384418     0.000500 
C      -2.226578    -1.758640    -0.253236 
H      -2.162820    -2.078679    -1.288555 
C       1.345357     2.501788    -0.150710 
H       0.843234     2.033050    -1.002999 
H       0.700865     3.308531     0.210592 
C       1.511067     1.460559     0.960302 
H       2.233888     0.699229     0.665229 
H       1.861191     1.939890     1.874637 
C      -1.937436     0.440671    -1.287861 
H      -1.440856     1.393440    -1.073561 
H      -1.317909    -0.075215    -2.025479 
C      -3.323935     0.702006    -1.883934 
H      -3.828076    -0.239815    -2.123694 
H      -3.970102     1.259586    -1.199608 
H      -3.239959     1.282433    -2.807851 
O      -3.018565    -2.656757     0.400824 
C      -3.219035    -2.663610     1.812971 
H      -3.115855    -3.711836     2.109056 
H      -2.427684    -2.116171     2.321471 
C      -4.589559    -2.158800     2.207721 
C      -5.664506    -2.212449     1.326230 
C      -4.790568    -1.663568     3.494064 
C      -6.922765    -1.776978     1.726960 
H      -5.514643    -2.595735     0.323059 
C      -6.047720    -1.229553     3.896127 
H      -3.956047    -1.614083     4.188815 
C      -7.119050    -1.285836     3.012053 
H      -7.754184    -1.823863     1.030362 
H      -6.190342    -0.847413     4.902141 
H      -8.102166    -0.947708     3.323434 
C      -0.058825    -0.400991     0.616552 
O      -0.148219    -1.568498     1.346472 
C      -0.239105    -2.456363     0.315607 
N       0.537543    -0.685665    -0.582822 
N       0.370863    -1.958261    -0.779372 
C      -0.381875    -3.894500     0.636458 
O      -0.529336    -4.314736     1.755539 
O      -0.362877    -4.635761    -0.469782 
C      -0.510461    -6.048846    -0.266211 
H      -0.453898    -6.493790    -1.258741 
H       0.292235    -6.426028     0.370983 
H      -1.474337    -6.266794     0.198866 
74
     -1835.273427     -1834.737511  13.25  12.05
C      -3.670733     1.940826    -0.495848 
C      -3.287956     1.452244     0.772394 
C      -2.812548     2.363190     1.715761 
C      -2.717925     3.706855     1.395949 
C      -3.103352     4.164373     0.120697 
C      -3.585396     3.288003    -0.839248 
C      -3.997489    -0.270750    -0.470423 
C      -3.496573     0.023603     0.762160 
H      -2.506997     2.027314     2.701975 
H      -2.348167     4.400352     2.140040 
H      -3.876510     3.668643    -1.811523 
H      -4.274499    -1.226116    -0.892501 
N      -4.101221     0.874531    -1.242237 
C      -4.605760     0.942542    -2.593612 
H      -4.836104    -0.067282    -2.935850 
H      -5.518845     1.545375    -2.644742 
H      -3.859645     1.375602    -3.267795 
O      -3.033811     5.475214    -0.262040 
C      -2.552351     6.418534     0.674308 
H      -1.520776     6.196394     0.974287 
H      -2.578968     7.385464     0.170168 
H      -3.188371     6.459443     1.567112 
N      -1.596792    -2.341878     0.630056 
C      -1.719168    -2.623656    -0.722354 
O      -2.754215    -3.040005    -1.201486 
C      -0.499898    -2.301683    -1.557207 
H      -0.827422    -2.349930    -2.596647 
H       0.273679    -3.058629    -1.415419 
C       0.036040    -0.901297    -1.232861 
H       0.756789    -0.616834    -2.004830 
H      -0.802331    -0.198740    -1.304540 
C       0.680144    -0.713872     0.141209 
C       1.997823    -1.156195     0.337571 
H       2.683642    -0.599394     0.970028 
C      -3.206358    -0.907613     1.905528 
H      -4.086214    -1.007507     2.553672 
H      -2.417795    -0.472860     2.525978 
C      -2.777777    -2.322649     1.502502 
H      -2.549039    -2.902316     2.400425 
H      -3.565974    -2.834652     0.950781 
C       0.329203     0.598194     0.827626 
H      -0.746298     0.632567     1.010526 
H       0.819538     0.640934     1.804383 
C       0.739461     1.815638    -0.006622 
H       1.813274     1.807198    -0.221671 
H       0.206305     1.853528    -0.960389 
H       0.505487     2.737383     0.533731 
O       2.569486    -1.919148    -0.648625 
C       4.003313    -1.874273    -0.710757 
H       4.433950    -2.246217     0.222286 
H       4.259581    -2.569906    -1.512472 
C       4.530474    -0.489319    -1.003638 
C       4.187072     0.164521    -2.186117 
C       5.360977     0.152327    -0.090874 
C       4.667413     1.438710    -2.450968 
H       3.538997    -0.331756    -2.902898 
C       5.847644     1.429120    -0.354865 
H       5.625362    -0.350346     0.835742 
C       5.501704     2.073722    -1.534645 
H       4.395080     1.938455    -3.375313 
H       6.496645     1.919062     0.364084 
H       5.879910     3.069599    -1.742619 
C      -0.335754    -2.162461     1.176500 
O       0.575506    -3.180596     0.989708 
C       1.591620    -2.712198     1.774071 
N      -0.135099    -1.629221     2.416153 
N       1.080069    -1.933987     2.755582 
C       2.907381    -3.391915     1.944315 
O       3.764612    -2.853782     2.593068 
O       3.175459    -4.549766     1.329111 
C       2.225703    -5.310997     0.569309 
H       1.340005    -5.547746     1.161151 
H       1.940924    -4.782156    -0.341451 
H       2.753862    -6.229813     0.315139 
74
     -1835.272020     -1834.737358  14.13  12.15
C       0.998704    -3.509874     3.316566 
C       2.103182    -3.070094     2.567218 
C       2.977617    -4.032142     2.041710 
C       2.734893    -5.366219     2.269790 
C       1.617448    -5.782343     3.026775 
C       0.731614    -4.865008     3.562869 
C       0.944435    -1.279586     3.241360 
C       2.051477    -1.631853     2.530250 
H       3.842239    -3.734857     1.456211 
H       3.391463    -6.133979     1.875895 
H      -0.130332    -5.165357     4.144184 
H       0.550697    -0.297047     3.461867 
N       0.295185    -2.403980     3.721577 
C      -0.903219    -2.415374     4.525827 
H      -1.232299    -1.387510     4.686410 
H      -1.708574    -2.961946     4.023918 
H      -0.718745    -2.875265     5.502528 
O       1.500679    -7.135609     3.172747 
C       0.402848    -7.624758     3.915144 
H      -0.551277    -7.338317     3.454931 
H       0.491330    -8.711772     3.910649 
H       0.427842    -7.264908     4.951529 
N       1.544081    -0.255125    -0.159940 
C       0.489110    -1.117986    -0.428877 
O       0.621367    -2.320558    -0.393027 
C      -0.833742    -0.439794    -0.715148 
H      -1.587038    -1.228516    -0.693431 
H      -0.827762    -0.012744    -1.720268 
C      -1.162939     0.633764     0.328948 
H      -2.205589     0.936979     0.196181 
H      -1.093105     0.167299     1.317334 
C      -0.278291     1.881723     0.337391 
C      -0.537315     2.896668    -0.600818 
H      -0.431652     3.946600    -0.335759 
C       3.005429    -0.730469     1.806940 
H       4.037669    -1.019267     2.038736 
H       2.884132     0.303867     2.141215 
C       2.840950    -0.781145     0.282479 
H       3.622881    -0.191075    -0.200153 
H       2.896667    -1.809416    -0.075963 
C       0.108866     2.381313     1.723146 
H       0.713884     1.620769     2.225317 
H       0.747791     3.263616     1.624984 
C      -1.112976     2.730992     2.579215 
H      -1.747766     1.860101     2.768373 
H      -0.799590     3.131042     3.548376 
H      -1.729754     3.490827     2.088107 
O      -1.401456     2.615755    -1.622627 
C      -2.061386     3.746491    -2.209411 
H      -2.877973     4.050386    -1.541347 
H      -1.363058     4.582966    -2.304763 
C      -2.589851     3.346666    -3.561508 
C      -3.435812     2.245834    -3.685431 
C      -2.233328     4.062073    -4.698685 
C      -3.919875     1.866733    -4.929312 
H      -3.710715     1.680365    -2.799977 
C      -2.720024     3.686262    -5.946625 
H      -1.559099     4.908434    -4.611019 
C      -3.563086     2.589069    -6.064488 
H      -4.577622     1.007452    -5.015410 
H      -2.435271     4.251170    -6.828744 
H      -3.942108     2.295089    -7.038176 
C       1.431965     1.089969    -0.467797 
O       1.171066     1.414177    -1.782061 
C       1.300565     2.771174    -1.705245 
N       2.276133     2.031232     0.047698 
N       2.151089     3.085117    -0.697979 
C       1.112783     3.698147    -2.860035 
O       1.196150     4.883667    -2.675425 
O       0.812524     3.241195    -4.077989 
C       0.544997     1.869408    -4.409312 
H       1.435509     1.252131    -4.278858 
H      -0.283433     1.479234    -3.818586 
H       0.258808     1.898136    -5.460199 
74
     -1835.274132     -1834.737121  12.80  12.30
C      -1.831273    -3.276666    -0.039495 
C      -0.657571    -3.218139     0.743510 
C       0.543796    -3.639472     0.173256 
C       0.567196    -4.091187    -1.134788 
C      -0.617900    -4.131946    -1.895740 
C      -1.830989    -3.729206    -1.357487 
C      -2.361858    -2.418597     1.955907 
C      -1.022892    -2.657507     2.018940 
H       1.468771    -3.603207     0.740236 
H       1.508664    -4.406622    -1.565163 
H      -2.725833    -3.771467    -1.967890 
H      -3.019048    -1.976604     2.692424 
N      -2.864456    -2.790045     0.719130 
C      -4.244020    -2.699501     0.302365 
H      -4.657065    -3.690863     0.087583 
H      -4.826406    -2.247470     1.106456 
H      -4.343722    -2.074832    -0.591364 
O      -0.663624    -4.554329    -3.194440 
C       0.538553    -4.994452    -3.795956 
H       0.276443    -5.287935    -4.813237 
H       1.286444    -4.192932    -3.832036 
H       0.958379    -5.858838    -3.267252 
N      -0.574812     0.096610     3.143507 
C      -1.783173     0.769404     3.166784 
O      -2.740829     0.324014     3.770648 
C      -1.890646     2.132108     2.511261 
H      -1.820086     2.850968     3.336286 
H      -2.917357     2.197759     2.145127 
C      -0.908472     2.480660     1.403866 
H      -1.084780     1.834990     0.540664 
H      -1.107815     3.503205     1.065370 
C       0.549104     2.363077     1.819007 
C       1.479124     2.399483     0.768346 
H       2.510601     2.693645     0.950033 
C      -0.075616    -2.368232     3.145906 
H       0.936336    -2.266610     2.740615 
H      -0.030884    -3.211122     3.846771 
C      -0.420859    -1.122360     3.963491 
H      -1.362263    -1.246095     4.494723 
H       0.371952    -0.941272     4.694577 
C       0.986337     3.037299     3.113138 
H       0.466232     2.588326     3.965705 
H       2.047977     2.823689     3.269099 
C       0.753325     4.550284     3.100200 
H       1.278410     5.021633     2.262880 
H      -0.308545     4.800344     3.010340 
H       1.122058     5.004248     4.024885 
O       1.041487     2.529558    -0.516076 
C       2.020378     3.032762    -1.441187 
H       2.168475     4.100782    -1.235353 
H       2.970035     2.509432    -1.296063 
C       1.509486     2.820575    -2.840009 
C       0.392172     3.522078    -3.289999 
C       2.136531     1.917376    -3.691379 
C      -0.091399     3.325867    -4.575556 
H      -0.101641     4.224904    -2.624670 
C       1.655141     1.721363    -4.981878 
H       2.996463     1.356815    -3.338216 
C       0.542389     2.423825    -5.425631 
H      -0.962397     3.876312    -4.917153 
H       2.149962     1.013989    -5.639968 
H       0.166625     2.269104    -6.432138 
C       0.519496     0.423148     2.336942 
O       0.518136    -0.050775     1.038704 
C       1.815332     0.181098     0.708238 
N       1.782673     0.306337     2.839929 
N       2.581274     0.217535     1.815149 
C       2.387523    -0.115312    -0.635817 
O       3.563506     0.058429    -0.827452 
O       1.616811    -0.560696    -1.629235 
C       0.176965    -0.528222    -1.654504 
H      -0.079381    -0.893619    -2.648130 
H      -0.254637    -1.182572    -0.902784 
H      -0.178314     0.495672    -1.533948 
74
     -1835.271260     -1834.736626  14.61  12.61
C      -3.385111     3.073758     1.211644 
C      -2.503243     3.594230     0.240296 
C      -2.167214     4.945611     0.307373 
C      -2.695019     5.741144     1.310519 
C      -3.572823     5.193770     2.266065 
C      -3.929219     3.854541     2.228568 
C      -2.817972     1.418418    -0.175721 
C      -2.151653     2.509817    -0.642249 
H      -1.491598     5.385523    -0.419881 
H      -2.423461     6.787964     1.350147 
H      -4.606051     3.461077     2.978448 
H      -2.832372     0.406874    -0.557633 
N      -3.564997     1.739852     0.945011 
C      -4.409641     0.842236     1.695456 
H      -4.350303    -0.154147     1.254439 
H      -4.084991     0.779550     2.739374 
H      -5.454121     1.170755     1.670496 
O      -4.129546     5.921243     3.281609 
C      -3.799705     7.292300     3.376998 
H      -4.114366     7.844738     2.483001 
H      -4.341138     7.673988     4.243664 
H      -2.723298     7.436950     3.531456 
N       0.753023     1.541733    -0.651905 
C       0.763974     1.514475     0.737270 
O       0.469757     2.485940     1.396752 
C       1.118263     0.176045     1.349226 
H       0.883178     0.260105     2.411177 
H       2.191330    -0.006478     1.258753 
C       0.318928    -0.971194     0.719937 
H       0.454446    -1.865430     1.335356 
H      -0.742704    -0.707168     0.775717 
C       0.639262    -1.319603    -0.733510 
C       1.767292    -2.106089    -1.009239 
H       1.747892    -2.847302    -1.803202 
C      -1.203462     2.582355    -1.800099 
H      -1.449383     3.446480    -2.429081 
H      -1.300816     1.694241    -2.430993 
C       0.262056     2.724569    -1.368568 
H       0.898659     2.873352    -2.243267 
H       0.383092     3.569725    -0.690371 
C      -0.573306    -1.633558    -1.598958 
H      -1.217058    -0.751004    -1.658951 
H      -0.245472    -1.844354    -2.620835 
C      -1.363268    -2.831534    -1.060444 
H      -1.779265    -2.635911    -0.067463 
H      -2.196396    -3.072892    -1.728079 
H      -0.724656    -3.717572    -0.982561 
O       2.651534    -2.339995     0.013812 
C       3.379726    -3.574247    -0.080260 
H       3.995894    -3.580834    -0.983276 
H       4.038815    -3.565846     0.790160 
C       2.469851    -4.779968    -0.065415 
C       1.645387    -5.030021     1.030682 
C       2.429637    -5.643833    -1.154647 
C       0.794094    -6.125336     1.035795 
H       1.673187    -4.359454     1.884917 
C       1.580145    -6.746080    -1.151313 
H       3.064594    -5.448110    -2.014761 
C       0.760922    -6.987597    -0.056985 
H       0.156411    -6.311324     1.894295 
H       1.558789    -7.414256    -2.006443 
H       0.097093    -7.846307    -0.052243 
C       1.341318     0.515797    -1.369775 
O       2.678062     0.270644    -1.137396 
C       2.904117    -0.659597    -2.111880 
N       1.087318     0.305015    -2.692031 
N       2.038581    -0.461812    -3.132896 
C       4.206960    -1.352315    -2.332904 
O       4.264248    -2.245361    -3.135806 
O       5.286802    -1.049471    -1.603946 
C       5.361979     0.040282    -0.673166 
H       4.735890    -0.149440     0.199852 
H       6.410500     0.075528    -0.378080 
H       5.080624     0.984824    -1.142037 
74
     -1835.277431     -1834.736387  10.73  12.76
C       1.259981    -1.947013    -2.336815 
C       2.058427    -0.835958    -2.648154 
C       1.745259    -0.093353    -3.797356 
C       0.651998    -0.438967    -4.550902 
C      -0.171801    -1.525820    -4.180077 
C       0.128317    -2.308430    -3.079867 
C       2.867833    -1.799690    -0.796241 
C       3.073224    -0.741081    -1.629137 
H       2.349666     0.759477    -4.089131 
H       0.373578     0.127499    -5.432270 
H      -0.486765    -3.148980    -2.786906 
H       3.414396    -2.085420     0.092805 
N       1.770242    -2.537048    -1.205117 
C       1.366394    -3.823838    -0.686141 
H       1.635781    -4.632188    -1.375054 
H       1.870013    -3.998958     0.266585 
H       0.286364    -3.847874    -0.516136 
O      -1.254144    -1.723752    -4.980988 
C      -2.231974    -2.649147    -4.539557 
H      -2.595176    -2.388519    -3.538500 
H      -3.053159    -2.585087    -5.254116 
H      -1.839377    -3.673629    -4.535666 
N       2.426394     1.697334    -0.095242 
C       2.881895     1.720372     1.208348 
O       4.068100     1.801471     1.458911 
C       1.814886     1.661251     2.279584 
H       2.327758     1.823283     3.228691 
H       1.388290     0.655264     2.301187 
C       0.705041     2.708636     2.101304 
H       0.018122     2.611518     2.945479 
H       1.157299     3.701300     2.184045 
C      -0.093353     2.664346     0.794827 
C      -1.294130     1.924135     0.792668 
H      -2.135979     2.253244     0.188032 
C       4.066736     0.366345    -1.443610 
H       4.704612     0.468968    -2.329793 
H       4.721308     0.137476    -0.598681 
C       3.398852     1.729637    -1.194721 
H       4.157572     2.471291    -0.940230 
H       2.860039     2.064876    -2.080757 
C      -0.184675     3.998279     0.050880 
H      -0.848206     3.877583    -0.811357 
H      -0.680627     4.700512     0.734871 
C       1.129071     4.628018    -0.416965 
H       1.868462     4.702866     0.385867 
H       1.570943     4.060147    -1.236303 
H       0.936097     5.642064    -0.779826 
O      -1.614808     1.168843     1.887494 
C      -3.012422     0.863843     2.011671 
H      -3.528973     1.761879     2.375042 
H      -3.424360     0.597995     1.033119 
C      -3.176701    -0.279928     2.976020 
C      -3.713923    -1.489991     2.550911 
C      -2.776391    -0.139581     4.303854 
C      -3.852468    -2.548417     3.443298 
H      -4.013269    -1.609400     1.514044 
C      -2.910559    -1.194727     5.194899 
H      -2.354134     0.803563     4.638669 
C      -3.450930    -2.403295     4.764817 
H      -4.273053    -3.489345     3.102687 
H      -2.595172    -1.075832     6.226682 
H      -3.558500    -3.229381     5.460613 
C       1.084474     1.460517    -0.368282 
O       0.555097     0.269620     0.061966 
C      -0.663958     0.326005    -0.542170 
N       0.510355     1.788545    -1.562196 
N      -0.593176     1.113732    -1.640672 
C      -1.627139    -0.802305    -0.457888 
O      -2.636313    -0.795631    -1.111911 
O      -1.374360    -1.845852     0.347967 
C      -0.452696    -1.839938     1.453163 
H       0.576921    -1.909757     1.106585 
H      -0.583483    -0.951302     2.067509 
H      -0.723645    -2.722296     2.033644 
74
     -1835.274764     -1834.736356  12.41  12.78
C       3.774403     1.043821    -0.747664 
C       3.023405     1.241715    -1.928118 
C       2.723563     2.549687    -2.309266 
C       3.168219     3.613528    -1.542749 
C       3.928121     3.386650    -0.379212 
C       4.241511     2.099337     0.031324 
C       3.290278    -0.957124    -1.603967 
C       2.729794    -0.064062    -2.464623 
H       2.128996     2.748303    -3.194803 
H       2.921239     4.620949    -1.851228 
H       4.830629     1.954115     0.929817 
H       3.273072    -2.038320    -1.636811 
N       3.913900    -0.308190    -0.555483 
C       4.631213    -0.943665     0.525991 
H       4.323920    -0.525007     1.488602 
H       4.391627    -2.008686     0.530924 
H       5.714669    -0.824409     0.415134 
O       4.402203     4.388452     0.420196 
C       4.137558     5.725105     0.041283 
H       4.611360     6.352441     0.797409 
H       4.567006     5.955611    -0.941239 
H       3.060564     5.931799     0.023295 
N      -0.120212     0.409397    -2.404600 
C      -0.688760     1.645067    -2.136178 
O      -0.644574     2.560911    -2.931891 
C      -1.419451     1.749035    -0.815016 
H      -1.916748     2.719799    -0.823008 
H      -0.702958     1.747516     0.008166 
C      -2.459522     0.631491    -0.644674 
H      -3.047349     0.845739     0.251552 
H      -3.146853     0.691232    -1.494995 
C      -1.933711    -0.803831    -0.574844 
C      -1.570772    -1.323637     0.679716 
H      -1.731466    -2.375006     0.903447 
C       1.925089    -0.419401    -3.677516 
H       1.879089    -1.508505    -3.742575 
H       2.428697    -0.068652    -4.586182 
C       0.488942     0.153322    -3.716241 
H       0.464050     1.115864    -4.223749 
H      -0.153166    -0.534080    -4.276556 
C      -2.647271    -1.786971    -1.494854 
H      -2.551886    -1.443358    -2.531540 
H      -2.149712    -2.759144    -1.443174 
C      -4.126497    -1.950780    -1.129137 
H      -4.239270    -2.297145    -0.096273 
H      -4.681035    -1.012652    -1.226478 
H      -4.602850    -2.685578    -1.785733 
O      -1.571310    -0.480552     1.765402 
C      -1.806574    -1.136221     3.018271 
H      -1.065279    -1.927075     3.174045 
H      -1.647087    -0.361580     3.771821 
C      -3.205753    -1.701993     3.107194 
C      -3.409757    -3.058011     3.336560 
C      -4.311404    -0.868514     2.942476 
C      -4.698905    -3.578448     3.403985 
H      -2.554353    -3.716167     3.462668 
C      -5.597542    -1.384023     3.004466 
H      -4.159946     0.191904     2.762787 
C      -5.794197    -2.742716     3.236902 
H      -4.844159    -4.638608     3.585820 
H      -6.450896    -0.725959     2.874239 
H      -6.800565    -3.145975     3.288202 
C      -0.079768    -0.559253    -1.415315 
O       0.569200    -0.242525    -0.246826 
C       0.551126    -1.460946     0.360694 
N       0.139675    -1.877056    -1.695320 
N       0.493840    -2.435922    -0.580433 
C       1.176327    -1.711937     1.688668 
O       1.256525    -2.835500     2.108002 
O       1.632606    -0.698071     2.438068 
C       1.458984     0.701134     2.148209 
H       2.008132     0.999213     1.257109 
H       0.401787     0.944215     2.044188 
H       1.870243     1.207892     3.021644 
74
     -1835.272660     -1834.735601  13.73  13.25
C      -3.359336    -2.224921    -1.573933 
C      -2.062670    -2.662506    -1.897987 
C      -1.591543    -2.448999    -3.202241 
C      -2.394782    -1.809321    -4.116699 
C      -3.691900    -1.372460    -3.764850 
C      -4.197005    -1.573762    -2.492484 
C      -2.449534    -3.126533     0.257969 
C      -1.491316    -3.229642    -0.705114 
H      -0.595135    -2.769645    -3.490509 
H      -2.057027    -1.623300    -5.130106 
H      -5.187864    -1.246719    -2.205371 
H      -2.417570    -3.417413     1.298967 
N      -3.585265    -2.521028    -0.255050 
C      -4.806945    -2.266173     0.472160 
H      -5.648120    -2.815753     0.036413 
H      -4.676893    -2.594472     1.504177 
H      -5.046700    -1.197698     0.477012 
O      -4.375519    -0.751621    -4.770298 
C      -5.694083    -0.318778    -4.502322 
H      -6.342301    -1.159681    -4.225766 
H      -5.714784     0.433373    -3.703612 
H      -6.061313     0.129293    -5.426227 
N       0.507523    -2.318388     1.377214 
C      -0.147263    -2.080456     2.572049 
O      -0.802234    -2.950918     3.114364 
C       0.023206    -0.742531     3.262286 
H       0.767351    -0.917460     4.048108 
H      -0.921470    -0.561502     3.779177 
C       0.401726     0.461323     2.413398 
H      -0.402816     0.681682     1.708547 
H       0.487772     1.336486     3.068279 
C       1.710506     0.295135     1.655484 
C       1.932720     1.233425     0.637830 
H       2.931724     1.474968     0.296033 
C      -0.098595    -3.774042    -0.583125 
H       0.550792    -3.247362    -1.290952 
H      -0.066344    -4.829616    -0.881239 
C       0.503283    -3.686979     0.819700 
H      -0.052874    -4.297783     1.527763 
H       1.536984    -4.042570     0.788968 
C       2.900868    -0.190894     2.481722 
H       2.804196     0.276056     3.471417 
H       2.817428    -1.270021     2.646759 
C       4.293170     0.124255     1.933465 
H       5.052478    -0.304840     2.593680 
H       4.442102    -0.295336     0.935780 
H       4.468899     1.204335     1.890770 
O       0.986083     2.202487     0.412941 
C       1.506650     3.414379    -0.150934 
H       2.016799     3.198641    -1.094877 
H       0.622785     4.018795    -0.366185 
C       2.436557     4.129102     0.802661 
C       3.751395     4.400064     0.441222 
C       1.987545     4.513274     2.065594 
C       4.608349     5.050945     1.324141 
H       4.111050     4.100174    -0.539351 
C       2.839136     5.159366     2.949405 
H       0.962370     4.300710     2.355151 
C       4.153671     5.431167     2.579025 
H       5.631847     5.258957     1.028512 
H       2.478826     5.454148     3.929985 
H       4.819883     5.938222     3.269700 
C       1.152780    -1.354670     0.597488 
O       0.390074    -0.654486    -0.313776 
C       1.381060    -0.076925    -1.045288 
N       2.357112    -1.641993     0.028646 
N       2.507072    -0.812684    -0.962023 
C       1.148376     0.864897    -2.180864 
O       2.096444     1.284091    -2.791028 
O      -0.078880     1.283692    -2.495852 
C      -1.282790     0.931708    -1.788769 
H      -1.445238    -0.142516    -1.781719 
H      -1.253947     1.323360    -0.771003 
H      -2.078530     1.415888    -2.354413 
74
     -1835.273666     -1834.735415  13.10  13.37
C       3.178899     1.834813     0.881309 
C       3.451916     0.905877    -0.143759 
C       3.964868    -0.341967     0.208600 
C       4.187061    -0.644912     1.538986 
C       3.903096     0.300885     2.542479 
C       3.403609     1.554863     2.227795 
C       2.592741     2.753898    -1.070606 
C       3.063441     1.515800    -1.389114 
H       4.174953    -1.091040    -0.547467 
H       4.566550    -1.624524     1.797120 
H       3.190351     2.260922     3.022197 
H       2.175312     3.518925    -1.712190 
N       2.656965     2.961569     0.296416 
C       2.276782     4.169209     0.990032 
H       3.142084     4.640268     1.468531 
H       1.852371     4.871448     0.270714 
H       1.522237     3.958853     1.754743 
O       4.076645     0.051040     3.876962 
C       4.560903    -1.225184     4.254955 
H       4.610453    -1.216494     5.344663 
H       3.884857    -2.023917     3.926380 
H       5.563201    -1.407006     3.849336 
N       0.564688     0.680454    -2.557788 
C      -0.374437     1.692980    -2.482801 
O      -0.265148     2.729473    -3.106438 
C      -1.566025     1.400446    -1.597883 
H      -2.301334     2.177054    -1.813865 
H      -1.253429     1.525631    -0.559969 
C      -2.182216     0.018229    -1.867467 
H      -3.117015    -0.063887    -1.313559 
H      -2.466432     0.010025    -2.924444 
C      -1.300804    -1.217723    -1.647828 
C      -1.275852    -1.955234    -0.435484 
H      -1.039447    -3.010621    -0.522638 
C       3.084681     0.846309    -2.731918 
H       3.435466    -0.179008    -2.600469 
H       3.798303     1.332638    -3.406511 
C       1.722000     0.826039    -3.451906 
H       1.548208     1.761131    -3.981762 
H       1.709889     0.009226    -4.179428 
C      -1.256205    -2.131679    -2.876215 
H      -0.904839    -1.550140    -3.736767 
H      -0.516689    -2.920203    -2.714935 
C      -2.615833    -2.762431    -3.190424 
H      -3.381870    -2.010555    -3.402690 
H      -2.542888    -3.417527    -4.064091 
H      -2.968533    -3.365999    -2.347496 
O      -1.978943    -1.801197     0.726590 
C      -2.474451    -0.559450     1.205340 
H      -2.319155    -0.596078     2.288179 
H      -1.879768     0.271828     0.829790 
C      -3.949018    -0.364335     0.922835 
C      -4.482153     0.922660     0.922712 
C      -4.791160    -1.447814     0.696298 
C      -5.838555     1.125177     0.701061 
H      -3.831361     1.776613     1.093305 
C      -6.148624    -1.246070     0.472351 
H      -4.381651    -2.451762     0.695534 
C      -6.676690     0.039118     0.475270 
H      -6.241359     2.133187     0.704611 
H      -6.796575    -2.099230     0.296617 
H      -7.736611     0.194598     0.301707 
C       0.524824    -0.374617    -1.652873 
O       0.545529    -0.075027    -0.309260 
C       0.719727    -1.331898     0.190353 
N       1.285882    -1.495964    -1.861559 
N       1.351450    -2.105617    -0.718761 
C       0.823508    -1.545114     1.651038 
O       1.171467    -2.574294     2.164369 
O       0.445504    -0.442748     2.311919 
C       0.520806    -0.522533     3.741588 
H       1.561971    -0.593896     4.060915 
H       0.079505     0.403591     4.109714 
H      -0.037635    -1.387082     4.107044 
74
     -1835.268326     -1834.735040  16.45  13.60
C      -4.060525     0.323082    -4.662163 
C      -3.002242     0.765394    -3.840616 
C      -2.811642     2.137336    -3.668539 
C      -3.661558     3.028913    -4.302218 
C      -4.711174     2.561306    -5.117011 
C      -4.925006     1.204854    -5.308422 
C      -2.989010    -1.474067    -3.875206 
C      -2.326205    -0.409765    -3.347512 
H      -2.006686     2.509526    -3.040895 
H      -3.507070     4.090701    -4.162107 
H      -5.741428     0.876497    -5.941379 
H      -2.799769    -2.532300    -3.751080 
N      -4.039703    -1.049324    -4.673434 
C      -4.956625    -1.895249    -5.398891 
H      -4.697440    -2.939532    -5.216482 
H      -5.987976    -1.731513    -5.068452 
H      -4.897779    -1.706623    -6.476249 
O      -5.583325     3.389683    -5.769143 
C      -5.420495     4.784951    -5.613206 
H      -4.444048     5.120115    -5.984201 
H      -6.208718     5.249218    -6.207475 
H      -5.532603     5.088457    -4.564990 
N      -0.400611     0.336491    -0.167884 
C       0.161574     1.601628    -0.224779 
O      -0.303037     2.469613    -0.935033 
C       1.338844     1.827751     0.697320 
H       1.510331     2.904914     0.711315 
H       2.231893     1.353809     0.285081 
C       1.054886     1.321375     2.115780 
H       1.858094     1.661629     2.775342 
H       0.138713     1.810192     2.462880 
C       0.870898    -0.189632     2.307605 
C       2.027673    -0.979928     2.430147 
H       2.063590    -1.838975     3.089952 
C      -1.155284    -0.409264    -2.415768 
H      -0.390867     0.282567    -2.787118 
H      -0.698641    -1.403356    -2.367390 
C      -1.565544     0.035115    -1.007106 
H      -2.162546     0.944610    -1.055605 
H      -2.149263    -0.741895    -0.511844 
C      -0.327866    -0.515936     3.202646 
H      -0.353660     0.270499     3.968127 
H      -1.246671    -0.391170     2.619614 
C      -0.345817    -1.868365     3.916463 
H      -0.295066    -2.709214     3.222946 
H       0.482961    -1.951671     4.627394 
H      -1.272842    -1.961925     4.489567 
O       3.237568    -0.382367     2.166215 
C       4.343195    -0.922874     2.905224 
H       4.417857    -2.000983     2.733753 
H       5.223615    -0.441523     2.474247 
C       4.233234    -0.631870     4.383658 
C       4.141693    -1.668113     5.306334 
C       4.206456     0.685442     4.839670 
C       4.028545    -1.396759     6.666730 
H       4.158918    -2.697860     4.959844 
C       4.090985     0.960506     6.194268 
H       4.277665     1.499514     4.123920 
C       4.002505    -0.082578     7.112390 
H       3.960191    -2.214937     7.376749 
H       4.071351     1.989969     6.537816 
H       3.913692     0.131804     8.172664 
C       0.311124    -0.705398     0.406161 
O       1.575142    -0.958885    -0.083607 
C       1.852608    -2.101971     0.612671 
N      -0.271572    -1.895694     0.732471 
N       0.694944    -2.745139     0.894309 
C       3.142279    -2.848171     0.529818 
O       3.310301    -3.801965     1.241398 
O       4.135671    -2.436196    -0.266577 
C       4.042216    -1.343670    -1.191558 
H       3.213368    -1.481171    -1.888234 
H       3.939641    -0.393977    -0.664403 
H       4.986095    -1.365659    -1.735913 
74
     -1835.273273     -1834.733592  13.34  14.51
C       2.478466     0.685759     3.088187 
C       2.390613    -0.254896     2.037041 
C       1.242185    -1.045366     1.958084 
C       0.220447    -0.877537     2.875850 
C       0.332612     0.076833     3.905992 
C       1.462793     0.868492     4.025367 
C       4.356005     0.804327     1.891717 
C       3.612659    -0.155569     1.275742 
H       1.131739    -1.791986     1.181781 
H      -0.665138    -1.493802     2.786963 
H       1.527634     1.590771     4.831045 
H       5.323028     1.205141     1.618848 
N       3.688843     1.320388     2.984616 
C       4.161316     2.374426     3.850761 
H       3.489693     3.238456     3.818072 
H       4.240968     2.026218     4.885960 
H       5.149373     2.692067     3.514327 
O      -0.640763     0.290803     4.844236 
C      -1.745372    -0.590130     4.866644 
H      -2.337853    -0.520140     3.946274 
H      -1.425504    -1.629509     5.010003 
H      -2.361715    -0.282509     5.712489 
N       2.462197     0.601732    -1.380810 
C       2.138224     1.826061    -0.818589 
O       2.984711     2.572475    -0.375498 
C       0.667529     2.170288    -0.813647 
H       0.592335     3.173798    -0.392859 
H       0.160591     1.485677    -0.130987 
C       0.056045     2.155130    -2.221984 
H      -0.971717     2.521510    -2.167004 
H       0.602623     2.900544    -2.807307 
C       0.113637     0.842909    -3.007662 
C      -0.974739    -0.055750    -3.028857 
H      -1.137405    -0.625756    -3.937510 
C       3.953226    -0.848097    -0.014173 
H       3.304312    -1.719533    -0.153270 
H       4.981093    -1.226862     0.011197 
C       3.826467     0.076427    -1.236204 
H       4.480785     0.941498    -1.130196 
H       4.082268    -0.460212    -2.150922 
C       0.807525     0.979441    -4.364108 
H       1.827410     1.349042    -4.207776 
H       0.904251    -0.007613    -4.822599 
C       0.053024     1.907362    -5.321508 
H       0.564283     1.952914    -6.287929 
H      -0.964173     1.542554    -5.497826 
H      -0.021643     2.930246    -4.940580 
O      -2.175256     0.040912    -2.377886 
C      -2.297595     0.480574    -1.032201 
H      -1.404585     0.228482    -0.461112 
H      -2.429598     1.568786    -1.010379 
C      -3.494967    -0.179378    -0.387636 
C      -4.500871    -0.778778    -1.135622 
C      -3.593591    -0.165344     1.002432 
C      -5.595588    -1.355555    -0.498755 
H      -4.420787    -0.805110    -2.215346 
C      -4.685748    -0.739636     1.638134 
H      -2.801665     0.294442     1.589005 
C      -5.692439    -1.337736     0.886776 
H      -6.376415    -1.821748    -1.091732 
H      -4.758661    -0.717654     2.721398 
H      -6.548636    -1.785844     1.380642 
C       1.492653    -0.241400    -1.909632 
O       0.575576    -0.819223    -1.061994 
C      -0.025708    -1.677270    -1.939707 
N       1.812402    -1.145183    -2.881575 
N       0.839442    -2.004839    -2.920896 
C      -1.103458    -2.593523    -1.490316 
O      -1.737948    -3.286626    -2.236886 
O      -1.267809    -2.532948    -0.163507 
C      -2.298449    -3.384713     0.364312 
H      -3.267264    -3.116480    -0.058218 
H      -2.072068    -4.429085     0.139527 
H      -2.295864    -3.213147     1.439781 
74
     -1835.271678     -1834.733299  14.34  14.70
C       1.374887     1.106221    -3.582171 
C       2.141089     1.763960    -2.594399 
C       3.456743     1.348619    -2.390903 
C       3.984645     0.322425    -3.155261 
C       3.200397    -0.307964    -4.141198 
C       1.886299     0.074424    -4.364771 
C       0.082119     2.645890    -2.608466 
C       1.287953     2.755998    -1.986423 
H       4.069240     1.811436    -1.623702 
H       5.006306     0.010021    -2.982834 
H       1.306855    -0.431699    -5.128556 
H      -0.823682     3.212592    -2.438301 
N       0.114940     1.650763    -3.571750 
C      -0.966324     1.280094    -4.453819 
H      -1.847641     1.872812    -4.203568 
H      -0.704886     1.472010    -5.499907 
H      -1.217930     0.220754    -4.341953 
O       3.658144    -1.323780    -4.932394 
C       4.992058    -1.758499    -4.754833 
H       5.147342    -2.559533    -5.478691 
H       5.707011    -0.950265    -4.951447 
H       5.155398    -2.149343    -3.743034 
N       0.718515     2.146224     0.861683 
C      -0.561683     2.645064     0.990282 
O      -0.803394     3.822631     0.813526 
C      -1.627720     1.636012     1.346834 
H      -2.584577     2.139180     1.200002 
H      -1.534731     1.417976     2.412052 
C      -1.570303     0.371575     0.478710 
H      -2.450420    -0.238258     0.684743 
H      -1.677529     0.706902    -0.557859 
C      -0.295337    -0.479305     0.523259 
C      -0.122152    -1.587442     1.385631 
H       0.516392    -2.386930     1.024530 
C       1.632118     3.715023    -0.889476 
H       0.856733     4.478236    -0.824495 
H       2.574119     4.226541    -1.121503 
C       1.809594     3.064677     0.490867 
H       2.725738     2.477374     0.521803 
H       1.871947     3.850071     1.250562 
C       0.279591    -0.739609    -0.870456 
H       0.483609     0.220646    -1.344911 
H       1.240224    -1.252111    -0.782817 
C      -0.658017    -1.568216    -1.751511 
H      -0.883116    -2.535309    -1.289442 
H      -1.609059    -1.059194    -1.936197 
H      -0.187574    -1.758823    -2.721153 
O      -0.957588    -2.135969     2.317688 
C      -1.890627    -1.394697     3.093097 
H      -1.836289    -1.837796     4.092757 
H      -1.579831    -0.356428     3.190289 
C      -3.310995    -1.509472     2.583115 
C      -3.722068    -2.607706     1.834573 
C      -4.237254    -0.520115     2.903450 
C      -5.041843    -2.713002     1.410512 
H      -3.005289    -3.381806     1.584159 
C      -5.557028    -0.624970     2.481426 
H      -3.925589     0.342679     3.486495 
C      -5.963135    -1.723640     1.732886 
H      -5.351548    -3.574324     0.826760 
H      -6.269389     0.152571     2.738877 
H      -6.993284    -1.807975     1.402199 
C       1.023575     0.858461     1.293854 
O       0.794212     0.548633     2.622197 
C       1.403181    -0.672773     2.663283 
N       2.181506     0.244111     0.900473 
N       2.373953    -0.736021     1.729510 
C       1.436411    -1.474793     3.907611 
O       2.037211    -2.508138     4.020126 
O       0.688738    -0.911427     4.867026 
C       0.649449    -1.632896     6.106533 
H       0.246156    -2.636184     5.950849 
H       1.652564    -1.712167     6.530777 
H       0.000864    -1.054025     6.763193 
74
     -1835.268307     -1834.732971  16.46  14.90
C      -0.484892    -4.733102    -1.278210 
C       0.796333    -4.162156    -1.434987 
C       1.486002    -4.398767    -2.623336 
C       0.910801    -5.176615    -3.614066 
C      -0.369417    -5.733718    -3.429194 
C      -1.082712    -5.519833    -2.259903 
C      -0.001239    -3.582820     0.573952 
C       1.086533    -3.426495    -0.229593 
H       2.473513    -3.977226    -2.784567 
H       1.457879    -5.349859    -4.531585 
H      -2.066672    -5.960545    -2.146566 
H      -0.182531    -3.198179     1.567923 
N      -0.961350    -4.365843    -0.044972 
C      -2.231701    -4.761823     0.513511 
H      -2.339349    -4.317114     1.504234 
H      -3.060265    -4.416508    -0.113659 
H      -2.295877    -5.850613     0.613561 
O      -0.995190    -6.510365    -4.364977 
C      -0.321015    -6.759981    -5.581903 
H      -0.988713    -7.386942    -6.174394 
H      -0.119864    -5.830085    -6.128034 
H       0.622946    -7.293833    -5.416482 
N       1.297308    -0.392013    -0.421664 
C       0.149407    -0.323986    -1.202116 
O       0.034150    -0.956362    -2.227552 
C      -0.949841     0.552445    -0.640892 
H      -1.841044     0.332628    -1.230296 
H      -0.704644     1.605834    -0.788362 
C      -1.211048     0.252764     0.839328 
H      -2.133887     0.757091     1.141273 
H      -1.399039    -0.822562     0.928678 
C      -0.104778     0.613962     1.839095 
C      -0.011831     1.957813     2.256190 
H       0.250028     2.226379     3.274360 
C       2.320724    -2.620918     0.040317 
H       3.211737    -3.208472    -0.211618 
H       2.394528    -2.378217     1.104287 
C       2.378607    -1.320265    -0.771190 
H       3.328436    -0.810076    -0.597721 
H       2.274219    -1.527300    -1.836543 
C       0.108792    -0.478670     2.890197 
H      -0.883301    -0.904764     3.091447 
H       0.694521    -1.284905     2.439735 
C       0.735334    -0.084030     4.228626 
H       0.857614    -0.977272     4.848258 
H       1.716783     0.377765     4.109517 
H       0.090773     0.606267     4.782387 
O      -0.762819     2.876853     1.571879 
C      -1.102287     4.066156     2.297997 
H      -1.930002     3.827696     2.978962 
H      -0.248947     4.400408     2.895208 
C      -1.503175     5.132237     1.313008 
C      -2.517417     4.886380     0.389011 
C      -0.861429     6.365193     1.306457 
C      -2.885859     5.860725    -0.527602 
H      -3.016134     3.921672     0.386527 
C      -1.231206     7.345205     0.390842 
H      -0.057312     6.555519     2.010597 
C      -2.242812     7.095320    -0.527138 
H      -3.676533     5.659181    -1.243595 
H      -0.723504     8.304681     0.393616 
H      -2.530833     7.859392    -1.242258 
C       1.499932     0.539603     0.582601 
O       1.499388     1.867612     0.212394 
C       1.882361     2.426110     1.398581 
N       2.439500     0.367901     1.561779 
N       2.640899     1.534741     2.085395 
C       2.057408     3.892839     1.617119 
O       2.349627     4.286104     2.715547 
O       1.854314     4.773226     0.634793 
C       1.372983     4.454009    -0.680430 
H       2.093924     3.842337    -1.225539 
H       0.405001     3.955922    -0.631636 
H       1.258161     5.422264    -1.166608 
