74
     -1835.294549     -1834.757246   0.00   0.00
C      -1.237293     3.427830     0.910713 
C      -2.434203     2.687765     1.015486 
C      -2.773956     2.153495     2.258943 
C      -1.933560     2.332444     3.342679 
C      -0.732047     3.053897     3.200404 
C      -0.378247     3.623311     1.989443 
C      -2.179055     3.355547    -1.105357 
C      -3.021608     2.649318    -0.300656 
H      -3.685881     1.577990     2.383551 
H      -2.205263     1.897645     4.295518 
H       0.549716     4.175438     1.901178 
H      -2.255121     3.545266    -2.168041 
N      -1.101808     3.836821    -0.389915 
C       0.011142     4.590935    -0.921925 
H       0.945943     4.037783    -0.795353 
H      -0.157942     4.760926    -1.986469 
H       0.093103     5.563391    -0.425664 
O       0.165012     3.234865     4.219177 
C      -0.112745     2.625133     5.463722 
H       0.730525     2.864867     6.113030 
H      -1.033650     3.021193     5.908799 
H      -0.197303     1.536016     5.365127 
N      -2.698563    -0.050961    -1.302966 
C      -2.497713     0.065987    -2.665463 
O      -3.387117     0.442102    -3.403046 
C      -1.131609    -0.357526    -3.158457 
H      -0.390151     0.398593    -2.889831 
H      -1.198080    -0.393757    -4.246818 
C      -0.728623    -1.733071    -2.609647 
H      -1.516263    -2.442810    -2.883813 
H       0.180033    -2.056573    -3.124483 
C      -0.516248    -1.840535    -1.097275 
C       0.746347    -1.499128    -0.577139 
H       1.167420    -2.059324     0.254263 
C      -4.219700     1.873263    -0.754145 
H      -4.476357     2.171724    -1.772708 
H      -5.088787     2.088587    -0.121312 
C      -3.992450     0.348890    -0.731851 
H      -4.010075    -0.032525     0.288758 
H      -4.777051    -0.147260    -1.306510 
C      -1.163196    -3.063046    -0.457958 
H      -1.008244    -3.030556     0.624048 
H      -2.246455    -3.020908    -0.616984 
C      -0.599953    -4.375081    -1.015165 
H      -1.045963    -5.231801    -0.500504 
H      -0.803781    -4.489552    -2.083854 
H       0.485358    -4.426857    -0.876877 
O       1.645090    -0.902560    -1.417372 
C       3.010619    -1.060113    -1.035183 
H       3.566282    -0.378765    -1.682517 
H       3.152891    -0.734572     0.001345 
C       3.484791    -2.486920    -1.201798 
C       4.035285    -3.183952    -0.132426 
C       3.361673    -3.126087    -2.434906 
C       4.463961    -4.499069    -0.288825 
H       4.131695    -2.698311     0.834914 
C       3.783225    -4.437841    -2.593992 
H       2.930424    -2.588455    -3.274187 
C       4.338219    -5.127994    -1.519464 
H       4.894386    -5.030247     0.554166 
H       3.682453    -4.924897    -3.558825 
H       4.670721    -6.153559    -1.644382 
C      -1.610529    -0.248901    -0.459857 
O      -0.589822     0.670155    -0.502091 
C       0.139669     0.241095     0.558800 
N      -1.768108    -0.672501     0.830537 
N      -0.657948    -0.403979     1.442432 
C       1.334484     1.030744     0.928053 
O       1.838537     1.858792     0.212962 
O       1.786335     0.683246     2.134952 
C       2.863842     1.479911     2.645365 
H       3.102065     1.056287     3.620156 
H       3.729573     1.431658     1.980936 
H       2.541649     2.517085     2.756558 
74
     -1835.295696     -1834.756744  -0.72   0.32
C       0.808858    -3.132561     1.474053 
C       0.783945    -2.276225     2.596779 
C       1.991542    -1.742105     3.045820 
C       3.172980    -2.056366     2.395840 
C       3.166137    -2.917273     1.281606 
C       1.986184    -3.468933     0.810328 
C      -1.307812    -2.909287     2.128509 
C      -0.593197    -2.140760     2.997597 
H       2.017155    -1.073065     3.900510 
H       4.100620    -1.629326     2.755098 
H       2.005345    -4.132376    -0.046640 
H      -2.376090    -3.064751     2.062224 
N      -0.480441    -3.508739     1.201073 
C      -0.909500    -4.336446     0.095671 
H      -2.000139    -4.348145     0.076913 
H      -0.554188    -3.925725    -0.853633 
H      -0.547803    -5.363972     0.208534 
O       4.295092    -3.255666     0.583777 
C       5.541529    -2.799815     1.070810 
H       5.726860    -3.156739     2.091078 
H       6.297430    -3.213704     0.402045 
H       5.606252    -1.704704     1.054191 
N      -1.672713     0.767229     2.669265 
C      -1.128252     1.903704     3.241997 
O      -1.052681     2.012060     4.450119 
C      -0.728883     3.068914     2.357001 
H       0.152370     3.510182     2.827845 
H      -1.534573     3.800834     2.490545 
C      -0.478378     2.827873     0.872249 
H      -0.363015     3.805308     0.391477 
H       0.466392     2.294469     0.734086 
C      -1.587629     2.047669     0.176413 
C      -1.222075     1.547972    -1.088982 
H      -0.210590     1.671396    -1.470871 
C      -1.149173    -1.256957     4.079328 
H      -0.342092    -0.697693     4.560716 
H      -1.618055    -1.861531     4.864788 
C      -2.205173    -0.261147     3.582485 
H      -3.003735    -0.778441     3.049011 
H      -2.633560     0.270107     4.431686 
C      -3.014228     2.550494     0.346849 
H      -3.692327     1.835004    -0.120036 
H      -3.271760     2.566106     1.410732 
C      -3.224778     3.941621    -0.256027 
H      -4.268903     4.250899    -0.148785 
H      -2.604763     4.698907     0.235207 
H      -2.981969     3.944520    -1.322557 
O      -2.192973     1.362562    -2.007534 
C      -1.823811     0.700460    -3.221278 
H      -1.550129    -0.333477    -2.998030 
H      -2.743655     0.695542    -3.810489 
C      -0.715091     1.398897    -3.975573 
C       0.379647     0.677068    -4.440081 
C      -0.786679     2.767569    -4.231418 
C       1.390306     1.314274    -5.153753 
H       0.438995    -0.388696    -4.240115 
C       0.223706     3.405799    -4.936425 
H      -1.641393     3.334259    -3.873528 
C       1.315879     2.678488    -5.400943 
H       2.237227     0.741099    -5.518542 
H       0.158581     4.472246    -5.128231 
H       2.105059     3.175734    -5.955942 
C      -1.525826     0.432686     1.319127 
O      -0.267785     0.037106     0.906783 
C      -0.578441    -0.487089    -0.301068 
N      -2.457723    -0.355735     0.696354 
N      -1.862092    -0.880785    -0.335844 
C       0.497231    -1.009865    -1.166484 
O       0.327579    -1.797476    -2.065321 
O       1.666170    -0.454059    -0.844132 
C       2.797197    -0.878153    -1.619759 
H       2.901795    -1.962751    -1.582033 
H       2.686020    -0.547947    -2.655160 
H       3.659986    -0.400572    -1.157306 
74
     -1835.291828     -1834.756313   1.71   0.59
C       1.470596    -2.589370    -2.365003 
C       2.536526    -1.692439    -2.136714 
C       2.705487    -0.625848    -3.018424 
C       1.850772    -0.480714    -4.098000 
C       0.810855    -1.404997    -4.313952 
C       0.605060    -2.467489    -3.448897 
C       2.530606    -3.229776    -0.514071 
C       3.205015    -2.123599    -0.936454 
H       3.497189     0.100863    -2.862204 
H       1.993982     0.352771    -4.773794 
H      -0.201717    -3.167082    -3.635520 
H       2.691134    -3.840231     0.364466 
N       1.480434    -3.521560    -1.359214 
C       0.494967    -4.560645    -1.160827 
H       0.524720    -5.292126    -1.975026 
H       0.714410    -5.072425    -0.222807 
H      -0.510306    -4.133170    -1.092583 
O      -0.065612    -1.320515    -5.363638 
C       0.147103    -0.310592    -6.329218 
H       0.052049     0.692005    -5.893788 
H       1.133525    -0.407317    -6.798491 
H      -0.626514    -0.447435    -7.086058 
N       2.774996     0.140151     0.985871 
C       3.045224     1.440016     0.591089 
O       4.177578     1.801627     0.343849 
C       1.848446     2.365848     0.556745 
H       1.244521     2.156825    -0.329080 
H       2.248191     3.376427     0.460688 
C       1.005029     2.251938     1.834815 
H       1.665415     2.451108     2.685443 
H       0.255048     3.047034     1.825352 
C       0.317080     0.907414     2.091702 
C      -0.948252     0.691235     1.512437 
H      -1.702641     0.114750     2.042696 
C       4.322359    -1.421938    -0.219297 
H       4.729353    -0.626113    -0.848620 
H       5.146807    -2.113412    -0.011430 
C       3.882959    -0.812742     1.120268 
H       3.550188    -1.594446     1.805022 
H       4.715609    -0.273084     1.573368 
C       0.462743     0.389537     3.518373 
H      -0.001319    -0.597618     3.593667 
H       1.526595     0.249602     3.741338 
C      -0.170254     1.331703     4.547827 
H       0.311977     2.313641     4.558425 
H      -1.233813     1.486223     4.336965 
H      -0.084759     0.910994     5.554564 
O      -1.415943     1.615430     0.622784 
C      -2.832049     1.600871     0.440207 
H      -3.012493     2.266139    -0.407073 
H      -3.167746     0.594339     0.166127 
C      -3.571741     2.074616     1.671675 
C      -4.540866     1.276736     2.269369 
C      -3.280271     3.319141     2.228754 
C      -5.216506     1.714512     3.404856 
H      -4.772337     0.302737     1.846685 
C      -3.948153     3.756967     3.362790 
H      -2.522500     3.946457     1.768491 
C      -4.920978     2.954648     3.953337 
H      -5.972662     1.082752     3.859967 
H      -3.713059     4.727761     3.787735 
H      -5.445637     3.298136     4.839161 
C       1.460744    -0.314930     0.975502 
O       0.761616    -0.173290    -0.197766 
C      -0.352473    -0.882240     0.115051 
N       1.088978    -1.495206     1.566010 
N      -0.061109    -1.809154     1.057460 
C      -1.402924    -1.077137    -0.910223 
O      -2.248277    -1.934452    -0.854365 
O      -1.304292    -0.161154    -1.875038 
C      -2.263971    -0.270993    -2.934722 
H      -3.279766    -0.180535    -2.542032 
H      -2.040289     0.548726    -3.616064 
H      -2.154656    -1.225903    -3.450543 
74
     -1835.291982     -1834.755524   1.61   1.08
C      -0.953884     1.154058    -3.487981 
C      -2.084063     0.437760    -3.054141 
C      -2.196429    -0.909842    -3.424723 
C      -1.224113    -1.481770    -4.212173 
C      -0.113990    -0.731528    -4.655627 
C       0.046004     0.592872    -4.294062 
C      -2.212482     2.526609    -2.269921 
C      -2.881930     1.338609    -2.264713 
H      -3.042991    -1.505903    -3.098419 
H      -1.290978    -2.518621    -4.523262 
H       0.897907     1.181817    -4.608980 
H      -2.454330     3.457202    -1.774718 
N      -1.045217     2.430197    -2.995952 
C      -0.028062     3.451897    -3.102450 
H      -0.345755     4.319606    -2.522948 
H       0.921675     3.093859    -2.692713 
H       0.115430     3.759239    -4.143461 
O       0.769029    -1.420317    -5.443314 
C       1.749516    -0.673101    -6.135086 
H       1.288719     0.108863    -6.750790 
H       2.471607    -0.210773    -5.450208 
H       2.273629    -1.379705    -6.779718 
N      -2.984316     0.311565     0.621109 
C      -3.364852    -0.978947     0.955466 
O      -4.508423    -1.358661     0.807009 
C      -2.277271    -1.840014     1.559954 
H      -1.590030    -2.167668     0.776420 
H      -2.776745    -2.723185     1.960710 
C      -1.521784    -1.108600     2.677302 
H      -2.259456    -0.782082     3.417919 
H      -0.867935    -1.826634     3.179200 
C      -0.705606     0.120221     2.267112 
C       0.609751    -0.081127     1.805849 
H       1.391532     0.636012     2.044414 
C      -4.133088     1.023791    -1.492173 
H      -4.443781    -0.007239    -1.683370 
H      -4.959974     1.664697    -1.819423 
C      -3.976978     1.214030     0.024071 
H      -3.665967     2.234586     0.254005 
H      -4.925445     1.010351     0.521447 
C      -0.882226     1.324346     3.185611 
H      -0.311962     2.168777     2.789194 
H      -1.934551     1.629773     3.177452 
C      -0.430308     1.031921     4.620439 
H       0.618619     0.717825     4.645448 
H      -0.527989     1.927537     5.241844 
H      -1.024863     0.240617     5.086426 
O       1.021895    -1.363405     1.575830 
C       2.438566    -1.543764     1.591981 
H       2.595250    -2.562658     1.230670 
H       2.916342    -0.851034     0.890157 
C       3.021780    -1.361875     2.975799 
C       4.032360    -0.434878     3.204895 
C       2.541895    -2.119260     4.043590 
C       4.563457    -0.267525     4.480592 
H       4.410356     0.164440     2.380997 
C       3.065459    -1.952278     5.317093 
H       1.750827    -2.843439     3.872171 
C       4.080741    -1.025383     5.538301 
H       5.353921     0.457830     4.645095 
H       2.684219    -2.547597     6.140834 
H       4.492503    -0.896350     6.534169 
C      -1.631187     0.625659     0.545160 
O      -0.862246    -0.144079    -0.292187 
C       0.293612     0.564580    -0.252616 
N      -1.180661     1.918523     0.488316 
N       0.032762     1.860985     0.036041 
C       1.441470     0.136971    -1.081825 
O       2.408768     0.823126    -1.298042 
O       1.272317    -1.111239    -1.519900 
C       2.323985    -1.630044    -2.342550 
H       3.223413    -1.800764    -1.744644 
H       1.946581    -2.566386    -2.749736 
H       2.555970    -0.933074    -3.148275 
74
     -1835.293494     -1834.755491   0.66   1.10
C       2.127267    -2.361838    -1.034092 
C       2.038154    -1.731780    -2.293383 
C       3.045980    -0.838072    -2.657850 
C       4.082709    -0.569003    -1.782987 
C       4.129752    -1.194046    -0.521441 
C       3.163958    -2.108696    -0.139284 
C       0.254987    -3.056264    -2.018846 
C       0.817479    -2.191129    -2.908216 
H       3.016643    -0.332300    -3.617868 
H       4.846984     0.138773    -2.075803 
H       3.218367    -2.578250     0.835491 
H      -0.676928    -3.600636    -2.097682 
N       1.034118    -3.174647    -0.886157 
C       0.738699    -3.982860     0.275038 
H       1.526445    -4.724434     0.443245 
H       0.635628    -3.353853     1.163455 
H      -0.200890    -4.510926     0.104834 
O       5.103141    -0.944485     0.409084 
C       6.088099     0.020006     0.096807 
H       5.639388     1.002733    -0.092723 
H       6.738406     0.082178     0.970532 
H       6.683093    -0.280735    -0.774104 
N      -1.043841     0.032611    -2.875867 
C      -2.302461    -0.510970    -2.698143 
O      -2.824292    -1.187562    -3.561867 
C      -2.984094    -0.150695    -1.396760 
H      -2.528546    -0.703131    -0.571753 
H      -4.019573    -0.480342    -1.492907 
C      -2.935769     1.360326    -1.130775 
H      -3.379012     1.862991    -1.996752 
H      -3.578031     1.578547    -0.273627 
C      -1.552783     1.975882    -0.896174 
C      -1.034607     1.945704     0.415372 
H      -0.449639     2.780111     0.798264 
C       0.193267    -1.719548    -4.185331 
H      -0.654311    -2.363144    -4.429975 
H       0.904705    -1.785443    -5.017031 
C      -0.302414    -0.262477    -4.109982 
H       0.534008     0.435181    -4.142113 
H      -0.965127    -0.056459    -4.952787 
C      -1.299964     3.267539    -1.665029 
H      -0.280050     3.610642    -1.470583 
H      -1.355390     3.059334    -2.739175 
C      -2.289256     4.378650    -1.297357 
H      -3.322284     4.108766    -1.535325 
H      -2.243367     4.608830    -0.227568 
H      -2.052906     5.295680    -1.845749 
O      -1.702402     1.201056     1.340934 
C      -1.449663     1.549909     2.704319 
H      -0.385336     1.410041     2.927568 
H      -1.697344     2.607789     2.856918 
C      -2.301256     0.683714     3.591713 
C      -3.327921     1.240601     4.345471 
C      -2.068658    -0.689531     3.660349 
C      -4.115898     0.440300     5.166380 
H      -3.514957     2.309804     4.290842 
C      -2.855907    -1.489513     4.476201 
H      -1.268255    -1.123817     3.070583 
C      -3.880420    -0.926411     5.231914 
H      -4.914285     0.885523     5.751727 
H      -2.670072    -2.557925     4.524929 
H      -4.493998    -1.554494     5.870176 
C      -0.376544     0.593345    -1.792376 
O      -0.173633    -0.196160    -0.684827 
C       0.647800     0.620179     0.022345 
N       0.715637     1.400828    -1.961193 
N       1.316139     1.448885    -0.815353 
C       1.205330     0.096356     1.285938 
O       0.808124    -0.903600     1.831079 
O       2.177564     0.882387     1.747039 
C       2.873578     0.399139     2.904898 
H       2.177436     0.212316     3.725407 
H       3.411542    -0.518429     2.658406 
H       3.577658     1.186946     3.169552 
74
     -1835.291942     -1834.754492   1.64   1.73
C      -1.473889     2.941404    -2.110684 
C      -1.756397     1.763627    -2.831972 
C      -0.783344     1.272637    -3.703958 
C       0.428460     1.924319    -3.824154 
C       0.695139     3.080845    -3.065879 
C      -0.256059     3.610608    -2.211006 
C      -3.495726     2.231138    -1.506648 
C      -3.058977     1.313199    -2.414649 
H      -0.959110     0.366156    -4.274415 
H       1.178794     1.523104    -4.492486 
H      -0.027705     4.501801    -1.637975 
H      -4.412348     2.247678    -0.931984 
N      -2.558283     3.224719    -1.319903 
C      -2.590867     4.233730    -0.287220 
H      -1.863667     4.005505     0.499603 
H      -2.375618     5.221028    -0.706357 
H      -3.589345     4.257001     0.152378 
O       1.890856     3.743592    -3.100773 
C       2.965341     3.131994    -3.792997 
H       3.832732     3.772135    -3.625680 
H       3.166227     2.130334    -3.397725 
H       2.765814     3.073593    -4.869524 
N      -2.377573    -1.448688    -1.208217 
C      -1.867208    -2.592889    -1.801188 
O      -2.481967    -3.186816    -2.663531 
C      -0.544146    -3.071880    -1.244515 
H       0.265100    -2.426801    -1.593027 
H      -0.384145    -4.068567    -1.658149 
C      -0.570952    -3.137241     0.289812 
H      -1.416354    -3.770523     0.579461 
H       0.334881    -3.646524     0.629238 
C      -0.712667    -1.807869     1.037126 
C       0.458584    -1.068871     1.297807 
H       0.561041    -0.515796     2.228641 
C      -3.729787     0.012194    -2.750492 
H      -3.250063    -0.454291    -3.615774 
H      -4.777676     0.180046    -3.023438 
C      -3.719084    -0.982625    -1.578639 
H      -4.162408    -0.523366    -0.692808 
H      -4.290294    -1.872665    -1.842863 
C      -1.723716    -1.832392     2.176969 
H      -1.801261    -0.833140     2.614258 
H      -2.714253    -2.071863     1.773591 
C      -1.344557    -2.839477     3.268351 
H      -1.332060    -3.867064     2.893277 
H      -0.351006    -2.622383     3.674914 
H      -2.062339    -2.797725     4.093490 
O       1.621985    -1.488650     0.716950 
C       2.807483    -1.073741     1.393254 
H       3.622802    -1.309290     0.706532 
H       2.795587     0.011259     1.545187 
C       2.980300    -1.782389     2.718477 
C       3.119813    -1.061254     3.898723 
C       2.988189    -3.175751     2.771799 
C       3.271597    -1.717612     5.116904 
H       3.110188     0.025057     3.870628 
C       3.134794    -3.833867     3.983869 
H       2.877120    -3.745720     1.854039 
C       3.278974    -3.104618     5.161336 
H       3.382261    -1.141621     6.030169 
H       3.139782    -4.918966     4.012785 
H       3.396393    -3.619356     6.109605 
C      -1.552624    -0.667563    -0.406238 
O      -0.376439    -0.225030    -0.959419 
C       0.028181     0.622593     0.019869 
N      -2.046480     0.309872     0.416080 
N      -1.046290     1.081847     0.706441 
C       1.281202     1.376471    -0.211024 
O       2.102466     1.068904    -1.035321 
O       1.391141     2.409329     0.629946 
C       2.534901     3.249555     0.411783 
H       2.462486     4.038504     1.159776 
H       3.458029     2.680102     0.543769 
H       2.508046     3.669002    -0.596212 
74
     -1835.290350     -1834.754209   2.64   1.91
C      -2.215905     0.160826    -2.737536 
C      -2.662188    -0.889315    -1.918576 
C      -3.499253    -0.582875    -0.835413 
C      -3.840586     0.724157    -0.591199 
C      -3.354241     1.767203    -1.410821 
C      -2.543103     1.503962    -2.500911 
C      -1.354559    -1.741164    -3.521816 
C      -2.089205    -2.105169    -2.434253 
H      -3.867922    -1.366957    -0.181533 
H      -4.474783     0.993932     0.245454 
H      -2.173893     2.290300    -3.146369 
H      -0.755398    -2.358957    -4.177979 
N      -1.425148    -0.375455    -3.722522 
C      -0.771264     0.362711    -4.775904 
H      -0.041459     1.066380    -4.364230 
H      -0.246162    -0.339549    -5.425482 
H      -1.500092     0.912232    -5.380813 
O      -3.751633     3.015937    -1.037635 
C      -3.175444     4.118324    -1.710982 
H      -3.574673     5.010869    -1.228303 
H      -2.083282     4.110202    -1.612446 
H      -3.453283     4.129813    -2.772375 
N      -0.015522    -2.894155    -0.623394 
C       0.950715    -3.523007    -1.377566 
O       0.774405    -4.637545    -1.829992 
C       2.200261    -2.717935    -1.654464 
H       1.922475    -1.989643    -2.422329 
H       2.915165    -3.407233    -2.105192 
C       2.841981    -1.988927    -0.455961 
H       3.570992    -2.663744     0.001372 
H       3.414184    -1.146015    -0.854409 
C       1.912184    -1.509962     0.666246 
C       2.050965    -0.138181     0.992153 
H       2.684684     0.525017     0.404801 
C      -2.135834    -3.467060    -1.812549 
H      -1.725050    -4.200894    -2.509520 
H      -3.168096    -3.764308    -1.594596 
C      -1.334448    -3.528808    -0.498186 
H      -1.858311    -3.008845     0.302078 
H      -1.180608    -4.569113    -0.205514 
C       1.763853    -2.481186     1.838869 
H       0.919493    -2.168569     2.455094 
H       1.508503    -3.465802     1.432656 
C       3.017925    -2.599173     2.708723 
H       3.269893    -1.640478     3.167885 
H       2.848319    -3.321730     3.512838 
H       3.886964    -2.942990     2.139282 
O       1.767166     0.245647     2.241138 
C       1.829809     1.654808     2.510129 
H       2.874006     1.984893     2.453050 
H       1.242891     2.186388     1.755853 
C       1.264897     1.891077     3.882816 
C       2.059568     2.379739     4.912067 
C      -0.081831     1.618933     4.124984 
C       1.519895     2.600466     6.175725 
H       3.109704     2.590075     4.727132 
C      -0.619940     1.834856     5.385276 
H      -0.698829     1.235088     3.317420 
C       0.179752     2.327331     6.413373 
H       2.148665     2.983525     6.973436 
H      -1.668173     1.620316     5.569722 
H      -0.244152     2.496634     7.398261 
C       0.184535    -1.591414    -0.160828 
O       0.408359    -0.598197    -1.110888 
C       0.261119     0.494289    -0.319071 
N      -0.639661    -1.073688     0.812583 
N      -0.526751     0.217403     0.733131 
C       0.459591     1.844700    -0.867167 
O       0.133040     2.866355    -0.317530 
O       1.102852     1.799573    -2.047811 
C       1.381969     3.075980    -2.633561 
H       0.452264     3.606138    -2.855205 
H       1.987638     3.684451    -1.958589 
H       1.930005     2.867509    -3.552121 
74
     -1835.291152     -1834.753887   2.13   2.11
C      -1.019724    -3.165932    -1.789771 
C      -2.128013    -3.033993    -0.937177 
C      -3.283863    -2.414370    -1.435210 
C      -3.294386    -1.931270    -2.719928 
C      -2.153469    -2.040131    -3.546032 
C      -1.002709    -2.666243    -3.100219 
C      -0.487008    -4.067141     0.179570 
C      -1.760061    -3.608195     0.331195 
H      -4.164395    -2.301058    -0.810741 
H      -4.167473    -1.435080    -3.127962 
H      -0.124808    -2.770047    -3.724556 
H       0.154797    -4.548862     0.905258 
N      -0.025477    -3.811031    -1.097201 
C       1.249780    -4.220254    -1.634365 
H       1.823948    -4.709668    -0.846068 
H       1.121664    -4.928253    -2.460288 
H       1.817574    -3.355502    -1.987850 
O      -2.292845    -1.489574    -4.784708 
C      -1.141920    -1.412844    -5.602901 
H      -1.448341    -0.890720    -6.509815 
H      -0.346210    -0.843129    -5.107580 
H      -0.772500    -2.410621    -5.870907 
N      -1.435271    -1.385911     2.158273 
C      -0.445691    -1.719490     3.063824 
O      -0.608844    -2.609433     3.874859 
C       0.802248    -0.866257     3.005246 
H       1.388481    -1.125059     2.120667 
H       1.389811    -1.124669     3.887410 
C       0.465590     0.631391     3.016462 
H      -0.135272     0.828758     3.910437 
H       1.396063     1.193470     3.131649 
C      -0.307375     1.173906     1.811604 
C       0.424108     1.586857     0.683634 
H       0.093033     2.441775     0.099170 
C      -2.539491    -3.571692     1.609099 
H      -2.036306    -4.184994     2.359457 
H      -3.545081    -3.985108     1.467700 
C      -2.694324    -2.142885     2.162365 
H      -3.401765    -1.568702     1.564575 
H      -3.054071    -2.183395     3.192324 
C      -1.484059     2.073155     2.172537 
H      -2.014651     2.358023     1.259989 
H      -2.196308     1.505158     2.781584 
C      -1.039447     3.335340     2.919797 
H      -0.563441     3.101079     3.876633 
H      -0.322665     3.912253     2.325391 
H      -1.899897     3.978978     3.128160 
O       1.767856     1.322520     0.648143 
C       2.525424     2.246935    -0.134871 
H       3.525881     1.812044    -0.193461 
H       2.113711     2.307759    -1.149111 
C       2.566074     3.621868     0.494052 
C       2.093688     4.734300    -0.193170 
C       3.063336     3.784685     1.786519 
C       2.118758     5.994614     0.397215 
H       1.700069     4.618192    -1.199371 
C       3.086424     5.038051     2.379943 
H       3.432342     2.919560     2.329719 
C       2.614127     6.148062     1.684449 
H       1.748770     6.855033    -0.151294 
H       3.475521     5.152908     3.386735 
H       2.634195     7.129437     2.147572 
C      -1.143413    -0.535310     1.097918 
O      -0.107841    -0.885045     0.261707 
C      -0.267871     0.066805    -0.695118 
N      -2.123877     0.060608     0.353896 
N      -1.557372     0.473060    -0.736215 
C       0.620970     0.108963    -1.873659 
O       0.451809     0.835492    -2.818715 
O       1.667496    -0.717492    -1.734693 
C       2.617969    -0.674744    -2.803276 
H       3.425430    -1.345747    -2.511229 
H       2.161493    -1.010805    -3.737961 
H       2.999094     0.339612    -2.941305 
74
     -1835.292088     -1834.753412   1.55   2.41
C      -0.206635     0.342581    -3.552310 
C       0.402744     1.570968    -3.242312 
C       1.802939     1.646605    -3.267462 
C       2.536762     0.534266    -3.601191 
C       1.900535    -0.684607    -3.924341 
C       0.523248    -0.804686    -3.898893 
C      -1.815198     1.812243    -3.091946 
C      -0.650992     2.506534    -2.950266 
H       2.311763     2.572643    -3.019037 
H       3.620047     0.562005    -3.628983 
H       0.016787    -1.731125    -4.137522 
H      -2.832225     2.150466    -2.942335 
N      -1.564410     0.504613    -3.456407 
C      -2.556089    -0.527881    -3.658599 
H      -2.492125    -0.935579    -4.672740 
H      -2.429551    -1.334357    -2.930250 
H      -3.547234    -0.090640    -3.527851 
O       2.752033    -1.700578    -4.257887 
C       2.188439    -2.886743    -4.775592 
H       1.569938    -3.400719    -4.029654 
H       1.581597    -2.683106    -5.666723 
H       3.025701    -3.530179    -5.048855 
N      -0.684350     3.044388    -0.127302 
C      -1.990611     3.310860     0.220871 
O      -2.521029     4.364591    -0.073024 
C      -2.729085     2.193309     0.921925 
H      -2.980418     1.468386     0.141618 
H      -3.666005     2.622220     1.279246 
C      -1.992860     1.477786     2.073450 
H      -2.240815     1.991821     3.006337 
H      -2.414650     0.472114     2.156736 
C      -0.461673     1.399415     2.001977 
C       0.061034     0.091431     2.144937 
H      -0.585627    -0.781562     2.194589 
C      -0.515021     3.915099    -2.457840 
H      -1.488741     4.408916    -2.496392 
H       0.166645     4.487854    -3.097245 
C       0.014385     3.983783    -1.013803 
H       1.072168     3.728897    -0.973084 
H      -0.125303     4.989881    -0.614279 
C       0.273970     2.524922     2.731633 
H       1.322674     2.519813     2.430735 
H      -0.144598     3.478237     2.391796 
C       0.177256     2.445430     4.257039 
H       0.631532     1.525830     4.632252 
H       0.707324     3.288789     4.710209 
H      -0.857690     2.482045     4.610607 
O       1.288472    -0.032878     2.679274 
C       1.850216    -1.347122     2.724121 
H       2.006058    -1.704296     1.703732 
H       2.826033    -1.203209     3.193416 
C       1.016253    -2.325311     3.520245 
C       0.724467    -3.582894     3.004485 
C       0.545828    -1.987081     4.788248 
C      -0.024276    -4.494897     3.741969 
H       1.090112    -3.852234     2.018267 
C      -0.205566    -2.891687     5.524390 
H       0.770893    -1.007353     5.198841 
C      -0.491611    -4.150256     5.002708 
H      -0.241825    -5.475095     3.329521 
H      -0.567448    -2.616880     6.510185 
H      -1.077018    -4.858819     5.579857 
C      -0.115862     1.801789     0.161095 
O      -0.728794     0.673030    -0.368751 
C       0.243984    -0.238764    -0.123730 
N       1.248310     1.633898     0.065595 
N       1.448914     0.356810    -0.053497 
C      -0.033661    -1.625919    -0.529115 
O      -1.137314    -2.023555    -0.813366 
O       1.066336    -2.389938    -0.528113 
C       0.862537    -3.743675    -0.947107 
H       0.202216    -4.267753    -0.251566 
H       0.415412    -3.770292    -1.942820 
H       1.850752    -4.202597    -0.959716 
74
     -1835.290521     -1834.753252   2.53   2.51
C       1.789868     1.836288     2.530073 
C       2.613336     2.243188     1.467640 
C       3.748679     1.477142     1.166960 
C       4.020626     0.354030     1.912061 
C       3.170980    -0.040612     2.969308 
C       2.047276     0.695993     3.299590 
C       0.862647     3.629490     1.580692 
C       1.997619     3.393418     0.864427 
H       4.403097     1.754156     0.345886 
H       4.887543    -0.264086     1.705022 
H       1.379804     0.399878     4.097801 
H       0.099634     4.382334     1.435844 
N       0.725033     2.701560     2.593716 
C      -0.377956     2.627643     3.521773 
H      -0.972456     1.721539     3.363274 
H      -0.019198     2.648109     4.555919 
H      -1.024511     3.492601     3.365249 
O       3.549080    -1.184263     3.608757 
C       2.649119    -1.728894     4.555349 
H       1.672006    -1.925513     4.098393 
H       3.091397    -2.668109     4.889178 
H       2.525510    -1.062841     5.418533 
N       1.543275     2.018698    -1.606846 
C       2.604673     1.306485    -2.123732 
O       3.577559     1.868717    -2.588062 
C       2.487384    -0.196933    -2.031473 
H       2.673933    -0.455304    -0.985580 
H       3.309866    -0.605068    -2.620233 
C       1.145691    -0.806862    -2.494871 
H       1.221347    -1.018962    -3.565365 
H       1.038317    -1.775207    -1.997702 
C      -0.129063     0.028311    -2.296502 
C      -1.160908    -0.641187    -1.593571 
H      -1.013181    -1.630308    -1.165835 
C       2.412958     4.036128    -0.424195 
H       3.475623     3.855111    -0.605067 
H       2.270781     5.121418    -0.390623 
C       1.600427     3.484961    -1.608489 
H       0.573327     3.845603    -1.561570 
H       2.048446     3.795896    -2.553667 
C      -0.542814     0.870593    -3.504463 
H      -1.294252     1.598411    -3.193584 
H       0.331959     1.442748    -3.832254 
C      -1.079154     0.051919    -4.681340 
H      -0.351038    -0.680123    -5.043860 
H      -1.989780    -0.483610    -4.404542 
H      -1.322714     0.713523    -5.518339 
O      -2.428280    -0.281405    -1.865442 
C      -3.463110    -0.878338    -1.081480 
H      -3.357203    -0.554934    -0.043281 
H      -4.383143    -0.448166    -1.484169 
C      -3.497785    -2.387301    -1.177366 
C      -3.372512    -3.025797    -2.410136 
C      -3.684783    -3.156231    -0.034107 
C      -3.429241    -4.409772    -2.494511 
H      -3.229540    -2.433216    -3.308530 
C      -3.747715    -4.543619    -0.115610 
H      -3.788087    -2.664429     0.928511 
C      -3.618420    -5.173047    -1.346145 
H      -3.329135    -4.895930    -3.459891 
H      -3.898667    -5.132099     0.783936 
H      -3.665684    -6.255246    -1.412915 
C       0.452559     1.350817    -1.045893 
O       0.696827     0.467868    -0.001382 
C      -0.575923     0.261678     0.412708 
N      -0.705449     2.043490    -0.752720 
N      -1.348925     1.324557     0.114255 
C      -0.784550    -0.716039     1.493811 
O       0.018105    -1.564475     1.788937 
O      -1.976816    -0.564712     2.095046 
C      -2.233708    -1.482845     3.164860 
H      -1.513068    -1.335228     3.972933 
H      -3.242152    -1.259217     3.511999 
H      -2.165385    -2.514371     2.812910 
74
     -1835.285876     -1834.752928   5.45   2.71
C      -2.030603    -4.802411     3.166323 
C      -1.295628    -4.116926     2.184742 
C      -0.252817    -4.788505     1.527138 
C       0.019089    -6.094150     1.864293 
C      -0.733017    -6.763939     2.855187 
C      -1.768356    -6.134529     3.522857 
C      -2.857664    -2.733711     2.997116 
C      -1.844620    -2.788380     2.089358 
H       0.334733    -4.285356     0.764485 
H       0.816979    -6.645377     1.379585 
H      -2.353907    -6.633140     4.283972 
H      -3.522525    -1.915280     3.239574 
N      -2.983880    -3.945893     3.656828 
C      -3.952145    -4.258673     4.680537 
H      -4.602354    -5.083698     4.370049 
H      -3.458933    -4.531287     5.619801 
H      -4.573630    -3.380059     4.860963 
O      -0.349546    -8.055636     3.083426 
C      -1.055415    -8.788963     4.062706 
H      -2.116838    -8.887620     3.802087 
H      -0.599471    -9.779341     4.089895 
H      -0.967131    -8.323946     5.052779 
N       0.653824    -0.345768     0.614879 
C       1.393937    -0.952530    -0.388077 
O       1.559874    -2.154982    -0.412687 
C       2.016896    -0.007673    -1.390370 
H       1.255248     0.352781    -2.085501 
H       2.738106    -0.597424    -1.957752 
C       2.721760     1.166230    -0.698870 
H       3.439004     0.750114     0.016284 
H       3.301492     1.709331    -1.449891 
C       1.831679     2.155189     0.058328 
C       1.210254     3.179674    -0.679128 
H       1.088828     4.174764    -0.254910 
C      -1.346423    -1.706155     1.183255 
H      -2.059883    -0.876549     1.142037 
H      -1.243932    -2.097316     0.164868 
C       0.020859    -1.183620     1.639336 
H      -0.075829    -0.591980     2.550691 
H       0.699220    -2.013895     1.830597 
C       2.362130     2.561683     1.427367 
H       1.647472     3.233885     1.910050 
H       2.429160     1.672624     2.063600 
C       3.729714     3.248425     1.345587 
H       3.681654     4.146413     0.720653 
H       4.062207     3.553082     2.342541 
H       4.497829     2.591601     0.927406 
O       1.270940     3.104525    -2.039410 
C       1.119894     4.348672    -2.730166 
H       0.153816     4.796905    -2.469528 
H       1.912565     5.035662    -2.409525 
C       1.214123     4.099622    -4.211062 
C       0.257252     3.312916    -4.851685 
C       2.251457     4.652572    -4.953275 
C       0.342300     3.088437    -6.218312 
H      -0.552607     2.877238    -4.275320 
C       2.335603     4.431049    -6.324190 
H       3.002006     5.261984    -4.456794 
C       1.380409     3.647943    -6.958034 
H      -0.405695     2.474696    -6.710404 
H       3.148931     4.868804    -6.894423 
H       1.443399     3.471586    -8.027283 
C       0.225777     0.963378     0.452478 
O      -0.503167     1.264699    -0.674627 
C      -0.845836     2.545663    -0.375880 
N      -0.259287     1.704216     1.495941 
N      -0.883189     2.711469     0.968379 
C      -1.722675     3.259967    -1.331536 
O      -2.093287     2.795469    -2.377948 
O      -2.014420     4.486740    -0.891385 
C      -2.898613     5.245187    -1.730272 
H      -3.852881     4.725635    -1.839084 
H      -3.037612     6.198653    -1.222411 
H      -2.456607     5.395225    -2.718240 
74
     -1835.286660     -1834.752900   4.95   2.73
C       2.544849     2.577642    -2.720272 
C       1.588393     3.461658    -2.190980 
C       1.131899     4.512097    -2.999570 
C       1.628377     4.652493    -4.274420 
C       2.591925     3.753028    -4.781341 
C       3.066386     2.702236    -4.016551 
C       2.070886     1.922567    -0.638203 
C       1.299765     3.025681    -0.850411 
H       0.389339     5.212781    -2.630016 
H       1.294783     5.453721    -4.924395 
H       3.803013     2.002047    -4.388522 
H       2.140776     1.289296     0.235870 
N       2.828576     1.639247    -1.761194 
C       3.768368     0.551762    -1.894763 
H       3.494903    -0.103300    -2.728700 
H       4.785356     0.924923    -2.057052 
H       3.758804    -0.037305    -0.976469 
O       2.996495     4.012751    -6.060897 
C       3.956594     3.149742    -6.633538 
H       4.139516     3.522247    -7.642178 
H       4.896634     3.164017    -6.067435 
H       3.584826     2.118817    -6.691266 
N      -1.371902     1.807743    -0.158785 
C      -1.421331     1.049456    -1.322292 
O      -1.359863     1.556756    -2.420122 
C      -1.636212    -0.432641    -1.109087 
H      -0.737793    -0.892018    -0.691629 
H      -1.807367    -0.859150    -2.098362 
C      -2.850497    -0.694040    -0.208217 
H      -3.708105    -0.174367    -0.647962 
H      -3.077148    -1.763066    -0.237121 
C      -2.731206    -0.245085     1.250177 
C      -2.111073    -1.122771     2.158753 
H      -2.471204    -1.206494     3.182512 
C       0.306383     3.634035     0.092817 
H       0.381557     4.727524     0.063286 
H       0.534575     3.334829     1.120849 
C      -1.145393     3.256751    -0.231028 
H      -1.826524     3.744586     0.470213 
H      -1.404727     3.550777    -1.247774 
C      -3.946220     0.502446     1.785383 
H      -3.754114     0.820973     2.813633 
H      -4.089560     1.416999     1.199754 
C      -5.221708    -0.346322     1.747054 
H      -6.063546     0.213531     2.165686 
H      -5.493552    -0.639498     0.728963 
H      -5.102811    -1.261087     2.337300 
O      -1.477939    -2.219820     1.649891 
C      -1.340727    -3.318430     2.556393 
H      -0.799966    -2.988272     3.451594 
H      -2.337692    -3.655201     2.866119 
C      -0.605655    -4.435747     1.866758 
C      -1.223713    -5.664404     1.663915 
C       0.706277    -4.249611     1.431891 
C      -0.542112    -6.703842     1.039003 
H      -2.247850    -5.812140     1.996313 
C       1.385930    -5.284547     0.805510 
H       1.192665    -3.291496     1.584407 
C       0.764211    -6.514433     0.608932 
H      -1.033966    -7.659504     0.887104 
H       2.406762    -5.132262     0.469310 
H       1.298896    -7.322614     0.119757 
C      -1.276255     1.181943     1.074023 
O      -0.198155     0.356450     1.296242 
C      -0.385052     0.099887     2.617842 
N      -1.570179     1.834267     2.241423 
N      -1.049391     1.129234     3.197245 
C       0.652710    -0.710812     3.294355 
O       1.618581    -1.159585     2.731908 
O       0.363722    -0.891798     4.584204 
C       1.338213    -1.634587     5.333228 
H       2.300605    -1.119100     5.314064 
H       0.950010    -1.683882     6.349627 
H       1.458956    -2.637702     4.917241 
74
     -1835.285765     -1834.752428   5.52   3.03
C       0.929631     0.610287    -4.807614 
C       0.138161     1.652150    -4.276976 
C      -0.873242     2.187765    -5.073117 
C      -1.078705     1.699563    -6.352781 
C      -0.270588     0.662099    -6.857006 
C       0.742323     0.104688    -6.091890 
C       1.638993     1.038374    -2.732599 
C       0.616694     1.912331    -2.943135 
H      -1.507407     2.985950    -4.699220 
H      -1.868168     2.125194    -6.958386 
H       1.346386    -0.694456    -6.506379 
H       2.252100     0.901157    -1.852006 
N       1.840255     0.244546    -3.849101 
C       2.844331    -0.781729    -3.994849 
H       2.384380    -1.753395    -4.203278 
H       3.540820    -0.540538    -4.805003 
H       3.409033    -0.859134    -3.064452 
O      -0.417761     0.133863    -8.110630 
C      -1.436941     0.657593    -8.937520 
H      -2.429366     0.514195    -8.492436 
H      -1.282414     1.724760    -9.139589 
H      -1.380745     0.103094    -9.875286 
N      -1.014877     1.184375    -0.514921 
C      -1.405917    -0.048506    -1.021060 
O      -1.983669    -0.150651    -2.080675 
C      -1.123378    -1.231107    -0.119816 
H      -0.050296    -1.428372    -0.076968 
H      -1.607633    -2.089011    -0.588447 
C      -1.693801    -1.012454     1.287979 
H      -2.760181    -0.787248     1.182541 
H      -1.622969    -1.954124     1.838496 
C      -1.063206     0.102580     2.122881 
C       0.090734    -0.184462     2.866308 
H       0.248300     0.284999     3.833830 
C       0.052411     2.901105    -1.969103 
H      -0.176098     3.843881    -2.479986 
H       0.794652     3.136291    -1.199493 
C      -1.234118     2.409920    -1.292664 
H      -1.622183     3.177158    -0.618541 
H      -1.993547     2.164329    -2.034624 
C      -2.063606     1.023111     2.809857 
H      -1.527809     1.828433     3.319554 
H      -2.695993     1.498827     2.051889 
C      -2.932037     0.268381     3.823495 
H      -3.617736     0.958559     4.325057 
H      -3.536155    -0.510157     3.348421 
H      -2.314811    -0.212417     4.589724 
O       0.705816    -1.401336     2.687869 
C       1.258897    -1.953702     3.889257 
H       1.791228    -2.850315     3.563859 
H       1.984421    -1.255734     4.320564 
C       0.187571    -2.294539     4.900389 
C      -0.811572    -3.213187     4.581032 
C       0.165342    -1.680110     6.147681 
C      -1.818067    -3.505208     5.489589 
H      -0.798709    -3.699578     3.609943 
C      -0.840646    -1.972758     7.063985 
H       0.938278    -0.961062     6.405133 
C      -1.834816    -2.883631     6.735305 
H      -2.591417    -4.220906     5.229069 
H      -0.845920    -1.485715     8.033981 
H      -2.621296    -3.112899     7.447265 
C      -0.224853     1.252537     0.620303 
O       0.994629     0.615827     0.598702 
C       1.480965     1.038643     1.797847 
N      -0.107003     2.393355     1.360772 
N       0.936651     2.233897     2.118442 
C       2.831793     0.619848     2.243620 
O       3.250711     0.810141     3.355489 
O       3.498773    -0.005580     1.269752 
C       4.805792    -0.477104     1.630219 
H       5.204033    -0.950275     0.733489 
H       5.439296     0.356892     1.939332 
H       4.736249    -1.199297     2.446628 
74
     -1835.288695     -1834.752228   3.68   3.15
C       1.210902    -2.344835    -3.397026 
C      -0.193692    -2.359359    -3.325960 
C      -0.910269    -1.392430    -4.047029 
C      -0.225069    -0.448456    -4.776681 
C       1.186811    -0.445355    -4.819280 
C       1.928295    -1.393680    -4.137167 
C       0.598931    -4.011568    -2.046297 
C      -0.566856    -3.432746    -2.443214 
H      -1.995480    -1.379325    -4.024053 
H      -0.748490     0.314089    -5.342885 
H       3.010175    -1.409299    -4.160891 
H       0.763039    -4.831832    -1.360873 
N       1.682337    -3.368246    -2.615687 
C       3.071723    -3.679886    -2.378389 
H       3.130943    -4.554334    -1.728663 
H       3.588991    -3.910590    -3.315413 
H       3.583972    -2.847524    -1.884015 
O       1.732242     0.556070    -5.572519 
C       3.138055     0.584341    -5.711850 
H       3.635576     0.729898    -4.744575 
H       3.511659    -0.336933    -6.175873 
H       3.363285     1.430907    -6.361352 
N      -1.939372    -1.623583    -0.568976 
C      -2.750998    -0.778101    -1.297992 
O      -3.686567    -1.230194    -1.932404 
C      -2.421670     0.696477    -1.369061 
H      -3.378129     1.202416    -1.513750 
H      -1.860073     0.827739    -2.301177 
C      -1.667648     1.297580    -0.192815 
H      -1.521378     2.367622    -0.375136 
H      -2.270273     1.221152     0.715469 
C      -0.316377     0.645897     0.050568 
C       0.302184     0.975167     1.266624 
H       1.382811     0.902108     1.371532 
C      -1.950721    -3.732457    -1.953382 
H      -2.086873    -4.810873    -1.817817 
H      -2.685881    -3.405783    -2.690695 
C      -2.261337    -3.065227    -0.603543 
H      -3.320866    -3.184652    -0.364843 
H      -1.669403    -3.535295     0.183684 
C       0.619847     0.480574    -1.140156 
H       1.537048    -0.006236    -0.795902 
H       0.181633    -0.199215    -1.871842 
C       0.957642     1.811883    -1.814241 
H       0.069830     2.289766    -2.239260 
H       1.408593     2.514552    -1.104981 
H       1.664667     1.652026    -2.633139 
O      -0.322187     1.823734     2.129384 
C       0.552433     2.484582     3.045773 
H       1.140845     1.734304     3.588467 
H       1.250904     3.116798     2.483502 
C      -0.251425     3.328545     4.000357 
C      -1.382762     2.814830     4.632147 
C       0.159364     4.626226     4.287261 
C      -2.085128     3.592967     5.542764 
H      -1.716237     1.806979     4.411887 
C      -0.541781     5.404287     5.202276 
H       1.034636     5.036015     3.789986 
C      -1.665870     4.887466     5.832725 
H      -2.965261     3.185098     6.029979 
H      -0.209792     6.414749     5.419237 
H      -2.216576     5.491926     6.546602 
C      -0.970932    -1.227121     0.360396 
O      -1.407034    -1.009366     1.654420 
C      -0.214280    -0.963090     2.289778 
N       0.238247    -1.863666     0.411767 
N       0.722596    -1.637762     1.600175 
C      -0.225444    -0.739620     3.752081 
O      -1.231554    -0.571732     4.389761 
O       1.012749    -0.719248     4.252846 
C       1.091431    -0.490733     5.668834 
H       2.153493    -0.510947     5.909810 
H       0.655952     0.479547     5.922321 
H       0.559851    -1.277015     6.208389 
74
     -1835.285742     -1834.752134   5.53   3.21
C      -5.722341    -1.460450    -1.903887 
C      -4.487677    -1.679312    -1.257133 
C      -4.164511    -2.972559    -0.843323 
C      -5.056213    -4.006477    -1.076920 
C      -6.282591    -3.761297    -1.725043 
C      -6.632482    -2.487605    -2.146655 
C      -4.650452     0.496245    -1.764695 
C      -3.816827    -0.404527    -1.177647 
H      -3.220307    -3.174133    -0.345059 
H      -4.796320    -5.005970    -0.753913 
H      -7.583455    -2.331118    -2.642799 
H      -4.520072     1.560621    -1.910218 
N      -5.807362    -0.124718    -2.208535 
C      -6.917817     0.513861    -2.873251 
H      -7.076134     0.089044    -3.870320 
H      -7.840156     0.403488    -2.292860 
H      -6.703201     1.578367    -2.981644 
O      -7.204674    -4.738212    -1.984480 
C      -6.906998    -6.059830    -1.581410 
H      -7.762283    -6.666855    -1.881410 
H      -6.004415    -6.437978    -2.077157 
H      -6.778545    -6.129645    -0.494202 
N      -0.078850    -0.866527    -0.754529 
C       0.184667    -1.957114     0.054303 
O      -0.600543    -2.880064     0.145248 
C       1.465310    -1.874614     0.850937 
H       2.332732    -1.905888     0.188692 
H       1.487888    -2.757874     1.490384 
C       1.481436    -0.601542     1.709910 
H       0.571501    -0.600511     2.319653 
H       2.324999    -0.662963     2.402519 
C       1.543291     0.732006     0.962336 
C       2.804579     1.226731     0.591479 
H       3.008472     2.293968     0.633795 
C      -2.461872    -0.171901    -0.587046 
H      -2.411711    -0.631209     0.407080 
H      -2.269750     0.897719    -0.462843 
C      -1.362261    -0.787950    -1.459862 
H      -1.631937    -1.805098    -1.742517 
H      -1.215749    -0.199584    -2.366706 
C       0.559586     1.781322     1.462158 
H       0.619772     2.671261     0.830094 
H      -0.461142     1.395778     1.364204 
C       0.833583     2.172767     2.918805 
H       0.711870     1.326613     3.601212 
H       1.854473     2.551094     3.036607 
H       0.142827     2.958712     3.239625 
O       3.886706     0.401082     0.742437 
C       5.123319     1.077893     0.974982 
H       5.888134     0.303175     0.892182 
H       5.300116     1.820218     0.189016 
C       5.157075     1.741455     2.333288 
C       5.336444     3.114905     2.451818 
C       4.985961     0.979068     3.488129 
C       5.349895     3.722707     3.704061 
H       5.465994     3.719704     1.558248 
C       4.995335     1.580695     4.737774 
H       4.843506    -0.094259     3.402677 
C       5.178993     2.956591     4.848445 
H       5.493203     4.795768     3.781856 
H       4.861613     0.976959     5.629844 
H       5.188593     3.427418     5.826273 
C       0.846381     0.154292    -0.888856 
O       2.068097    -0.152703    -1.433157 
C       2.581797     1.102268    -1.536128 
N       0.483096     1.405800    -1.300585 
N       1.576370     2.001798    -1.665346 
C       3.927797     1.245767    -2.142392 
O       4.624403     0.320153    -2.460771 
O       4.267236     2.535702    -2.246838 
C       5.536402     2.784501    -2.868043 
H       5.546693     2.378024    -3.881544 
H       5.645141     3.868158    -2.889580 
H       6.343351     2.326791    -2.290765 
74
     -1835.289633     -1834.752040   3.09   3.27
C       1.714120     0.121667    -3.448553 
C       0.417672    -0.361777    -3.696654 
C      -0.592572     0.560086    -4.013934 
C      -0.288745     1.899303    -4.070032 
C       1.024042     2.361029    -3.821441 
C       2.046583     1.483296    -3.509507 
C       1.736098    -2.096226    -3.187758 
C       0.453615    -1.791785    -3.532830 
H      -1.607598     0.223581    -4.199657 
H      -1.045606     2.637932    -4.309285 
H       3.056765     1.818100    -3.314156 
H       2.181227    -3.055892    -2.962236 
N       2.511633    -0.950339    -3.138689 
C       3.901244    -0.884598    -2.753635 
H       4.027753    -0.317478    -1.824879 
H       4.272241    -1.897735    -2.591561 
H       4.504626    -0.418322    -3.539045 
O       1.178251     3.714250    -3.914148 
C       2.468064     4.246938    -3.690244 
H       3.192753     3.858739    -4.416803 
H       2.377813     5.326547    -3.814656 
H       2.819890     4.028891    -2.674072 
N      -1.588294    -2.128959    -1.419104 
C      -2.606526    -1.235998    -1.699060 
O      -3.258820    -1.331047    -2.720372 
C      -2.805982    -0.133014    -0.685646 
H      -3.305109    -0.533192     0.200277 
H      -3.475853     0.589964    -1.153433 
C      -1.482802     0.542667    -0.306223 
H      -0.997627     0.875782    -1.228396 
H      -1.710394     1.441686     0.273916 
C      -0.476136    -0.303877     0.473901 
C      -0.650544    -0.446092     1.860272 
H       0.209471    -0.452716     2.525498 
C      -0.707632    -2.727945    -3.693686 
H      -0.405304    -3.619103    -4.254536 
H      -1.488980    -2.236263    -4.275306 
C      -1.304148    -3.216045    -2.367495 
H      -2.235250    -3.755617    -2.564667 
H      -0.607924    -3.888332    -1.865754 
C       0.969229    -0.140723     0.025818 
H       1.612276    -0.781363     0.636442 
H       1.068928    -0.484662    -1.005202 
C       1.437002     1.313808     0.140042 
H       0.898108     1.969586    -0.549045 
H       1.293550     1.696910     1.156187 
H       2.501720     1.391746    -0.101761 
O      -1.829557    -0.011295     2.402033 
C      -1.761843     0.351357     3.781142 
H      -2.801166     0.482330     4.089036 
H      -1.333200    -0.468497     4.366925 
C      -0.961768     1.615424     4.000877 
C      -1.318238     2.794334     3.347280 
C       0.140467     1.619640     4.847973 
C      -0.586049     3.956305     3.541097 
H      -2.177164     2.797369     2.682737 
C       0.876294     2.784225     5.047945 
H       0.430380     0.704882     5.358066 
C       0.514043     3.953983     4.394934 
H      -0.873490     4.868565     3.027909 
H       1.733292     2.773687     5.713853 
H       1.085813     4.863614     4.548313 
C      -1.050644    -2.177967    -0.140071 
O      -1.915143    -2.440904     0.897087 
C      -1.015113    -2.566401     1.906121 
N       0.150389    -2.773979     0.129769 
N       0.178325    -2.975671     1.412018 
C      -1.533107    -2.908162     3.252052 
O      -2.701403    -2.987355     3.522693 
O      -0.529369    -3.072507     4.120902 
C      -0.924962    -3.452721     5.446554 
H      -1.560957    -2.684806     5.893480 
H      -1.470132    -4.398555     5.421108 
H       0.001468    -3.560297     6.009279 
74
     -1835.289607     -1834.751908   3.10   3.35
C      -1.182249    -2.243088    -2.157379 
C       0.227968    -2.288813    -2.214102 
C       0.884729    -1.378354    -3.041442 
C       0.154462    -0.470866    -3.789832 
C      -1.251917    -0.460817    -3.724568 
C      -1.937096    -1.343599    -2.905821 
C      -0.486445    -3.851024    -0.783707 
C       0.655529    -3.329093    -1.314040 
H       1.968493    -1.369206    -3.104923 
H       0.680343     0.228756    -4.426964 
H      -3.020299    -1.319011    -2.873331 
H      -0.609248    -4.633889    -0.047323 
N      -1.601013    -3.205005    -1.274707 
C      -2.965339    -3.422591    -0.848290 
H      -3.584457    -3.781664    -1.676984 
H      -2.966274    -4.175133    -0.058557 
H      -3.395177    -2.500292    -0.445382 
O      -2.033174     0.407099    -4.440415 
C      -1.396560     1.281756    -5.349875 
H      -0.718355     1.974634    -4.836446 
H      -0.836375     0.727709    -6.112702 
H      -2.193455     1.850422    -5.831074 
N       2.217991    -2.019318     0.934469 
C       3.272408    -1.148071     0.719920 
O       4.327708    -1.535012     0.260135 
C       3.027529     0.286550     1.133073 
H       2.345058     0.754480     0.419478 
H       3.990403     0.793773     1.059642 
C       2.476633     0.406219     2.561177 
H       3.199124    -0.048198     3.245164 
H       2.432097     1.467356     2.819150 
C       1.108047    -0.229585     2.826175 
C      -0.025880     0.577060     2.591987 
H      -0.902233     0.498538     3.232019 
C       2.064497    -3.685412    -0.930424 
H       2.773957    -3.113084    -1.534751 
H       2.266235    -4.744250    -1.129641 
C       2.367531    -3.429022     0.553141 
H       1.693506    -4.008725     1.186257 
H       3.396838    -3.710861     0.776403 
C       1.026197    -1.071977     4.099840 
H       1.263111    -0.396431     4.933362 
H      -0.009613    -1.395991     4.243812 
C       1.946494    -2.291133     4.192046 
H       1.646440    -3.067724     3.488008 
H       2.994298    -2.042129     4.001621 
H       1.888786    -2.713489     5.199822 
O       0.162484     1.781283     1.977568 
C      -0.906219     2.703986     2.124693 
H      -1.866409     2.196613     1.962448 
H      -0.908929     3.089290     3.153956 
C      -0.756968     3.845833     1.148233 
C      -1.684557     4.885427     1.191958 
C       0.259009     3.883219     0.200686 
C      -1.602051     5.944863     0.298941 
H      -2.481158     4.866069     1.932082 
C       0.344674     4.946414    -0.692942 
H       0.978822     3.075662     0.155567 
C      -0.584318     5.977719    -0.649003 
H      -2.331615     6.747387     0.343632 
H       1.144246     4.966728    -1.427345 
H      -0.515758     6.805617    -1.347353 
C       0.961543    -1.518604     1.259122 
O       0.395163    -0.635839     0.375636 
C      -0.848392    -0.539869     0.911110 
N      -0.027520    -2.300824     1.793572 
N      -1.139655    -1.661385     1.609470 
C      -1.880910     0.264800     0.215163 
O      -3.062778     0.167184     0.430267 
O      -1.320456     1.120677    -0.636134 
C      -2.223722     1.975832    -1.353454 
H      -2.867405     1.383385    -2.004549 
H      -2.829035     2.559353    -0.656929 
H      -1.589336     2.637687    -1.940418 
74
     -1835.283548     -1834.751789   6.91   3.43
C       4.454446    -3.053018    -0.702291 
C       3.352770    -2.295169    -0.250349 
C       3.152083    -1.020743    -0.783518 
C       4.029877    -0.532574    -1.737885 
C       5.120937    -1.310448    -2.171672 
C       5.348174    -2.578898    -1.660663 
C       3.352354    -4.262920     0.818768 
C       2.660005    -3.095194     0.730532 
H       2.314718    -0.410264    -0.458193 
H       3.866384     0.456463    -2.145623 
H       6.196471    -3.153642    -2.014252 
H       3.159513    -5.129407     1.437661 
N       4.440711    -4.254362    -0.039269 
C       5.402210    -5.316795    -0.209958 
H       5.408257    -5.679558    -1.243430 
H       6.411351    -4.980373     0.051247 
H       5.134637    -6.147213     0.445630 
O       6.022019    -0.886264    -3.109761 
C       5.844647     0.398147    -3.672356 
H       5.902681     1.183529    -2.908642 
H       6.659377     0.530479    -4.385587 
H       4.886370     0.477220    -4.200483 
N      -0.994033    -2.177391     1.182798 
C      -1.929445    -3.037341     1.727444 
O      -1.791824    -4.242376     1.678633 
C      -3.099172    -2.369903     2.412967 
H      -2.723578    -1.975619     3.360908 
H      -3.808182    -3.164322     2.648308 
C      -3.803897    -1.245997     1.623607 
H      -4.585067    -1.701488     1.008427 
H      -4.319209    -0.612314     2.351109 
C      -2.950220    -0.380901     0.685910 
C      -3.044281     1.010720     0.923301 
H      -3.607185     1.402910     1.769477 
C       1.409237    -2.710794     1.457079 
H       1.523128    -1.709980     1.890735 
H       1.217905    -3.401201     2.284256 
C       0.198191    -2.712728     0.519696 
H       0.398466    -2.109495    -0.366061 
H      -0.038825    -3.729076     0.207946 
C      -2.928114    -0.834960    -0.773744 
H      -2.125978    -0.313878    -1.299082 
H      -2.677999    -1.901367    -0.795139 
C      -4.250459    -0.609721    -1.511583 
H      -4.505763     0.451869    -1.544414 
H      -4.168089    -0.967240    -2.542550 
H      -5.081920    -1.146706    -1.045038 
O      -2.852507     1.840011    -0.112838 
C      -2.941717     3.243728     0.165457 
H      -3.981418     3.499454     0.402377 
H      -2.311066     3.473079     1.028664 
C      -2.463537     3.995516    -1.045129 
C      -3.312738     4.843011    -1.745321 
C      -1.141672     3.846380    -1.465324 
C      -2.850982     5.542684    -2.856165 
H      -4.344003     4.958625    -1.422392 
C      -0.681542     4.540360    -2.574949 
H      -0.481960     3.180214    -0.917313 
C      -1.535198     5.391327    -3.272028 
H      -3.521411     6.203612    -3.396566 
H       0.347464     4.420149    -2.899561 
H      -1.172508     5.934345    -4.139133 
C      -1.161588    -0.798478     1.270896 
O      -1.272516    -0.234561     2.535640 
C      -1.159710     1.076426     2.193929 
N      -0.383958     0.037741     0.499488 
N      -0.443398     1.207541     1.064076 
C      -1.314026     2.070203     3.276339 
O      -1.863359     1.822620     4.319838 
O      -0.809314     3.262559     2.942343 
C      -0.928389     4.280937     3.947168 
H      -0.473070     5.171473     3.515677 
H      -1.979123     4.460893     4.185381 
H      -0.400447     3.980435     4.854549 
74
     -1835.291085     -1834.751627   2.18   3.53
C       3.438185    -0.512148    -1.576817 
C       3.036790     0.633338    -2.283301 
C       2.413288     0.468186    -3.530439 
C       2.213986    -0.800331    -4.020940 
C       2.625922    -1.936237    -3.288125 
C       3.250087    -1.812085    -2.061126 
C       3.926924     1.273980    -0.332336 
C       3.361478     1.773355    -1.468645 
H       2.075208     1.328145    -4.099617 
H       1.730110    -0.964732    -4.977467 
H       3.551869    -2.669739    -1.476340 
H       4.287451     1.793446     0.545678 
N       3.973392    -0.105718    -0.380205 
C       4.584864    -0.961896     0.608633 
H       3.961561    -1.843531     0.777559 
H       5.584692    -1.286013     0.298040 
H       4.668743    -0.414405     1.549365 
O       2.348561    -3.133687    -3.883907 
C       2.629017    -4.305276    -3.143518 
H       3.705558    -4.414672    -2.961294 
H       2.097922    -4.304366    -2.183630 
H       2.281071    -5.141044    -3.752070 
N       0.677626     2.605817    -0.999423 
C      -0.045200     2.389156    -2.157505 
O       0.147155     3.060571    -3.151750 
C      -1.110188     1.322311    -2.062478 
H      -0.643391     0.337630    -1.991463 
H      -1.672765     1.365357    -2.996212 
C      -2.046362     1.584014    -0.872823 
H      -2.459797     2.590814    -0.994762 
H      -2.886953     0.888269    -0.935857 
C      -1.430832     1.502921     0.527045 
C      -1.389185     0.248468     1.158412 
H      -1.541734     0.171040     2.232092 
C       2.986547     3.195095    -1.762485 
H       2.806428     3.308273    -2.833719 
H       3.798057     3.881052    -1.496918 
C       1.726058     3.633950    -0.994266 
H       1.963774     3.830714     0.051038 
H       1.309250     4.538775    -1.440620 
C      -1.774215     2.673968     1.439093 
H      -1.232297     2.570940     2.383239 
H      -1.422289     3.603772     0.977839 
C      -3.278150     2.762544     1.722423 
H      -3.489883     3.590895     2.405890 
H      -3.859166     2.929891     0.810739 
H      -3.645625     1.840470     2.185583 
O      -1.729708    -0.859668     0.423829 
C      -2.334396    -1.905737     1.184864 
H      -2.371268    -2.761686     0.507723 
H      -1.696689    -2.168514     2.036655 
C      -3.717176    -1.527261     1.666618 
C      -4.710694    -1.198770     0.745168 
C      -4.012642    -1.476403     3.024103 
C      -5.975666    -0.826129     1.174617 
H      -4.485870    -1.234660    -0.316807 
C      -5.281411    -1.105168     3.459901 
H      -3.245539    -1.726297     3.752135 
C      -6.264227    -0.779140     2.536022 
H      -6.741058    -0.572730     0.447920 
H      -5.498667    -1.071079     4.522759 
H      -7.254443    -0.489290     2.872783 
C       0.555601     1.737959     0.077743 
O       0.821632     0.401736    -0.111345 
C       0.733554    -0.023807     1.173338 
N       0.963579     2.089414     1.334488 
N       1.036954     0.991249     2.019364 
C       1.000572    -1.449983     1.463448 
O       1.275782    -2.279571     0.637031 
O       0.874594    -1.696148     2.774241 
C       1.154308    -3.043361     3.174313 
H       0.996686    -3.069404     4.251836 
H       0.484566    -3.743585     2.669520 
H       2.188089    -3.303243     2.935123 
74
     -1835.286130     -1834.751545   5.29   3.58
C       3.035095    -2.648093     2.387525 
C       3.616964    -1.391858     2.142269 
C       4.963405    -1.347151     1.753737 
C       5.673635    -2.517596     1.629578 
C       5.066953    -3.766403     1.887352 
C       3.740199    -3.855154     2.269087 
C       1.477021    -1.084559     2.729334 
C       2.598870    -0.399203     2.369414 
H       5.445933    -0.399020     1.539718 
H       6.714479    -2.515021     1.326361 
H       3.256826    -4.802557     2.469132 
H       0.492804    -0.710915     2.976972 
N       1.725241    -2.445583     2.740750 
C       0.775688    -3.475018     3.090785 
H      -0.188999    -3.009163     3.296905 
H       0.647340    -4.186926     2.268565 
H       1.095405    -4.021912     3.984517 
O       5.890889    -4.845381     1.725907 
C       5.346719    -6.126722     1.962169 
H       6.152010    -6.839449     1.779934 
H       5.000486    -6.230448     2.998430 
H       4.514041    -6.340524     1.279967 
N       1.850917     1.122160    -0.113198 
C       2.141698     0.138927    -1.046877 
O       3.258292    -0.327988    -1.133403 
C       1.073309    -0.304604    -2.026959 
H       1.249314    -1.372205    -2.175832 
H       1.332574     0.176732    -2.976990 
C      -0.382244    -0.052953    -1.669591 
H      -1.012514    -0.419279    -2.487629 
H      -0.656318    -0.635434    -0.786997 
C      -0.705291     1.409465    -1.416995 
C      -1.939412     1.666051    -0.814024 
H      -2.425884     2.628863    -0.947563 
C       2.737942     1.087738     2.234900 
H       3.605847     1.438344     2.807290 
H       1.862234     1.575824     2.674056 
C       2.926962     1.570472     0.790084 
H       2.955764     2.662622     0.764303 
H       3.851327     1.179882     0.369779 
C      -0.232288     2.440188    -2.432063 
H      -0.501891     3.435050    -2.065716 
H       0.860435     2.432812    -2.499281 
C      -0.845459     2.211894    -3.817012 
H      -0.515362     2.987713    -4.514830 
H      -0.553332     1.244239    -4.236862 
H      -1.938973     2.237953    -3.773225 
O      -2.771864     0.621043    -0.493745 
C      -4.155081     0.901212    -0.716862 
H      -4.689210     0.053624    -0.281112 
H      -4.444666     1.807660    -0.172748 
C      -4.468279     1.044637    -2.189675 
C      -4.176880     0.000986    -3.067574 
C      -5.019910     2.216871    -2.693234 
C      -4.430461     0.130729    -4.424893 
H      -3.743036    -0.916144    -2.679928 
C      -5.279071     2.350078    -4.054599 
H      -5.246302     3.038201    -2.018668 
C      -4.983441     1.308102    -4.922016 
H      -4.198966    -0.687639    -5.099295 
H      -5.710597     3.270704    -4.434423 
H      -5.183614     1.409242    -5.983920 
C       0.593282     1.671259     0.138080 
O      -0.214253     1.041511     1.060274 
C      -1.158910     1.995059     1.224622 
N       0.453851     3.020632     0.287563 
N      -0.664536     3.211740     0.927257 
C      -2.249661     1.703758     2.185006 
O      -2.277520     0.724111     2.882350 
O      -3.183170     2.658059     2.158918 
C      -4.258716     2.485593     3.094294 
H      -3.870824     2.463142     4.114816 
H      -4.912560     3.345219     2.952438 
H      -4.794257     1.554798     2.893297 
74
     -1835.288848     -1834.751528   3.58   3.59
C       2.566464     0.495666    -2.870461 
C       1.306468     0.296494    -3.475470 
C       0.515190     1.412951    -3.750716 
C       0.974101     2.677634    -3.425838 
C       2.237577     2.847514    -2.824469 
C       3.049464     1.760011    -2.542186 
C       2.264487    -1.700011    -3.152074 
C       1.137626    -1.124122    -3.654433 
H      -0.464083     1.296074    -4.204176 
H       0.348533     3.534128    -3.640935 
H       4.015249     1.921998    -2.077640 
H       2.530663    -2.746222    -3.081824 
N       3.140127    -0.736086    -2.680881 
C       4.405560    -0.980790    -2.031522 
H       4.616418    -2.051096    -2.055759 
H       5.216895    -0.456836    -2.546660 
H       4.382344    -0.655390    -0.985670 
O       2.748179     4.066635    -2.476686 
C       1.982493     5.219483    -2.767717 
H       2.575312     6.069163    -2.426706 
H       1.797375     5.316665    -3.844393 
H       1.024146     5.210719    -2.234102 
N      -1.349920    -1.545940    -2.112280 
C      -2.163997    -0.456321    -2.361125 
O      -2.573693    -0.224273    -3.481978 
C      -2.455883     0.427505    -1.170798 
H      -3.184360    -0.061234    -0.519229 
H      -2.914288     1.332904    -1.571278 
C      -1.181823     0.780399    -0.394039 
H      -0.466164     1.213285    -1.099106 
H      -1.426158     1.563601     0.329439 
C      -0.482325    -0.365047     0.338834 
C      -0.978406    -0.761985     1.591349 
H      -0.296343    -1.049431     2.387807 
C      -0.059443    -1.801724    -4.252631 
H       0.254000    -2.596720    -4.938103 
H      -0.625675    -1.078853    -4.842018 
C      -0.993255    -2.445296    -3.219579 
H      -1.914457    -2.767907    -3.713808 
H      -0.513970    -3.314189    -2.768197 
C       1.035510    -0.353560     0.227157 
H       1.445608    -1.204310     0.779355 
H       1.321726    -0.488349    -0.817417 
C       1.634361     0.948047     0.769910 
H       1.319036     1.128426     1.803301 
H       2.727600     0.900165     0.754445 
H       1.340545     1.812654     0.169005 
O      -2.189441    -0.260752     1.984952 
C      -2.390070    -0.208707     3.397411 
H      -3.449498     0.023765     3.522824 
H      -2.201351    -1.191277     3.842402 
C      -1.518065     0.833724     4.060093 
C      -1.579881     2.164671     3.649194 
C      -0.640224     0.481528     5.078834 
C      -0.779567     3.125206     4.249765 
H      -2.262143     2.446091     2.852509 
C       0.162536     1.442721     5.686598 
H      -0.579979    -0.554007     5.402975 
C       0.093906     2.765675     5.273006 
H      -0.836893     4.158534     3.922435 
H       0.841830     1.154070     6.482357 
H       0.718697     3.517499     5.744464 
C      -1.122024    -1.948413    -0.803029 
O      -2.221686    -2.274527    -0.043705 
C      -1.591756    -2.755062     1.059140 
N      -0.090967    -2.778312    -0.458711 
N      -0.374885    -3.244490     0.719331 
C      -2.434706    -3.278778     2.159945 
O      -3.634912    -3.217768     2.175114 
O      -1.677746    -3.784516     3.140060 
C      -2.402335    -4.361372     4.235786 
H      -3.035781    -5.177308     3.881590 
H      -1.644880    -4.735940     4.923144 
H      -3.026986    -3.608683     4.722815 
74
     -1835.284687     -1834.751127   6.19   3.84
C       5.400909    -2.699595     0.393529 
C       4.243421    -2.364877    -0.329089 
C       4.210867    -2.616811    -1.709685 
C       5.311097    -3.180419    -2.313111 
C       6.464801    -3.508525    -1.566573 
C       6.532538    -3.276042    -0.204522 
C       3.920534    -1.823454     1.819076 
C       3.301966    -1.804480     0.606411 
H       3.330640    -2.367635    -2.295159 
H       5.323789    -3.388673    -3.377020 
H       7.408296    -3.521447     0.381666 
H       3.557823    -1.491496     2.782887 
N       5.192176    -2.363506     1.707249 
C       6.134747    -2.546849     2.784686 
H       7.056578    -1.983918     2.602490 
H       5.688124    -2.184198     3.711934 
H       6.386348    -3.605159     2.913481 
O       7.477712    -4.061342    -2.298989 
C       8.664700    -4.414077    -1.619725 
H       9.138887    -3.537824    -1.159679 
H       8.475215    -5.170546    -0.847610 
H       9.335014    -4.830473    -2.372586 
N       0.733452     0.430461    -1.093629 
C       0.378936    -0.132214    -2.306287 
O       1.124061    -0.916790    -2.861626 
C      -0.904799     0.298493    -2.983012 
H      -1.243320    -0.574120    -3.545138 
H      -0.607787     1.043403    -3.730424 
C      -2.021908     0.829888    -2.098618 
H      -2.874689     1.099847    -2.730576 
H      -2.375362     0.040496    -1.431091 
C      -1.617037     2.034669    -1.265370 
C      -2.516634     2.392372    -0.250453 
H      -2.538661     3.411064     0.131501 
C       1.939928    -1.283127     0.267239 
H       1.351143    -1.127424     1.175856 
H       1.405033    -2.017926    -0.344049 
C       2.032779     0.028554    -0.521490 
H       2.381299     0.841902     0.116319 
H       2.727345    -0.082469    -1.352682 
C      -0.915913     3.191542    -1.966127 
H      -0.679589     3.954852    -1.219137 
H       0.047762     2.861699    -2.366923 
C      -1.763784     3.803074    -3.084643 
H      -2.727247     4.153283    -2.699874 
H      -1.250132     4.659440    -3.531772 
H      -1.966485     3.084649    -3.884898 
O      -3.657804     1.668722    -0.079663 
C      -4.711065     2.372875     0.582240 
H      -4.341947     2.756328     1.541563 
H      -5.009675     3.232086    -0.031125 
C      -5.887282     1.454565     0.789417 
C      -5.711158     0.168124     1.296560 
C      -7.172623     1.906385     0.508517 
C      -6.811898    -0.647408     1.523351 
H      -4.713720    -0.197721     1.512965 
C      -8.275396     1.091020     0.739305 
H      -7.315555     2.904596     0.102995 
C      -8.096133    -0.188258     1.248711 
H      -6.665680    -1.647954     1.918207 
H      -9.273467     1.456053     0.518092 
H      -8.954163    -0.828177     1.429131 
C      -0.107339     1.167117    -0.255438 
O      -0.914098     0.468165     0.619504 
C      -1.310118     1.484610     1.421081 
N       0.377086     2.273010     0.386821 
N      -0.415837     2.490457     1.395455 
C      -2.215960     1.153618     2.543096 
O      -2.629720     0.044116     2.756002 
O      -2.528737     2.239191     3.255339 
C      -3.420559     2.006882     4.357495 
H      -3.561847     2.978426     4.829278 
H      -4.373583     1.609576     3.998065 
H      -2.976297     1.299327     5.060275 
74
     -1835.288603     -1834.751078   3.73   3.87
C       1.163922    -1.414160    -3.892320 
C      -0.184930    -1.012372    -3.781259 
C      -0.512400     0.312168    -4.075401 
C       0.480011     1.195723    -4.462893 
C       1.818341     0.766420    -4.569341 
C       2.175888    -0.543078    -4.288425 
C      -0.034117    -3.168038    -3.198891 
C      -0.938485    -2.160410    -3.341903 
H      -1.537444     0.658726    -3.988748 
H       0.212811     2.220872    -4.683992 
H       3.213492    -0.843428    -4.377961 
H      -0.185918    -4.189106    -2.875233 
N       1.238780    -2.736069    -3.532743 
C       2.450138    -3.516596    -3.454191 
H       2.196257    -4.539439    -3.171486 
H       2.962190    -3.542149    -4.421342 
H       3.134795    -3.108782    -2.702421 
O       2.844872     1.587126    -4.944434 
C       2.541129     2.927498    -5.277835 
H       2.116054     3.467854    -4.423100 
H       3.487811     3.390030    -5.559874 
H       1.845603     2.982453    -6.124099 
N      -2.115045    -1.079825    -0.852361 
C      -2.461518     0.234725    -1.106072 
O      -3.296699     0.511239    -1.944906 
C      -1.702995     1.274043    -0.314235 
H      -2.074546     1.299638     0.713112 
H      -1.930007     2.234552    -0.778948 
C      -0.190722     1.021303    -0.339191 
H       0.121852     0.950010    -1.385016 
H       0.308728     1.897540     0.083723 
C       0.309345    -0.229950     0.385341 
C       0.476441    -0.168017     1.780674 
H       1.312884    -0.671889     2.261610 
C      -2.415129    -2.198876    -3.081222 
H      -2.852453    -3.114654    -3.493815 
H      -2.893055    -1.360857    -3.591000 
C      -2.787411    -2.157016    -1.593815 
H      -3.868568    -2.023266    -1.493385 
H      -2.502268    -3.090117    -1.107589 
C       1.385564    -1.006302    -0.360598 
H       1.681209    -1.876798     0.232447 
H       0.969455    -1.389243    -1.294145 
C       2.617715    -0.145323    -0.655717 
H       3.392312    -0.746389    -1.141781 
H       2.384601     0.684968    -1.327570 
H       3.043111     0.268669     0.264848 
O      -0.027391     0.922212     2.428824 
C       0.589556     1.230239     3.681648 
H       0.499610     0.370273     4.356018 
H       1.656538     1.425237     3.518401 
C      -0.077712     2.443993     4.269587 
C      -1.422628     2.395850     4.635164 
C       0.638635     3.620823     4.455413 
C      -2.036098     3.514385     5.180853 
H      -1.985541     1.479437     4.489665 
C       0.025500     4.741758     5.005996 
H       1.685648     3.663844     4.167102 
C      -1.313495     4.689285     5.369000 
H      -3.083436     3.470001     5.462684 
H       0.594513     5.655173     5.148076 
H      -1.795886     5.562238     5.797508 
C      -1.377170    -1.388007     0.282789 
O      -1.913264    -1.028930     1.498297 
C      -1.016913    -1.632151     2.320081 
N      -0.721122    -2.579823     0.430359 
N      -0.464670    -2.701452     1.696396 
C      -1.262757    -1.554351     3.778463 
O      -2.174816    -0.945423     4.273445 
O      -0.324272    -2.217355     4.458840 
C      -0.498823    -2.237697     5.883622 
H       0.334966    -2.820928     6.272037 
H      -0.480921    -1.222570     6.287432 
H      -1.449662    -2.709475     6.139806 
74
     -1835.287965     -1834.750989   4.13   3.93
C       2.824154    -2.065904    -1.265237 
C       1.721988    -2.943346    -1.355397 
C       1.460889    -3.791914    -0.280498 
C       2.288077    -3.773970     0.829736 
C       3.394629    -2.904920     0.881129 
C       3.674227    -2.038024    -0.162770 
C       1.807806    -1.703622    -3.213486 
C       1.079927    -2.690480    -2.619261 
H       0.607407    -4.463095    -0.300044 
H       2.072474    -4.438184     1.656941 
H       4.532128    -1.378188    -0.101406 
H       1.647083    -1.204015    -4.159452 
N       2.858246    -1.311712    -2.410052 
C       3.773075    -0.225092    -2.679122 
H       4.801716    -0.589509    -2.769320 
H       3.485304     0.245823    -3.620104 
H       3.722511     0.528920    -1.887364 
O       4.252790    -2.840787     1.947330 
C       4.073013    -3.762911     3.003226 
H       3.106187    -3.622765     3.502678 
H       4.147999    -4.797599     2.647691 
H       4.875913    -3.567974     3.715524 
N      -1.631150    -1.655181    -1.862706 
C      -2.376743    -2.351232    -0.924918 
O      -2.806796    -3.462186    -1.158857 
C      -2.656643    -1.600060     0.358704 
H      -1.763903    -1.595418     0.987474 
H      -3.432215    -2.164020     0.878987 
C      -3.143721    -0.171504     0.079265 
H      -4.028134    -0.246526    -0.562031 
H      -3.477712     0.273887     1.020062 
C      -2.160091     0.787827    -0.608874 
C      -1.261197     1.492854     0.222697 
H      -0.960811     2.508429    -0.010269 
C      -0.203410    -3.288787    -3.119253 
H      -0.498001    -4.127049    -2.482592 
H      -0.078186    -3.689258    -4.131685 
C      -1.357729    -2.276838    -3.163637 
H      -1.131748    -1.469447    -3.861942 
H      -2.275363    -2.774598    -3.479873 
C      -2.813031     1.550522    -1.767714 
H      -2.880327     0.881119    -2.632322 
H      -3.849158     1.744182    -1.461331 
C      -2.193778     2.882646    -2.194392 
H      -2.263570     3.627469    -1.394383 
H      -1.147418     2.782419    -2.487465 
H      -2.745205     3.279634    -3.051834 
O      -1.228625     1.155120     1.547064 
C      -0.668947     2.153956     2.400809 
H      -0.546344     1.659610     3.366977 
H       0.320929     2.451214     2.037055 
C      -1.560319     3.369495     2.520544 
C      -2.871418     3.234431     2.975198 
C      -1.093052     4.631228     2.169967 
C      -3.698628     4.342852     3.079144 
H      -3.243771     2.251055     3.247355 
C      -1.919003     5.746515     2.275540 
H      -0.074166     4.747282     1.810206 
C      -3.222618     5.603903     2.729841 
H      -4.717729     4.225763     3.434001 
H      -1.540993     6.726158     2.000751 
H      -3.869158     6.471722     2.812368 
C      -0.917183    -0.531323    -1.459602 
O      -0.066665    -0.685887    -0.393032 
C       0.563389     0.516349    -0.431626 
N      -0.335556     0.328567    -2.359345 
N       0.552117     0.998611    -1.698887 
C       1.669617     0.783296     0.516579 
O       2.498986     1.643732     0.359975 
O       1.600020    -0.029438     1.571948 
C       2.637659     0.131747     2.548199 
H       3.613801    -0.066260     2.103656 
H       2.621052     1.143870     2.960145 
H       2.425099    -0.603194     3.323314 
74
     -1835.285055     -1834.750976   5.96   3.94
C       3.775007    -1.268901    -3.041396 
C       2.562875    -1.044462    -3.715958 
C       2.591721    -0.316021    -4.913743 
C       3.791464     0.155259    -5.392420 
C       4.996295    -0.084271    -4.695395 
C       5.010616    -0.798764    -3.510935 
C       2.137434    -2.229045    -1.867057 
C       1.520430    -1.670067    -2.945045 
H       1.677512    -0.119216    -5.465306 
H       3.846553     0.722809    -6.314667 
H       5.923607    -0.990730    -2.962579 
H       1.715917    -2.797046    -1.049335 
N       3.500866    -1.993259    -1.909085 
C       4.471811    -2.443087    -0.940623 
H       3.957078    -2.994747    -0.152381 
H       5.210171    -3.107846    -1.401445 
H       4.994505    -1.595516    -0.484896 
O       6.110046     0.441949    -5.286071 
C       7.351580     0.245039    -4.641517 
H       7.595283    -0.821726    -4.558837 
H       8.100068     0.736796    -5.263926 
H       7.359846     0.697230    -3.641688 
N      -0.573253     0.118417    -1.610874 
C       0.421153     0.957233    -1.121635 
O       1.252945     1.452833    -1.848407 
C       0.409494     1.148102     0.379282 
H      -0.406391     1.814340     0.667903 
H       1.350371     1.640825     0.628419 
C       0.304383    -0.192972     1.117011 
H       1.097763    -0.845025     0.736145 
H       0.515315    -0.021534     2.176387 
C      -1.021746    -0.945034     0.989274 
C      -2.094425    -0.546130     1.808593 
H      -2.772133    -1.285505     2.231871 
C       0.054942    -1.648213    -3.257269 
H      -0.476171    -2.392449    -2.656904 
H      -0.105536    -1.916020    -4.308546 
C      -0.586335    -0.273907    -3.024650 
H      -0.041314     0.500085    -3.565923 
H      -1.625200    -0.281106    -3.361128 
C      -0.888698    -2.449356     0.794702 
H      -1.884075    -2.894017     0.706273 
H      -0.381188    -2.647781    -0.153734 
C      -0.132366    -3.122960     1.944865 
H      -0.628481    -2.935003     2.902626 
H      -0.094672    -4.206477     1.795725 
H       0.897167    -2.762361     2.028742 
O      -1.952064     0.615541     2.509553 
C      -2.761294     0.727907     3.684183 
H      -3.818807     0.633084     3.411037 
H      -2.511201    -0.089353     4.371629 
C      -2.493006     2.057518     4.335200 
C      -2.827329     3.239975     3.675795 
C      -1.911763     2.119853     5.596527 
C      -2.581721     4.465889     4.277560 
H      -3.279342     3.194964     2.690087 
C      -1.668518     3.348395     6.202351 
H      -1.645443     1.200587     6.111528 
C      -2.003253     4.523135     5.542473 
H      -2.843901     5.382442     3.758416 
H      -1.215480     3.385754     7.188076 
H      -1.813638     5.483698     6.011224 
C      -1.655109    -0.203640    -0.809304 
O      -2.408508     0.834999    -0.315961 
C      -3.418570     0.123151     0.249378 
N      -2.490443    -1.249765    -1.095357 
N      -3.566663    -1.059545    -0.398522 
C      -4.535846     0.883411     0.856315 
O      -4.568452     2.083786     0.931164 
O      -5.472656     0.059667     1.332955 
C      -6.622110     0.702609     1.904231 
H      -7.278925    -0.104458     2.225915 
H      -6.331512     1.325368     2.753708 
H      -7.116680     1.324678     1.155396 
74
     -1835.285055     -1834.750971   5.96   3.94
C       3.509102    -1.572650    -3.213438 
C       3.777565    -1.916600    -1.877662 
C       4.255344    -3.206312    -1.604680 
C       4.446587    -4.091953    -2.638935 
C       4.169404    -3.721400    -3.973363 
C       3.697361    -2.458879    -4.284598 
C       3.041469     0.194750    -1.932733 
C       3.470735    -0.766323    -1.068281 
H       4.473863    -3.512772    -0.586316 
H       4.813408    -5.096540    -2.460228 
H       3.478188    -2.157866    -5.300695 
H       2.721283     1.208014    -1.733361 
N       3.056336    -0.277829    -3.233793 
C       2.677451     0.464145    -4.412316 
H       3.519511     0.560055    -5.105982 
H       1.844585    -0.021340    -4.931849 
H       2.361404     1.465214    -4.114694 
O       4.405120    -4.700217    -4.896727 
C       4.145556    -4.401342    -6.252798 
H       4.769842    -3.571110    -6.606630 
H       4.392760    -5.301627    -6.816562 
H       3.088546    -4.153860    -6.413068 
N       1.121569    -0.947509     0.883957 
C       0.312962    -1.497665    -0.103613 
O       0.646521    -2.479728    -0.728100 
C      -0.971755    -0.742761    -0.366181 
H      -1.688492    -0.928367     0.436741 
H      -1.383277    -1.158056    -1.287198 
C      -0.717691     0.761084    -0.532534 
H       0.059631     0.884692    -1.294224 
H      -1.626624     1.222915    -0.928405 
C      -0.275080     1.525192     0.716773 
C      -1.261159     1.915361     1.642226 
H      -1.192576     2.874577     2.152450 
C       3.560400    -0.686478     0.425439 
H       3.508425     0.354369     0.757618 
H       4.527887    -1.078443     0.761579 
C       2.461951    -1.489029     1.134934 
H       2.450788    -2.520182     0.780412 
H       2.629072    -1.483986     2.214080 
C       0.826762     2.550001     0.483843 
H       1.078480     3.035001     1.431329 
H       1.734455     2.036354     0.154099 
C       0.426112     3.616361    -0.541346 
H      -0.481206     4.141519    -0.225521 
H       1.221214     4.360370    -0.650604 
H       0.233591     3.187239    -1.529169 
O      -2.516112     1.406974     1.475705 
C      -3.574188     2.181727     2.047954 
H      -3.403231     2.296531     3.124769 
H      -3.574129     3.179981     1.593498 
C      -4.883234     1.488630     1.783975 
C      -5.140832     0.240160     2.349444 
C      -5.845717     2.084517     0.976993 
C      -6.349139    -0.397613     2.107474 
H      -4.390769    -0.228822     2.978270 
C      -7.059036     1.447600     0.736786 
H      -5.646684     3.055281     0.530666 
C      -7.311492     0.204913     1.302027 
H      -6.542873    -1.369560     2.550311 
H      -7.804244     1.922331     0.106241 
H      -8.256385    -0.295921     1.115733 
C       0.598041    -0.006748     1.754323 
O      -0.503903    -0.370600     2.491275 
C      -0.594223     0.716954     3.300985 
N       1.393354     0.795375     2.527670 
N       0.632113     1.274644     3.460851 
C      -1.645149     0.707858     4.345084 
O      -2.454990    -0.172434     4.474728 
O      -1.589940     1.814815     5.090036 
C      -2.543090     1.881595     6.161493 
H      -2.351545     2.828327     6.664735 
H      -3.563085     1.851754     5.770842 
H      -2.396902     1.045344     6.848250 
74
     -1835.289020     -1834.750855   3.47   4.01
C       0.853171     0.597033    -3.708925 
C      -0.459824     1.057230    -3.507986 
C      -0.652068     2.400856    -3.149007 
C       0.440455     3.221839    -3.003224 
C       1.751280     2.737263    -3.216278 
C       1.980645     1.420996    -3.574149 
C      -0.541503    -1.119465    -4.018631 
C      -1.343763    -0.059096    -3.720922 
H      -1.651059     2.787188    -2.973612 
H       0.327688     4.263510    -2.724199 
H       2.976584     1.031550    -3.738914 
H      -0.805430    -2.146397    -4.232446 
N       0.789070    -0.736914    -4.021501 
C       1.919478    -1.607158    -4.241807 
H       1.555112    -2.603756    -4.495560 
H       2.537829    -1.245389    -5.069527 
H       2.540171    -1.684696    -3.342430 
O       2.736699     3.665002    -3.037823 
C       4.073111     3.254268    -3.244733 
H       4.693870     4.131248    -3.058338 
H       4.358286     2.455597    -2.548503 
H       4.231342     2.911861    -4.275017 
N      -2.718296    -0.154261    -1.102271 
C      -2.926940     1.156105    -0.712851 
O      -3.637344     1.896837    -1.364167 
C      -2.184250     1.597685     0.527440 
H      -2.668970     1.181649     1.414020 
H      -2.282647     2.683483     0.567331 
C      -0.702960     1.203958     0.482447 
H      -0.277432     1.599980    -0.444362 
H      -0.189072     1.707019     1.306663 
C      -0.385606    -0.290463     0.543084 
C      -0.372472    -0.927924     1.793696 
H       0.359743    -1.701976     2.009552 
C      -2.839571    -0.034456    -3.608380 
H      -3.294493    -0.582555    -4.440703 
H      -3.189261     0.996745    -3.678096 
C      -3.378685    -0.658762    -2.315218 
H      -4.451123    -0.457890    -2.234454 
H      -3.222853    -1.737718    -2.323760 
C       0.705814    -0.745873    -0.415358 
H       0.859232    -1.823088    -0.302741 
H       0.377083    -0.579259    -1.442649 
C       2.025526    -0.010399    -0.161394 
H       2.346087    -0.121084     0.880064 
H       2.816140    -0.414427    -0.801717 
H       1.944659     1.057822    -0.379859 
O      -0.852323    -0.236455     2.876301 
C      -0.267658    -0.606376     4.127996 
H      -0.877255    -0.099909     4.879857 
H      -0.356072    -1.687165     4.281028 
C       1.180405    -0.184137     4.230598 
C       2.177650    -1.123285     4.468384 
C       1.533605     1.156425     4.081384 
C       3.510259    -0.732305     4.563684 
H       1.913171    -2.171218     4.580896 
C       2.860685     1.549745     4.171835 
H       0.759442     1.894683     3.893743 
C       3.853573     0.604278     4.415797 
H       4.278606    -1.475334     4.752469 
H       3.123920     2.596352     4.055268 
H       4.891786     0.911975     4.489223 
C      -2.142764    -1.051033    -0.212718 
O      -2.780405    -1.234216     0.992844 
C      -2.028997    -2.256213     1.482688 
N      -1.606907    -2.244221    -0.609327 
N      -1.503154    -2.971874     0.461731 
C      -2.336850    -2.849515     2.806021 
O      -1.674885    -3.719089     3.311006 
O      -3.398008    -2.268545     3.368291 
C      -3.748687    -2.760115     4.670093 
H      -2.930124    -2.591845     5.373977 
H      -4.631483    -2.195946     4.967660 
H      -3.970981    -3.828380     4.626480 
74
     -1835.288007     -1834.750850   4.11   4.02
C       1.711481    -1.648041    -3.623211 
C       0.314127    -1.853782    -3.633164 
C      -0.495368    -0.893891    -4.241060 
C       0.076324     0.241249    -4.792086 
C       1.471666     0.429403    -4.750095 
C       2.306459    -0.514678    -4.171702 
C       1.277985    -3.562750    -2.561384 
C       0.059474    -3.087350    -2.933334 
H      -1.572763    -1.022625    -4.274693 
H      -0.564581     0.979760    -5.256216 
H       3.376854    -0.343882    -4.157984 
H       1.526174    -4.447605    -1.991036 
N       2.286128    -2.709554    -2.972064 
C       3.695895    -2.869834    -2.707387 
H       4.270690    -2.883898    -3.639086 
H       4.071521    -2.061582    -2.070773 
H       3.853194    -3.817612    -2.190186 
O       2.098082     1.534437    -5.257976 
C       1.303862     2.522999    -5.883087 
H       1.994328     3.297865    -6.218621 
H       0.767039     2.117766    -6.749416 
H       0.582212     2.961348    -5.182640 
N      -1.578390    -1.781917    -0.871757 
C      -2.450925    -0.924344    -1.510100 
O      -3.300917    -1.368447    -2.260240 
C      -2.291472     0.570034    -1.337537 
H      -3.294154     0.985937    -1.453403 
H      -1.717282     0.905587    -2.208880 
C      -1.652428     1.058852    -0.046823 
H      -1.617754     2.153528    -0.061249 
H      -2.276801     0.783315     0.806482 
C      -0.247976     0.520143     0.170621 
C       0.283021     0.722014     1.454039 
H       1.360256     0.742713     1.606468 
C      -1.287582    -3.630218    -2.565174 
H      -1.285874    -4.725040    -2.601191 
H      -2.035144    -3.286365    -3.281855 
C      -1.726161    -3.225952    -1.147624 
H      -2.772343    -3.499069    -0.990306 
H      -1.113174    -3.747311    -0.410522 
C       0.745834     0.635400    -0.978426 
H       1.695207     0.193321    -0.662312 
H       0.410132     0.037549    -1.826664 
C       0.969141     2.081125    -1.426988 
H       1.728546     2.118765    -2.213105 
H       0.054940     2.526661    -1.831725 
H       1.306642     2.708688    -0.594914 
O      -0.462395     1.362460     2.396380 
C       0.299249     1.959807     3.447335 
H       0.943463     1.198322     3.904277 
H       0.946903     2.737788     3.024258 
C      -0.627591     2.562232     4.470970 
C      -1.725188     1.849711     4.951072 
C      -0.365713     3.832001     4.975182 
C      -2.541891     2.404187     5.927638 
H      -1.943059     0.861750     4.561320 
C      -1.181371     4.385797     5.956086 
H       0.482516     4.396783     4.597237 
C      -2.271399     3.671088     6.434875 
H      -3.394728     1.842415     6.295673 
H      -0.965134     5.376674     6.343027 
H      -2.911148     4.100282     7.199583 
C      -0.701836    -1.434564     0.162623 
O      -1.215084    -1.463180     1.446415 
C      -0.063354    -1.392562     2.151393 
N       0.566724    -1.944636     0.191614 
N       0.971262    -1.854050     1.426970 
C      -0.162439    -1.395931     3.627304 
O      -1.207726    -1.429301     4.221751 
O       1.043181    -1.326908     4.198283 
C       1.034772    -1.309144     5.634630 
H       0.568063    -2.217420     6.020826 
H       2.081270    -1.259244     5.932638 
H       0.486530    -0.437069     6.001028 
74
     -1835.288053     -1834.750841   4.08   4.02
C      -0.966035    -2.532435    -2.785725 
C      -2.185191    -1.885953    -2.514383 
C      -3.108876    -2.528459    -1.676745 
C      -2.807404    -3.764803    -1.157454 
C      -1.580866    -4.399386    -1.455330 
C      -0.639446    -3.794974    -2.269765 
C      -0.950283    -0.556852    -3.825854 
C      -2.158671    -0.619718    -3.201092 
H      -4.050201    -2.051492    -1.423392 
H      -3.499766    -4.286148    -0.506001 
H       0.306955    -4.263897    -2.505346 
H      -0.544282     0.231504    -4.445544 
N      -0.213943    -1.704117    -3.579984 
C       1.090086    -2.008603    -4.120587 
H       1.802809    -2.229825    -3.320016 
H       1.047031    -2.864062    -4.803300 
H       1.454459    -1.142398    -4.675031 
O      -1.418514    -5.624923    -0.876709 
C      -0.215233    -6.320420    -1.132786 
H      -0.285391    -7.262198    -0.587519 
H      -0.094604    -6.530627    -2.202871 
H       0.655674    -5.758647    -0.772330 
N      -2.152806     1.676258    -1.333815 
C      -1.421106     2.625817    -2.024335 
O      -1.815620     3.077966    -3.080819 
C      -0.093309     2.999704    -1.405875 
H      -0.252806     3.645927    -0.539876 
H       0.442652     3.574414    -2.162722 
C       0.712167     1.754780    -1.014709 
H       0.780260     1.109180    -1.896848 
H       1.732544     2.063199    -0.769275 
C       0.159155     0.910202     0.133692 
C       0.407793     1.328308     1.451983 
H       0.615305     0.598535     2.230895 
C      -3.226484     0.429920    -3.231579 
H      -4.192508    -0.024355    -3.482851 
H      -2.996463     1.154822    -4.012983 
C      -3.412932     1.175760    -1.902763 
H      -4.086969     2.023957    -2.057600 
H      -3.847564     0.518096    -1.150806 
C       0.232828    -0.591570    -0.097019 
H      -0.194971    -1.115554     0.762056 
H      -0.383290    -0.851787    -0.958547 
C       1.669716    -1.072220    -0.320556 
H       2.311063    -0.819306     0.530419 
H       1.685722    -2.159319    -0.445739 
H       2.115477    -0.628072    -1.215181 
O       0.943350     2.574544     1.633362 
C       1.677403     2.745530     2.846210 
H       1.843281     3.821775     2.925516 
H       1.071882     2.428904     3.701831 
C       2.986206     1.989017     2.831190 
C       3.267508     1.035553     3.802899 
C       3.926436     2.235244     1.831467 
C       4.472581     0.338955     3.784307 
H       2.539677     0.832184     4.583904 
C       5.127527     1.541998     1.807697 
H       3.711866     2.977762     1.068462 
C       5.404041     0.591262     2.786952 
H       4.680142    -0.401314     4.550418 
H       5.852793     1.743077     1.025549 
H       6.344471     0.049806     2.769599 
C      -1.828306     1.389165    -0.015352 
O      -1.817998     2.436714     0.876365 
C      -1.619862     1.742251     2.027018 
N      -2.284266     0.272028     0.629015 
N      -2.113149     0.486195     1.897215 
C      -1.588607     2.508114     3.295511 
O      -1.626492     3.707785     3.357748 
O      -1.471498     1.687007     4.345147 
C      -1.479352     2.330206     5.627594 
H      -0.637838     3.021492     5.716525 
H      -2.411536     2.881452     5.767698 
H      -1.396424     1.527070     6.358772 
74
     -1835.285303     -1834.750806   5.81   4.04
C       1.952353    -5.369602    -2.124889 
C       1.027382    -4.370802    -1.754215 
C      -0.310919    -4.523310    -2.119968 
C      -0.698950    -5.643618    -2.836294 
C       0.244595    -6.626300    -3.194512 
C       1.580607    -6.503789    -2.844500 
C       3.051458    -3.783235    -0.996739 
C       1.758454    -3.361617    -1.027447 
H      -1.046965    -3.770843    -1.850790 
H      -1.738357    -5.752816    -3.116629 
H       2.282405    -7.277143    -3.135048 
H       3.917370    -3.313322    -0.549060 
N       3.186538    -4.996066    -1.654515 
C       4.408030    -5.746819    -1.818292 
H       4.649534    -5.878490    -2.878497 
H       5.226195    -5.203151    -1.342887 
H       4.329327    -6.733773    -1.349799 
O      -0.075007    -7.753938    -3.900482 
C      -1.421255    -7.937469    -4.289749 
H      -1.762697    -7.130738    -4.950083 
H      -1.452349    -8.883078    -4.832754 
H      -2.086880    -7.998821    -3.419922 
N      -0.057112    -0.034602    -1.085082 
C      -1.425210    -0.229492    -0.994031 
O      -1.943473    -1.266374    -1.355848 
C      -2.213609     0.950637    -0.471188 
H      -2.074622     1.035565     0.608823 
H      -3.263702     0.722824    -0.658545 
C      -1.822527     2.256559    -1.174787 
H      -1.955481     2.105353    -2.250998 
H      -2.530732     3.033593    -0.875168 
C      -0.394903     2.760690    -0.950185 
C      -0.136761     3.543801     0.188822 
H       0.581640     4.359596     0.150476 
C       1.174068    -2.102559    -0.468196 
H       1.879075    -1.617378     0.214808 
H       0.273960    -2.340536     0.109659 
C       0.786935    -1.125363    -1.584563 
H       1.675770    -0.686288    -2.039521 
H       0.215153    -1.638801    -2.356273 
C       0.327760     3.197195    -2.218658 
H       1.351260     3.490757    -1.970502 
H       0.407016     2.341231    -2.897823 
C      -0.377529     4.360241    -2.924190 
H      -1.386530     4.094576    -3.252536 
H      -0.459710     5.228454    -2.261802 
H       0.187822     4.667567    -3.809191 
O      -1.120113     3.655506     1.132465 
C      -1.056008     4.815889     1.956445 
H      -0.015629     5.138567     2.069791 
H      -1.613471     5.622775     1.461735 
C      -1.644644     4.532178     3.317674 
C      -2.366764     3.374538     3.582715 
C      -1.458282     5.465477     4.336047 
C      -2.892154     3.150959     4.851251 
H      -2.508639     2.640270     2.799426 
C      -1.983610     5.244362     5.601880 
H      -0.890109     6.371029     4.138834 
C      -2.702967     4.082516     5.863670 
H      -3.454375     2.242855     5.046517 
H      -1.831244     5.979490     6.385990 
H      -3.115402     3.907340     6.852224 
C       0.531724     1.024577    -0.409640 
O       0.308694     1.122661     0.944028 
C       1.148644     2.156642     1.226941 
N       1.808820     1.437717    -0.671968 
N       2.162474     2.181639     0.331330 
C       1.298870     2.637267     2.624648 
O       1.905571     3.636068     2.914532 
O       0.666416     1.841073     3.483536 
C       0.738889     2.235600     4.864625 
H       1.779235     2.245522     5.196831 
H       0.296955     3.223392     5.002843 
H       0.167695     1.485586     5.409202 
74
     -1835.283889     -1834.750784   6.69   4.06
C       5.592938    -2.496288     0.258605 
C       4.350580    -2.266110    -0.369442 
C       4.181030    -2.670326    -1.694422 
C       5.229747    -3.282694    -2.360636 
C       6.460394    -3.500565    -1.710808 
C       6.659157    -3.111678    -0.394899 
C       4.241763    -1.491678     1.728907 
C       3.497000    -1.620301     0.597703 
H       3.236492    -2.504722    -2.204816 
H       5.089350    -3.591435    -3.388170 
H       7.617890    -3.293238     0.077229 
H       3.972496    -1.059302     2.683689 
N       5.511360    -2.016894     1.541940 
C       6.569504    -2.061652     2.521910 
H       6.864934    -3.094544     2.735659 
H       7.449294    -1.508162     2.176404 
H       6.216273    -1.604903     3.447983 
O       7.533334    -4.099460    -2.313056 
C       7.395860    -4.517533    -3.656060 
H       8.353270    -4.960409    -3.934035 
H       6.605136    -5.270179    -3.764347 
H       7.182963    -3.671442    -4.321095 
N       0.699604     0.340695    -1.074462 
C       0.255424    -0.370026    -2.174388 
O       0.974943    -1.194066    -2.706227 
C      -1.101397    -0.056955    -2.768051 
H      -1.456856    -0.998248    -3.191911 
H      -0.904294     0.603532    -3.620494 
C      -2.150939     0.542999    -1.845546 
H      -3.068768     0.713335    -2.418310 
H      -2.409623    -0.172437    -1.061392 
C      -1.717236     1.847770    -1.198045 
C      -2.531373     2.296509    -0.147819 
H      -2.557253     3.351837     0.116215 
C       2.091769    -1.166272     0.352367 
H       1.598460    -0.914857     1.295722 
H       1.517292    -1.977610    -0.107632 
C       2.060822     0.044188    -0.588731 
H       2.437033     0.936713    -0.087076 
H       2.677876    -0.146826    -1.465222 
C      -1.130079     2.933814    -2.090677 
H      -0.854949     3.785513    -1.461867 
H      -0.195879     2.586318    -2.543038 
C      -2.101700     3.386505    -3.183813 
H      -2.350026     2.574082    -3.873699 
H      -3.037990     3.752296    -2.749634 
H      -1.665703     4.198710    -3.773186 
O      -3.622408     1.566160     0.214568 
C      -4.635712     2.313108     0.891774 
H      -4.193611     2.816090     1.760762 
H      -5.023710     3.086163     0.216887 
C      -5.750667     1.392802     1.315582 
C      -5.477833     0.179770     1.945870 
C      -7.073294     1.772717     1.111921 
C      -6.519882    -0.634095     2.370036 
H      -4.451022    -0.130343     2.104108 
C      -8.116993     0.959427     1.540217 
H      -7.292367     2.712389     0.611596 
C      -7.841103    -0.246145     2.171618 
H      -6.298452    -1.577239     2.859764 
H      -9.144858     1.268162     1.377402 
H      -8.652878    -0.884310     2.506329 
C      -0.087296     1.146767    -0.247712 
O      -0.780752     0.532504     0.775328 
C      -1.139222     1.624224     1.491071 
N       0.411834     2.333042     0.214420 
N      -0.291224     2.644704     1.264284 
C      -1.922685     1.401435     2.726191 
O      -2.271192     0.313271     3.102999 
O      -2.209622     2.553602     3.337555 
C      -2.984891     2.426778     4.540444 
H      -3.951136     1.963828     4.322847 
H      -2.449743     1.818755     5.272446 
H      -3.119196     3.442436     4.910366 
74
     -1835.285978     -1834.750740   5.38   4.09
C       3.057424    -3.169833     4.271951 
C       1.878311    -2.514024     3.880025 
C       1.205539    -1.713472     4.816554 
C       1.720879    -1.592559     6.086332 
C       2.909013    -2.260456     6.458187 
C       3.597744    -3.059141     5.562856 
C       2.651494    -3.686120     2.136412 
C       1.633130    -2.860305     2.503177 
H       0.291561    -1.194376     4.542846 
H       1.230371    -0.982736     6.836673 
H       4.508580    -3.577665     5.831794 
H       2.840298    -4.167137     1.185821 
N       3.522248    -3.884012     3.196736 
C       4.710070    -4.703566     3.178498 
H       4.640728    -5.515960     3.910050 
H       4.822215    -5.143099     2.186011 
H       5.603609    -4.108116     3.395090 
O       3.300424    -2.047254     7.750255 
C       4.481582    -2.682111     8.193685 
H       5.353746    -2.357700     7.611971 
H       4.614858    -2.385999     9.234865 
H       4.394863    -3.774656     8.137744 
N      -0.541116    -0.298361     0.722111 
C      -1.546342     0.103115     1.577205 
O      -1.410638    -0.012857     2.780868 
C      -2.843494     0.648576     1.016870 
H      -3.123869     1.467776     1.682896 
H      -3.586652    -0.139051     1.183259 
C      -2.852071     1.112905    -0.431229 
H      -3.863615     1.442226    -0.691858 
H      -2.206626     1.987160    -0.544916 
C      -2.403961     0.040117    -1.409838 
C      -2.160541     0.472512    -2.720925 
H      -2.215484    -0.225124    -3.553371 
C       0.494138    -2.361075     1.669571 
H      -0.443447    -2.478875     2.223130 
H       0.405160    -2.934441     0.743260 
C       0.671967    -0.877505     1.330081 
H       0.890775    -0.306252     2.231510 
H       1.496837    -0.743266     0.627667 
C      -3.008523    -1.351532    -1.277534 
H      -2.550492    -1.998825    -2.030969 
H      -2.741856    -1.789584    -0.310147 
C      -4.529916    -1.350825    -1.447833 
H      -4.814387    -0.932915    -2.419055 
H      -4.923887    -2.370055    -1.392569 
H      -5.028846    -0.760862    -0.672782 
O      -2.321413     1.788280    -3.034754 
C      -2.530814     2.065269    -4.419162 
H      -1.964948     1.357685    -5.032979 
H      -3.600323     1.940872    -4.637686 
C      -2.088544     3.472862    -4.733807 
C      -2.064780     4.462806    -3.756583 
C      -1.715997     3.793612    -6.036521 
C      -1.672625     5.757031    -4.079211 
H      -2.343637     4.217687    -2.738403 
C      -1.328433     5.087592    -6.361318 
H      -1.715439     3.021493    -6.800953 
C      -1.305458     6.074078    -5.381629 
H      -1.655934     6.521468    -3.308433 
H      -1.039874     5.324745    -7.380593 
H      -1.002271     7.085540    -5.632773 
C      -0.549654    -0.216450    -0.671646 
O      -0.018404     0.923475    -1.237839 
C       0.069948     0.511757    -2.526900 
N      -0.167575    -1.293677    -1.419972 
N       0.155427    -0.827701    -2.593493 
C       0.579678     1.427093    -3.578266 
O       0.563885     1.155325    -4.751394 
O       1.025845     2.566036    -3.054179 
C       1.542226     3.524156    -3.994466 
H       2.362701     3.084966    -4.565893 
H       0.755480     3.854502    -4.674004 
H       1.899134     4.356815    -3.390080 
74
     -1835.288038     -1834.750586   4.09   4.18
C      -2.459577    -1.006014    -2.791610 
C      -3.256750    -0.533726    -1.725418 
C      -3.482680     0.838871    -1.620658 
C      -2.903680     1.704519    -2.534019 
C      -2.092419     1.207022    -3.572649 
C      -1.869045    -0.153322    -3.720856 
C      -3.098376    -2.757519    -1.566791 
C      -3.646349    -1.679602    -0.944554 
H      -4.099724     1.236575    -0.820890 
H      -3.084027     2.767425    -2.437851 
H      -1.245037    -0.506548    -4.533845 
H      -3.123308    -3.801222    -1.283627 
N      -2.383219    -2.370907    -2.684240 
C      -1.611900    -3.238629    -3.541486 
H      -1.943918    -3.159173    -4.581713 
H      -0.545247    -2.995467    -3.489271 
H      -1.746583    -4.270439    -3.213352 
O      -1.471733     2.007648    -4.492264 
C      -1.631467     3.407098    -4.372185 
H      -1.251142     3.772661    -3.410129 
H      -1.047790     3.848593    -5.181013 
H      -2.681804     3.703109    -4.482572 
N      -2.282890    -0.656866     1.445267 
C      -2.628487     0.667796     1.616232 
O      -3.785020     0.967946     1.851525 
C      -1.582750     1.746878     1.438116 
H      -1.900188     2.566430     2.085757 
H      -1.699300     2.105839     0.408970 
C      -0.136067     1.369341     1.718314 
H       0.491039     2.258934     1.590366 
H      -0.024815     1.062156     2.760930 
C       0.386061     0.267933     0.813105 
C       1.590631    -0.328767     1.199508 
H       2.235414    -0.794998     0.459422 
C      -4.345752    -1.646495     0.379394 
H      -5.000513    -2.517086     0.494397 
H      -4.975787    -0.758080     0.448071 
C      -3.362731    -1.658703     1.562556 
H      -3.899533    -1.472897     2.495731 
H      -2.876564    -2.633981     1.626790 
C       0.177887     0.417577    -0.687291 
H       0.585238    -0.467431    -1.184416 
H      -0.887103     0.426754    -0.923089 
C       0.843446     1.677125    -1.247781 
H       1.916931     1.690835    -1.031601 
H       0.710538     1.721357    -2.332755 
H       0.407969     2.588474    -0.825496 
O       2.211265     0.078763     2.353798 
C       3.639974     0.066496     2.275670 
H       3.978025     0.267358     3.294954 
H       3.988279    -0.931067     1.987321 
C       4.156611     1.115294     1.316588 
C       3.832302     2.458037     1.508478 
C       4.938129     0.758598     0.223790 
C       4.281804     3.425058     0.621624 
H       3.218578     2.741737     2.358541 
C       5.393317     1.726330    -0.667505 
H       5.191456    -0.285860     0.063583 
C       5.065302     3.060197    -0.470296 
H       4.023499     4.467271     0.780772 
H       6.003602     1.434179    -1.516248 
H       5.418832     3.816836    -1.163513 
C      -0.981120    -1.157162     1.335565 
O      -0.350431    -1.502658     2.516337 
C       0.710366    -2.177533     2.012328 
N      -0.662315    -2.082915     0.386180 
N       0.423699    -2.675941     0.797581 
C       1.757770    -2.728824     2.905835 
O       2.793274    -3.190479     2.500683 
O       1.414886    -2.619289     4.189144 
C       2.393894    -3.088260     5.127683 
H       3.322149    -2.522219     5.021298 
H       1.956647    -2.925995     6.111873 
H       2.598320    -4.148977     4.966903 
74
     -1835.287967     -1834.750532   4.13   4.22
C      -1.534657    -1.772119    -2.384108 
C      -1.369771    -2.654462    -1.294167 
C      -0.146691    -3.309495    -1.154546 
C       0.861448    -3.097827    -2.079584 
C       0.660850    -2.224908    -3.165923 
C      -0.537125    -1.548864    -3.329674 
C      -3.415654    -1.759688    -1.193115 
C      -2.593625    -2.625110    -0.535233 
H       0.028328    -3.984997    -0.322876 
H       1.804581    -3.614847    -1.956571 
H      -0.669178    -0.882024    -4.173963 
H      -4.416112    -1.434235    -0.941258 
N      -2.792545    -1.232460    -2.304276 
C      -3.325327    -0.204159    -3.169707 
H      -3.441017    -0.573140    -4.194132 
H      -4.304556     0.094127    -2.792668 
H      -2.673582     0.675062    -3.170766 
O       1.613722    -1.974967    -4.117650 
C       2.836104    -2.679563    -4.037916 
H       3.378020    -2.444359    -3.113432 
H       2.678495    -3.763205    -4.097661 
H       3.429071    -2.354802    -4.894017 
N      -1.897112    -1.448004     2.167267 
C      -0.840498    -1.942876     2.914669 
O      -0.879523    -3.049991     3.410824 
C       0.314097    -0.984149     3.107061 
H       0.889624    -0.912943     2.181901 
H       0.955057    -1.425911     3.871128 
C      -0.172207     0.397942     3.562816 
H      -0.752283     0.254292     4.480318 
H       0.697168     1.002199     3.834535 
C      -1.051830     1.192137     2.584152 
C      -0.383981     1.994117     1.629394 
H      -0.789399     2.949594     1.311297 
C      -2.869199    -3.296791     0.780453 
H      -2.046360    -3.969376     1.037783 
H      -3.772535    -3.914608     0.720039 
C      -3.067970    -2.302756     1.934478 
H      -3.913046    -1.643080     1.731280 
H      -3.254236    -2.844688     2.862167 
C      -2.296367     1.768892     3.268799 
H      -3.023469     0.960601     3.403419 
H      -1.982567     2.055951     4.280820 
C      -2.982707     2.978027     2.630544 
H      -3.869645     3.239309     3.215256 
H      -2.327930     3.856064     2.632937 
H      -3.302914     2.786150     1.605377 
O       0.975024     1.870766     1.547786 
C       1.633136     2.937306     0.881957 
H       1.088772     3.202185    -0.034168 
H       1.630038     3.823256     1.532361 
C       3.053324     2.554389     0.541491 
C       3.871249     3.504241    -0.068347 
C       3.562129     1.286977     0.798665 
C       5.176981     3.191858    -0.420720 
H       3.482525     4.499542    -0.270814 
C       4.871962     0.973467     0.448779 
H       2.930689     0.541484     1.265269 
C       5.681927     1.921447    -0.162642 
H       5.802571     3.941081    -0.895714 
H       5.259938    -0.019087     0.657094 
H       6.703036     1.674498    -0.434973 
C      -1.714476    -0.292945     1.412945 
O      -0.673532    -0.290609     0.517965 
C      -0.940350     0.869496    -0.135742 
N      -2.769087     0.388834     0.856096 
N      -2.269695     1.133113    -0.075611 
C      -0.100668     1.258884    -1.293811 
O      -0.436571     2.065588    -2.123882 
O       1.071958     0.629901    -1.259936 
C       1.987570     0.948847    -2.318807 
H       1.586439     0.616591    -3.276963 
H       2.180430     2.023162    -2.344197 
H       2.903737     0.411659    -2.079547 
74
     -1835.283412     -1834.750293   6.99   4.37
C       5.671550    -0.893328     0.512664 
C       4.273568    -0.779854     0.419040 
C       3.504302    -1.954087     0.398755 
C       4.135454    -3.173682     0.472533 
C       5.542376    -3.261985     0.566196 
C       6.334427    -2.128400     0.587723 
C       5.155492     1.277473     0.424027 
C       3.961843     0.625936     0.360714 
H       2.421187    -1.907992     0.327914 
H       3.572959    -4.100552     0.460038 
H       7.412960    -2.177312     0.659202 
H       5.358912     2.339996     0.413409 
N       6.200366     0.372106     0.515142 
C       7.603827     0.699701     0.594419 
H       8.155277     0.282545    -0.255126 
H       7.715666     1.785004     0.577635 
H       8.045303     0.321592     1.522817 
O       6.029094    -4.537019     0.631655 
C       7.428529    -4.703178     0.728372 
H       7.825334    -4.237321     1.639264 
H       7.606101    -5.778479     0.768950 
H       7.943118    -4.285280    -0.146132 
N       0.452416     1.531104     1.547912 
C       0.214949     2.875804     1.780697 
O       1.138969     3.633111     2.000440 
C      -1.212293     3.377460     1.861087 
H      -1.180039     4.408572     1.503631 
H      -1.436610     3.436605     2.932703 
C      -2.287016     2.591200     1.125646 
H      -3.258019     3.062591     1.311292 
H      -2.118217     2.652285     0.048156 
C      -2.356957     1.127670     1.529321 
C      -3.131347     0.308730     0.694549 
H      -3.541426    -0.624695     1.073807 
C       2.592670     1.229040     0.289369 
H       2.016476     0.751704    -0.510912 
H       2.657453     2.294398     0.051591 
C       1.850489     1.065200     1.619885 
H       1.829399     0.019088     1.926218 
H       2.346835     1.645978     2.396267 
C      -2.402633     0.790686     3.014512 
H      -2.421787    -0.297984     3.120106 
H      -1.480093     1.119578     3.503335 
C      -3.613538     1.404750     3.721846 
H      -3.638186     1.103493     4.773422 
H      -3.593718     2.498562     3.691882 
H      -4.548662     1.075635     3.256832 
O      -3.780686     0.844381    -0.380025 
C      -4.936879     0.123555    -0.793472 
H      -4.754229    -0.952533    -0.688033 
H      -5.774428     0.391235    -0.135635 
C      -5.283727     0.435805    -2.229204 
C      -4.484278     1.240907    -3.030935 
C      -6.436482    -0.134434    -2.768772 
C      -4.831606     1.466797    -4.359626 
H      -3.582132     1.680637    -2.625967 
C      -6.783395     0.091892    -4.092969 
H      -7.067926    -0.764236    -2.146296 
C      -5.977710     0.895049    -4.894472 
H      -4.196393     2.092790    -4.978345 
H      -7.683241    -0.357934    -4.500890 
H      -6.245440     1.073983    -5.931016 
C      -0.476048     0.619142     1.041195 
O      -0.699677     0.608311    -0.321551 
C      -1.396850    -0.547780    -0.425392 
N      -0.471046    -0.673093     1.489994 
N      -1.095821    -1.378168     0.590626 
C      -1.847192    -0.945468    -1.781140 
O      -1.552350    -0.341536    -2.777243 
O      -2.626296    -2.028998    -1.737095 
C      -3.106839    -2.485007    -3.014086 
H      -3.701390    -3.372699    -2.801342 
H      -3.719319    -1.714388    -3.487634 
H      -2.265385    -2.734655    -3.663472 
74
     -1835.283650     -1834.750153   6.84   4.45
C       3.678006    -2.048579     3.995161 
C       2.858799    -1.696007     2.908992 
C       2.697184    -2.615738     1.860474 
C       3.340396    -3.829747     1.927720 
C       4.158529    -4.162152     3.030507 
C       4.342915    -3.281703     4.081192 
C       2.876624     0.002470     4.367619 
C       2.354531    -0.371058     3.167136 
H       2.072653    -2.377626     1.004128 
H       3.239508    -4.565172     1.137348 
H       4.965869    -3.519805     4.933229 
H       2.741337     0.923478     4.918978 
N       3.681157    -1.001335     4.881457 
C       4.403334    -0.955474     6.130476 
H       4.209842     0.002114     6.616572 
H       4.078271    -1.756135     6.803535 
H       5.482358    -1.047576     5.966119 
O       4.732252    -5.400158     2.960026 
C       5.563556    -5.802520     4.028918 
H       5.010005    -5.837533     4.975778 
H       5.914803    -6.804965     3.781610 
H       6.427177    -5.134418     4.138386 
N      -0.886854     0.429791     1.356438 
C      -1.618151     1.553823     1.709939 
O      -1.555192     2.019552     2.828467 
C      -2.517594     2.107387     0.627639 
H      -1.914847     2.622669    -0.124025 
H      -3.154568     2.848782     1.111796 
C      -3.381574     1.022152    -0.029897 
H      -3.980562     0.541439     0.748527 
H      -4.087136     1.515800    -0.703169 
C      -2.644828    -0.072492    -0.808010 
C      -2.332916     0.201885    -2.153229 
H      -2.372835    -0.584879    -2.903852 
C       1.412259     0.399047     2.295324 
H       1.774269     0.392061     1.260024 
H       1.361081     1.444666     2.612898 
C       0.002860    -0.200113     2.337060 
H       0.035657    -1.268843     2.121624 
H      -0.443085    -0.053422     3.320187 
C      -3.139692    -1.494328    -0.545699 
H      -4.197813    -1.507728    -0.841331 
H      -2.618674    -2.183082    -1.218574 
C      -3.035597    -2.021845     0.887396 
H      -3.565881    -2.976021     0.961424 
H      -1.997427    -2.195375     1.170524 
H      -3.481300    -1.341895     1.618419 
O      -2.522114     1.475781    -2.602059 
C      -2.731763     1.600230    -4.012492 
H      -1.867475     1.189547    -4.548156 
H      -3.616722     1.017719    -4.296536 
C      -2.933759     3.052418    -4.351070 
C      -4.134976     3.486030    -4.900547 
C      -1.913315     3.974925    -4.121539 
C      -4.320311     4.825877    -5.226147 
H      -4.934794     2.771391    -5.076043 
C      -2.098530     5.312063    -4.442626 
H      -0.974976     3.641789    -3.689834 
C      -3.301404     5.740583    -4.997010 
H      -5.261706     5.153234    -5.656171 
H      -1.300054     6.024587    -4.260774 
H      -3.442670     6.787111    -5.248398 
C      -0.770849     0.067077     0.024212 
O      -0.267176     0.999105    -0.851864 
C      -0.168108     0.225951    -1.964736 
N      -0.342786    -1.172195    -0.363300 
N      -0.013063    -1.070806    -1.615716 
C       0.420488     0.844076    -3.175417 
O       0.768833     1.993914    -3.238914 
O       0.482025    -0.032457    -4.181093 
C       1.079737     0.461372    -5.389321 
H       1.054277    -0.372063    -6.090045 
H       0.513319     1.310536    -5.779267 
H       2.109163     0.772814    -5.200386 
74
     -1835.288850     -1834.749726   3.58   4.72
C       0.017733    -0.368705    -4.407590 
C      -1.241566    -0.418690    -3.771261 
C      -1.972478     0.763807    -3.645777 
C      -1.453822     1.948046    -4.140022 
C      -0.195786     1.968023    -4.775450 
C       0.553376     0.810681    -4.919406 
C      -0.351042    -2.471884    -3.749628 
C      -1.461540    -1.784507    -3.364891 
H      -2.938684     0.764609    -3.151036 
H      -2.029378     2.858236    -4.032678 
H       1.518202     0.857669    -5.411082 
H      -0.109728    -3.518565    -3.620672 
N       0.549107    -1.633434    -4.386003 
C       1.851792    -2.004435    -4.884220 
H       1.987094    -3.079929    -4.759355 
H       1.946045    -1.765295    -5.948250 
H       2.646649    -1.488695    -4.334314 
O       0.373159     3.102057    -5.283693 
C      -0.356363     4.310714    -5.200582 
H       0.265209     5.071309    -5.674751 
H      -1.311697     4.239969    -5.734692 
H      -0.543741     4.596309    -4.158201 
N      -1.834901    -1.408556    -0.452317 
C      -2.563238    -0.245522    -0.288508 
O      -3.691590    -0.144170    -0.729182 
C      -1.849148     0.879167     0.425749 
H      -1.805082     0.661171     1.495469 
H      -2.467897     1.766898     0.288031 
C      -0.444113     1.122917    -0.137876 
H      -0.540257     1.292170    -1.214431 
H      -0.057794     2.049364     0.296549 
C       0.583517     0.009367     0.070493 
C       1.265365    -0.056875     1.297846 
H       2.311481    -0.351982     1.334973 
C      -2.669398    -2.307409    -2.645485 
H      -2.988769    -3.261551    -3.078822 
H      -3.496519    -1.607512    -2.773924 
C      -2.447624    -2.550379    -1.147370 
H      -3.406531    -2.771909    -0.669423 
H      -1.776837    -3.396579    -0.997840 
C       1.434460    -0.305620    -1.152071 
H       2.132879    -1.111282    -0.907620 
H       0.790896    -0.679441    -1.950244 
C       2.215071     0.917991    -1.641303 
H       2.862750     0.644630    -2.479939 
H       1.551743     1.713161    -1.991969 
H       2.849184     1.327061    -0.847285 
O       0.831525     0.741217     2.321355 
C       1.804026     1.059332     3.311139 
H       2.546040     0.256727     3.380353 
H       2.321965     1.978187     3.004589 
C       1.148946     1.254259     4.657704 
C       1.958725     1.359534     5.787383 
C      -0.230962     1.334088     4.802738 
C       1.397785     1.539179     7.044434 
H       3.038843     1.293257     5.683480 
C      -0.794393     1.513022     6.062056 
H      -0.867169     1.243968     3.931067 
C       0.015607     1.615499     7.185395 
H       2.039851     1.619693     7.916051 
H      -1.873736     1.574221     6.162827 
H      -0.425621     1.756891     8.166904 
C      -0.671922    -1.598518     0.283175 
O      -0.783262    -1.549940     1.653682 
C       0.479201    -1.928999     1.988850 
N       0.262667    -2.541145    -0.045535 
N       1.000084    -2.706069     1.010534 
C       0.861174    -2.076504     3.417723 
O       1.998040    -2.238214     3.779779 
O      -0.198897    -1.985156     4.216350 
C       0.072775    -2.095402     5.624273 
H      -0.894823    -1.996023     6.113236 
H       0.519269    -3.067483     5.844230 
H       0.744080    -1.298018     5.946286 
74
     -1835.282838     -1834.749508   7.35   4.86
C       3.166530     1.196576    -5.131371 
C       2.023942     0.714104    -4.471354 
C       1.253076    -0.281406    -5.092077 
C       1.639859    -0.756202    -6.323912 
C       2.793553    -0.257083    -6.968849 
C       3.576196     0.725048    -6.388527 
C       2.978231     2.278932    -3.185865 
C       1.919166     1.424192    -3.222192 
H       0.364318    -0.673736    -4.606377 
H       1.070918    -1.525238    -6.834179 
H       4.462270     1.118215    -6.869256 
H       3.265094     2.988743    -2.421326 
N       3.742979     2.153730    -4.335242 
C       4.936419     2.903100    -4.646905 
H       5.150711     3.586791    -3.823844 
H       5.797266     2.238184    -4.776109 
H       4.805095     3.493034    -5.560510 
O       3.053705    -0.822035    -8.185876 
C       4.193032    -0.373628    -8.889944 
H       4.125095     0.696663    -9.122660 
H       5.114203    -0.563662    -8.324589 
H       4.219940    -0.941749    -9.820541 
N      -0.101229    -0.487854    -0.629567 
C      -1.191381    -1.062012    -1.250779 
O      -1.171187    -1.276908    -2.448252 
C      -2.435039    -1.381781    -0.448387 
H      -2.800074    -2.330706    -0.847662 
H      -3.173805    -0.628962    -0.744531 
C      -2.306156    -1.457536     1.065678 
H      -3.295568    -1.663032     1.490724 
H      -1.668272    -2.298745     1.345056 
C      -1.767254    -0.182040     1.696223 
C      -1.372629    -0.294929     3.035693 
H      -1.343241     0.567913     3.690120 
C       0.861490     1.208318    -2.184899 
H      -0.124319     1.209940    -2.661833 
H       0.870496     2.010441    -1.442360 
C       1.053886    -0.137223    -1.477555 
H       1.177230    -0.935286    -2.208728 
H       1.941430    -0.110787    -0.842321 
C      -2.420724     1.117109     1.225920 
H      -2.031434     1.388061     0.239082 
H      -3.486202     0.893568     1.080661 
C      -2.305575     2.324877     2.156230 
H      -2.820748     2.145059     3.105381 
H      -1.264222     2.580745     2.364336 
H      -2.776623     3.193979     1.687705 
O      -1.503496    -1.505789     3.668798 
C      -1.788671    -1.400185     5.068267 
H      -1.742459    -2.426814     5.439015 
H      -1.006210    -0.817505     5.565350 
C      -3.149234    -0.792849     5.325792 
C      -3.279017     0.352828     6.102412 
C      -4.292065    -1.371418     4.774831 
C      -4.531980     0.914080     6.332784 
H      -2.393093     0.812866     6.531859 
C      -5.541860    -0.813191     4.998933 
H      -4.196369    -2.264937     4.164660 
C      -5.664774     0.332240     5.781373 
H      -4.619450     1.807345     6.943236 
H      -6.424796    -1.271862     4.564982 
H      -6.642895     0.767989     5.958473 
C       0.024278    -0.195863     0.728480 
O       0.596687    -1.157560     1.530877 
C       0.792937    -0.419951     2.652380 
N       0.471384     1.030121     1.127536 
N       0.904872     0.884959     2.346364 
C       1.376245    -1.032876     3.870785 
O       1.443307    -0.461351     4.928128 
O       1.780876    -2.282636     3.645389 
C       2.321297    -2.967238     4.785080 
H       1.569332    -3.041307     5.574028 
H       2.599575    -3.957320     4.426705 
H       3.195128    -2.436546     5.169051 
74
     -1835.287955     -1834.749436   4.14   4.90
C      -0.283836     1.318146    -3.004155 
C       0.659935     0.285629    -3.147711 
C       1.997720     0.558381    -2.829689 
C       2.352634     1.824021    -2.423476 
C       1.392524     2.854631    -2.333658 
C       0.059965     2.619901    -2.615471 
C      -1.361821    -0.516222    -3.662468 
C      -0.052537    -0.887201    -3.579614 
H       2.752298    -0.219776    -2.894695 
H       3.380008     2.068578    -2.176418 
H      -0.694026     3.392737    -2.538851 
H      -2.230987    -1.104481    -3.924146 
N      -1.519189     0.808550    -3.312260 
C      -2.779737     1.503962    -3.184263 
H      -3.586273     0.804111    -3.406919 
H      -2.918291     1.871444    -2.162276 
H      -2.842267     2.343545    -3.884594 
O       1.888697     4.068073    -1.938308 
C       1.042228     5.193365    -2.060650 
H       0.676715     5.303452    -3.088970 
H       0.184539     5.136029    -1.379366 
H       1.648089     6.061199    -1.797190 
N       0.315225    -2.921236    -1.392950 
C       1.595849    -3.131483    -0.907777 
O       2.457067    -3.639543    -1.595921 
C       1.807550    -2.738774     0.537712 
H       1.886809    -1.652569     0.614041 
H       2.765517    -3.168131     0.834250 
C       0.688456    -3.276430     1.439150 
H       0.650302    -4.362056     1.301458 
H       0.967154    -3.103164     2.481851 
C      -0.729990    -2.734705     1.202038 
C      -1.071785    -1.527037     1.853190 
H      -2.073475    -1.351577     2.233129 
C       0.510156    -2.262596    -3.800152 
H       1.601766    -2.230010    -3.755727 
H       0.246552    -2.632760    -4.797501 
C       0.009547    -3.293518    -2.779357 
H      -1.073154    -3.409030    -2.848159 
H       0.483142    -4.258480    -2.964507 
C      -1.773805    -3.856107     1.159884 
H      -1.705281    -4.356763     0.187882 
H      -1.451825    -4.600811     1.899453 
C      -3.232497    -3.501915     1.454967 
H      -3.357520    -3.150531     2.484795 
H      -3.624596    -2.741125     0.778325 
H      -3.850419    -4.398053     1.345786 
O      -0.067673    -0.858779     2.498905 
C      -0.502473     0.086840     3.464741 
H      -1.326753     0.687460     3.057483 
H      -0.888816    -0.446948     4.343857 
C       0.637802     0.989418     3.870351 
C       1.837695     1.027199     3.168963 
C       0.461340     1.837678     4.962184 
C       2.845687     1.905502     3.553629 
H       1.979267     0.378372     2.313967 
C       1.466238     2.715441     5.345649 
H      -0.472590     1.812145     5.518563 
C       2.664147     2.751969     4.639744 
H       3.779236     1.926404     2.999466 
H       1.314996     3.370891     6.197585 
H       3.452426     3.435984     4.937450 
C      -0.546653    -2.085890    -0.690276 
O      -0.092441    -0.824145    -0.398744 
C      -1.235234    -0.284098     0.097097 
N      -1.888286    -2.010981    -0.973745 
N      -2.310025    -0.906928    -0.448087 
C      -1.249811     1.142043     0.493213 
O      -2.255608     1.763625     0.727762 
O      -0.009544     1.618161     0.580241 
C       0.116903     2.994264     0.961967 
H      -0.099449     3.110631     2.026279 
H       1.150651     3.263123     0.752822 
H      -0.568169     3.610944     0.378216 
74
     -1835.287162     -1834.749401   4.64   4.93
C       0.435739    -3.600738    -0.704693 
C      -0.928175    -3.619832    -0.370020 
C      -1.871283    -3.540966    -1.405466 
C      -1.443967    -3.419395    -2.704216 
C      -0.066535    -3.362979    -3.013120 
C       0.894842    -3.462559    -2.022719 
C       0.271205    -3.773633     1.512794 
C      -1.013236    -3.717780     1.064105 
H      -2.934675    -3.561477    -1.188677 
H      -2.148677    -3.342059    -3.524250 
H       1.953923    -3.434406    -2.243746 
H       0.636189    -3.834361     2.529506 
N       1.159593    -3.707176     0.456793 
C       2.595515    -3.814004     0.550904 
H       2.960150    -4.706153     0.030375 
H       3.079314    -2.929322     0.128525 
H       2.875432    -3.889577     1.602832 
O       0.214098    -3.209574    -4.337702 
C       1.560837    -2.976302    -4.701165 
H       1.561073    -2.818635    -5.780120 
H       1.951441    -2.080433    -4.203332 
H       2.195715    -3.839386    -4.464740 
N      -1.913837    -1.130821     2.002862 
C      -1.332806    -0.915277     3.238939 
O      -1.637918    -1.586746     4.204416 
C      -0.357961     0.239709     3.300937 
H       0.575899    -0.033373     2.805302 
H      -0.144631     0.403245     4.358235 
C      -0.956854     1.510275     2.683032 
H      -1.890564     1.723837     3.213549 
H      -0.284273     2.347702     2.886362 
C      -1.278737     1.478709     1.181557 
C      -0.235735     1.814339     0.291032 
H      -0.433166     2.358994    -0.625441 
C      -2.242391    -3.617512     1.913027 
H      -1.986535    -3.839010     2.951128 
H      -2.997558    -4.347276     1.597916 
C      -2.887346    -2.220521     1.850745 
H      -3.380804    -2.062800     0.892098 
H      -3.625888    -2.120105     2.648466 
C      -2.681707     2.018505     0.880372 
H      -3.415387     1.242883     1.125347 
H      -2.856874     2.829907     1.598569 
C      -2.957981     2.566183    -0.520904 
H      -2.346756     3.451132    -0.728398 
H      -2.777304     1.826371    -1.302539 
H      -4.005020     2.876094    -0.588111 
O       1.018716     1.979292     0.817925 
C       1.879643     2.813857     0.040935 
H       2.868063     2.691340     0.489815 
H       1.921024     2.454435    -0.993516 
C       1.447838     4.262626     0.067785 
C       1.123638     4.930848    -1.107625 
C       1.356482     4.942780     1.281393 
C       0.717863     6.261861    -1.076249 
H       1.187540     4.409117    -2.058755 
C       0.949834     6.268300     1.317382 
H       1.605612     4.425502     2.203441 
C       0.630100     6.932110     0.135850 
H       0.469830     6.772584    -2.001318 
H       0.882057     6.787836     2.267994 
H       0.313205     7.969793     0.163251 
C      -1.380546    -0.512757     0.876662 
O      -0.045888    -0.716165     0.608606 
C       0.023183    -0.124265    -0.613835 
N      -2.060516    -0.463336    -0.312800 
N      -1.186032    -0.182479    -1.222758 
C       1.290646    -0.116086    -1.372445 
O       1.387535     0.236773    -2.519491 
O       2.326691    -0.492615    -0.609012 
C       3.603908    -0.434460    -1.251270 
H       4.333716    -0.705756    -0.488838 
H       3.646433    -1.137008    -2.087594 
H       3.803049     0.572166    -1.625894 
74
     -1835.282726     -1834.749349   7.42   4.96
C      -2.800300     4.982525    -1.601966 
C      -2.208495     3.741869    -1.279700 
C      -2.881071     2.570347    -1.631186 
C      -4.100530     2.647582    -2.283169 
C      -4.667743     3.899293    -2.592614 
C      -4.026682     5.081401    -2.256621 
C      -0.859387     5.382010    -0.570375 
C      -0.960136     4.026059    -0.613678 
H      -2.457851     1.596334    -1.401252 
H      -4.612708     1.732684    -2.551080 
H      -4.487782     6.029595    -2.508163 
H      -0.070612     5.996957    -0.157449 
N      -1.963063     5.976102    -1.161958 
C      -2.202548     7.393100    -1.293047 
H      -3.118900     7.687635    -0.770251 
H      -1.364539     7.937265    -0.854273 
H      -2.289530     7.681517    -2.346110 
O      -5.867270     4.044093    -3.234129 
C      -6.570133     2.875709    -3.606358 
H      -5.990087     2.263642    -4.308060 
H      -6.835305     2.269630    -2.731257 
H      -7.483091     3.215951    -4.096965 
N       1.633909     1.239903    -0.843013 
C       2.925933     1.578328    -0.475579 
O       3.284199     2.738990    -0.492220 
C       3.917717     0.481330    -0.150010 
H       4.601713     0.913732     0.582889 
H       4.504896     0.340933    -1.065247 
C       3.367869    -0.845197     0.350930 
H       4.203221    -1.533784     0.516715 
H       2.890561    -0.705594     1.323526 
C       2.370114    -1.490878    -0.597264 
C       1.645972    -2.565735    -0.059358 
H       1.206427    -3.315246    -0.714632 
C       0.030571     3.018252    -0.118177 
H      -0.478222     2.263975     0.492102 
H       0.778155     3.499924     0.518076 
C       0.746130     2.331925    -1.286544 
H       0.026750     1.903298    -1.984711 
H       1.361802     3.054423    -1.820792 
C       2.750367    -1.618460    -2.067142 
H       1.913911    -2.079262    -2.600701 
H       2.874130    -0.625726    -2.511386 
C       4.021713    -2.445095    -2.277483 
H       4.236184    -2.555806    -3.344696 
H       4.895118    -1.978515    -1.811536 
H       3.913032    -3.447976    -1.851492 
O       1.881486    -2.961894     1.221532 
C       1.503945    -4.311921     1.501304 
H       0.450516    -4.455562     1.230591 
H       2.105861    -4.988798     0.882245 
C       1.727500    -4.613168     2.960520 
C       2.313396    -5.818874     3.332551 
C       1.318998    -3.718953     3.948689 
C       2.482559    -6.138744     4.675314 
H       2.643790    -6.515659     2.566623 
C       1.491438    -4.036703     5.289479 
H       0.867230    -2.773155     3.671525 
C       2.070154    -5.247207     5.656870 
H       2.939046    -7.083759     4.952613 
H       1.170597    -3.334314     6.052434 
H       2.201479    -5.492658     6.706037 
C       1.026597    -0.001061    -0.637710 
O       0.498934    -0.266625     0.611630 
C      -0.229213    -1.369775     0.318531 
N       0.173411    -0.499205    -1.584022 
N      -0.562673    -1.390649    -0.984748 
C      -0.988519    -1.997699     1.422070 
O      -0.964449    -1.595978     2.555951 
O      -1.668789    -3.067211     1.001002 
C      -2.423287    -3.746979     2.017363 
H      -1.757054    -4.119565     2.800045 
H      -3.157184    -3.070255     2.459325 
H      -2.920174    -4.572665     1.509633 
74
     -1835.282800     -1834.749220   7.38   5.04
C       2.816724    -5.345294    -1.481234 
C       1.763734    -4.419209    -1.565728 
C       0.971744    -4.397925    -2.724713 
C       1.251088    -5.281079    -3.741721 
C       2.315670    -6.203849    -3.635292 
C       3.116033    -6.254438    -2.508036 
C       2.785096    -4.154585     0.409130 
C       1.758805    -3.664126    -0.338799 
H       0.151130    -3.692694    -2.820933 
H       0.662808    -5.294077    -4.652315 
H       3.934988    -6.954884    -2.410740 
H       3.121120    -3.861384     1.394918 
N       3.435009    -5.174069    -0.268229 
C       4.564771    -5.930258     0.216721 
H       5.431572    -5.810597    -0.442167 
H       4.834819    -5.566727     1.209534 
H       4.323034    -6.995884     0.293150 
O       2.473430    -7.017290    -4.722057 
C       3.519740    -7.965512    -4.688626 
H       4.499047    -7.478824    -4.597129 
H       3.390064    -8.676772    -3.863055 
H       3.474115    -8.503859    -5.636029 
N       0.026949    -0.317857    -0.766108 
C      -1.069193    -0.440786    -1.606572 
O      -1.129365    -1.317259    -2.444508 
C      -2.130417     0.622767    -1.437473 
H      -2.723648     0.415951    -0.544327 
H      -2.786713     0.538934    -2.304804 
C      -1.514993     2.025723    -1.375608 
H      -0.906560     2.160336    -2.276014 
H      -2.320112     2.763817    -1.430651 
C      -0.627782     2.356626    -0.167557 
C      -1.272018     2.760967     1.018202 
H      -0.845118     3.523035     1.660771 
C       0.816403    -2.548889    -0.009716 
H       0.877812    -2.290228     1.052476 
H      -0.213329    -2.867053    -0.207602 
C       1.108287    -1.304941    -0.856886 
H       2.034233    -0.826864    -0.534248 
H       1.200839    -1.574862    -1.907873 
C       0.658386     3.078640    -0.578943 
H       1.354354     2.344080    -0.997972 
H       0.382203     3.734710    -1.414650 
C       1.374862     3.930567     0.470095 
H       0.754323     4.775730     0.786043 
H       1.657818     3.356560     1.353788 
H       2.287837     4.347215     0.034936 
O      -2.635480     2.638476     1.061929 
C      -3.289082     3.519580     1.977303 
H      -4.316958     3.155594     2.031814 
H      -2.840741     3.430370     2.972267 
C      -3.239732     4.957789     1.515238 
C      -2.640114     5.936747     2.299198 
C      -3.785411     5.316499     0.283472 
C      -2.588567     7.258491     1.865859 
H      -2.207287     5.667003     3.258914 
C      -3.734071     6.631780    -0.153624 
H      -4.252969     4.555789    -0.334931 
C      -3.135240     7.607578     0.639004 
H      -2.119415     8.013256     2.488992 
H      -4.162357     6.899727    -1.114307 
H      -3.096062     8.637149     0.297888 
C      -0.072398     0.474732     0.368152 
O      -1.107800     0.220355     1.236828 
C      -0.759695     1.069493     2.240579 
N       1.028120     0.839896     1.097619 
N       0.585671     1.240817     2.247196 
C      -1.614674     1.086620     3.451455 
O      -2.644676     0.476530     3.556957 
O      -1.103760     1.898996     4.383784 
C      -1.836361     1.951137     5.616182 
H      -1.889554     0.957631     6.066312 
H      -1.280858     2.632949     6.258951 
H      -2.850135     2.321430     5.445522 
74
     -1835.282701     -1834.749112   7.44   5.11
C       2.368429    -5.285107    -1.787486 
C       1.349041    -4.351934    -1.535214 
C       0.068096    -4.590185    -2.058068 
C      -0.149696    -5.726621    -2.801981 
C       0.890729    -6.651467    -3.043521 
C       2.164747    -6.450358    -2.543237 
C       3.226756    -3.636475    -0.547492 
C       1.920943    -3.299929    -0.734124 
H      -0.740841    -3.886941    -1.881756 
H      -1.124674    -5.944495    -3.223143 
H       2.972374    -7.148670    -2.718967 
H       4.002385    -3.113700    -0.003655 
N       3.513303    -4.836735    -1.178245 
C       4.792581    -5.505041    -1.190895 
H       5.509766    -4.908521    -0.624707 
H       4.725215    -6.495366    -0.727681 
H       5.168567    -5.617740    -2.213506 
O       0.527086    -7.731861    -3.797283 
C       1.516020    -8.699421    -4.081620 
H       1.904883    -9.157205    -3.163199 
H       1.028547    -9.465730    -4.685451 
H       2.348228    -8.266661    -4.651206 
N      -0.070875    -0.085682    -1.018717 
C      -1.429173    -0.358799    -1.083230 
O      -1.842528    -1.419505    -1.504635 
C      -2.331952     0.775512    -0.654480 
H      -2.345955     0.849181     0.434914 
H      -3.336099     0.508340    -0.986440 
C      -1.904432     2.104317    -1.288934 
H      -1.876908     1.959486    -2.373911 
H      -2.680604     2.848679    -1.091876 
C      -0.545885     2.683594    -0.867889 
C      -0.508120     3.430875     0.327929 
H       0.129473     4.303466     0.431963 
C       1.195202    -2.081864    -0.254652 
H       1.781418    -1.555461     0.505737 
H       0.248807    -2.377456     0.211929 
C       0.884429    -1.126810    -1.412830 
H       1.794118    -0.639007    -1.765751 
H       0.433652    -1.669969    -2.242143 
C       0.261649     3.183999    -2.068864 
H       0.680745     2.318056    -2.592259 
H      -0.468876     3.622211    -2.761295 
C       1.359119     4.221613    -1.825761 
H       0.942230     5.162970    -1.452497 
H       2.117252     3.874566    -1.122386 
H       1.858672     4.446045    -2.772660 
O      -1.632766     3.416412     1.103787 
C      -1.787402     4.540567     1.974998 
H      -0.924918     4.602935     2.649337 
H      -1.818278     5.458524     1.375312 
C      -3.065831     4.383224     2.752902 
C      -3.220668     3.316728     3.638098 
C      -4.100580     5.298955     2.599847 
C      -4.397685     3.175827     4.359243 
H      -2.416225     2.598250     3.758557 
C      -5.279748     5.160638     3.325147 
H      -3.985876     6.128513     1.907118 
C      -5.429274     4.097911     4.205848 
H      -4.511509     2.343043     5.046174 
H      -6.080766     5.882287     3.198985 
H      -6.348342     3.985716     4.772508 
C       0.370299     0.981646    -0.250198 
O      -0.024311     1.025991     1.067017 
C       0.722660     2.084246     1.480132 
N       1.652306     1.457959    -0.336145 
N       1.847048     2.171947     0.726602 
C       0.652301     2.451638     2.913327 
O      -0.069660     1.911902     3.710246 
O       1.467034     3.474045     3.186843 
C       1.500310     3.880238     4.563264 
H       0.510629     4.207235     4.891209 
H       1.831540     3.051785     5.192800 
H       2.211867     4.703646     4.608225 
74
     -1835.287261     -1834.748902   4.58   5.24
C      -3.248044     1.249603    -1.402013 
C      -2.266028     1.754421    -0.521263 
C      -0.926992     1.684022    -0.915124 
C      -0.590087     1.082693    -2.113829 
C      -1.588828     0.546809    -2.950834 
C      -2.930041     0.634724    -2.611719 
C      -4.282894     2.065887     0.398224 
C      -2.957012     2.258111     0.640936 
H      -0.138094     2.078486    -0.286501 
H       0.453767     1.020683    -2.391183 
H      -3.678649     0.227386    -3.281710 
H      -5.133770     2.266208     1.034897 
N      -4.476312     1.464226    -0.829214 
C      -5.745290     1.069172    -1.392004 
H      -5.911481     1.552485    -2.360368 
H      -5.794916    -0.016641    -1.525204 
H      -6.543465     1.370873    -0.712026 
O      -1.316693    -0.083366    -4.132354 
C       0.040398    -0.200949    -4.520933 
H       0.036774    -0.755713    -5.460129 
H       0.496001     0.782511    -4.682228 
H       0.629487    -0.748320    -3.776658 
N      -1.840459     0.289981     2.489640 
C      -2.740973    -0.602273     1.930032 
O      -3.937377    -0.459303     2.084136 
C      -2.224636    -1.751120     1.090752 
H      -2.877555    -1.759155     0.213775 
H      -2.444952    -2.670187     1.642674 
C      -0.773322    -1.684725     0.646753 
H      -0.551664    -2.556608     0.021306 
H      -0.625191    -0.811336     0.010129 
C       0.208161    -1.648441     1.805766 
C       1.535445    -1.330881     1.486155 
H       2.364116    -1.729998     2.067237 
C      -2.333217     2.688643     1.937318 
H      -2.859265     3.553477     2.356359 
H      -1.300867     3.001402     1.759970 
C      -2.360821     1.570104     3.001473 
H      -1.768631     1.851950     3.875687 
H      -3.385566     1.380520     3.318654 
C       0.024755    -2.668547     2.921037 
H       0.800166    -2.505619     3.675423 
H      -0.926870    -2.501794     3.434517 
C       0.097767    -4.111066     2.411020 
H       1.051542    -4.302816     1.908456 
H       0.010181    -4.815985     3.243200 
H      -0.703437    -4.336838     1.700891 
O       1.817677    -0.966492     0.199190 
C       3.168153    -1.176552    -0.212678 
H       3.845662    -0.607863     0.436198 
H       3.415046    -2.240859    -0.114143 
C       3.312724    -0.741045    -1.647152 
C       3.216965     0.609012    -1.984238 
C       3.547646    -1.676989    -2.648544 
C       3.362867     1.011132    -3.305063 
H       3.025409     1.343900    -1.209038 
C       3.695600    -1.275534    -3.972715 
H       3.619572    -2.730423    -2.391815 
C       3.605619     0.070372    -4.302179 
H       3.290613     2.064740    -3.557076 
H       3.884108    -2.015278    -4.744519 
H       3.724626     0.388102    -5.333447 
C      -0.459132     0.113049     2.602067 
O       0.328544     0.933957     1.832775 
C       1.536019     0.688661     2.392359 
N       0.138723    -0.038566     3.824509 
N       1.390853     0.273594     3.667593 
C       2.691161     1.439395     1.857559 
O       2.611285     2.221942     0.944335 
O       3.820203     1.116960     2.490947 
C       4.991317     1.824896     2.056213 
H       5.806869     1.446136     2.670666 
H       5.185162     1.632823     0.997954 
H       4.861551     2.898228     2.209124 
74
     -1835.284175     -1834.748800   6.51   5.30
C      -0.071931     3.379778    -1.914013 
C      -0.294065     2.215112    -2.678201 
C      -1.587293     1.692495    -2.732804 
C      -2.612803     2.321078    -2.051342 
C      -2.361604     3.484560    -1.297677 
C      -1.090336     4.029845    -1.221658 
C       1.882739     2.732942    -2.781521 
C       0.976462     1.818273    -3.227795 
H      -1.800047     0.792017    -3.301237 
H      -3.611213     1.907043    -2.104938 
H      -0.926838     4.922792    -0.629118 
H       2.952532     2.776027    -2.935394 
N       1.264632     3.682671    -1.989102 
C       1.908569     4.805758    -1.350823 
H       2.979462     4.762000    -1.555359 
H       1.518460     5.755072    -1.733357 
H       1.761635     4.776043    -0.266228 
O      -3.329489     4.153919    -0.602199 
C      -4.613731     3.569943    -0.526600 
H      -5.204566     4.220058     0.120222 
H      -5.090938     3.513785    -1.512748 
H      -4.566151     2.566057    -0.087333 
N       2.175635    -0.564385    -2.046902 
C       3.131455    -0.090989    -1.160679 
O       4.094273     0.549512    -1.530416 
C       2.923288    -0.503508     0.280061 
H       2.095569     0.056504     0.719633 
H       3.836665    -0.227327     0.808628 
C       2.684152    -2.015782     0.398405 
H       3.520257    -2.523675    -0.093982 
H       2.725453    -2.288041     1.456238 
C       1.387703    -2.555783    -0.211818 
C       0.220816    -2.501723     0.577171 
H      -0.515517    -3.302384     0.532457 
C       1.235781     0.599469    -4.064225 
H       1.549855     0.873492    -5.078073 
H       0.303458     0.040470    -4.174574 
C       2.316593    -0.326956    -3.488504 
H       2.289326    -1.289111    -4.008199 
H       3.308560     0.105934    -3.611035 
C       1.557643    -3.820383    -1.044566 
H       0.593153    -4.104177    -1.474913 
H       2.221190    -3.605242    -1.889567 
C       2.116424    -4.992203    -0.230198 
H       3.112162    -4.780131     0.169888 
H       1.461784    -5.231537     0.614533 
H       2.194915    -5.887191    -0.854959 
O       0.284677    -1.805007     1.749077 
C      -0.673884    -2.185620     2.739353 
H      -1.686435    -2.044609     2.342739 
H      -0.544655    -3.249066     2.976117 
C      -0.460101    -1.349871     3.972170 
C      -0.085796    -1.946538     5.170620 
C      -0.638957     0.032389     3.921671 
C       0.104144    -1.177195     6.314129 
H       0.059855    -3.022762     5.212419 
C      -0.446213     0.800971     5.060777 
H      -0.928592     0.501267     2.986963 
C      -0.075858     0.198302     6.259778 
H       0.394989    -1.653646     7.245105 
H      -0.586565     1.876395     5.014588 
H       0.072762     0.802398     7.149354 
C       0.989815    -1.090301    -1.556991 
O       0.231213    -0.299076    -0.727323 
C      -0.873943    -1.081281    -0.627336 
N       0.147105    -1.827120    -2.347657 
N      -0.996118    -1.852184    -1.737296 
C      -2.017558    -0.564561     0.155980 
O      -1.994756     0.449023     0.803135 
O      -3.063420    -1.395773     0.076291 
C      -4.236693    -0.973126     0.781844 
H      -4.594006    -0.020425     0.384197 
H      -4.977039    -1.754935     0.616704 
H      -4.028057    -0.859767     1.848406 
74
     -1835.281894     -1834.748384   7.94   5.56
C       1.189284    -5.241741     2.989853 
C       0.691557    -4.406314     1.967647 
C       0.282873    -4.984421     0.764792 
C       0.376347    -6.356724     0.601016 
C       0.877416    -7.168693     1.637314 
C       1.289846    -6.624139     2.843881 
C       1.237915    -3.131548     3.726159 
C       0.730912    -3.053195     2.466250 
H      -0.103272    -4.367764    -0.042075 
H       0.058392    -6.795978    -0.335380 
H       1.670944    -7.275621     3.621926 
H       1.428869    -2.341711     4.440812 
N       1.519535    -4.447450     4.059423 
C       2.062132    -4.913078     5.312909 
H       2.226309    -4.056921     5.969433 
H       1.370901    -5.602811     5.809128 
H       3.019972    -5.422410     5.161824 
O       0.994571    -8.528289     1.537736 
C       0.592848    -9.145331     0.331311 
H      -0.472250    -8.977935     0.128910 
H       1.183513    -8.786108    -0.520460 
H       0.769076   -10.213517     0.465205 
N       0.767487    -0.541594    -0.372532 
C      -0.044652    -0.974777    -1.409795 
O      -0.277197    -2.153824    -1.582255 
C      -0.551685     0.116163    -2.325312 
H      -1.368013     0.657822    -1.843008 
H      -0.955311    -0.386929    -3.205013 
C       0.574042     1.072549    -2.736567 
H       1.373489     0.471028    -3.181508 
H       0.199990     1.729727    -3.526213 
C       1.206630     1.934772    -1.634325 
C       0.540238     3.129514    -1.290442 
H       1.087829     4.028190    -1.023447 
C       0.318276    -1.835547     1.700434 
H       0.239839    -0.967834     2.363616 
H      -0.671580    -1.997168     1.258955 
C       1.306753    -1.528252     0.569453 
H       2.244075    -1.140216     0.970551 
H       1.517984    -2.428875    -0.005139 
C       2.735255     1.949500    -1.723573 
H       3.116143     0.998391    -1.336575 
H       2.974285     1.949094    -2.795032 
C       3.490378     3.110856    -1.074558 
H       4.566013     2.954691    -1.197712 
H       3.247652     4.063526    -1.557030 
H       3.286138     3.200501    -0.006759 
O      -0.701429     3.323319    -1.826833 
C      -1.118380     4.688488    -1.922402 
H      -1.118383     5.142381    -0.924162 
H      -0.404777     5.239375    -2.547318 
C      -2.492483     4.737699    -2.533700 
C      -2.696398     5.362949    -3.758519 
C      -3.574801     4.157983    -1.872280 
C      -3.967709     5.417797    -4.321004 
H      -1.854635     5.811360    -4.279634 
C      -4.842484     4.208963    -2.434113 
H      -3.419356     3.666701    -0.917121 
C      -5.042423     4.840090    -3.658714 
H      -4.115893     5.909809    -5.277188 
H      -5.680291     3.755248    -1.913940 
H      -6.035646     4.879522    -4.094981 
C       0.753921     0.798814    -0.014985 
O      -0.463437     1.369092     0.277380 
C      -0.033192     2.581819     0.716506 
N       1.698028     1.337748     0.819198 
N       1.213117     2.463182     1.238251 
C      -1.056243     3.529453     1.215840 
O      -2.239517     3.312509     1.195144 
O      -0.491419     4.656967     1.655838 
C      -1.400124     5.626568     2.198765 
H      -0.779797     6.464311     2.514546 
H      -2.120658     5.944071     1.441160 
H      -1.937338     5.204178     3.050440 
74
     -1835.285061     -1834.748244   5.96   5.65
C       1.010893    -3.313907    -2.154186 
C      -0.158732    -3.603049    -1.416785 
C      -0.061484    -4.488233    -0.343036 
C       1.157808    -5.064147    -0.029396 
C       2.304421    -4.765657    -0.789657 
C       2.245287    -3.886885    -1.860729 
C      -0.675718    -2.160952    -3.050426 
C      -1.232420    -2.849759    -2.017095 
H      -0.928056    -4.723259     0.265156 
H       1.215070    -5.744709     0.809981 
H       3.144703    -3.676389    -2.428059 
H      -1.141953    -1.465375    -3.736112 
N       0.678139    -2.422156    -3.143236 
C       1.568364    -1.936145    -4.169212 
H       2.482858    -1.537538    -3.721546 
H       1.837400    -2.728700    -4.876875 
H       1.074923    -1.130731    -4.716179 
O       3.536814    -5.303121    -0.538952 
C       3.659778    -6.208456     0.539495 
H       3.027733    -7.093275     0.395161 
H       4.706796    -6.513934     0.559956 
H       3.403242    -5.733262     1.494298 
N      -1.827781    -1.476527     0.433579 
C      -1.186959    -1.814411     1.616338 
O      -1.422316    -2.851512     2.202087 
C      -0.240240    -0.766475     2.157451 
H       0.635315    -0.673410     1.512695 
H       0.090200    -1.132045     3.130603 
C      -0.950216     0.586225     2.320185 
H      -1.825097     0.425378     2.958997 
H      -0.282963     1.260788     2.862291 
C      -1.428788     1.271650     1.039030 
C      -0.530378     2.109351     0.355461 
H      -0.895742     2.999120    -0.151311 
C      -2.663972    -2.766768    -1.584196 
H      -3.161214    -3.735627    -1.713505 
H      -3.177259    -2.057976    -2.237525 
C      -2.873918    -2.349504    -0.111709 
H      -3.842036    -1.847353    -0.015858 
H      -2.882577    -3.216499     0.546255 
C      -2.868919     1.766870     1.083909 
H      -3.148120     2.162897     0.103793 
H      -3.535286     0.918436     1.279021 
C      -3.073575     2.850688     2.148761 
H      -2.421553     3.711142     1.965320 
H      -4.109804     3.203276     2.138744 
H      -2.859631     2.482482     3.156524 
O       0.775643     2.166320     0.785352 
C       1.369497     3.463708     0.665016 
H       2.417743     3.316815     0.935486 
H       1.323711     3.800657    -0.376554 
C       0.711342     4.475464     1.576177 
C       0.697367     4.271647     2.955491 
C       0.089832     5.604866     1.054765 
C       0.066888     5.177078     3.796021 
H       1.183217     3.393182     3.370185 
C      -0.541054     6.517965     1.894744 
H       0.093248     5.771780    -0.018975 
C      -0.555325     6.304186     3.265929 
H       0.061231     5.007052     4.868048 
H      -1.022333     7.395296     1.474289 
H      -1.047483     7.013865     3.923308 
C      -1.458204    -0.329257    -0.248651 
O      -0.151362    -0.215226    -0.657079 
C      -0.252891     0.925988    -1.388335 
N      -2.264329     0.246110    -1.191776 
N      -1.511237     1.051591    -1.875163 
C       0.933315     1.487878    -2.071488 
O       0.925785     2.538579    -2.659909 
O       2.006433     0.704651    -1.925672 
C       3.215455     1.212984    -2.502369 
H       3.482692     2.168988    -2.046300 
H       3.979453     0.465068    -2.292304 
H       3.098322     1.352212    -3.579741 
74
     -1835.285160     -1834.748102   5.89   5.74
C       1.813352    -0.645855    -3.358573 
C       0.746620    -1.556604    -3.268985 
C      -0.499827    -1.183532    -3.796402 
C      -0.643049     0.055062    -4.374720 
C       0.444080     0.955535    -4.450137 
C       1.688525     0.622383    -3.945308 
C       2.549723    -2.480190    -2.318841 
C       1.240456    -2.732348    -2.599813 
H      -1.346909    -1.859700    -3.740886 
H      -1.591714     0.375003    -4.790897 
H       2.532501     1.297704    -3.995576 
H       3.282319    -3.102558    -1.822803 
N       2.910421    -1.221832    -2.770615 
C       4.215521    -0.618282    -2.645960 
H       4.165748     0.309772    -2.066932 
H       4.878982    -1.311685    -2.126932 
H       4.644975    -0.399362    -3.629197 
O       0.155203     2.146434    -5.050890 
C       1.198006     3.092610    -5.174894 
H       0.765993     3.957628    -5.679075 
H       1.578140     3.399788    -4.192518 
H       2.025385     2.698640    -5.778188 
N      -0.683812    -2.791173    -0.340222 
C      -1.926589    -2.462150    -0.852231 
O      -2.462941    -3.159345    -1.690904 
C      -2.527404    -1.175451    -0.333607 
H      -2.922387    -1.334729     0.672315 
H      -3.366712    -0.947641    -0.992390 
C      -1.519042    -0.020807    -0.349943 
H      -1.139747     0.078675    -1.370683 
H      -2.051937     0.907007    -0.122500 
C      -0.308326    -0.128356     0.585325 
C      -0.485594     0.248818     1.930561 
H       0.298222     0.757236     2.480496 
C       0.442942    -3.957375    -2.263320 
H       1.035040    -4.860491    -2.447280 
H      -0.430489    -4.011042    -2.915159 
C      -0.018522    -4.019482    -0.801074 
H      -0.712079    -4.856367    -0.675383 
H       0.837112    -4.170532    -0.142800 
C       0.998510     0.266116    -0.107243 
H       1.337494    -0.571930    -0.720034 
H       0.739188     1.060417    -0.818513 
C       2.149002     0.763520     0.767459 
H       2.446565     0.033060     1.522151 
H       3.019962     0.966567     0.137205 
H       1.892115     1.701169     1.271814 
O      -1.766953     0.503120     2.353578 
C      -1.863308     1.432730     3.437009 
H      -2.907779     1.382684     3.752929 
H      -1.232466     1.106986     4.270711 
C      -1.488941     2.836498     3.020701 
C      -2.201618     3.482231     2.011329 
C      -0.424853     3.496437     3.625216 
C      -1.856729     4.766166     1.615824 
H      -3.032503     2.970887     1.533880 
C      -0.076928     4.785859     3.233198 
H       0.139082     2.999784     4.410174 
C      -0.791970     5.422160     2.228170 
H      -2.418615     5.259329     0.828914 
H       0.754491     5.290850     3.714738 
H      -0.522460     6.427355     1.920079 
C      -0.238188    -2.158485     0.813163 
O      -1.048749    -2.240196     1.922841 
C      -0.221476    -1.664220     2.836374 
N       1.067568    -2.206653     1.224461 
N       1.068650    -1.866585     2.475065 
C      -0.641289    -1.533289     4.252429 
O       0.036098    -1.005874     5.096485 
O      -1.864620    -2.027437     4.448918 
C      -2.365234    -1.910944     5.788681 
H      -2.435528    -0.859914     6.078862 
H      -3.352464    -2.370610     5.773046 
H      -1.708237    -2.433200     6.487324 
74
     -1835.284929     -1834.747952   6.04   5.83
C       2.630009     0.771982    -2.789931 
C       1.443520     0.354513    -3.430544 
C       0.506476     1.322714    -3.794853 
C       0.752476     2.656284    -3.517781 
C       1.943961     3.044740    -2.872528 
C       2.896421     2.108019    -2.500539 
C       2.688932    -1.452590    -2.990830 
C       1.504971    -1.081260    -3.551368 
H      -0.419109     1.037195    -4.284577 
H       0.016730     3.396292    -3.804373 
H       3.804053     2.437474    -2.007988 
H       3.118235    -2.439080    -2.876834 
N       3.379780    -0.345876    -2.524946 
C       4.669647    -0.356310    -1.878125 
H       5.018255    -1.386968    -1.795506 
H       5.404812     0.213526    -2.455991 
H       4.606641     0.069325    -0.871211 
O       2.247832     4.342060    -2.570154 
C       1.327432     5.348741    -2.944344 
H       0.359264     5.212316    -2.447198 
H       1.766666     6.293613    -2.622051 
H       1.177835     5.371475    -4.030612 
N      -0.989248    -1.741462    -2.093450 
C      -1.939195    -0.807651    -2.467594 
O      -2.306873    -0.716277    -3.622605 
C      -2.433283     0.097920    -1.363217 
H      -3.136191    -0.446930    -0.728914 
H      -2.978411     0.905083    -1.854866 
C      -1.278645     0.672219    -0.534346 
H      -0.592035     1.177231    -1.219418 
H      -1.679091     1.442447     0.131269 
C      -0.453609    -0.312686     0.303757 
C      -0.973898    -0.694931     1.556473 
H      -0.327402    -0.838216     2.415211 
C       0.447169    -1.962197    -4.146517 
H       0.904484    -2.752614    -4.751617 
H      -0.180654    -1.371779    -4.815789 
C      -0.443224    -2.656810    -3.107207 
H      -1.278402    -3.147789    -3.615692 
H       0.129186    -3.409627    -2.565217 
C       1.049552    -0.046450     0.196111 
H       1.412027    -0.463779    -0.745780 
H       1.161226     1.040354     0.094344 
C       1.944066    -0.514014     1.344028 
H       1.866150    -1.587731     1.524667 
H       2.987355    -0.290995     1.101867 
H       1.711334     0.014157     2.274775 
O      -2.263097    -0.323302     1.835848 
C      -2.575477    -0.229018     3.226119 
H      -3.662151    -0.130061     3.263657 
H      -2.298805    -1.155628     3.739427 
C      -1.894632     0.948181     3.885701 
C      -2.121030     2.241588     3.417160 
C      -1.027215     0.759418     4.955480 
C      -1.492221     3.325956     4.010780 
H      -2.795617     2.395292     2.579957 
C      -0.395908     1.844844     5.556055 
H      -0.840342    -0.245231     5.325473 
C      -0.627421     3.129303     5.084351 
H      -1.675899     4.328555     3.637727 
H       0.277361     1.683355     6.391939 
H      -0.136199     3.977768     5.549867 
C      -0.811748    -2.024119    -0.744664 
O      -1.918746    -2.438901    -0.040060 
C      -1.319098    -2.763285     1.135007 
N       0.282172    -2.704115    -0.275306 
N      -0.033649    -3.132405     0.905568 
C      -2.172356    -3.328575     2.207364 
O      -3.368499    -3.420721     2.137410 
O      -1.435020    -3.678636     3.267421 
C      -2.164405    -4.279017     4.347105 
H      -2.665423    -5.187056     4.005276 
H      -1.420949    -4.515340     5.107332 
H      -2.910858    -3.584505     4.740024 
74
     -1835.285307     -1834.747901   5.80   5.87
C       2.012657    -0.499989    -3.798802 
C       0.695112    -0.993987    -3.919064 
C      -0.282047    -0.156517    -4.458281 
C       0.051481     1.129742    -4.849278 
C       1.374009     1.596389    -4.716460 
C       2.370763     0.786197    -4.194153 
C       1.967692    -2.578499    -2.985873 
C       0.691431    -2.333584    -3.386087 
H      -1.306476    -0.500409    -4.562485 
H      -0.717396     1.768418    -5.264721 
H       3.380804     1.170932    -4.109789 
H       2.381547    -3.454169    -2.504709 
N       2.777781    -1.483186    -3.224667 
C       4.176229    -1.369722    -2.885807 
H       4.503770    -2.301283    -2.421713 
H       4.785493    -1.192975    -3.778387 
H       4.342520    -0.553329    -2.175435 
O       1.770502     2.852599    -5.082783 
C       0.810152     3.713284    -5.662709 
H      -0.010612     3.926720    -4.966832 
H       1.335819     4.640896    -5.892734 
H       0.400231     3.290968    -6.588232 
N      -1.217160    -1.801556    -1.234334 
C      -2.199673    -1.003577    -1.784221 
O      -2.922560    -1.443501    -2.659287 
C      -2.313892     0.441206    -1.351274 
H      -3.368936     0.698257    -1.463535 
H      -1.774962     1.016793    -2.112630 
C      -1.823782     0.791522     0.046147 
H      -1.975429     1.863884     0.214143 
H      -2.428173     0.271750     0.792862 
C      -0.352512     0.471224     0.272156 
C       0.061395     0.516429     1.614638 
H       1.100636     0.685504     1.876860 
C      -0.512568    -3.207831    -3.203477 
H      -0.269116    -4.252442    -3.426104 
H      -1.294510    -2.905356    -3.901720 
C      -1.074666    -3.169436    -1.772731 
H      -2.053751    -3.653559    -1.744797 
H      -0.402149    -3.700225    -1.097115 
C       0.600529     0.985172    -0.807542 
H       0.509343     0.361410    -1.698584 
H       0.232226     1.978292    -1.097871 
C       2.079540     1.106697    -0.439939 
H       2.635541     1.453680    -1.315021 
H       2.241549     1.836274     0.360505 
H       2.501236     0.147692    -0.130621 
O      -0.848227     0.846806     2.577511 
C      -0.273021     1.389870     3.766497 
H       0.481668     0.693945     4.153998 
H       0.233039     2.332502     3.523506 
C      -1.350957     1.633615     4.790660 
C      -2.319636     0.667156     5.055967 
C      -1.359784     2.823110     5.511987 
C      -3.277439     0.892100     6.035917 
H      -2.327082    -0.261333     4.496300 
C      -2.316650     3.046900     6.496068 
H      -0.613527     3.585067     5.302564 
C      -3.277447     2.079781     6.760330 
H      -4.028275     0.133986     6.235681 
H      -2.311422     3.978416     7.053385 
H      -4.026746     2.251057     7.526808 
C      -0.469236    -1.502929    -0.091169 
O      -1.031644    -1.834388     1.126212 
C       0.054025    -1.692881     1.920750 
N       0.865834    -1.796314    -0.046022 
N       1.187167    -1.859217     1.212987 
C      -0.114305    -1.975319     3.364218 
O      -1.161616    -2.297784     3.859504 
O       1.027977    -1.795395     4.032333 
C       0.947472    -2.030326     5.447238 
H       1.950152    -1.847678     5.831558 
H       0.227365    -1.347182     5.905533 
H       0.642688    -3.060362     5.642170 
74
     -1835.281432     -1834.747885   8.23   5.88
C       3.379278    -2.814459    -0.125557 
C       3.167516    -1.762223    -1.040655 
C       3.581646    -0.477533    -0.683606 
C       4.176094    -0.263371     0.545196 
C       4.368488    -1.332537     1.442490 
C       3.980694    -2.621592     1.115938 
C       2.340877    -3.649749    -1.918408 
C       2.497095    -2.322446    -2.185368 
H       3.433911     0.362124    -1.356350 
H       4.487724     0.738098     0.811998 
H       4.137983    -3.423471     1.828393 
H       1.854920    -4.418910    -2.503269 
N       2.871597    -3.962448    -0.680997 
C       2.878462    -5.267788    -0.065078 
H       2.376067    -5.973837    -0.728111 
H       3.901938    -5.617790     0.106576 
H       2.346130    -5.252081     0.891648 
O       4.944380    -1.184945     2.673344 
C       5.147220     0.129755     3.152564 
H       4.208359     0.696352     3.153391 
H       5.509627     0.026057     4.176284 
H       5.897987     0.665522     2.558783 
N      -0.298358    -1.495544    -2.387418 
C      -0.995575    -2.558110    -1.831470 
O      -0.968384    -3.671711    -2.313835 
C      -1.849423    -2.199533    -0.634911 
H      -1.220726    -2.022846     0.239587 
H      -2.471084    -3.073180    -0.434242 
C      -2.736381    -0.982565    -0.933283 
H      -3.315665    -1.210536    -1.834300 
H      -3.457587    -0.868318    -0.119431 
C      -2.033408     0.362481    -1.166014 
C      -1.702022     1.122608    -0.023709 
H      -1.770169     2.204986    -0.029842 
C       2.006123    -1.563761    -3.383584 
H       2.498995    -1.907267    -4.300369 
H       2.271695    -0.509738    -3.270801 
C       0.491791    -1.683565    -3.609712 
H       0.171984    -0.946699    -4.352022 
H       0.229196    -2.677359    -3.970088 
C      -2.580656     1.097768    -2.393083 
H      -2.164036     0.634512    -3.294339 
H      -3.657016     0.883961    -2.421826 
C      -2.400681     2.615254    -2.463375 
H      -1.352893     2.915500    -2.409431 
H      -2.806545     2.984547    -3.409746 
H      -2.950219     3.117732    -1.660262 
O      -1.873224     0.523391     1.197378 
C      -2.068924     1.428166     2.284146 
H      -1.980523     0.813278     3.182003 
H      -1.268601     2.175541     2.302348 
C      -3.414625     2.113882     2.218036 
C      -4.585913     1.357719     2.210237 
C      -3.504957     3.499404     2.148580 
C      -5.824375     1.977673     2.136380 
H      -4.522262     0.274660     2.261622 
C      -4.745710     4.126093     2.077089 
H      -2.598286     4.098657     2.149469 
C      -5.906895     3.366155     2.070567 
H      -6.729648     1.378830     2.130880 
H      -4.801678     5.208816     2.025411 
H      -6.875906     3.851690     2.014050 
C      -0.191958    -0.306146    -1.682062 
O       0.331612    -0.358192    -0.412171 
C       0.422704     0.973726    -0.159695 
N       0.237058     0.850150    -2.282934 
N       0.586291     1.649725    -1.326853 
C       1.006053     1.395730     1.135016 
O       1.253499     0.652764     2.046255 
O       1.172669     2.725521     1.165826 
C       1.754890     3.240854     2.368267 
H       2.755083     2.825668     2.513340 
H       1.809955     4.320097     2.230132 
H       1.136730     2.994799     3.234990 
74
     -1835.284121     -1834.747545   6.55   6.09
C      -0.034639    -2.416658    -3.129193 
C      -1.339535    -1.887708    -3.015866 
C      -2.265313    -2.568427    -2.225382 
C      -1.893184    -3.729382    -1.569552 
C      -0.584300    -4.232483    -1.699430 
C       0.359609    -3.584595    -2.482335 
C      -0.119043    -0.512367    -4.293592 
C      -1.367950    -0.662344    -3.774829 
H      -3.272741    -2.185216    -2.099186 
H      -2.620562    -4.241086    -0.952917 
H       1.360022    -3.994592    -2.559502 
H       0.267798     0.287511    -4.910383 
N       0.699728    -1.563602    -3.914216 
C       2.078022    -1.754012    -4.298524 
H       2.393703    -0.911494    -4.915847 
H       2.727942    -1.801672    -3.418328 
H       2.201899    -2.675062    -4.877824 
O      -0.147739    -5.365650    -1.072374 
C      -1.070729    -6.090060    -0.282900 
H      -1.439912    -5.489211     0.557308 
H      -1.921758    -6.439301    -0.880087 
H      -0.525574    -6.951689     0.104484 
N      -1.698200     1.480000    -1.850060 
C      -0.808924     2.367592    -2.431433 
O      -0.985652     2.791566    -3.556081 
C       0.402182     2.713857    -1.595028 
H       0.127898     3.445424    -0.832018 
H       1.112158     3.187642    -2.274786 
C       1.027494     1.466983    -0.960622 
H       1.215583     0.742918    -1.760966 
H       2.003811     1.734722    -0.544716 
C       0.220316     0.746701     0.124622 
C       0.216211     1.299941     1.420498 
H       0.241159     0.666164     2.300179 
C      -2.508565     0.295626    -3.918764 
H      -3.409749    -0.232364    -4.253152 
H      -2.260173     1.033593    -4.681056 
C      -2.870375     1.021602    -2.611072 
H      -3.504767     1.884323    -2.838785 
H      -3.419906     0.357585    -1.944924 
C       0.311972    -0.773979    -0.008438 
H      -0.340490    -1.094959    -0.821250 
H       1.332261    -0.985985    -0.354447 
C       0.043813    -1.629770     1.229661 
H      -0.946678    -1.452572     1.652750 
H       0.105614    -2.685237     0.949689 
H       0.792310    -1.455014     2.010147 
O       0.767437     2.547319     1.567466 
C       1.250043     2.842486     2.878308 
H       1.450203     3.915800     2.869243 
H       0.470202     2.647001     3.621591 
C       2.495013     2.055725     3.217891 
C       2.520755     1.204954     4.316908 
C       3.632790     2.166146     2.419783 
C       3.666663     0.476142     4.622183 
H       1.637540     1.107974     4.942733 
C       4.776062     1.440047     2.718627 
H       3.617763     2.827269     1.558171 
C       4.795544     0.592618     3.823453 
H       3.673726    -0.183007     5.484474 
H       5.656184     1.533929     2.090372 
H       5.690402     0.025185     4.058293 
C      -1.657867     1.297212    -0.473465 
O      -1.768947     2.424529     0.306869 
C      -1.840470     1.836169     1.529856 
N      -2.301577     0.265904     0.159198 
N      -2.385294     0.597918     1.407709 
C      -2.034074     2.719948     2.704727 
O      -2.029452     3.920491     2.652066 
O      -2.169965     2.000014     3.824016 
C      -2.404659     2.762935     5.016096 
H      -1.566558     3.435707     5.213249 
H      -3.319166     3.350855     4.914055 
H      -2.507338     2.031464     5.816649 
74
     -1835.280156     -1834.747384   9.03   6.19
C       1.586794     2.943705     4.437814 
C       1.003018     2.321500     3.313268 
C       1.766240     2.184515     2.152430 
C       3.068650     2.656165     2.129859 
C       3.626618     3.272655     3.266764 
C       2.894628     3.424881     4.434084 
C      -0.504381     2.363712     4.969164 
C      -0.344799     1.959228     3.680134 
H       1.350452     1.711050     1.267390 
H       3.652469     2.545505     1.225360 
H       3.351292     3.903411     5.292812 
H      -1.369366     2.274605     5.613255 
N       0.652361     2.961845     5.442644 
C       0.849486     3.515996     6.760517 
H       1.667829     3.008261     7.282212 
H       1.075653     4.586407     6.707680 
H      -0.064667     3.384468     7.341862 
O       4.904780     3.758499     3.308480 
C       5.705110     3.631573     2.150390 
H       5.269620     4.169601     1.299324 
H       6.669711     4.075706     2.399887 
H       5.852340     2.579567     1.876425 
N      -1.805905    -0.883114     1.633261 
C      -2.932359    -1.561441     2.059238 
O      -3.209491    -1.652219     3.237613 
C      -3.788260    -2.150286     0.962553 
H      -4.292456    -1.322098     0.457188 
H      -4.554817    -2.747093     1.458923 
C      -3.044030    -3.019162    -0.068330 
H      -2.829173    -3.990880     0.386804 
H      -3.753237    -3.224146    -0.876014 
C      -1.717153    -2.503046    -0.653629 
C      -1.779017    -2.108557    -2.007596 
H      -2.745986    -2.009157    -2.500953 
C      -1.333404     1.243957     2.813486 
H      -1.394608     1.735007     1.834500 
H      -2.332631     1.283587     3.257543 
C      -0.937297    -0.221741     2.611374 
H       0.090551    -0.293126     2.254994 
H      -1.025259    -0.772604     3.547232 
C      -0.470722    -3.301072    -0.269388 
H      -0.572227    -4.281106    -0.753892 
H       0.402364    -2.827403    -0.720382 
C      -0.206641    -3.513055     1.222188 
H      -1.085975    -3.869156     1.767296 
H       0.579122    -4.264445     1.345418 
H       0.139894    -2.598082     1.703904 
O      -0.722226    -2.352403    -2.813696 
C      -0.942262    -2.155511    -4.211975 
H      -1.470978    -3.026498    -4.617568 
H      -1.570604    -1.270634    -4.359799 
C       0.383750    -1.972837    -4.900760 
C       0.734723    -2.772710    -5.981628 
C       1.259242    -0.974888    -4.471478 
C       1.946388    -2.579646    -6.638019 
H       0.058112    -3.555604    -6.314003 
C       2.469541    -0.785175    -5.123870 
H       0.988240    -0.354709    -3.622515 
C       2.814973    -1.585086    -6.209510 
H       2.210714    -3.208914    -7.482140 
H       3.148926    -0.008843    -4.785507 
H       3.761794    -1.432652    -6.718088 
C      -1.540737    -0.724235     0.280483 
O      -2.483542    -0.064327    -0.484088 
C      -1.771679     0.082785    -1.633093 
N      -0.294165    -0.377393    -0.163334 
N      -0.453026     0.084488    -1.370055 
C      -2.444720     0.749408    -2.770444 
O      -3.642950     0.819099    -2.875380 
O      -1.567841     1.210856    -3.664814 
C      -2.138436     1.849477    -4.816705 
H      -1.292386     2.132292    -5.441432 
H      -2.797726     1.159690    -5.348827 
H      -2.708254     2.731555    -4.516843 
74
     -1835.285788     -1834.746593   5.50   6.69
C       1.444373     2.459602    -1.748774 
C       0.316850     2.933020    -1.045709 
C       0.491692     3.386763     0.261762 
C       1.752376     3.380070     0.831853 
C       2.863721     2.924554     0.097148 
C       2.724924     2.455179    -1.198946 
C      -0.345479     2.240564    -3.069436 
C      -0.822121     2.784931    -1.915532 
H      -0.353000     3.735399     0.847327 
H       1.868733     3.722025     1.852022 
H       3.597748     2.104330    -1.737674 
H      -0.877900     1.942233    -3.963040 
N       1.021396     2.037889    -2.983976 
C       1.869359     1.521693    -4.032268 
H       1.244645     1.210259    -4.870910 
H       2.573371     2.283196    -4.384997 
H       2.435936     0.653065    -3.682090 
O       4.135364     2.893470     0.603889 
C       4.367983     3.514996     1.853215 
H       5.442120     3.444424     2.029774 
H       4.071383     4.570468     1.833513 
H       3.835381     3.006848     2.666562 
N      -2.743760     0.645185    -1.414329 
C      -2.561823    -0.346900    -2.364860 
O      -2.817741    -0.170304    -3.539198 
C      -2.066383    -1.675315    -1.833115 
H      -1.005020    -1.592674    -1.589084 
H      -2.165002    -2.383482    -2.656932 
C      -2.859985    -2.172074    -0.616399 
H      -3.910572    -2.263428    -0.906839 
H      -2.515681    -3.182399    -0.379978 
C      -2.789516    -1.314135     0.649502 
C      -1.712479    -1.551432     1.528553 
H      -1.849428    -1.470289     2.604722 
C      -2.244579     3.111394    -1.563096 
H      -2.601773     3.979815    -2.128784 
H      -2.286931     3.396802    -0.509717 
C      -3.239361     1.967604    -1.818959 
H      -4.173357     2.175799    -1.288633 
H      -3.463522     1.873225    -2.880444 
C      -4.129923    -1.077691     1.344702 
H      -4.516560    -2.070229     1.614436 
H      -3.952262    -0.545161     2.284824 
C      -5.209609    -0.338414     0.551415 
H      -6.157101    -0.384082     1.096740 
H      -4.950358     0.712643     0.422391 
H      -5.379504    -0.775200    -0.436862 
O      -0.720374    -2.396450     1.113240 
C       0.069200    -2.952249     2.156053 
H       0.286717    -2.186073     2.911041 
H      -0.500821    -3.751899     2.649113 
C       1.361728    -3.504309     1.604300 
C       2.239117    -4.143482     2.479031 
C       1.713531    -3.372868     0.266334 
C       3.452877    -4.640476     2.025076 
H       1.971299    -4.250553     3.527493 
C       2.929884    -3.871623    -0.189727 
H       1.041680    -2.869417    -0.417278 
C       3.802607    -4.504857     0.685280 
H       4.126897    -5.135520     2.717154 
H       3.194412    -3.764621    -1.237383 
H       4.750172    -4.893922     0.326565 
C      -2.202332     0.476872    -0.146811 
O      -0.854166     0.242300    -0.075232 
C      -0.679121     0.325078     1.268650 
N      -2.572711     1.247696     0.921651 
N      -1.638767     1.109511     1.812515 
C       0.688569     0.208687     1.830272 
O       0.951592     0.383223     2.992546 
O       1.554038    -0.151460     0.885806 
C       2.917017    -0.308578     1.306915 
H       3.010703    -1.168522     1.973160 
H       3.483929    -0.475663     0.393155 
H       3.265701     0.594939     1.807312 
74
     -1835.284330     -1834.745995   6.42   7.06
C       0.716744    -1.040302    -4.124718 
C      -0.092547     0.113480    -4.028533 
C      -1.476049    -0.036513    -4.121828 
C      -2.024585    -1.295300    -4.298061 
C      -1.193088    -2.428204    -4.389262 
C       0.186725    -2.314722    -4.306269 
C       2.047849     0.717855    -3.769056 
C       0.788383     1.231691    -3.800482 
H      -2.132799     0.823100    -4.035425 
H      -3.100310    -1.396121    -4.359873 
H       0.799847    -3.205844    -4.376017 
H       2.986092     1.231030    -3.607043 
N       2.023585    -0.653652    -3.963730 
C       3.170593    -1.528143    -4.021536 
H       3.110231    -2.305913    -3.252905 
H       3.251132    -2.008228    -5.002512 
H       4.073564    -0.940611    -3.848262 
O      -1.667960    -3.699286    -4.552741 
C      -3.065171    -3.879733    -4.676202 
H      -3.463440    -3.342916    -5.545718 
H      -3.220271    -4.950692    -4.812795 
H      -3.594603    -3.550797    -3.773561 
N       0.241101     2.168289    -1.112255 
C       1.554540     2.405472    -0.743849 
O       2.237743     3.218836    -1.333028 
C       2.074911     1.547300     0.386859 
H       1.711163     1.930920     1.342483 
H       3.160418     1.656616     0.373388 
C       1.690061     0.075191     0.204232 
H       2.017105    -0.234896    -0.794228 
H       2.256230    -0.525938     0.922248 
C       0.205704    -0.286783     0.329962 
C      -0.335136    -0.395481     1.627889 
H      -1.072773    -1.154975     1.868583 
C       0.408327     2.661452    -3.575184 
H      -0.247384     3.012984    -4.380896 
H       1.307624     3.276509    -3.593690 
C      -0.338328     2.897349    -2.250602 
H      -0.341114     3.967829    -2.021310 
H      -1.371212     2.560186    -2.328728 
C      -0.223856    -1.311797    -0.720083 
H      -0.333456    -0.804274    -1.679064 
H       0.631124    -1.988983    -0.847022 
C      -1.465450    -2.161584    -0.448218 
H      -1.326097    -2.816598     0.418808 
H      -2.358670    -1.556192    -0.284602 
H      -1.649155    -2.803775    -1.314354 
O       0.456504     0.018704     2.664800 
C       0.167286    -0.581340     3.929486 
H      -0.876134    -0.380709     4.201363 
H       0.295461    -1.667925     3.850510 
C       1.106380    -0.019783     4.962616 
C       1.067047     1.337506     5.280563 
C       2.017805    -0.846245     5.609802 
C       1.930407     1.854040     6.236085 
H       0.358204     1.986203     4.776007 
C       2.881309    -0.330125     6.570877 
H       2.055187    -1.903598     5.361154 
C       2.838391     1.021583     6.884609 
H       1.894591     2.911613     6.478178 
H       3.588095    -0.984735     7.071148 
H       3.511530     1.428384     7.632795 
C      -0.595712     1.511902    -0.218793 
O      -0.704526     2.052157     1.041856 
C      -1.686104     1.254268     1.536932 
N      -1.815259     1.000648    -0.578628 
N      -2.473991     0.817022     0.520314 
C      -2.188689     1.554239     2.898448 
O      -1.740580     2.418798     3.604710 
O      -3.172559     0.718328     3.239908 
C      -3.754594     0.951556     4.531195 
H      -4.181681     1.955468     4.575972 
H      -4.533713     0.198493     4.641082 
H      -3.002000     0.845715     5.316203 
74
     -1835.282491     -1834.745725   7.57   7.23
C       2.908848     0.043122    -3.066478 
C       1.614172     0.574064    -3.244379 
C       1.386930     1.904497    -2.888444 
C       2.423006     2.668983    -2.384060 
C       3.707847     2.113549    -2.224400 
C       3.967090     0.795824    -2.563929 
C       1.594990    -1.578596    -3.864082 
C       0.787020    -0.486213    -3.760182 
H       0.402405     2.349521    -2.997831 
H       2.233108     3.699974    -2.115226 
H       4.964075     0.394516    -2.422412 
H       1.356000    -2.586533    -4.175902 
N       2.879245    -1.274118    -3.450828 
C       4.003984    -2.178677    -3.436831 
H       3.666387    -3.167292    -3.751948 
H       4.790090    -1.843274    -4.121915 
H       4.426259    -2.261538    -2.430054 
O       4.775767     2.813947    -1.736949 
C       4.550795     4.129659    -1.275778 
H       4.222926     4.791715    -2.086659 
H       3.806494     4.145556    -0.470369 
H       5.507642     4.483406    -0.889283 
N      -1.178595    -1.655504    -1.940019 
C      -0.629087    -2.850358    -1.501796 
O      -0.423717    -3.779728    -2.256413 
C      -0.357993    -2.931202    -0.015326 
H       0.505910    -2.311753     0.235706 
H      -0.096174    -3.970845     0.186386 
C      -1.575405    -2.524083     0.827275 
H      -2.413477    -3.171800     0.554299 
H      -1.348711    -2.738092     1.875334 
C      -2.038902    -1.069750     0.712645 
C      -1.401425    -0.126342     1.541269 
H      -1.967156     0.690560     1.982521 
C      -0.681805    -0.397046    -4.055310 
H      -0.875727    -0.482155    -5.130937 
H      -1.043101     0.590670    -3.758825 
C      -1.522093    -1.475102    -3.356141 
H      -2.582472    -1.219186    -3.435113 
H      -1.368158    -2.450927    -3.814527 
C      -3.550103    -0.882093     0.587669 
H      -3.988103    -1.317018     1.496755 
H      -3.778355     0.188585     0.612579 
C      -4.236506    -1.509093    -0.627791 
H      -3.983552    -2.565479    -0.755525 
H      -5.322176    -1.444330    -0.507252 
H      -3.970971    -0.979698    -1.543122 
O      -0.289974    -0.530966     2.229264 
C      -0.020237     0.206923     3.421219 
H       0.997858    -0.070746     3.701425 
H      -0.034928     1.281814     3.211157 
C      -1.002322    -0.119859     4.522786 
C      -1.143332    -1.434237     4.965738 
C      -1.783852     0.874678     5.099130 
C      -2.047642    -1.746076     5.969984 
H      -0.537638    -2.216437     4.517411 
C      -2.690342     0.566925     6.109654 
H      -1.686176     1.902010     4.758331 
C      -2.823437    -0.743563     6.546359 
H      -2.148844    -2.772817     6.307259 
H      -3.292734     1.353679     6.552593 
H      -3.530022    -0.986917     7.333416 
C      -1.201318    -0.557264    -1.093024 
O      -0.002937    -0.119002    -0.587061 
C      -0.418731     1.024612     0.013561 
N      -2.002962     0.525912    -1.325731 
N      -1.529681     1.494462    -0.602810 
C       0.605731     1.871487     0.667658 
O       1.746456     1.541084     0.847362 
O       0.072687     3.033820     1.069860 
C       0.990593     3.942115     1.688075 
H       0.407066     4.827554     1.937895 
H       1.425458     3.501382     2.588516 
H       1.794037     4.199113     0.993564 
74
     -1835.281929     -1834.745653   7.92   7.28
C       0.114111    -1.651677    -3.881532 
C      -0.774420    -1.677923    -2.791463 
C      -1.351063    -0.466858    -2.377378 
C      -1.014841     0.700632    -3.018760 
C      -0.108943     0.700383    -4.102354 
C       0.465805    -0.472611    -4.556764 
C      -0.064628    -3.762002    -3.186369 
C      -0.871726    -3.046532    -2.353875 
H      -2.052421    -0.435413    -1.552950 
H      -1.436972     1.648017    -2.703750 
H       1.158393    -0.495266    -5.387836 
H       0.169559    -4.818053    -3.180503 
N       0.535820    -2.935224    -4.114301 
C       1.487750    -3.341400    -5.120538 
H       2.455130    -2.852122    -4.966091 
H       1.633332    -4.420526    -5.053112 
H       1.124795    -3.102419    -6.125784 
O       0.136075     1.931604    -4.643880 
C       1.027911     2.000642    -5.736702 
H       1.084900     3.052714    -6.018909 
H       2.028931     1.645910    -5.460011 
H       0.660942     1.417015    -6.590582 
N       0.058021    -2.692920     0.507304 
C       1.320665    -2.382034     0.019083 
O       1.925912    -3.133568    -0.714692 
C       1.898216    -1.085669     0.537163 
H       1.342651    -0.234916     0.138222 
H       2.920376    -1.033348     0.160260 
C       1.908061    -1.072671     2.071410 
H       2.444680    -1.967289     2.404143 
H       2.492475    -0.212335     2.407999 
C       0.547380    -1.057607     2.783518 
C      -0.055791     0.203678     2.977425 
H      -0.608240     0.438530     3.882072 
C      -1.592019    -3.575291    -1.146282 
H      -2.126166    -4.500014    -1.392282 
H      -2.350453    -2.856830    -0.816928 
C      -0.646622    -3.886265     0.024596 
H      -1.205937    -4.309426     0.861003 
H       0.123534    -4.592395    -0.285955 
C       0.472303    -2.089293     3.912352 
H       0.330835    -3.081161     3.469643 
H       1.470370    -2.110286     4.369025 
C      -0.549962    -1.871554     5.029465 
H      -1.573987    -1.813487     4.657852 
H      -0.496693    -2.706369     5.734392 
H      -0.333203    -0.959922     5.596405 
O       0.523289     1.265920     2.337193 
C       0.264619     2.546160     2.912513 
H      -0.818165     2.693397     3.012657 
H       0.703749     2.588277     3.917171 
C       0.869327     3.610195     2.034474 
C       1.692851     4.586827     2.582762 
C       0.590929     3.638101     0.668245 
C       2.229344     5.589950     1.781736 
H       1.920805     4.564226     3.645194 
C       1.129335     4.635721    -0.132145 
H      -0.049906     2.879047     0.233361 
C       1.947696     5.615469     0.422472 
H       2.869517     6.348555     2.221099 
H       0.907580     4.649887    -1.194663 
H       2.365777     6.395778    -0.205764 
C      -0.639555    -1.776048     1.279952 
O      -0.954854    -0.562366     0.719503 
C      -1.753126    -0.065220     1.701658 
N      -1.676446    -2.161330     2.090135 
N      -2.343651    -1.088659     2.370100 
C      -2.422711     1.228265     1.428305 
O      -2.298443     1.842129     0.400472 
O      -3.155525     1.623931     2.471376 
C      -3.871471     2.854772     2.285360 
H      -4.403285     3.027578     3.219904 
H      -3.178273     3.673500     2.078038 
H      -4.574251     2.759489     1.455141 
74
     -1835.271922     -1834.740043  14.20  10.80
C      -3.725664     3.997498    -1.743358 
C      -2.811342     3.073462    -1.208495 
C      -2.524002     3.131321     0.164360 
C      -3.142213     4.081566     0.942705 
C      -4.058283     4.999308     0.381792 
C      -4.366200     4.975483    -0.966334 
C      -3.015880     2.682597    -3.402785 
C      -2.364278     2.237136    -2.293567 
H      -1.822763     2.434391     0.614753 
H      -2.944396     4.154541     2.006285 
H      -5.065185     5.670466    -1.412592 
H      -2.962913     2.321807    -4.421327 
N      -3.842975     3.748479    -3.086788 
C      -4.680852     4.476243    -4.009554 
H      -5.736031     4.405566    -3.724224 
H      -4.395922     5.533045    -4.052374 
H      -4.564869     4.048044    -5.006486 
O      -4.593855     5.885200     1.273523 
C      -5.519947     6.833003     0.784181 
H      -5.064216     7.485566     0.028761 
H      -6.404229     6.344757     0.355401 
H      -5.822982     7.434581     1.641925 
N      -1.107058    -1.206041    -1.237789 
C      -0.892244    -2.095404    -2.276681 
O      -1.472046    -1.953292    -3.334980 
C       0.006655    -3.291621    -2.053447 
H       0.459536    -3.502427    -3.024219 
H      -0.664157    -4.132381    -1.842318 
C       1.076024    -3.161014    -0.981330 
H       1.647714    -4.093534    -0.931041 
H       1.788060    -2.381211    -1.260966 
C       0.515810    -2.844181     0.398043 
C       1.481635    -2.486550     1.356050 
H       1.293338    -2.645210     2.416451 
C      -1.409828     1.087042    -2.192181 
H      -0.511987     1.394275    -1.645220 
H      -1.090410     0.768627    -3.188095 
C      -2.059677    -0.104396    -1.479655 
H      -2.465483     0.194395    -0.512843 
H      -2.871210    -0.502195    -2.088139 
C      -0.634870    -3.697990     0.918461 
H      -0.916684    -3.329069     1.909235 
H      -1.519403    -3.557871     0.289191 
C      -0.280876    -5.185223     0.998417 
H      -1.112575    -5.755326     1.423099 
H      -0.059827    -5.607371     0.013357 
H       0.595693    -5.347458     1.634340 
O       2.778413    -2.411991     0.980513 
C       3.742373    -2.380735     2.042156 
H       3.614482    -1.462983     2.625951 
H       3.574151    -3.241490     2.701020 
C       5.119815    -2.442007     1.441376 
C       5.892725    -3.590897     1.567385 
C       5.628639    -1.345837     0.745968 
C       7.165304    -3.650625     1.009339 
H       5.497380    -4.447728     2.106586 
C       6.897303    -1.405608     0.186522 
H       5.025675    -0.449084     0.642362 
C       7.668569    -2.556848     0.317482 
H       7.761104    -4.551915     1.114145 
H       7.287566    -0.549403    -0.354661 
H       8.660804    -2.599760    -0.120724 
C      -0.373118    -1.130052    -0.049748 
O       0.775099    -0.358335    -0.055566 
C       0.990854    -0.253084     1.278616 
N      -1.038487    -0.903339     1.126920 
N      -0.161299    -0.419053     1.953568 
C       2.189443     0.527183     1.685682 
O       2.983937     0.886463     0.858684 
O       2.411005     0.799613     2.978439 
C       1.535272     0.419343     4.048961 
H       0.579924     0.938795     3.979429 
H       1.362744    -0.658892     4.062195 
H       2.063190     0.719637     4.953863 
74
     -1835.273532     -1834.738846  13.19  11.55
C      -1.280444    -5.627417    -0.905007 
C      -1.517817    -4.242966    -0.934623 
C      -2.573686    -3.753687    -1.719692 
C      -3.341415    -4.641713    -2.436819 
C      -3.084212    -6.030221    -2.392447 
C      -2.053577    -6.548636    -1.629008 
C       0.225852    -4.635465     0.413594 
C      -0.539475    -3.622630    -0.078237 
H      -2.780811    -2.688380    -1.763384 
H      -4.164562    -4.301737    -3.055116 
H      -1.843468    -7.609116    -1.584077 
H       1.068444    -4.596035     1.091202 
N      -0.210724    -5.856175    -0.076920 
C       0.355839    -7.147185     0.231805 
H      -0.381372    -7.796272     0.716695 
H       0.722985    -7.643451    -0.673054 
H       1.196301    -7.011381     0.914413 
O      -3.927425    -6.789162    -3.154658 
C      -3.729936    -8.187649    -3.161251 
H      -2.737794    -8.450632    -3.549583 
H      -3.850864    -8.614467    -2.157503 
H      -4.494049    -8.600727    -3.820796 
N       0.049541     0.031017    -0.961968 
C      -1.160171     0.614206    -1.279949 
O      -2.093251    -0.070152    -1.655974 
C      -1.303865     2.117864    -1.205059 
H      -2.349445     2.293852    -0.944703 
H      -1.176577     2.495400    -2.225078 
C      -0.394177     2.840650    -0.223116 
H      -0.664775     3.899853    -0.212552 
H      -0.606410     2.456258     0.774064 
C       1.084011     2.692131    -0.545514 
C       2.082380     3.100877     0.365220 
H       3.051214     3.347400    -0.056250 
C      -0.402265    -2.151614     0.164991 
H       0.257966    -1.960898     1.015796 
H      -1.381178    -1.726374     0.410694 
C       0.138421    -1.437558    -1.079360 
H       1.183880    -1.696221    -1.253608 
H      -0.438224    -1.726334    -1.957041 
C       1.479248     2.959182    -1.999293 
H       2.552195     2.778480    -2.105653 
H       0.994085     2.237807    -2.663500 
C       1.149565     4.387139    -2.440449 
H       1.493096     4.562549    -3.464379 
H       0.074286     4.588688    -2.413538 
H       1.640974     5.118833    -1.790881 
O       2.007818     3.711118     1.582761 
C       0.914583     3.604679     2.490650 
H       0.462497     2.612709     2.449065 
H       1.379246     3.694820     3.476790 
C      -0.111958     4.702424     2.312713 
C      -1.412355     4.504781     2.769346 
C       0.225656     5.923271     1.737076 
C      -2.364930     5.509272     2.647998 
H      -1.686264     3.554408     3.220278 
C      -0.726795     6.928488     1.612640 
H       1.238493     6.087544     1.385822 
C      -2.024236     6.725546     2.067645 
H      -3.374992     5.341299     3.008625 
H      -0.451496     7.876698     1.161218 
H      -2.766128     7.511760     1.971665 
C       1.172747     0.670636    -0.427616 
O       1.327921     0.627484     0.944899 
C       2.620041     1.039091     1.031694 
N       2.394540     0.476551    -1.010289 
N       3.283328     0.764096    -0.104504 
C       3.220312     1.199981     2.374551 
O       2.595168     1.085114     3.398198 
O       4.511228     1.514980     2.290273 
C       5.180709     1.706853     3.545132 
H       4.726179     2.533474     4.095597 
H       5.125760     0.797656     4.147676 
H       6.214613     1.937337     3.291663 
74
     -1835.278358     -1834.738754  10.16  11.61
C       0.768015    -1.156001     3.272719 
C      -0.475616    -1.009166     2.618690 
C      -0.723415    -1.796361     1.491346 
C       0.244251    -2.673831     1.034283 
C       1.485256    -2.780120     1.692191 
C       1.758841    -2.027303     2.824000 
C      -0.427928     0.366840     4.384286 
C      -1.226011    -0.016358     3.349057 
H      -1.660601    -1.720326     0.950962 
H       0.038932    -3.266936     0.152537 
H       2.717941    -2.134176     3.318022 
H      -0.599089     1.118795     5.141832 
N       0.776817    -0.309182     4.352363 
C       1.864605    -0.152612     5.288822 
H       2.071262    -1.091802     5.812928 
H       2.776257     0.174880     4.778443 
H       1.590401     0.603855     6.025609 
O       2.488416    -3.608520     1.276642 
C       2.264591    -4.404221     0.125878 
H       1.425087    -5.093908     0.275339 
H       2.077995    -3.788769    -0.760680 
H       3.179096    -4.980386    -0.021042 
N      -1.414682     2.378684     1.699462 
C      -0.243057     2.888343     2.226273 
O      -0.178540     3.257798     3.382364 
C       0.987943     2.950780     1.348303 
H       1.806702     2.645299     2.004293 
H       1.169228     4.002407     1.110261 
C       0.966712     2.071578     0.106625 
H       1.954256     2.117279    -0.365178 
H       0.811323     1.041115     0.431901 
C      -0.103878     2.488077    -0.892230 
C      -0.431660     1.705632    -2.026035 
H      -0.841546     2.231802    -2.881409 
C      -2.566572     0.554726     2.978895 
H      -3.283688     0.437343     3.799297 
H      -2.968941    -0.006530     2.132538 
C      -2.513464     2.054142     2.625574 
H      -3.453030     2.374420     2.167997 
H      -2.341125     2.650509     3.520021 
C      -0.182122     3.987057    -1.190319 
H      -1.008878     4.160675    -1.884288 
H      -0.441525     4.543438    -0.285453 
C       1.114757     4.532472    -1.794175 
H       1.375798     3.993936    -2.711062 
H       1.003590     5.591028    -2.047388 
H       1.960726     4.446116    -1.105021 
O       0.069078     0.518706    -2.475002 
C       0.851851    -0.362945    -1.661691 
H       1.775498     0.138373    -1.366567 
H       0.289599    -0.643310    -0.769701 
C       1.189483    -1.586602    -2.473516 
C       2.467109    -1.745314    -3.001423 
C       0.237808    -2.582017    -2.690839 
C       2.794954    -2.877650    -3.739445 
H       3.214888    -0.975146    -2.833399 
C       0.561560    -3.712929    -3.429463 
H      -0.756500    -2.469971    -2.272580 
C       1.840871    -3.863982    -3.955298 
H       3.795140    -2.986873    -4.147002 
H      -0.187499    -4.481480    -3.593660 
H       2.091651    -4.747998    -4.533161 
C      -1.681207     2.142783     0.344800 
O      -1.857657     0.825604    -0.017233 
C      -2.370944     1.006497    -1.261970 
N      -2.606485     2.903093    -0.322287 
N      -2.984185     2.203512    -1.349690 
C      -2.713900    -0.193089    -2.052057 
O      -2.616357    -1.318285    -1.626546 
O      -3.109024     0.132245    -3.278547 
C      -3.414814    -0.973838    -4.141761 
H      -4.214302    -1.581186    -3.712633 
H      -3.733867    -0.528989    -5.083235 
H      -2.526173    -1.591735    -4.291571 
74
     -1835.270974     -1834.738703  14.80  11.64
C       3.998980    -3.528995     2.448717 
C       2.966104    -2.767977     1.859387 
C       1.696411    -3.337415     1.751561 
C       1.476632    -4.621578     2.221221 
C       2.525820    -5.357987     2.805370 
C       3.798688    -4.822850     2.926442 
C       4.841424    -1.545054     1.861378 
C       3.534402    -1.494677     1.487402 
H       0.875862    -2.782960     1.304422 
H       0.487889    -5.052465     2.132598 
H       4.585751    -5.413728     3.380709 
H       5.611242    -0.791103     1.762662 
N       5.139729    -2.767376     2.442917 
C       6.425268    -3.179592     2.952614 
H       6.368176    -3.413303     4.021180 
H       6.796457    -4.060933     2.418540 
H       7.139606    -2.366161     2.814950 
O       2.375355    -6.629070     3.288140 
C       1.099685    -7.230801     3.197050 
H       0.346837    -6.664962     3.759650 
H       0.774213    -7.328190     2.153959 
H       1.202666    -8.224604     3.634884 
N       1.021427     1.364927     1.245246 
C       1.576972     2.629092     1.143465 
O       2.705659     2.836773     1.542421 
C       0.734468     3.766975     0.610393 
H       1.434845     4.444128     0.117591 
H       0.365506     4.301554     1.493364 
C      -0.406128     3.402873    -0.325786 
H      -0.926240     4.317715    -0.628234 
H      -0.007091     2.961563    -1.241877 
C      -1.410359     2.437596     0.288091 
C      -2.338913     1.900642    -0.621978 
H      -3.314138     1.558920    -0.279490 
C       2.805476    -0.346782     0.859579 
H       2.238093    -0.695078    -0.010266 
H       3.515028     0.405405     0.504384 
C       1.851473     0.311666     1.862331 
H       1.174931    -0.424388     2.297193 
H       2.421981     0.775610     2.666198 
C      -1.963775     2.761110     1.671209 
H      -2.656059     1.964540     1.959990 
H      -1.158452     2.734751     2.412027 
C      -2.677031     4.114658     1.723063 
H      -3.102924     4.286221     2.716181 
H      -1.997199     4.944516     1.507216 
H      -3.494843     4.156678     0.996076 
O      -2.245245     2.238961    -1.927612 
C      -3.390944     1.946674    -2.739562 
H      -3.537173     0.862454    -2.789592 
H      -4.278012     2.399102    -2.279447 
C      -3.164019     2.517259    -4.112501 
C      -3.882179     3.627965    -4.541195 
C      -2.223805     1.937970    -4.963696 
C      -3.671141     4.159020    -5.809227 
H      -4.613652     4.083104    -3.878632 
C      -2.010699     2.468925    -6.228098 
H      -1.658566     1.073324    -4.629995 
C      -2.733897     3.579288    -6.654067 
H      -4.237676     5.025825    -6.134759 
H      -1.276597     2.014251    -6.885851 
H      -2.565157     3.991428    -7.644048 
C      -0.169579     0.936426     0.650508 
O      -0.105132     0.473122    -0.651756 
C      -1.310540    -0.140987    -0.739405 
N      -1.004694     0.112775     1.359650 
N      -1.744276    -0.497556     0.483254 
C      -1.626530    -0.773757    -2.047399 
O      -0.909969    -0.589707    -2.994443 
O      -2.731107    -1.518521    -2.188316 
C      -3.657884    -1.802944    -1.131110 
H      -3.196745    -2.416655    -0.357773 
H      -4.048874    -0.886909    -0.683302 
H      -4.465815    -2.350735    -1.615772 
74
     -1835.277851     -1834.738184  10.48  11.96
C      -0.512125     0.139052     3.531345 
C      -1.438435    -0.234688     2.531581 
C      -1.258603    -1.463312     1.892415 
C      -0.188551    -2.271956     2.235638 
C       0.725040    -1.867455     3.228383 
C       0.573860    -0.658198     3.888950 
C      -2.030523     1.763784     3.347450 
C      -2.406964     0.830078     2.430542 
H      -1.937488    -1.795587     1.115289 
H      -0.064817    -3.217546     1.722814 
H       1.292471    -0.369884     4.647535 
H      -2.466382     2.729109     3.564371 
N      -0.890977     1.363591     4.018563 
C      -0.206871     2.106950     5.050501 
H       0.823919     2.328410     4.755236 
H      -0.730205     3.050605     5.211183 
H      -0.193282     1.550250     5.993509 
O       1.815272    -2.606942     3.595722 
C       2.087798    -3.794289     2.875090 
H       2.237939    -3.587389     1.808412 
H       3.010216    -4.196295     3.296220 
H       1.285016    -4.531518     2.996009 
N      -2.075395     2.093187    -0.210550 
C      -1.107025     2.956825     0.268214 
O      -1.373416     3.796583     1.105724 
C       0.308697     2.840284    -0.253696 
H       0.940705     3.012745     0.620492 
H       0.478138     3.689714    -0.921771 
C       0.678656     1.515858    -0.901939 
H       1.748927     1.515866    -1.127598 
H       0.515947     0.733046    -0.161578 
C      -0.113928     1.234656    -2.167721 
C      -0.064828    -0.019787    -2.813635 
H      -0.251814    -0.029733    -3.882092 
C      -3.547098     0.929987     1.456211 
H      -4.496500     1.082237     1.982271 
H      -3.640518    -0.016189     0.918019 
C      -3.392652     2.084856     0.450443 
H      -4.161693     2.022736    -0.323663 
H      -3.484443     3.044396     0.956661 
C      -0.202894     2.390097    -3.166680 
H      -0.820552     2.072491    -4.011233 
H      -0.730767     3.238924    -2.722954 
C       1.173497     2.828503    -3.673795 
H       1.709026     1.987292    -4.125916 
H       1.071801     3.609645    -4.433105 
H       1.800701     3.228130    -2.871036 
O       0.618108    -1.160729    -2.511420 
C       1.021131    -1.551619    -1.198022 
H       0.317496    -1.203240    -0.444450 
H       0.950116    -2.643338    -1.214544 
C       2.440360    -1.140183    -0.874517 
C       2.795654    -0.858924     0.441718 
C       3.413310    -1.084995    -1.868454 
C       4.109350    -0.538322     0.763673 
H       2.038995    -0.875315     1.220183 
C       4.725910    -0.759002    -1.548270 
H       3.140559    -1.300512    -2.896257 
C       5.079102    -0.489339    -0.230564 
H       4.373118    -0.325633     1.795151 
H       5.476951    -0.720116    -2.331182 
H       6.105047    -0.238790     0.019641 
C      -1.944507     1.205384    -1.285879 
O      -1.922248    -0.135928    -0.970174 
C      -2.099104    -0.659892    -2.211652 
N      -2.703544     1.372210    -2.413210 
N      -2.741625     0.214757    -3.006024 
C      -2.098498    -2.131575    -2.349669 
O      -1.885926    -2.883098    -1.430241 
O      -2.329708    -2.501295    -3.606650 
C      -2.338482    -3.917624    -3.841222 
H      -1.366003    -4.349153    -3.594799 
H      -3.111250    -4.397124    -3.236618 
H      -2.553197    -4.035727    -4.902381 
74
     -1835.271724     -1834.736608  14.33  12.95
C       4.360499     0.977018    -1.564133 
C       3.357735     0.971851    -2.557158 
C       3.379058     1.975607    -3.524498 
C       4.366644     2.946160    -3.493731 
C       5.353714     2.926119    -2.489577 
C       5.363651     1.941957    -1.513249 
C       3.017558    -0.768013    -1.192318 
C       2.503896    -0.160360    -2.296846 
H       2.626350     2.008135    -4.306327 
H       4.368810     3.719363    -4.250901 
H       6.135679     1.952622    -0.752257 
H       2.680078    -1.654888    -0.673714 
N       4.137484    -0.093568    -0.735814 
C       4.940847    -0.448051     0.409334 
H       4.524863    -1.344687     0.871749 
H       5.974577    -0.657823     0.114852 
H       4.942153     0.356736     1.152022 
O       6.356107     3.852467    -2.399796 
C       6.396173     4.885405    -3.363600 
H       5.488288     5.500386    -3.331746 
H       7.257738     5.503924    -3.108430 
H       6.526678     4.485340    -4.376707 
N      -0.465281     0.359782    -1.528360 
C      -0.060413     1.269502    -0.563274 
O       0.726309     2.156579    -0.808538 
C      -0.665458     1.064303     0.806810 
H      -1.694601     1.425345     0.775059 
H      -0.112553     1.716469     1.484420 
C      -0.569296    -0.387108     1.298845 
H       0.495952    -0.639137     1.306486 
H      -0.890801    -0.425939     2.340438 
C      -1.266612    -1.478301     0.477649 
C      -2.577876    -1.937365     0.747606 
H      -2.783000    -2.976176     0.509029 
C       1.283696    -0.540710    -3.079548 
H       0.959190    -1.552534    -2.821465 
H       1.522024    -0.549847    -4.150264 
C       0.106919     0.423808    -2.881106 
H       0.427686     1.454787    -3.032744 
H      -0.690832     0.190410    -3.588555 
C      -0.329246    -2.630525     0.106681 
H      -0.847721    -3.321574    -0.562616 
H       0.514971    -2.228213    -0.460949 
C       0.175240    -3.396509     1.333094 
H      -0.662644    -3.815462     1.899566 
H       0.821381    -4.226264     1.029461 
H       0.748890    -2.759682     2.013232 
O      -3.474427    -1.561518     1.705202 
C      -3.623608    -0.227737     2.184992 
H      -3.258653     0.491127     1.454366 
H      -4.704550    -0.076172     2.258941 
C      -2.990726    -0.018933     3.543429 
C      -2.791531    -1.080030     4.421100 
C      -2.636853     1.267486     3.943138 
C      -2.242806    -0.857066     5.678983 
H      -3.067715    -2.083692     4.117632 
C      -2.089718     1.491959     5.200559 
H      -2.788480     2.103404     3.265178 
C      -1.890891     0.428314     6.073188 
H      -2.092015    -1.693113     6.354996 
H      -1.819712     2.500047     5.499371 
H      -1.463972     0.600781     7.055920 
C      -1.519236    -0.511703    -1.289884 
O      -2.756212     0.023830    -0.990409 
C      -3.502083    -1.114975    -1.053375 
N      -1.704778    -1.606724    -2.090449 
N      -2.925698    -2.000536    -1.892718 
C      -4.949975    -1.024683    -0.761292 
O      -5.484989    -0.024861    -0.354808 
O      -5.554775    -2.192706    -0.970597 
C      -6.964432    -2.212709    -0.701692 
H      -7.292809    -3.222726    -0.943278 
H      -7.153792    -1.987827     0.350135 
H      -7.480066    -1.480563    -1.326740 
74
     -1835.266485     -1834.725944  17.61  19.65
C       0.315435    -2.662248    -1.012324 
C      -0.473367    -2.302075    -2.117830 
C       0.166817    -2.049507    -3.339885 
C       1.533962    -2.159733    -3.423262 
C       2.303255    -2.526564    -2.297293 
C       1.708296    -2.795993    -1.078814 
C      -1.818792    -2.621577    -0.359062 
C      -1.843115    -2.282792    -1.678541 
H      -0.406032    -1.767651    -4.218378 
H       2.059881    -1.963285    -4.350958 
H       2.282063    -3.085478    -0.208327 
H      -2.642910    -2.724614     0.334764 
N      -0.518507    -2.839609     0.064586 
C      -0.119228    -3.303741     1.372179 
H       0.265440    -4.328889     1.332493 
H       0.652524    -2.654224     1.798344 
H      -0.986480    -3.284922     2.034458 
O       3.648118    -2.585797    -2.520332 
C       4.485065    -2.806442    -1.403570 
H       5.509540    -2.753552    -1.774171 
H       4.333363    -2.033026    -0.640329 
H       4.312951    -3.795599    -0.960876 
N      -3.082126     0.303419    -1.216976 
C      -4.008071    -0.034669    -0.253897 
O      -4.999584    -0.672281    -0.556002 
C      -3.770761     0.335622     1.196278 
H      -3.953185    -0.591949     1.747228 
H      -4.570004     1.013127     1.499487 
C      -2.393659     0.867738     1.556282 
H      -2.380812     1.097900     2.628702 
H      -1.684496     0.056514     1.390722 
C      -1.950473     2.092360     0.770340 
C      -0.600962     2.507156     0.851256 
H      -0.391516     3.549965     0.643715 
C      -3.047678    -1.868831    -2.468054 
H      -3.946234    -2.299366    -2.024420 
H      -2.978122    -2.246111    -3.494623 
C      -3.215124    -0.340482    -2.540189 
H      -2.447075     0.098465    -3.179181 
H      -4.193779    -0.087974    -2.955094 
C      -2.907933     3.297664     0.712029 
H      -3.149685     3.541417     1.756165 
H      -2.332070     4.147001     0.331783 
C      -4.217451     3.258047    -0.089463 
H      -4.682417     4.246533    -0.019109 
H      -4.040982     3.052623    -1.144403 
H      -4.947924     2.542217     0.286795 
O       0.443488     2.030314     1.592623 
C       0.593392     0.677773     2.032980 
H      -0.129136     0.474349     2.829100 
H       0.427044    -0.015368     1.205742 
C       1.994554     0.522621     2.567370 
C       2.412563     1.277491     3.661219 
C       2.876549    -0.381475     1.987251 
C       3.695408     1.129141     4.168588 
H       1.727408     1.989930     4.111707 
C       4.161533    -0.536751     2.497680 
H       2.559496    -0.945621     1.116442 
C       4.572951     0.217411     3.588220 
H       4.013000     1.723287     5.019685 
H       4.844653    -1.245236     2.038891 
H       5.575976     0.098791     3.985573 
C      -1.999688     1.178683    -1.070709 
O      -0.749979     0.615713    -0.956365 
C       0.011502     1.728090    -1.119017 
N      -1.904059     2.301093    -1.842212 
N      -0.653308     2.661307    -1.820080 
C       1.480624     1.595558    -1.031668 
O       2.043687     0.543655    -0.871969 
O       2.078863     2.782269    -1.110862 
C       3.502276     2.754597    -0.924358 
H       3.974115     2.133125    -1.688443 
H       3.828796     3.789523    -1.016312 
H       3.742132     2.360946     0.066684 
