74
     -1835.290335     -1834.755433   0.00   0.00
C      -0.159839    -3.733913     0.275463 
C      -0.399800    -3.246310     1.571934 
C      -1.714673    -2.908073     1.920729 
C      -2.721015    -3.044099     0.993199 
C      -2.449966    -3.527667    -0.304143 
C      -1.170111    -3.885726    -0.683982 
C       1.792216    -3.625704     1.340383 
C       0.874743    -3.179285     2.241776 
H      -1.945597    -2.524932     2.909744 
H      -3.744411    -2.778084     1.232491 
H      -0.939887    -4.250096    -1.676312 
H       2.866804    -3.697862     1.439461 
N       1.183026    -3.979771     0.154537 
C       1.864163    -4.325418    -1.070509 
H       1.459890    -5.250862    -1.492235 
H       1.773932    -3.521010    -1.808145 
H       2.921767    -4.482330    -0.852862 
O      -3.540340    -3.597511    -1.128824 
C      -3.339958    -4.095969    -2.435315 
H      -2.969034    -5.128266    -2.416349 
H      -4.315038    -4.074873    -2.924109 
H      -2.636929    -3.470308    -2.999841 
N       1.698624    -0.366620     2.580985 
C       3.009928     0.006073     2.792126 
O       3.561897    -0.197173     3.856095 
C       3.709503     0.631297     1.602143 
H       3.887049    -0.186228     0.897276 
H       4.678966     0.975238     1.964164 
C       2.968625     1.773837     0.866918 
H       3.273325     2.726480     1.311116 
H       3.306936     1.785605    -0.169094 
C       1.443883     1.716838     0.914942 
C       0.701663     1.896730    -0.275897 
H      -0.250070     2.423886    -0.259556 
C       1.172088    -2.590874     3.587173 
H       2.211310    -2.799673     3.857483 
H       0.540248    -3.042596     4.361036 
C       0.955328    -1.069622     3.629336 
H      -0.100900    -0.827293     3.507623 
H       1.296036    -0.672883     4.586753 
C       0.814386     2.432289     2.116743 
H      -0.229155     2.119588     2.216020 
H       1.324397     2.114126     3.031317 
C       0.877572     3.959753     2.012734 
H       0.352239     4.322456     1.123370 
H       0.409603     4.421720     2.887532 
H       1.907815     4.323893     1.960373 
O       1.351590     1.873530    -1.456158 
C       0.543770     2.030239    -2.624690 
H       1.254503     1.979864    -3.452599 
H      -0.142429     1.183204    -2.705938 
C      -0.207574     3.342473    -2.642938 
C       0.461920     4.538162    -2.385897 
C      -1.569867     3.374323    -2.916634 
C      -0.222473     5.744750    -2.403973 
H       1.525698     4.518288    -2.167605 
C      -2.258484     4.583351    -2.940633 
H      -2.098147     2.445538    -3.112352 
C      -1.586126     5.770161    -2.683686 
H       0.308303     6.669946    -2.202317 
H      -3.321674     4.595394    -3.158938 
H      -2.120934     6.714385    -2.700431 
C       1.121019    -0.137867     1.327603 
O      -0.246063    -0.080401     1.286952 
C      -0.427398    -0.060150    -0.064282 
N       1.566741    -0.774893     0.177407 
N       0.604066    -0.666599    -0.683421 
C      -1.820447     0.055110    -0.536333 
O      -2.704700     0.507517     0.144922 
O      -1.969687    -0.371224    -1.797423 
C      -3.319252    -0.345564    -2.287633 
H      -3.259794    -0.665995    -3.327685 
H      -3.939948    -1.035006    -1.712540 
H      -3.733845     0.662694    -2.218575 
74
     -1835.293760     -1834.753948  -2.14   0.94
C       2.470174     1.831013     1.943135 
C       3.278463     1.074253     1.077294 
C       3.612374     1.622452    -0.168982 
C       3.122232     2.858509    -0.521106 
C       2.276920     3.577937     0.350257 
C       1.944596     3.082061     1.597399 
C       2.907684    -0.111846     2.936831 
C       3.533473    -0.184564     1.728978 
H       4.247278     1.079034    -0.862264 
H       3.359795     3.304735    -1.480567 
H       1.287608     3.612161     2.273540 
H       2.825445    -0.863642     3.709784 
N       2.277962     1.104643     3.090350 
C       1.391848     1.464054     4.173016 
H       1.457290     0.697868     4.947027 
H       1.684889     2.423214     4.611047 
H       0.355832     1.521440     3.823848 
O       1.817731     4.766745    -0.146241 
C       0.882550     5.483443     0.640019 
H       0.614887     6.367864     0.060627 
H      -0.015152     4.882829     0.829118 
H       1.324394     5.798284     1.593230 
N       1.961686    -2.426401     0.513776 
C       1.749573    -3.722384     0.944013 
O       2.639030    -4.550312     0.923974 
C       0.360161    -4.014772     1.473850 
H       0.292738    -3.504506     2.438819 
H       0.326861    -5.088440     1.661506 
C      -0.836677    -3.581593     0.592391 
H      -1.111689    -4.419926    -0.055352 
H      -1.688707    -3.394135     1.245752 
C      -0.596618    -2.371607    -0.305836 
C      -1.556727    -1.333961    -0.351149 
H      -1.747345    -0.801269    -1.280285 
C       4.162009    -1.401076     1.121277 
H       4.341666    -2.156652     1.892142 
H       5.133704    -1.158755     0.675061 
C       3.281656    -2.020228     0.022867 
H       3.134385    -1.309675    -0.792145 
H       3.756819    -2.917285    -0.375463 
C      -0.016517    -2.701906    -1.686313 
H       0.374479    -1.786616    -2.141009 
H       0.835105    -3.378815    -1.565667 
C      -1.034835    -3.343758    -2.634398 
H      -1.891152    -2.684123    -2.807805 
H      -0.574569    -3.554243    -3.604740 
H      -1.419248    -4.289238    -2.240626 
O      -2.549251    -1.319550     0.556332 
C      -3.427530    -0.187092     0.529609 
H      -4.173208    -0.411736     1.295245 
H      -2.871596     0.703504     0.832391 
C      -4.085727     0.020114    -0.815302 
C      -4.050169     1.267091    -1.430285 
C      -4.738831    -1.035586    -1.450517 
C      -4.663225     1.459419    -2.664796 
H      -3.538825     2.089159    -0.938291 
C      -5.345012    -0.847021    -2.684271 
H      -4.768034    -2.010791    -0.972561 
C      -5.309085     0.403894    -3.294162 
H      -4.635674     2.437730    -3.134647 
H      -5.850533    -1.675354    -3.170884 
H      -5.785889     0.553493    -4.257697 
C       0.901133    -1.516247     0.568632 
O       0.979213    -0.430566    -0.262135 
C      -0.075523     0.290103     0.215221 
N       0.337594    -1.108975     1.769485 
N      -0.302042    -0.013914     1.506651 
C      -0.445959     1.564597    -0.424029 
O      -1.149398     2.404901     0.082781 
O       0.061911     1.635661    -1.656794 
C      -0.217481     2.846243    -2.376433 
H       0.226484     3.701598    -1.863937 
H       0.238925     2.710857    -3.356414 
H      -1.296322     2.987658    -2.474180 
74
     -1835.291023     -1834.753836  -0.43   1.01
C       2.702154    -2.027403     0.171870 
C       3.392439    -0.866415     0.561005 
C       3.638253    -0.665832     1.926477 
C       3.178400    -1.584193     2.841731 
C       2.450503    -2.719535     2.426171 
C       2.208144    -2.964611     1.087151 
C       3.141168    -0.843870    -1.661473 
C       3.649809    -0.106682    -0.635199 
H       4.182184     0.208870     2.270179 
H       3.350127    -1.452785     3.904505 
H       1.642350    -3.822507     0.749901 
H       3.097355    -0.607906    -2.715871 
N       2.582138    -2.014051    -1.194137 
C       1.823769    -2.959295    -1.979247 
H       1.905645    -2.684639    -3.031901 
H       2.217163    -3.972978    -1.854369 
H       0.767053    -2.939244    -1.694104 
O       2.007028    -3.521445     3.441419 
C       1.167365    -4.608181     3.093643 
H       1.697209    -5.333669     2.464491 
H       0.887342    -5.086743     4.032808 
H       0.265731    -4.259128     2.576164 
N       1.884836     2.304302    -0.878644 
C       1.678195     3.166471    -1.938148 
O       2.535875     3.950034    -2.295001 
C       0.339645     3.032276    -2.635103 
H       0.384962     2.094256    -3.195713 
H       0.289014     3.848774    -3.356001 
C      -0.922085     3.022286    -1.738877 
H      -1.288736     4.048890    -1.644216 
H      -1.698554     2.455685    -2.252628 
C      -0.731036     2.474104    -0.326144 
C      -1.667953     1.539054     0.180248 
H      -1.950011     1.553152     1.233045 
C       4.168586     1.296265    -0.715138 
H       4.392849     1.556567    -1.754044 
H       5.101026     1.401638    -0.148165 
C       3.162273     2.317397    -0.159759 
H       2.959356     2.117149     0.893467 
H       3.563964     3.326846    -0.254060 
C      -0.306960     3.514627     0.717140 
H       0.041355     2.998121     1.616842 
H       0.548264     4.078500     0.332212 
C      -1.421014     4.496427     1.094202 
H      -1.062457     5.211309     1.841055 
H      -1.769815     5.070119     0.230774 
H      -2.286805     3.978708     1.519337 
O      -2.535922     0.962358    -0.661655 
C      -3.410606    -0.021855    -0.091654 
H      -2.812719    -0.746234     0.469501 
H      -4.110901     0.472536     0.592360 
C      -4.144582    -0.701344    -1.213954 
C      -5.525959    -0.611359    -1.327707 
C      -3.425709    -1.441372    -2.152688 
C      -6.191180    -1.255707    -2.366492 
H      -6.088848    -0.032643    -0.600169 
C      -4.086811    -2.080715    -3.191129 
H      -2.345556    -1.505792    -2.060550 
C      -5.472046    -1.990284    -3.299386 
H      -7.271140    -1.180366    -2.446438 
H      -3.522486    -2.653931    -3.920327 
H      -5.987831    -2.492459    -4.111855 
C       0.861609     1.419513    -0.519160 
O       0.901798     0.928141     0.759590 
C      -0.071785    -0.021303     0.663565 
N       0.436556     0.401730    -1.363902 
N      -0.182762    -0.448225    -0.607960 
C      -0.437045    -0.820185     1.847907 
O      -1.047579    -1.859957     1.808065 
O      -0.040849    -0.207785     2.967743 
C      -0.303997    -0.914231     4.190624 
H      -1.369115    -1.138013     4.279835 
H       0.273484    -1.839953     4.221682 
H       0.013889    -0.241284     4.986268 
74
     -1835.291969     -1834.753676  -1.02   1.11
C       0.857588    -2.281771     2.618442 
C       2.081554    -1.606555     2.419334 
C       2.390891    -0.536687     3.257532 
C       1.507195    -0.159431     4.255881 
C       0.295441    -0.852767     4.431146 
C      -0.044684    -1.920874     3.615930 
C       1.899707    -3.231383     0.892272 
C       2.731119    -2.231732     1.293815 
H       3.321879     0.010019     3.138600 
H       1.762101     0.674404     4.897489 
H      -0.985505    -2.436373     3.770208 
H       2.004593    -3.912652     0.059623 
N       0.765246    -3.275755     1.677716 
C      -0.374608    -4.141220     1.473941 
H      -0.219721    -4.709833     0.556148 
H      -0.494971    -4.839900     2.308612 
H      -1.288269    -3.550383     1.359014 
O      -0.628354    -0.524464     5.387860 
C      -0.297180     0.490778     6.313879 
H      -0.157893     1.460538     5.819699 
H      -1.139780     0.558377     7.003307 
H       0.610442     0.239148     6.875613 
N       2.819166    -0.683970    -1.367904 
C       3.342814    -0.764973    -2.646738 
O       4.539319    -0.706215    -2.848912 
C       2.327582    -0.963316    -3.753886 
H       1.951263    -1.984108    -3.645867 
H       2.885258    -0.909458    -4.689338 
C       1.127514     0.014884    -3.783184 
H       1.392769     0.870237    -4.412607 
H       0.291843    -0.488480    -4.269311 
C       0.686150     0.564458    -2.429733 
C      -0.685246     0.556129    -2.085366 
H      -1.107603     1.362179    -1.489289 
C       3.961957    -1.744309     0.592568 
H       4.349055    -2.515140    -0.080963 
H       4.754259    -1.525027     1.317849 
C       3.704791    -0.465378    -0.220229 
H       3.261534     0.303568     0.416677 
H       4.640653    -0.085947    -0.630174 
C       1.399911     1.849768    -1.994510 
H       1.237366     2.007715    -0.923852 
H       2.478916     1.725833    -2.131687 
C       0.938556     3.090965    -2.765442 
H       1.124435     2.995917    -3.839308 
H      -0.132516     3.271338    -2.628740 
H       1.473546     3.979373    -2.415847 
O      -1.549447    -0.129512    -2.854553 
C      -2.906247    -0.196236    -2.396131 
H      -3.427688    -0.735005    -3.190209 
H      -2.945247    -0.794169    -1.482506 
C      -3.525069     1.165157    -2.176105 
C      -4.158700     1.463057    -0.974270 
C      -3.470772     2.134146    -3.177484 
C      -4.735775     2.713891    -0.775679 
H      -4.198525     0.710613    -0.192186 
C      -4.039731     3.383827    -2.978336 
H      -2.976358     1.904212    -4.117179 
C      -4.675649     3.675857    -1.774845 
H      -5.234103     2.935605     0.163014 
H      -3.991737     4.131533    -3.763889 
H      -5.124294     4.651877    -1.619232 
C       1.431486    -0.740670    -1.209039 
O       0.920108    -0.202621    -0.059693 
C      -0.372156    -0.621029    -0.175505 
N       0.698210    -1.877071    -1.524766 
N      -0.434511    -1.746370    -0.912398 
C      -1.362559    -0.241696     0.846272 
O      -2.427174    -0.791133     0.995555 
O      -0.939257     0.811242     1.548755 
C      -1.825728     1.262225     2.583614 
H      -2.756753     1.630152     2.145401 
H      -2.037665     0.454518     3.285177 
H      -1.294744     2.070078     3.085946 
74
     -1835.290603     -1834.753298  -0.16   1.34
C       2.997624     1.916866     0.880262 
C       2.440116     1.652464     2.148530 
C       2.854877     0.508262     2.829245 
C       3.775494    -0.346604     2.250251 
C       4.291788    -0.072860     0.970749 
C       3.917564     1.065075     0.274015 
C       1.521984     3.522620     1.335058 
C       1.479577     2.693941     2.414095 
H       2.457536     0.273352     3.812127 
H       4.082202    -1.233789     2.788391 
H       4.328655     1.252427    -0.711127 
H       0.929212     4.402650     1.126646 
N       2.442794     3.079818     0.408026 
C       2.630279     3.616053    -0.919766 
H       3.684045     3.851976    -1.097838 
H       2.280318     2.906018    -1.675973 
H       2.049395     4.535122    -1.010776 
O       5.175344    -0.896643     0.325121 
C       5.469951    -2.146442     0.921706 
H       6.125142    -2.667257     0.221989 
H       5.992885    -2.021264     1.877295 
H       4.557924    -2.734900     1.076980 
N      -1.394457     1.774645     2.222021 
C      -2.590866     2.463637     2.273960 
O      -2.994717     2.957272     3.308575 
C      -3.326914     2.590063     0.955997 
H      -2.753475     3.302451     0.356325 
H      -4.289592     3.047103     1.187209 
C      -3.527152     1.291332     0.139851 
H      -4.477513     0.837946     0.437977 
H      -3.622939     1.562816    -0.911359 
C      -2.444133     0.226912     0.306101 
C      -1.887779    -0.380775    -0.844021 
H      -1.605968    -1.431450    -0.833903 
C       0.497962     2.736626     3.544745 
H      -0.001539     3.709749     3.576442 
H       1.008223     2.605591     4.506321 
C      -0.572236     1.639129     3.427404 
H      -0.105644     0.652703     3.409439 
H      -1.254437     1.690331     4.276423 
C      -2.703001    -0.777860     1.436364 
H      -1.778694    -1.321716     1.652575 
H      -2.963968    -0.231262     2.348004 
C      -3.817008    -1.779606     1.115510 
H      -3.581107    -2.369061     0.223597 
H      -3.955333    -2.476191     1.948120 
H      -4.775617    -1.282596     0.940201 
O      -2.134473     0.161371    -2.049920 
C      -1.513042    -0.477294    -3.170228 
H      -1.853203     0.101274    -4.031651 
H      -0.428561    -0.372396    -3.086064 
C      -1.910296    -1.928985    -3.305485 
C      -3.257177    -2.283214    -3.372578 
C      -0.944049    -2.926913    -3.353214 
C      -3.628906    -3.614547    -3.488359 
H      -4.016127    -1.507030    -3.331599 
C      -1.312951    -4.263390    -3.473785 
H       0.106256    -2.656564    -3.293469 
C      -2.655502    -4.608884    -3.540946 
H      -4.680204    -3.879789    -3.540502 
H      -0.549248    -5.033650    -3.513229 
H      -2.946110    -5.650414    -3.633878 
C      -0.972217     1.245831     0.996616 
O      -0.062567     0.223338     1.050511 
C       0.261863     0.142646    -0.270599 
N      -0.648268     2.062399    -0.080799 
N       0.072373     1.333310    -0.871352 
C       1.234167    -0.895798    -0.660573 
O       1.489720    -1.852904     0.024423 
O       1.770023    -0.650864    -1.864118 
C       2.810622    -1.555999    -2.264865 
H       3.665896    -1.465999    -1.592340 
H       2.448419    -2.586538    -2.256115 
H       3.086764    -1.253670    -3.274769 
74
     -1835.289399     -1834.753116   0.59   1.46
C       2.807049     1.862674     0.416064 
C       2.152088     2.348764     1.566589 
C       2.527413     1.837013     2.808360 
C       3.504447     0.860991     2.888640 
C       4.118454     0.372915     1.720804 
C       3.786085     0.874045     0.472266 
C       1.274842     3.343841    -0.234319 
C       1.157284     3.291948     1.120701 
H       2.055352     2.191437     3.719757 
H       3.779638     0.469068     3.858958 
H       4.272690     0.480105    -0.412385 
H       0.688777     3.904617    -0.949408 
N       2.274646     2.501706    -0.675696 
C       2.570987     2.188895    -2.053656 
H       3.634381     2.337897    -2.265219 
H       2.293625     1.155135    -2.283777 
H       1.993984     2.855728    -2.696144 
O       5.061690    -0.619843     1.726434 
C       5.323578    -1.275184     2.953866 
H       5.766598    -0.590945     3.687267 
H       4.409692    -1.716294     3.369093 
H       6.039268    -2.066443     2.726236 
N      -1.685137     2.270590     1.351556 
C      -2.902288     2.781573     0.944141 
O      -3.395562     3.753217     1.482207 
C      -3.543723     2.076756    -0.233775 
H      -2.954971     2.361152    -1.110565 
H      -4.536840     2.512978    -0.344723 
C      -3.634142     0.533397    -0.167525 
H      -4.598254     0.260258     0.271817 
H      -3.631611     0.149284    -1.187407 
C      -2.546786    -0.161112     0.650396 
C      -1.893119    -1.293270     0.101793 
H      -1.590958    -2.122379     0.741654 
C       0.089166     3.926555     1.957578 
H      -0.426872     4.704706     1.386845 
H       0.525187     4.410624     2.839502 
C      -0.950858     2.906667     2.448645 
H      -0.467688     2.121852     3.033173 
H      -1.694374     3.402988     3.072844 
C      -2.871710    -0.329402     2.140218 
H      -1.957713    -0.599967     2.677512 
H      -3.196635     0.633696     2.545404 
C      -3.953881    -1.377408     2.418523 
H      -3.655545    -2.368444     2.061799 
H      -4.141417    -1.454711     3.493809 
H      -4.902620    -1.124037     1.936799 
O      -2.050234    -1.569650    -1.201221 
C      -1.337024    -2.710810    -1.692128 
H      -0.293064    -2.639235    -1.372620 
H      -1.778788    -3.621737    -1.270333 
C      -1.425002    -2.716234    -3.193053 
C      -2.029812    -3.766300    -3.871990 
C      -0.879100    -1.655210    -3.915557 
C      -2.089313    -3.765021    -5.262327 
H      -2.459674    -4.592451    -3.311838 
C      -0.941497    -1.650629    -5.301401 
H      -0.411245    -0.834519    -3.379793 
C      -1.545676    -2.706982    -5.977956 
H      -2.563055    -4.590465    -5.784363 
H      -0.517114    -0.821650    -5.859425 
H      -1.592231    -2.702303    -7.062434 
C      -1.163562     1.155678     0.684468 
O      -0.231093     0.416537     1.365138 
C       0.192713    -0.392391     0.354970 
N      -0.780895     1.217087    -0.650906 
N       0.016416     0.213709    -0.834743 
C       1.214898    -1.403584     0.685536 
O       1.419823    -1.793177     1.807163 
O       1.850993    -1.841852    -0.407080 
C       2.909682    -2.781673    -0.164155 
H       3.702988    -2.310619     0.419440 
H       2.529167    -3.655020     0.369888 
H       3.277489    -3.065136    -1.149927 
74
     -1835.289299     -1834.752710   0.65   1.71
C       2.348661     2.341102     0.917200 
C       1.388028     2.673747     1.897150 
C       1.657088     2.347178     3.225230 
C       2.844208     1.714255     3.557159 
C       3.784456     1.399274     2.558926 
C       3.548079     1.705396     1.227784 
C       0.626829     3.320482    -0.104674 
C       0.282380     3.295758     1.211459 
H       0.944778     2.584669     4.010089 
H       3.037995     1.468070     4.593387 
H       4.287793     1.449403     0.478096 
H       0.057205     3.674368    -0.952414 
N       1.867476     2.747626    -0.301356 
C       2.500578     2.512493    -1.579169 
H       2.717101     1.447930    -1.710039 
H       1.813955     2.819946    -2.368894 
H       3.428036     3.087184    -1.672442 
O       4.971775     0.766438     2.815711 
C       5.313657     0.511597     4.163363 
H       4.603775    -0.177478     4.638046 
H       6.301536     0.049505     4.143032 
H       5.360199     1.439176     4.746494 
N      -2.333764     1.700690     0.916128 
C      -3.621335     1.864599     0.437267 
O      -4.406580     2.623630     0.969511 
C      -3.959568     1.062314    -0.802238 
H      -3.408198     1.523951    -1.625889 
H      -5.023392     1.217647    -0.983837 
C      -3.633755    -0.450138    -0.762088 
H      -4.511458    -0.984190    -0.385492 
H      -3.472474    -0.789447    -1.785243 
C      -2.446064    -0.852364     0.110649 
C      -1.473873    -1.736320    -0.419702 
H      -0.990840    -2.476233     0.218497 
C      -1.045339     3.654718     1.805047 
H      -1.606193     4.302765     1.124513 
H      -0.908640     4.212520     2.738899 
C      -1.899552     2.416590     2.119597 
H      -1.340730     1.722664     2.751298 
H      -2.810296     2.711580     2.640709 
C      -2.794685    -1.157892     1.572173 
H      -1.873600    -1.183137     2.162699 
H      -3.398577    -0.338147     1.973683 
C      -3.555509    -2.474087     1.761338 
H      -2.971996    -3.330381     1.408334 
H      -3.777012    -2.637477     2.820405 
H      -4.506922    -2.476954     1.221803 
O      -1.467515    -1.988319    -1.734547 
C      -0.414011    -2.839969    -2.210098 
H       0.542485    -2.464166    -1.834839 
H      -0.575740    -3.855929    -1.830302 
C      -0.436601    -2.817246    -3.712971 
C      -0.724526    -3.962482    -4.444393 
C      -0.157607    -1.626595    -4.383960 
C      -0.732612    -3.927051    -5.835549 
H      -0.945414    -4.890949    -3.924563 
C      -0.169206    -1.588706    -5.770568 
H       0.064202    -0.733275    -3.807377 
C      -0.455641    -2.739879    -6.499627 
H      -0.957846    -4.827469    -6.398489 
H       0.046978    -0.659136    -6.288184 
H      -0.462865    -2.708415    -7.584655 
C      -1.484441     0.801437     0.262166 
O      -0.424469     0.325968     0.987737 
C       0.260407    -0.305698    -0.007170 
N      -1.058496     1.010539    -1.045494 
N      -0.010287     0.266851    -1.195536 
C       1.516960    -1.013051     0.298017 
O       2.320720    -1.351658    -0.535546 
O       1.622982    -1.257027     1.607218 
C       2.830590    -1.918230     2.015175 
H       3.703628    -1.336822     1.716550 
H       2.771167    -1.981529     3.101101 
H       2.881924    -2.916211     1.573705 
74
     -1835.289684     -1834.752654   0.41   1.75
C      -3.281589     0.539195    -0.518789 
C      -3.053692    -0.271280    -1.650370 
C      -3.471366    -1.601406    -1.605648 
C      -4.062707    -2.104478    -0.460686 
C      -4.240708    -1.282064     0.666456 
C      -3.864143     0.051454     0.647836 
C      -2.245537     1.774365    -2.056577 
C      -2.365983     0.543050    -2.621910 
H      -3.332969    -2.255491    -2.460966 
H      -4.373688    -3.140652    -0.439680 
H      -4.012950     0.664208     1.529183 
H      -1.755495     2.656651    -2.444405 
N      -2.804462     1.796142    -0.795536 
C      -2.693802     2.873187     0.159143 
H      -3.674020     3.120551     0.577855 
H      -2.008235     2.603331     0.969369 
H      -2.304623     3.755951    -0.350478 
O      -4.779219    -1.727394     1.844234 
C      -5.036441    -3.114062     1.970050 
H      -5.815519    -3.442252     1.271727 
H      -4.125367    -3.701564     1.805786 
H      -5.387270    -3.263829     2.992105 
N       0.563957    -0.470952    -3.066565 
C       1.588458    -0.004338    -3.868195 
O       1.437954     0.101237    -5.069512 
C       2.956795     0.266171    -3.257279 
H       3.301132     1.203937    -3.699574 
H       3.589578    -0.513034    -3.698332 
C       3.129005     0.296019    -1.736850 
H       4.191769     0.178607    -1.501002 
H       2.821728     1.265213    -1.345616 
C       2.320358    -0.785176    -1.036541 
C       2.197191    -0.700844     0.369903 
H       2.114862    -1.598766     0.981889 
C      -1.761339     0.079465    -3.911491 
H      -1.347892     0.927689    -4.464868 
H      -2.527715    -0.376356    -4.550589 
C      -0.657872    -0.970757    -3.716331 
H      -1.029047    -1.802380    -3.115214 
H      -0.347556    -1.355991    -4.687378 
C       2.501278    -2.223663    -1.526965 
H       1.829076    -2.870313    -0.953521 
H       2.183798    -2.310563    -2.569176 
C       3.943277    -2.721911    -1.392803 
H       4.630572    -2.147135    -2.021201 
H       4.296374    -2.647826    -0.358906 
H       4.017779    -3.770485    -1.696409 
O       2.611133     0.414222     0.985299 
C       2.394721     0.470370     2.401009 
H       1.354169     0.203428     2.608340 
H       3.055278    -0.251716     2.896072 
C       2.682245     1.869509     2.870312 
C       1.933428     2.931754     2.363483 
C       3.672228     2.119310     3.812110 
C       2.177891     4.226394     2.797549 
H       1.163500     2.731755     1.624138 
C       3.915418     3.417088     4.251742 
H       4.260473     1.294693     4.205918 
C       3.168829     4.471670     3.744403 
H       1.594578     5.050560     2.398530 
H       4.690491     3.602248     4.988811 
H       3.357518     5.485309     4.083823 
C       0.588481    -0.308105    -1.672519 
O      -0.128902    -1.233917    -0.948003 
C      -0.128323    -0.618153     0.263693 
N       0.400996     0.938122    -1.096160 
N       0.015263     0.709606     0.122593 
C      -0.769149    -1.320909     1.389874 
O      -1.020884    -2.499317     1.379256 
O      -1.002011    -0.495749     2.418110 
C      -1.685708    -1.085336     3.534924 
H      -2.690621    -1.392899     3.239388 
H      -1.131360    -1.948565     3.909256 
H      -1.733409    -0.302836     4.291875 
74
     -1835.289166     -1834.752369   0.74   1.93
C       2.329696     2.274565     0.891753 
C       1.404684     2.525595     1.919996 
C       1.559403     1.840803     3.133276 
C       2.586578     0.937977     3.278569 
C       3.493756     0.696675     2.225151 
C       3.387469     1.364028     1.019362 
C       0.830320     3.731941     0.126134 
C       0.441488     3.465147     1.403260 
H       0.867954     2.002445     3.954216 
H       2.721448     0.384941     4.201268 
H       4.068244     1.188180     0.197093 
H       0.356041     4.361845    -0.614152 
N       1.976606     3.033946    -0.193178 
C       2.580066     2.958686    -1.501993 
H       2.435337     1.966590    -1.942465 
H       2.109330     3.699307    -2.150225 
H       3.650951     3.178472    -1.450517 
O       4.453645    -0.239112     2.499665 
C       5.401223    -0.518283     1.489911 
H       5.988792     0.372777     1.236037 
H       6.066251    -1.281558     1.896500 
H       4.918368    -0.902856     0.582598 
N      -2.156612     2.120095     0.999218 
C      -3.128731     2.610567     0.152519 
O      -3.777779     3.597809     0.438801 
C      -3.286946     1.868923    -1.159743 
H      -2.414824     2.143068    -1.760839 
H      -4.168429     2.291094    -1.643238 
C      -3.387175     0.325302    -1.098310 
H      -4.444716     0.046619    -1.064200 
H      -2.983588    -0.078186    -2.026751 
C      -2.701274    -0.336952     0.093906 
C      -1.891227    -1.480003    -0.123345 
H      -1.865296    -2.285802     0.610429 
C      -0.817576     3.940549     2.061747 
H      -1.272092     4.730596     1.456852 
H      -0.605302     4.370893     3.047646 
C      -1.850209     2.817895     2.250051 
H      -1.488961     2.077536     2.964397 
H      -2.786414     3.234925     2.623880 
C      -3.570971    -0.457396     1.351320 
H      -2.933616    -0.703857     2.205774 
H      -4.021330     0.515521     1.569676 
C      -4.683050    -1.504063     1.228574 
H      -5.267816    -1.548471     2.152420 
H      -5.374294    -1.273255     0.412894 
H      -4.276097    -2.503622     1.045189 
O      -1.544999    -1.804529    -1.379982 
C      -0.698473    -2.950228    -1.522288 
H       0.148631    -2.852500    -0.836631 
H      -1.264813    -3.853342    -1.264111 
C      -0.213190    -3.007944    -2.944228 
C      -0.530096    -4.080635    -3.767764 
C       0.577343    -1.971246    -3.440421 
C      -0.061434    -4.125996    -5.077315 
H      -1.149115    -4.887824    -3.385244 
C       1.041838    -2.013356    -4.746914 
H       0.818622    -1.133143    -2.793212 
C       0.724426    -3.092158    -5.567954 
H      -0.313440    -4.968785    -5.713313 
H       1.655298    -1.203537    -5.129739 
H       1.089996    -3.123853    -6.589537 
C      -1.421827     0.994790     0.609980 
O      -0.826430     0.278312     1.615249 
C      -0.062047    -0.563257     0.863813 
N      -0.562159     1.014589    -0.480447 
N       0.235651     0.005812    -0.319877 
C       0.723160    -1.573932     1.597886 
O       0.418667    -1.964654     2.696517 
O       1.770034    -2.015447     0.891665 
C       2.586622    -2.989332     1.560341 
H       1.988760    -3.858639     1.842734 
H       3.354140    -3.271050     0.839839 
H       3.041511    -2.550017     2.449820 
74
     -1835.290832     -1834.752196  -0.31   2.04
C       1.506292    -2.788428    -0.387898 
C       2.650130    -2.033817    -0.073082 
C       3.148431    -2.099125     1.235626 
C       2.493603    -2.860553     2.175800 
C       1.320760    -3.570498     1.843656 
C       0.814033    -3.554592     0.557407 
C       2.119791    -1.676479    -2.215595 
C       3.017798    -1.307209    -1.262015 
H       4.041433    -1.550103     1.518026 
H       2.853451    -2.923400     3.196881 
H      -0.089363    -4.083803     0.286322 
H       2.022030    -1.323345    -3.232850 
N       1.211472    -2.583208    -1.711738 
C       0.004696    -3.016662    -2.376545 
H       0.067355    -2.743183    -3.430928 
H      -0.103883    -4.103305    -2.309656 
H      -0.875327    -2.532436    -1.939940 
O       0.741039    -4.242099     2.884736 
C      -0.510079    -4.860688     2.643984 
H      -0.420741    -5.661915     1.900324 
H      -0.823624    -5.290501     3.596077 
H      -1.253009    -4.126587     2.309924 
N       2.503799     1.721689    -0.866030 
C       2.596071     2.735651    -1.799709 
O       3.643140     2.952758    -2.377501 
C       1.409462     3.663832    -2.022106 
H       1.334388     3.797763    -3.103841 
H       1.763633     4.626212    -1.634253 
C       0.040757     3.320624    -1.429105 
H      -0.573132     4.227242    -1.416680 
H      -0.471685     2.597594    -2.062917 
C       0.140410     2.744231    -0.024749 
C      -1.024457     2.160408     0.525285 
H      -1.215574     2.192417     1.597499 
C       4.047088    -0.225033    -1.375562 
H       4.139868     0.100995    -2.415464 
H       5.032538    -0.594830    -1.066404 
C       3.732588     0.997679    -0.500066 
H       3.634212     0.699526     0.544697 
H       4.546741     1.718458    -0.579052 
C       0.942338     3.543563     1.004757 
H       0.951074     2.983067     1.945345 
H       1.987068     3.619896     0.692660 
C       0.380414     4.948370     1.242029 
H       0.946059     5.461938     2.025319 
H       0.434514     5.563852     0.338812 
H      -0.667627     4.910903     1.557103 
O      -2.075051     1.931032    -0.267573 
C      -3.201389     1.274362     0.344745 
H      -2.842528     0.568346     1.097492 
H      -3.820006     2.039196     0.828442 
C      -3.971773     0.548459    -0.722182 
C      -4.940743     1.208765    -1.472095 
C      -3.704040    -0.794206    -0.978525 
C      -5.634918     0.539048    -2.471487 
H      -5.151600     2.256059    -1.272348 
C      -4.399018    -1.465820    -1.976814 
H      -2.945283    -1.302390    -0.391316 
C      -5.363681    -0.800986    -2.725087 
H      -6.387890     1.062296    -3.052499 
H      -4.189529    -2.513222    -2.172418 
H      -5.904926    -1.327319    -3.505152 
C       1.262325     1.248046    -0.412154 
O       1.266647     0.688507     0.847250 
C       0.041942     0.094330     0.830210 
N       0.444156     0.484302    -1.227824 
N      -0.338900    -0.171551    -0.428474 
C      -0.468884    -0.624435     2.008310 
O      -1.461820    -1.313561     1.998388 
O       0.278605    -0.380034     3.087306 
C      -0.109319    -1.075372     4.282867 
H      -1.149643    -0.855044     4.531128 
H       0.020296    -2.151221     4.150308 
H       0.556988    -0.704466     5.060913 
74
     -1835.284165     -1834.751789   3.88   2.29
C       0.445648     5.797950     0.689696 
C       0.648011     4.663586    -0.114187 
C       0.882646     4.839965    -1.486913 
C       0.904605     6.114687    -2.003655 
C       0.697541     7.241043    -1.176398 
C       0.465348     7.106113     0.180651 
C       0.314042     3.988959     1.994152 
C       0.561288     3.509433     0.744157 
H       1.042005     3.982061    -2.133648 
H       1.081568     6.290633    -3.058722 
H       0.305239     7.958189     0.828071 
H       0.180311     3.452116     2.924028 
N       0.241809     5.373288     1.978199 
C       0.000083     6.224255     3.118388 
H       0.842391     6.903194     3.290316 
H      -0.910303     6.817941     2.981788 
H      -0.125888     5.601121     4.005323 
O       0.747300     8.441768    -1.827711 
C       0.547554     9.613277    -1.064658 
H       1.314212     9.720875    -0.286841 
H       0.624593    10.448519    -1.761774 
H      -0.445676     9.623402    -0.598040 
N      -0.324681     0.358082    -1.193798 
C       0.367209     0.375671    -2.390737 
O       0.718885     1.428598    -2.886784 
C       0.611920    -0.924437    -3.137369 
H       1.616956    -0.836562    -3.555958 
H      -0.070466    -0.879347    -3.993836 
C       0.453799    -2.247015    -2.392213 
H       0.461906    -3.065495    -3.119236 
H       1.301027    -2.406886    -1.724408 
C      -0.828255    -2.291593    -1.576604 
C      -0.996290    -3.371102    -0.685979 
H      -1.981613    -3.786439    -0.477483 
C       0.688781     2.083317     0.306322 
H       0.810548     1.422656     1.169135 
H       1.581749     1.965980    -0.316947 
C      -0.532697     1.646509    -0.511766 
H      -1.411540     1.552623     0.127865 
H      -0.749505     2.382281    -1.284921 
C      -2.126577    -1.894168    -2.281473 
H      -2.945008    -1.954579    -1.557571 
H      -2.084022    -0.848556    -2.596747 
C      -2.438618    -2.782182    -3.489271 
H      -2.501306    -3.836436    -3.200222 
H      -3.397368    -2.500286    -3.934514 
H      -1.674537    -2.695335    -4.267598 
O       0.058882    -4.145566    -0.416392 
C      -0.140771    -5.184945     0.553871 
H      -0.615868    -4.751105     1.438160 
H      -0.801227    -5.950118     0.129108 
C       1.200499    -5.765259     0.905800 
C       1.493740    -7.098480     0.648083 
C       2.161633    -4.954441     1.510144 
C       2.734753    -7.626143     0.991700 
H       0.748339    -7.731565     0.174031 
C       3.400464    -5.478808     1.849257 
H       1.929670    -3.911993     1.707779 
C       3.689208    -6.816409     1.591961 
H       2.954607    -8.669336     0.787364 
H       4.146254    -4.844114     2.317948 
H       4.658827    -7.224469     1.859618 
C      -0.466691    -0.798775    -0.415063 
O      -1.636988    -0.886704     0.314059 
C      -1.307385    -1.920665     1.130815 
N       0.571151    -1.250614     0.377746 
N       0.020014    -1.997400     1.292742 
C      -2.358912    -2.455209     2.015996 
O      -3.530102    -2.212937     1.868101 
O      -1.856972    -3.255790     2.963013 
C      -2.822306    -3.813233     3.867755 
H      -3.549024    -4.420512     3.323659 
H      -2.250537    -4.426813     4.562865 
H      -3.345883    -3.016270     4.399769 
74
     -1835.289141     -1834.751598   0.75   2.41
C       1.163386    -1.230999     2.964072 
C       2.390202    -0.856531     2.373947 
C       3.070953     0.238386     2.904284 
C       2.537419     0.935525     3.976142 
C       1.307827     0.544321     4.536329 
C       0.606250    -0.542493     4.038576 
C       1.585423    -2.639862     1.290300 
C       2.630873    -1.770224     1.283648 
H       4.022828     0.554734     2.488211 
H       3.078571     1.784544     4.373817 
H      -0.339321    -0.822996     4.487837 
H       1.373373    -3.454973     0.612728 
N       0.690973    -2.331393     2.294667 
C      -0.601661    -2.944860     2.496220 
H      -1.401568    -2.211093     2.356537 
H      -0.729069    -3.737841     1.758210 
H      -0.677283    -3.381464     3.497280 
O       0.715118     1.198805     5.583693 
C       1.424774     2.257369     6.194995 
H       1.595148     3.086934     5.497253 
H       0.799928     2.605070     7.018755 
H       2.388759     1.916346     6.591359 
N       2.565363    -0.391360    -1.586382 
C       2.857795    -0.760898    -2.886937 
O       3.949377    -1.208486    -3.176941 
C       1.843095    -0.487892    -3.988951 
H       1.847893    -1.375518    -4.625779 
H       2.321724     0.299291    -4.583612 
C       0.408272    -0.090775    -3.635309 
H      -0.058581     0.360119    -4.517180 
H      -0.173068    -0.977861    -3.386137 
C       0.338948     0.874748    -2.462004 
C      -0.931548     1.105260    -1.885758 
H      -1.181114     2.067088    -1.438434 
C       3.726853    -1.677585     0.265897 
H       3.711905    -2.550939    -0.392868 
H       4.704632    -1.670480     0.763181 
C       3.650229    -0.405856    -0.592560 
H       3.523217     0.471059     0.045460 
H       4.572688    -0.291968    -1.160482 
C       1.192355     2.141728    -2.544346 
H       1.062024     2.706838    -1.615509 
H       2.252752     1.880104    -2.589079 
C       0.836890     3.024909    -3.744067 
H      -0.221142     3.306780    -3.732093 
H       1.427761     3.945776    -3.732674 
H       1.035461     2.517344    -4.693000 
O      -1.954387     0.325401    -2.246592 
C      -3.193870     0.541421    -1.551892 
H      -2.999030     0.544301    -0.475381 
H      -3.603686     1.514776    -1.846746 
C      -4.135304    -0.571390    -1.918888 
C      -3.823219    -1.881709    -1.556139 
C      -5.314643    -0.315576    -2.606852 
C      -4.684189    -2.919235    -1.882416 
H      -2.898832    -2.076732    -1.020306 
C      -6.181531    -1.354819    -2.931042 
H      -5.559429     0.703673    -2.893727 
C      -5.866501    -2.657595    -2.569784 
H      -4.435965    -3.937721    -1.599763 
H      -7.101218    -1.144658    -3.468051 
H      -6.539561    -3.470787    -2.822839 
C       1.243023    -0.195045    -1.162270 
O       1.081993     0.648641    -0.085538 
C      -0.216333     0.376540     0.217439 
N       0.372379    -1.263066    -1.015061 
N      -0.555505    -0.851042    -0.205973 
C      -0.901673     1.081714     1.313364 
O      -1.983438     0.760993     1.742631 
O      -0.190929     2.130398     1.737803 
C      -0.768153     2.859938     2.831774 
H      -0.055509     3.652200     3.058471 
H      -1.731574     3.282813     2.538052 
H      -0.899606     2.207821     3.696428 
74
     -1835.283373     -1834.751361   4.37   2.56
C      -3.522928     2.273358     4.199733 
C      -2.444664     1.449821     3.812483 
C      -1.535891     1.029214     4.784562 
C      -1.709333     1.429071     6.099400 
C      -2.793951     2.252421     6.459754 
C      -3.714421     2.685109     5.517558 
C      -3.675839     1.909778     1.999431 
C      -2.565683     1.228334     2.391879 
H      -0.695417     0.395612     4.515997 
H      -0.998902     1.099052     6.845882 
H      -4.538514     3.317956     5.826489 
H      -4.114028     2.000566     1.014099 
N      -4.267460     2.546891     3.079902 
C      -5.462335     3.354809     3.044898 
H      -6.245847     2.927215     3.679873 
H      -5.256190     4.376963     3.380355 
H      -5.833557     3.396550     2.019472 
O      -3.020209     2.681183     7.739598 
C      -2.115922     2.276340     8.747337 
H      -2.097208     1.184922     8.856545 
H      -1.099768     2.636636     8.544591 
H      -2.476929     2.723577     9.674553 
N       0.776969     0.282499     0.847640 
C       1.427076    -0.563298     1.726850 
O       1.182637    -0.525228     2.917532 
C       2.519936    -1.485545     1.214344 
H       2.399205    -2.418684     1.769066 
H       3.449588    -1.038845     1.585082 
C       2.614525    -1.759469    -0.284148 
H       3.563469    -2.264325    -0.491900 
H       1.819076    -2.438113    -0.594040 
C       2.516703    -0.483035    -1.103957 
C       2.387888    -0.614829    -2.501338 
H       2.818684     0.118184    -3.182464 
C      -1.618648     0.430390     1.550953 
H      -2.047103     0.233221     0.564405 
H      -1.435964    -0.541581     2.021782 
C      -0.274760     1.153870     1.397857 
H      -0.375101     2.019343     0.741205 
H       0.077792     1.500354     2.368244 
C       3.414279     0.687035    -0.696838 
H       3.207049     1.529528    -1.363752 
H       3.157682     1.032153     0.307940 
C       4.903809     0.336775    -0.754512 
H       5.193223     0.000472    -1.755545 
H       5.512850     1.211198    -0.506791 
H       5.163628    -0.457668    -0.048452 
O       2.106382    -1.820248    -3.004927 
C       1.908961    -1.890716    -4.425374 
H       1.206309    -1.106249    -4.719996 
H       2.868014    -1.723034    -4.929573 
C       1.355124    -3.248116    -4.757560 
C       2.057996    -4.129015    -5.569890 
C       0.111114    -3.624429    -4.250341 
C       1.527123    -5.377325    -5.880546 
H       3.028969    -3.840083    -5.963430 
C      -0.416859    -4.870331    -4.556342 
H      -0.434323    -2.934084    -3.613567 
C       0.289553    -5.749055    -5.373395 
H       2.083116    -6.058691    -6.516905 
H      -1.384527    -5.160020    -4.158333 
H      -0.126545    -6.722744    -5.612372 
C       0.761729     0.072382    -0.538321 
O       0.706578     1.214650    -1.313631 
C       0.411684     0.649400    -2.513005 
N      -0.073733    -0.873076    -1.101814 
N      -0.220542    -0.519727    -2.347844 
C       0.393646     1.528065    -3.697312 
O       0.874013     2.633266    -3.704631 
O      -0.181799     0.937073    -4.750545 
C      -0.239684     1.734057    -5.943293 
H       0.766619     2.004306    -6.270807 
H      -0.732814     1.110034    -6.687602 
H      -0.815597     2.643921    -5.762207 
74
     -1835.283616     -1834.751344   4.22   2.57
C       2.153981    -1.540327    -3.831978 
C       3.067732    -1.061603    -2.867544 
C       4.311947    -0.607816    -3.301625 
C       4.629013    -0.638757    -4.649770 
C       3.699341    -1.126534    -5.588266 
C       2.451256    -1.582437    -5.192003 
C       1.187532    -1.685299    -1.822031 
C       2.424687    -1.170443    -1.583142 
H       5.039183    -0.224899    -2.591965 
H       5.599104    -0.282273    -4.970917 
H       1.755112    -1.948882    -5.938086 
H       0.394686    -1.894775    -1.116992 
N       1.008557    -1.914880    -3.176235 
C      -0.171952    -2.464004    -3.797874 
H       0.051517    -3.408685    -4.305490 
H      -0.921331    -2.654017    -3.027691 
H      -0.593689    -1.763824    -4.527034 
O       3.946585    -1.186502    -6.933095 
C       5.200149    -0.730790    -7.399191 
H       5.187322    -0.863871    -8.481891 
H       5.353647     0.330614    -7.167891 
H       6.024707    -1.316047    -6.973512 
N       1.381218     1.196733    -0.063809 
C       0.881055     1.725774    -1.242097 
O       1.613513     1.972095    -2.177088 
C      -0.597849     2.063985    -1.354105 
H      -0.929294     1.598253    -2.285984 
H      -0.612324     3.141845    -1.545823 
C      -1.541536     1.701672    -0.210490 
H      -2.472930     2.265622    -0.324286 
H      -1.803582     0.643985    -0.253945 
C      -0.921051     1.992389     1.146599 
C      -1.611957     1.537395     2.288902 
H      -1.580198     2.089541     3.227541 
C       2.972375    -0.723129    -0.262257 
H       4.044280    -0.945871    -0.203638 
H       2.489251    -1.278954     0.546602 
C       2.794159     0.783172    -0.024169 
H       3.205202     1.066285     0.947536 
H       3.298706     1.354898    -0.802003 
C      -0.283966     3.368461     1.351965 
H       0.141923     3.404212     2.359538 
H       0.556701     3.507474     0.667647 
C      -1.284397     4.513830     1.171583 
H      -2.133638     4.410139     1.855023 
H      -0.806436     5.476313     1.376820 
H      -1.679874     4.551787     0.152170 
O      -2.620700     0.677389     2.125220 
C      -3.245985     0.190824     3.323544 
H      -2.466867    -0.162119     4.004847 
H      -3.795864     1.011771     3.798590 
C      -4.170815    -0.933189     2.949633 
C      -3.641457    -2.107113     2.413176 
C      -5.543109    -0.824360     3.136552 
C      -4.481629    -3.155953     2.068753 
H      -2.568321    -2.187467     2.266599 
C      -6.386312    -1.877308     2.794996 
H      -5.958761     0.090097     3.551391 
C      -5.856156    -3.043551     2.260183 
H      -4.065557    -4.067150     1.650108 
H      -7.457253    -1.783639     2.945350 
H      -6.511501    -3.866006     1.991156 
C       0.579714     0.801071     1.014990 
O       1.103711     1.073719     2.268227 
C       0.258573     0.329996     3.026233 
N      -0.001644    -0.452577     1.061123 
N      -0.249336    -0.686721     2.319234 
C       0.371415     0.443376     4.492543 
O       0.972213     1.333194     5.039744 
O      -0.295439    -0.530011     5.122709 
C      -0.229155    -0.488341     6.556418 
H       0.807172    -0.574703     6.889434 
H      -0.650823     0.447065     6.930830 
H      -0.814555    -1.340139     6.900410 
74
     -1835.284835     -1834.751125   3.46   2.71
C       4.248984    -0.089100     4.383175 
C       3.083624    -0.669429     3.854868 
C       2.853443    -2.037996     4.066033 
C       3.774601    -2.769197     4.779619 
C       4.940260    -2.164714     5.300928 
C       5.199600    -0.818725     5.114449 
C       3.097983     1.504961     3.322273 
C       2.355376     0.373100     3.177289 
H       1.961801    -2.514740     3.669349 
H       3.632005    -3.828343     4.962136 
H       6.087111    -0.340358     5.507272 
H       2.904424     2.506765     2.962175 
N       4.247685     1.241954     4.050773 
C       5.266121     2.200869     4.405678 
H       4.991905     3.175831     3.999395 
H       5.359469     2.293892     5.493165 
H       6.238754     1.915340     3.990519 
O       5.762822    -3.013747     5.987144 
C       6.949423    -2.479952     6.536366 
H       6.733085    -1.695148     7.272313 
H       7.455117    -3.308323     7.033964 
H       7.605171    -2.073655     5.755817 
N      -0.005909    -1.021304     0.540561 
C      -0.593347    -2.167079     1.044550 
O      -0.033560    -2.822982     1.901929 
C      -1.906121    -2.660883     0.460767 
H      -2.478185    -3.041398     1.309935 
H      -1.628483    -3.542681    -0.128145 
C      -2.753441    -1.702900    -0.372105 
H      -3.544874    -2.273240    -0.869369 
H      -3.245029    -0.975597     0.274933 
C      -1.924299    -0.959015    -1.405403 
C      -2.534912     0.102189    -2.097828 
H      -2.278162     0.330820    -3.129699 
C       1.061865     0.200309     2.443405 
H       0.611489     1.171001     2.218151 
H       0.350115    -0.346088     3.071490 
C       1.265866    -0.589383     1.144564 
H       1.802878     0.011133     0.408661 
H       1.845844    -1.490289     1.339649 
C      -0.989712    -1.786712    -2.289036 
H      -0.434786    -1.104663    -2.940189 
H      -0.238801    -2.297558    -1.680737 
C      -1.746790    -2.809820    -3.140388 
H      -1.058061    -3.346641    -3.799550 
H      -2.260762    -3.552955    -2.523093 
H      -2.498306    -2.319591    -3.768209 
O      -3.721632     0.546828    -1.655697 
C      -4.281532     1.677744    -2.332704 
H      -5.230386     1.851303    -1.820557 
H      -3.635623     2.544192    -2.173160 
C      -4.504251     1.429109    -3.807293 
C      -5.130117     0.260525    -4.239442 
C      -4.096250     2.366740    -4.748897 
C      -5.342207     0.035921    -5.592093 
H      -5.451198    -0.476021    -3.508722 
C      -4.311534     2.146671    -6.106033 
H      -3.608005     3.278356    -4.417898 
C      -4.933805     0.980524    -6.529698 
H      -5.830473    -0.877238    -5.917795 
H      -3.991451     2.888170    -6.831227 
H      -5.102084     0.805545    -7.587473 
C      -0.717415    -0.056736    -0.185257 
O      -0.000610     0.608858    -1.158605 
C      -0.879300     1.608367    -1.431294 
N      -1.534657     0.855390     0.451966 
N      -1.665943     1.854749    -0.374795 
C      -0.552543     2.512028    -2.550821 
O       0.306134     2.271617    -3.360517 
O      -1.336692     3.597211    -2.568268 
C      -1.043610     4.539608    -3.610907 
H      -0.025136     4.918367    -3.502021 
H      -1.148165     4.071104    -4.592100 
H      -1.764789     5.347116    -3.488241 
74
     -1835.286909     -1834.750757   2.15   2.94
C       2.505861    -2.256282     2.178482 
C       3.424208    -1.679954     1.285395 
C       3.973780    -2.484954     0.277266 
C       3.608935    -3.808317     0.195794 
C       2.689527    -4.366209     1.111070 
C       2.120743    -3.601897     2.114137 
C       2.693320    -0.093425     2.681736 
C       3.532914    -0.287000     1.624821 
H       4.670897    -2.071102    -0.444847 
H       4.015951    -4.458958    -0.570384 
H       1.402522    -4.006628     2.814834 
H       2.461247     0.814440     3.222755 
N       2.077852    -1.277611     3.037026 
C       1.022179    -1.417008     4.012964 
H       0.929199    -0.481246     4.566412 
H       0.065227    -1.629726     3.525557 
H       1.255191    -2.215403     4.724338 
O       2.422638    -5.692002     0.912992 
C       1.516121    -6.316416     1.797797 
H       1.876888    -6.277322     2.833400 
H       0.521749    -5.855386     1.743758 
H       1.447022    -7.357546     1.480132 
N       2.366383     0.716233    -0.769305 
C       2.769357    -0.007459    -1.872930 
O       3.892269     0.110527    -2.324197 
C       1.741900    -0.967822    -2.432569 
H       1.671267    -1.782381    -1.706052 
H       2.169811    -1.374979    -3.349418 
C       0.327646    -0.399221    -2.700918 
H       0.289599    -0.037212    -3.733216 
H      -0.387436    -1.218431    -2.625784 
C      -0.109922     0.754300    -1.802242 
C      -1.389425     0.724925    -1.204870 
H      -1.952353     1.645043    -1.065562 
C       4.274742     0.750652     0.836765 
H       5.026897     0.264616     0.210962 
H       4.804432     1.448431     1.493896 
C       3.330559     1.565355    -0.065535 
H       2.762249     2.281567     0.527858 
H       3.904330     2.112582    -0.815852 
C       0.277736     2.148486    -2.308082 
H       0.190051     2.867733    -1.488256 
H       1.330568     2.142229    -2.606312 
C      -0.574625     2.620560    -3.490557 
H      -0.484058     1.950705    -4.350733 
H      -1.634757     2.675336    -3.222931 
H      -0.260705     3.617604    -3.814640 
O      -2.108563    -0.409932    -1.252750 
C      -3.362358    -0.411605    -0.557080 
H      -3.795325    -1.385430    -0.795357 
H      -3.174162    -0.365644     0.518095 
C      -4.282334     0.706282    -0.992362 
C      -4.532509     0.926612    -2.346419 
C      -4.891007     1.524234    -0.046257 
C      -5.375646     1.952801    -2.748074 
H      -4.059031     0.289347    -3.088040 
C      -5.741614     2.550077    -0.447336 
H      -4.694590     1.356653     1.008658 
C      -5.983645     2.767515    -1.797024 
H      -5.563116     2.116467    -3.804732 
H      -6.216647     3.179749     0.298686 
H      -6.645989     3.568454    -2.109918 
C       1.073563     0.533148    -0.273378 
O       0.556702     1.552832     0.488414 
C      -0.594326     0.946735     0.907798 
N       0.629621    -0.669250     0.251671 
N      -0.429229    -0.386991     0.942365 
C      -1.574898     1.692988     1.715424 
O      -2.454898     1.182944     2.363367 
O      -1.387474     3.012765     1.593573 
C      -2.323951     3.835878     2.305491 
H      -2.304658     3.601194     3.371676 
H      -2.001164     4.861623     2.131966 
H      -3.333246     3.681126     1.916590 
74
     -1835.286909     -1834.750747   2.15   2.95
C       1.568296    -2.509957     2.712215 
C       2.727064    -2.199059     1.981656 
C       3.266395    -3.176436     1.132990 
C       2.656828    -4.406021     1.045882 
C       1.496968    -4.696848     1.797169 
C       0.931639    -3.755936     2.639142 
C       2.106311    -0.390271     3.140964 
C       3.059317    -0.830302     2.270554 
H       4.148856    -2.967221     0.536177 
H       3.048463    -5.184729     0.400700 
H       0.034479    -3.953931     3.210566 
H       1.975368     0.587196     3.586151 
N       1.207859    -1.398844     3.428874 
C      -0.007613    -1.249142     4.194737 
H      -0.001198    -0.270212     4.676665 
H      -0.887822    -1.312397     3.546817 
H      -0.071594    -2.015317     4.973626 
O       1.001573    -5.957515     1.614159 
C      -0.154259    -6.318400     2.341044 
H       0.020468    -6.263930     3.423013 
H      -1.007376    -5.679413     2.080022 
H      -0.379732    -7.349126     2.064633 
N       2.560375     0.177313    -0.343793 
C       2.991961    -0.700039    -1.317504 
O       4.176224    -0.839951    -1.555061 
C       1.902463    -1.486078    -2.014844 
H       1.539573    -2.207761    -1.277423 
H       2.390566    -2.043732    -2.815017 
C       0.705029    -0.678012    -2.570342 
H       0.923771    -0.402271    -3.606804 
H      -0.165331    -1.333777    -2.593768 
C       0.364033     0.608918    -1.823833 
C      -0.978356     0.877733    -1.476578 
H      -1.355487     1.897807    -1.488097 
C       4.124772    -0.025487     1.588537 
H       4.858093    -0.698543     1.138165 
H       4.663872     0.608505     2.300373 
C       3.540786     0.878912     0.488360 
H       3.037471     1.738568     0.930760 
H       4.336845     1.240131    -0.165442 
C       1.112407     1.854689    -2.311594 
H       1.032765     2.642813    -1.556853 
H       2.176980     1.619808    -2.406221 
C       0.595236     2.383178    -3.653553 
H       1.159228     3.270060    -3.958550 
H       0.694791     1.639422    -4.449621 
H      -0.461026     2.664413    -3.592531 
O      -1.895882    -0.096282    -1.606112 
C      -3.224983     0.202812    -1.158890 
H      -3.800593    -0.685061    -1.428935 
H      -3.222001     0.300669    -0.070797 
C      -3.804928     1.437615    -1.810365 
C      -3.764246     1.588823    -3.196037 
C      -4.387826     2.433828    -1.034201 
C      -4.294921     2.721902    -3.795857 
H      -3.310034     0.812442    -3.805311 
C      -4.925864     3.568065    -1.634842 
H      -4.417230     2.319710     0.045439 
C      -4.878698     3.715232    -3.014564 
H      -4.257406     2.830310    -4.875347 
H      -5.383905     4.337692    -1.021191 
H      -5.297110     4.600478    -3.482939 
C       1.191292     0.290267    -0.091397 
O       0.770557     1.450519     0.511953 
C      -0.535727     1.116102     0.735330 
N       0.424684    -0.755362     0.395969 
N      -0.657317    -0.216750     0.861844 
C      -1.467280     2.102807     1.309165 
O      -2.532705     1.828716     1.803248 
O      -0.993899     3.346420     1.163817 
C      -1.850472     4.391754     1.648472 
H      -2.066275     4.247255     2.709014 
H      -1.298260     5.317413     1.491399 
H      -2.786302     4.403817     1.084604 
74
     -1835.286909     -1834.750745   2.15   2.95
C       2.864902    -2.648427    -0.945606 
C       3.503571    -1.460588    -1.338360 
C       3.643538    -1.196578    -2.708427 
C       3.163780    -2.104080    -3.623474 
C       2.532532    -3.295313    -3.203028 
C       2.369454    -3.586807    -1.860543 
C       3.377254    -1.499686     0.894028 
C       3.826926    -0.733740    -0.140661 
H       4.112659    -0.279607    -3.051621 
H       3.256867    -1.931759    -4.690087 
H       1.874444    -4.486030    -1.518508 
H       3.400855    -1.306166     1.958346 
N       2.807730    -2.666558     0.423515 
C       2.100852    -3.639558     1.223469 
H       2.477298    -4.648526     1.028385 
H       2.262245    -3.411554     2.278251 
H       1.025598    -3.605163     1.020452 
O       2.108987    -4.104486    -4.219907 
C       1.474973    -5.317136    -3.870548 
H       0.554760    -5.138191    -3.300083 
H       1.224868    -5.812811    -4.809374 
H       2.142285    -5.963620    -3.286676 
N       2.059576     1.448005    -0.605072 
C       2.037644     1.809970    -1.936469 
O       2.969780     2.407326    -2.439240 
C       0.811528     1.374085    -2.709641 
H       0.903714     0.290304    -2.824689 
H       0.897516     1.823028    -3.699870 
C      -0.563989     1.705570    -2.082347 
H      -0.891440     2.679550    -2.459542 
H      -1.285199     0.969418    -2.437357 
C      -0.603319     1.775979    -0.558142 
C      -1.630992     1.107863     0.143532 
H      -2.044718     1.537343     1.053085 
C       4.369224     0.662954    -0.083868 
H       4.846313     0.907918    -1.035697 
H       5.132834     0.763775     0.694607 
C       3.261465     1.694603     0.195290 
H       2.967256     1.661555     1.244290 
H       3.616028     2.700979    -0.035223 
C      -0.279003     3.153022     0.032183 
H      -0.047408     3.044788     1.096028 
H       0.624291     3.544642    -0.445450 
C      -1.415320     4.166456    -0.139170 
H      -1.136929     5.130874     0.296797 
H      -1.652694     4.337517    -1.193305 
H      -2.331057     3.828373     0.356445 
O      -2.420212     0.243264    -0.517490 
C      -3.390728    -0.471259     0.259372 
H      -3.955112    -1.040795    -0.482025 
H      -2.874013    -1.171528     0.919798 
C      -4.305009     0.439248     1.047134 
C      -4.519272     0.217592     2.403452 
C      -4.945171     1.508451     0.421354 
C      -5.364792     1.053211     3.127044 
H      -4.018756    -0.612354     2.893539 
C      -5.783758     2.346026     1.142815 
H      -4.780330     1.684228    -0.637995 
C      -5.996122     2.118761     2.499712 
H      -5.530354     0.868867     4.184068 
H      -6.276642     3.176122     0.646364 
H      -6.654503     2.771315     3.064347 
C       0.975075     0.744976    -0.075490 
O       0.807104     0.807758     1.286518 
C      -0.201904    -0.104236     1.421722 
N       0.619215    -0.524916    -0.498890 
N      -0.144792    -1.008545     0.428624 
C      -0.817126    -0.341264     2.739292 
O      -1.490496    -1.302978     3.015069 
O      -0.568775     0.677102     3.571784 
C      -1.165687     0.568157     4.872998 
H      -0.829547     1.446605     5.422357 
H      -2.255051     0.563063     4.788560 
H      -0.834714    -0.346388     5.369246 
74
     -1835.283320     -1834.750582   4.41   3.05
C       5.485415    -1.861047    -0.787400 
C       4.435876    -1.032879    -1.218963 
C       4.327345    -0.734221    -2.586353 
C       5.248214    -1.262237    -3.461399 
C       6.295326    -2.093708    -3.005086 
C       6.434602    -2.408137    -1.665143 
C       4.282758    -1.273969     1.001868 
C       3.674560    -0.664211    -0.052547 
H       3.526347    -0.097292    -2.950298 
H       5.196837    -1.055277    -4.524418 
H       7.230808    -3.043010    -1.299367 
H       4.025108    -1.253682     2.052535 
N       5.381718    -2.002016     0.573462 
C       6.268844    -2.772700     1.411344 
H       5.932930    -2.697443     2.446863 
H       6.264711    -3.829507     1.123192 
H       7.295168    -2.394295     1.352937 
O       7.132603    -2.544078    -3.987079 
C       8.203350    -3.382549    -3.605962 
H       8.741008    -3.626893    -4.522875 
H       8.884943    -2.872795    -2.913211 
H       7.841643    -4.309049    -3.142185 
N       0.120025     0.363159    -0.914522 
C       0.103058     1.073819    -2.094206 
O       1.032852     0.992777    -2.875272 
C      -1.059099     2.001250    -2.402433 
H      -1.343281     1.780729    -3.434402 
H      -0.613448     3.001380    -2.427710 
C      -2.284171     1.971580    -1.492543 
H      -2.908315     2.844398    -1.709261 
H      -2.889059     1.088281    -1.700694 
C      -1.898103     1.962742    -0.020656 
C      -2.929399     1.765734     0.918374 
H      -2.904279     2.227287     1.904633 
C       2.447393     0.193333    -0.050400 
H       2.634055     1.100657    -0.635151 
H       2.194497     0.505865     0.966834 
C       1.255437    -0.541469    -0.672734 
H       1.539137    -0.977066    -1.630425 
H       0.911595    -1.347905    -0.022186 
C      -0.857051     2.984103     0.440516 
H      -0.671844     2.831764     1.508408 
H       0.100758     2.803652    -0.055203 
C      -1.296131     4.430496     0.196356 
H      -2.243915     4.645656     0.700456 
H      -0.547047     5.129123     0.580648 
H      -1.430169     4.641445    -0.868645 
O      -4.107150     1.320632     0.487191 
C      -5.096528     1.032489     1.494416 
H      -4.630443     0.433616     2.281874 
H      -5.452342     1.977426     1.920842 
C      -6.220502     0.279832     0.839361 
C      -7.499215     0.818832     0.772302 
C      -5.977660    -0.982475     0.296938 
C      -8.533872     0.107358     0.172284 
H      -7.690747     1.803263     1.191084 
C      -7.007777    -1.690511    -0.304813 
H      -4.976516    -1.400076     0.350541 
C      -8.288534    -1.147713    -0.367494 
H      -9.529889     0.536552     0.125677 
H      -6.814536    -2.672051    -0.726785 
H      -9.092707    -1.704940    -0.837810 
C      -0.948564     0.289683    -0.013252 
O      -0.585329     0.317545     1.325020 
C      -1.763447    -0.077789     1.874415 
N      -1.937007    -0.658371    -0.170998 
N      -2.474381    -0.806610     1.009573 
C      -1.966783    -0.066815     3.333810 
O      -2.980649    -0.429996     3.875270 
O      -0.900040     0.433627     3.970269 
C      -1.013029     0.491942     5.400500 
H      -1.848175     1.133408     5.690038 
H      -1.168570    -0.508474     5.809616 
H      -0.069223     0.907822     5.750442 
74
     -1835.284379     -1834.750505   3.74   3.10
C      -0.789469    -2.009818    -5.602464 
C      -0.200114    -2.182203    -4.332221 
C       0.867163    -3.071766    -4.200257 
C       1.323468    -3.759771    -5.312616 
C       0.718032    -3.568991    -6.570080 
C      -0.344830    -2.693649    -6.732664 
C      -1.865517    -0.695882    -4.148705 
C      -0.911227    -1.327345    -3.412935 
H       1.341940    -3.224814    -3.235194 
H       2.152201    -4.446568    -5.201172 
H      -0.789426    -2.568899    -7.713385 
H      -2.607653     0.027401    -3.836991 
N      -1.806725    -1.097385    -5.474552 
C      -2.665160    -0.644651    -6.542411 
H      -3.376584     0.080598    -6.143780 
H      -2.084732    -0.160646    -7.335256 
H      -3.227046    -1.478743    -6.976490 
O       1.121693    -4.217588    -7.705403 
C       2.202755    -5.122603    -7.607221 
H       2.356462    -5.519590    -8.611617 
H       3.119142    -4.620163    -7.273658 
H       1.974542    -5.949548    -6.923452 
N       1.170516    -0.496900    -0.347516 
C       1.915881    -1.592727     0.028168 
O       2.131581    -2.490832    -0.764645 
C       2.431851    -1.710669     1.452481 
H       3.483309    -1.993937     1.358719 
H       1.924847    -2.595266     1.852856 
C       2.280309    -0.521789     2.399179 
H       2.469552    -0.859223     3.423416 
H       3.026703     0.240371     2.172462 
C       0.898724     0.104499     2.306318 
C       0.673024     1.315766     2.982968 
H      -0.301723     1.558971     3.399079 
C      -0.603432    -1.173578    -1.956296 
H      -0.510558    -2.163263    -1.495868 
H      -1.413181    -0.648332    -1.441510 
C       0.714173    -0.420282    -1.744444 
H       1.497262    -0.846770    -2.370760 
H       0.607134     0.634112    -2.006644 
C      -0.306951    -0.835822     2.355622 
H      -1.216020    -0.239725     2.229641 
H      -0.287884    -1.532888     1.513353 
C      -0.385545    -1.620218     3.668277 
H      -0.427357    -0.943575     4.527950 
H      -1.283176    -2.245373     3.689814 
H       0.478988    -2.277325     3.802038 
O       1.722885     1.982404     3.476198 
C       1.461749     3.279794     4.040866 
H       2.433741     3.599905     4.420607 
H       1.154810     3.955095     3.239136 
C       0.431883     3.243815     5.145798 
C       0.602666     2.394549     6.238751 
C      -0.697557     4.053311     5.082668 
C      -0.344450     2.352810     7.251725 
H       1.484156     1.761529     6.291844 
C      -1.646284     4.015866     6.100351 
H      -0.834480     4.712538     4.230754 
C      -1.472742     3.165786     7.184012 
H      -0.202653     1.687999     8.098035 
H      -2.522252     4.654750     6.044635 
H      -2.213071     3.135737     7.977195 
C       0.986553     0.641896     0.442913 
O      -0.279721     1.201270     0.393084 
C      -0.012027     2.386704     1.001761 
N       1.911149     1.661293     0.438961 
N       1.273969     2.720372     0.859169 
C      -1.093177     3.312400     1.382020 
O      -0.920899     4.456834     1.717649 
O      -2.280474     2.692738     1.366436 
C      -3.395289     3.495849     1.782873 
H      -4.269438     2.852942     1.688527 
H      -3.263563     3.814674     2.819695 
H      -3.492428     4.374537     1.142207 
74
     -1835.285816     -1834.750188   2.84   3.30
C       2.357680    -2.900543     1.513865 
C       3.074466    -2.522038     0.359110 
C       3.067924    -3.379120    -0.740595 
C       2.374436    -4.576052    -0.676574 
C       1.673804    -4.931808     0.492384 
C       1.653693    -4.097548     1.599400 
C       3.235484    -0.882636     1.872448 
C       3.632622    -1.219310     0.613297 
H       3.589209    -3.112167    -1.654725 
H       2.378429    -5.232504    -1.537143 
H       1.094457    -4.391365     2.479938 
H       3.420553     0.023618     2.434367 
N       2.480466    -1.893132     2.435712 
C       1.771513    -1.816989     3.691651 
H       2.109841    -0.932798     4.234522 
H       0.692146    -1.734632     3.527270 
H       1.979760    -2.698718     4.305235 
O       0.971537    -6.098794     0.623489 
C       0.961845    -6.995366    -0.468438 
H       0.507393    -6.541320    -1.357775 
H       1.974002    -7.338812    -0.715409 
H       0.359698    -7.848878    -0.153862 
N       2.075860     0.157130    -1.322960 
C       1.925389    -0.622775    -2.450923 
O       2.849983    -0.794450    -3.221813 
C       0.567009    -1.268645    -2.620729 
H       0.516273    -2.053485    -1.860728 
H       0.576687    -1.751375    -3.598714 
C      -0.667831    -0.346317    -2.484022 
H      -0.921868     0.041950    -3.475390 
H      -1.510992    -0.954550    -2.156413 
C      -0.504720     0.855642    -1.557564 
C      -1.503694     1.137156    -0.599684 
H      -1.748591     2.166250    -0.346888 
C       4.333882    -0.357252    -0.392672 
H       4.718628    -0.981552    -1.202330 
H       5.191445     0.158495     0.052135 
C       3.392870     0.705337    -0.989778 
H       3.236701     1.516786    -0.279102 
H       3.824060     1.120795    -1.902656 
C       0.045936     2.117895    -2.230859 
H       0.395891     2.814055    -1.462790 
H       0.920550     1.851256    -2.832057 
C      -0.980182     2.822391    -3.124357 
H      -1.858440     3.138552    -2.552334 
H      -0.541075     3.714631    -3.581253 
H      -1.327816     2.174452    -3.934368 
O      -2.462021     0.223791    -0.365479 
C      -3.401298     0.523451     0.675720 
H      -4.114491    -0.302475     0.633685 
H      -2.887567     0.493874     1.639418 
C      -4.101612     1.848534     0.477700 
C      -4.691724     2.157916    -0.747316 
C      -4.167061     2.771104     1.516564 
C      -5.333955     3.374004    -0.931551 
H      -4.642814     1.439448    -1.560766 
C      -4.816000     3.988769     1.335133 
H      -3.704872     2.533685     2.470244 
C      -5.398039     4.293164     0.111983 
H      -5.789414     3.605443    -1.889388 
H      -4.866846     4.700197     2.153657 
H      -5.903018     5.243403    -0.029960 
C       0.995732     0.299574    -0.448951 
O       1.010699     1.398573     0.375352 
C      -0.069738     1.096608     1.156492 
N       0.448492    -0.761864     0.252439 
N      -0.241368    -0.235336     1.214323 
C      -0.537428     2.049814     2.178119 
O      -1.275479     1.766532     3.088743 
O      -0.073447     3.280595     1.929844 
C      -0.510858     4.298979     2.842502 
H      -0.011607     5.212228     2.521285 
H      -1.595787     4.415347     2.785415 
H      -0.225396     4.043183     3.864892 
74
     -1835.286791     -1834.750010   2.23   3.41
C       0.748639    -2.654795    -2.713682 
C       0.052415    -3.320164    -1.689483 
C      -1.321555    -3.554959    -1.853860 
C      -1.947211    -3.121217    -2.998969 
C      -1.225861    -2.453584    -4.014373 
C       0.130777    -2.210629    -3.892305 
C       2.184520    -3.082153    -1.057388 
C       0.991452    -3.579806    -0.630216 
H      -1.891147    -4.059058    -1.079386 
H      -3.007672    -3.282606    -3.156848 
H       0.698026    -1.699994    -4.659521 
H       3.142671    -3.058790    -0.556424 
N       2.053851    -2.516840    -2.314542 
C       3.105431    -1.877974    -3.068377 
H       2.848799    -0.837194    -3.292478 
H       4.019152    -1.883752    -2.471951 
H       3.300322    -2.406624    -4.007634 
O      -1.976365    -2.077713    -5.092204 
C      -1.311433    -1.462737    -6.177181 
H      -0.852378    -0.511188    -5.880586 
H      -0.541241    -2.120995    -6.598020 
H      -2.073803    -1.272137    -6.933277 
N      -0.447124    -1.999469     1.379183 
C      -1.797016    -2.277780     1.342257 
O      -2.192753    -3.412038     1.538619 
C      -2.781056    -1.179036     0.990395 
H      -3.669393    -1.377680     1.593715 
H      -3.069398    -1.379409    -0.047995 
C      -2.326831     0.267288     1.158007 
H      -3.098579     0.931283     0.755208 
H      -2.217875     0.509362     2.216415 
C      -1.003423     0.524040     0.451034 
C      -0.388814     1.773764     0.662699 
H       0.195722     2.267423    -0.112290 
C       0.661660    -4.160854     0.711725 
H       1.464256    -4.821959     1.056414 
H      -0.243193    -4.766346     0.637887 
C       0.459937    -3.088211     1.792018 
H       0.060429    -3.543792     2.701716 
H       1.416206    -2.622574     2.036396 
C      -0.885242     0.044523    -0.995951 
H       0.118326     0.281500    -1.363261 
H      -0.966787    -1.040843    -1.044434 
C      -1.932078     0.674720    -1.917596 
H      -1.787876     0.325290    -2.943578 
H      -2.950419     0.407655    -1.620012 
H      -1.861408     1.767998    -1.916366 
O      -0.792557     2.520233     1.684761 
C      -0.054635     3.734254     1.929542 
H       1.013866     3.501818     1.912236 
H      -0.282462     4.452238     1.133361 
C      -0.470348     4.267683     3.271547 
C      -1.117387     5.491882     3.385152 
C      -0.196623     3.525867     4.421105 
C      -1.488846     5.979877     4.634321 
H      -1.334772     6.070591     2.491285 
C      -0.570122     4.010050     5.666341 
H       0.308632     2.568967     4.328190 
C      -1.216102     5.238683     5.775841 
H      -1.993131     6.937953     4.712971 
H      -0.356341     3.429352     6.558458 
H      -1.505864     5.615392     6.751807 
C       0.081309    -0.699176     1.459494 
O       1.254330    -0.495781     0.745199 
C       1.649200     0.673647     1.308265 
N       0.220213    -0.092771     2.692193 
N       1.149023     0.811881     2.537883 
C       2.787712     1.436330     0.774526 
O       3.173912     2.481808     1.234319 
O       3.318015     0.843902    -0.307493 
C       4.428816     1.538139    -0.891647 
H       4.124295     2.531599    -1.227976 
H       5.240164     1.637072    -0.167482 
H       4.745045     0.928568    -1.737698 
74
     -1835.282510     -1834.750000   4.91   3.41
C       0.989585    -2.479248    -5.289149 
C       0.224541    -1.615883    -4.476798 
C      -1.137194    -1.469617    -4.745300 
C      -1.705005    -2.172743    -5.795127 
C      -0.919120    -3.029186    -6.590760 
C       0.436299    -3.194122    -6.350066 
C       2.342670    -1.586790    -3.749519 
C       1.118063    -1.051981    -3.494351 
H      -1.752197    -0.812798    -4.136586 
H      -2.761778    -2.054067    -5.995261 
H       1.013993    -3.860459    -6.980391 
H       3.283988    -1.423441    -3.241273 
N       2.283350    -2.451341    -4.831996 
C       3.386064    -3.194262    -5.392514 
H       3.198889    -4.272418    -5.344278 
H       3.559724    -2.913434    -6.436950 
H       4.289706    -2.975034    -4.821205 
O      -1.419643    -3.750269    -7.640624 
C      -2.796065    -3.627932    -7.936981 
H      -2.979391    -4.277523    -8.793991 
H      -3.419473    -3.955676    -7.095892 
H      -3.060492    -2.596933    -8.202656 
N      -0.744352     0.170344    -0.418895 
C      -1.947102     0.729834    -0.788759 
O      -2.439878     0.471095    -1.871243 
C      -2.641406     1.712549     0.137467 
H      -3.685916     1.392983     0.172760 
H      -2.641934     2.657978    -0.415412 
C      -2.093200     1.905003     1.548863 
H      -2.550598     2.797098     1.988505 
H      -2.370549     1.060742     2.181107 
C      -0.577713     2.042370     1.555592 
C       0.065993     2.055451     2.808398 
H       0.974813     2.630311     2.981452 
C       0.724627    -0.098512    -2.409692 
H       0.132771     0.717897    -2.837847 
H       1.608704     0.347364    -1.944994 
C      -0.122677    -0.794993    -1.339404 
H      -0.923853    -1.367349    -1.806103 
H       0.484467    -1.482737    -0.747661 
C       0.045782     3.014900     0.553054 
H       1.133803     2.978625     0.666187 
H      -0.156754     2.689721    -0.471128 
C      -0.442641     4.453982     0.739959 
H       0.059737     5.124317     0.036284 
H      -1.519782     4.543872     0.571465 
H      -0.232677     4.813637     1.752514 
O      -0.619938     1.668269     3.881153 
C       0.109160     1.595374     5.121915 
H       1.045383     1.057953     4.946858 
H       0.333898     2.613436     5.460142 
C      -0.748046     0.872096     6.122400 
C      -1.204424     1.511226     7.268418 
C      -1.084434    -0.463650     5.900469 
C      -1.988893     0.827353     8.192358 
H      -0.946738     2.552604     7.442475 
C      -1.869681    -1.144737     6.819198 
H      -0.726474    -0.959564     5.002979 
C      -2.322756    -0.501135     7.967849 
H      -2.339858     1.335120     9.085346 
H      -2.130259    -2.183798     6.642349 
H      -2.935874    -1.037341     8.685460 
C      -0.158443     0.304308     0.845464 
O       1.219308     0.463397     0.835278 
C       1.469140     0.245765     2.153030 
N      -0.483821    -0.563315     1.866136 
N       0.519014    -0.516761     2.700946 
C       2.813461     0.453935     2.719401 
O       3.096577     0.252595     3.873658 
O       3.661165     0.930659     1.798743 
C       4.997153     1.173938     2.265322 
H       5.545260     1.543023     1.399562 
H       4.991136     1.918579     3.064229 
H       5.442802     0.249349     2.638059 
74
     -1835.281169     -1834.749957   5.76   3.44
C      -1.253457     2.648541     5.242544 
C      -1.307009     1.519866     4.407811 
C      -1.441648     0.250699     4.992760 
C      -1.514955     0.150216     6.362760 
C      -1.458681     1.299195     7.182993 
C      -1.327611     2.565606     6.641887 
C      -1.094815     3.342681     3.124655 
C      -1.205520     1.987941     3.048859 
H      -1.484135    -0.641838     4.375002 
H      -1.618019    -0.812232     6.851140 
H      -1.283058     3.455471     7.255844 
H      -0.996925     4.071615     2.331091 
N      -1.123284     3.758550     4.446359 
C      -1.035867     5.122830     4.909333 
H      -0.936669     5.784146     4.047012 
H      -1.936191     5.410262     5.463119 
H      -0.162811     5.264921     5.555406 
O      -1.543477     1.045425     8.523211 
C      -1.492560     2.146453     9.406452 
H      -2.325436     2.839379     9.231928 
H      -1.574092     1.734346    10.412934 
H      -0.543692     2.690142     9.315112 
N       0.007155    -0.744966     0.721829 
C      -0.543265    -1.963192     1.068916 
O      -0.832522    -2.220800     2.221217 
C      -0.809511    -2.915405    -0.077328 
H      -1.688623    -2.517783    -0.593443 
H      -1.093016    -3.865981     0.375490 
C       0.326207    -3.123374    -1.103464 
H       0.945385    -3.960676    -0.768193 
H      -0.123350    -3.424008    -2.049892 
C       1.260512    -1.935686    -1.324342 
C       1.540140    -1.520387    -2.646194 
H       2.532883    -1.161401    -2.916774 
C      -1.196110     1.118665     1.830458 
H      -1.330395     1.717062     0.923509 
H      -2.033057     0.412747     1.876764 
C       0.105024     0.313189     1.728574 
H       0.943838     0.962496     1.475380 
H       0.321366    -0.173084     2.679299 
C       2.493075    -1.911336    -0.413003 
H       2.957127    -0.921981    -0.458650 
H       2.172487    -2.056684     0.622795 
C       3.536085    -2.975004    -0.768995 
H       3.129324    -3.987944    -0.700966 
H       3.917609    -2.837720    -1.785821 
H       4.387304    -2.914923    -0.084260 
O       0.775971    -1.980005    -3.647815 
C       1.124995    -1.538401    -4.966739 
H       1.273627    -0.455130    -4.948508 
H       2.059695    -2.023936    -5.271515 
C       0.002575    -1.895932    -5.901017 
C       0.196775    -2.792518    -6.944252 
C      -1.250631    -1.309581    -5.722720 
C      -0.847844    -3.103709    -7.809362 
H       1.171164    -3.253309    -7.083296 
C      -2.293680    -1.622391    -6.582367 
H      -1.399188    -0.612217    -4.903236 
C      -2.093963    -2.519170    -7.628571 
H      -0.686700    -3.804652    -8.622412 
H      -3.268011    -1.165370    -6.439163 
H      -2.911349    -2.761154    -8.300619 
C       0.222131    -0.458990    -0.626474 
O       1.130379     0.529287    -0.909568 
C       0.918641     0.638334    -2.253114 
N      -0.823069    -0.360050    -1.535181 
N      -0.343202     0.279570    -2.555354 
C       1.787379     1.570743    -2.997439 
O       2.838177     1.975116    -2.568276 
O       1.285185     1.872972    -4.199565 
C       2.077961     2.775753    -4.985547 
H       1.531272     2.907458    -5.918480 
H       2.189377     3.730294    -4.467106 
H       3.066569     2.350951    -5.173424 
74
     -1835.281169     -1834.749951   5.76   3.45
C       5.612116     1.911317    -0.959780 
C       4.473183     1.216210    -1.399336 
C       4.270953     1.051150    -2.778805 
C       5.190903     1.575491    -3.656946 
C       6.329271     2.271433    -3.192313 
C       6.561801     2.452333    -1.840656 
C       4.451443     1.271563     0.839108 
C       3.740553     0.810995    -0.226646 
H       3.399295     0.520264    -3.150861 
H       5.068635     1.469505    -4.728981 
H       7.428405     2.982652    -1.468436 
H       4.244576     1.179639     1.897138 
N       5.588286     1.939228     0.411944 
C       6.580461     2.555090     1.260207 
H       6.656107     3.629821     1.062577 
H       6.290347     2.416907     2.303048 
H       7.564921     2.098120     1.112241 
O       7.153773     2.735083    -4.178721 
C       8.312585     3.442830    -3.789856 
H       8.979389     2.817640    -3.182567 
H       8.823870     3.721460    -4.712048 
H       8.058242     4.351611    -3.229750 
N       0.096443     0.146427    -1.022362 
C      -0.031442    -0.470200    -2.251559 
O       0.765912    -0.267336    -3.146490 
C      -1.182670    -1.444385    -2.382366 
H      -0.881750    -2.334217    -1.821152 
H      -1.231797    -1.718589    -3.436602 
C      -2.566736    -0.976406    -1.880940 
H      -3.092071    -0.498703    -2.713216 
H      -3.145037    -1.859673    -1.609621 
C      -2.562507     0.019545    -0.723195 
C      -3.387655    -0.228721     0.397273 
H      -3.884117     0.592561     0.913650 
C       2.444623     0.062139    -0.229276 
H       2.208553    -0.312166     0.772140 
H       2.526116    -0.810140    -0.887631 
C       1.293271     0.939280    -0.736363 
H       1.039556     1.706852    -0.004395 
H       1.577048     1.431244    -1.666194 
C      -2.549065     1.493322    -1.145263 
H      -2.292378     2.114342    -0.282304 
H      -1.756267     1.644587    -1.883755 
C      -3.879988     1.971634    -1.733355 
H      -3.810066     3.024765    -2.021575 
H      -4.162710     1.404178    -2.624529 
H      -4.694849     1.879268    -1.008225 
O      -3.928900    -1.446230     0.549510 
C      -4.773284    -1.626988     1.694386 
H      -4.264432    -1.225601     2.575213 
H      -5.709576    -1.077805     1.539309 
C      -5.033506    -3.097767     1.866501 
C      -3.969655    -3.952825     2.154979 
C      -6.317282    -3.616355     1.752895 
C      -4.195383    -5.311011     2.325788 
H      -2.966889    -3.543728     2.238855 
C      -6.545095    -4.977935     1.928068 
H      -7.147308    -2.952915     1.524859 
C      -5.484074    -5.826225     2.214115 
H      -3.364535    -5.973466     2.548359 
H      -7.551708    -5.374207     1.838419 
H      -5.658199    -6.889075     2.349599 
C      -0.782363    -0.200981     0.003757 
O      -0.912708     0.695917     1.033482 
C      -1.666265    -0.059865     1.883654 
N      -0.823504    -1.482203     0.537376 
N      -1.425214    -1.368546     1.679814 
C      -2.121254     0.583284     3.131634 
O      -2.144936     1.778207     3.284835 
O      -2.529730    -0.312023     4.037296 
C      -2.990482     0.239887     5.280027 
H      -2.188770     0.800806     5.764764 
H      -3.841907     0.902865     5.110811 
H      -3.282573    -0.615155     5.888438 
74
     -1835.281169     -1834.749945   5.76   3.45
C       3.845454     3.335561    -3.186999 
C       3.608054     2.361406    -2.203018 
C       4.622912     1.438064    -1.905394 
C       5.816024     1.513331    -2.585975 
C       6.032722     2.501497    -3.572216 
C       5.056402     3.428311    -3.890945 
C       1.778975     3.639075    -2.393282 
C       2.273696     2.575061    -1.703030 
H       4.469967     0.671427    -1.151120 
H       6.622778     0.817508    -2.384928 
H       5.206342     4.191260    -4.643417 
H       0.811888     4.118706    -2.320017 
N       2.719079     4.111804    -3.295162 
C       2.548376     5.229830    -4.191893 
H       3.282923     6.016126    -3.986816 
H       2.648268     4.916306    -5.236665 
H       1.549799     5.647082    -4.052164 
O       7.263968     2.453977    -4.163442 
C       7.552681     3.410916    -5.161381 
H       8.568285     3.202164    -5.499696 
H       6.864257     3.323770    -6.011539 
H       7.508252     4.432254    -4.762404 
N       0.869043    -0.557488    -0.100346 
C       1.848879    -1.227606     0.605608 
O       3.015620    -1.180557     0.267480 
C       1.381277    -1.964221     1.842630 
H       1.187582    -1.190368     2.591596 
H       2.232180    -2.552814     2.186919 
C       0.127991    -2.856492     1.704063 
H       0.450660    -3.864346     1.426617 
H      -0.341567    -2.935486     2.684614 
C      -0.902329    -2.414659     0.666985 
C      -2.263277    -2.340641     1.041549 
H      -3.048141    -2.620180     0.339075 
C       1.596937     1.747251    -0.655671 
H       0.686024     2.238644    -0.298688 
H       2.261116     1.634182     0.208635 
C       1.255014     0.348445    -1.183453 
H       0.441629     0.395984    -1.908340 
H       2.124323    -0.092285    -1.670488 
C      -0.695284    -3.002879    -0.733538 
H      -1.304591    -2.447936    -1.452590 
H       0.347225    -2.855592    -1.030626 
C      -1.037245    -4.493014    -0.826015 
H      -0.865161    -4.858745    -1.842712 
H      -0.425371    -5.097433    -0.150428 
H      -2.087417    -4.679289    -0.579475 
O      -2.582732    -2.380644     2.343396 
C      -3.981073    -2.323307     2.656021 
H      -4.437310    -1.509638     2.085326 
H      -4.451599    -3.271130     2.368737 
C      -4.129178    -2.073621     4.131235 
C      -3.662807    -0.876044     4.673850 
C      -4.731907    -3.011815     4.959747 
C      -3.800736    -0.627223     6.031737 
H      -3.188472    -0.147012     4.023116 
C      -4.874248    -2.761250     6.321158 
H      -5.093018    -3.947031     4.540146 
C      -4.408207    -1.568903     6.858092 
H      -3.434819     0.305199     6.450530 
H      -5.347389    -3.499695     6.960827 
H      -4.516153    -1.371173     7.919965 
C      -0.437115    -0.556558     0.389410 
O      -1.432331    -0.270261    -0.510212 
C      -2.484121    -0.177461     0.354058 
N      -0.769069     0.029364     1.603687 
N      -2.053180     0.203023     1.571362 
C      -3.819640     0.045149    -0.233265 
O      -4.072596    -0.169269    -1.391674 
O      -4.702806     0.471473     0.676080 
C      -6.028612     0.708330     0.178672 
H      -6.010092     1.479272    -0.594406 
H      -6.449307    -0.209323    -0.238493 
H      -6.607695     1.041632     1.038992 
74
     -1835.282148     -1834.749927   5.14   3.46
C       3.758877    -4.024050     1.485699 
C       2.998332    -2.858706     1.248144 
C       1.939801    -2.564336     2.109267 
C       1.656716    -3.416213     3.164014 
C       2.429417    -4.574992     3.375034 
C       3.489868    -4.893557     2.541208 
C       4.601423    -2.995368    -0.309814 
C       3.561354    -2.212944     0.086954 
H       1.336793    -1.672382     1.966113 
H       0.834683    -3.177467     3.825902 
H       4.067436    -5.791229     2.729910 
H       5.280012    -2.862975    -1.142193 
N       4.735135    -4.093896     0.524358 
C       5.730712    -5.132738     0.415386 
H       5.262477    -6.112350     0.271106 
H       6.368642    -4.924919    -0.445323 
H       6.359249    -5.171287     1.311649 
O       2.201019    -5.456262     4.396084 
C       1.131206    -5.189369     5.280512 
H       1.126948    -6.005796     6.003994 
H       1.274033    -4.239090     5.809655 
H       0.169227    -5.168886     4.753636 
N       1.184004     0.012609    -1.880099 
C       1.652787     0.534861    -3.066051 
O       2.562211    -0.010357    -3.661054 
C       1.066050     1.829086    -3.603728 
H       0.860822     1.642210    -4.660762 
H       1.903651     2.534600    -3.587915 
C      -0.161580     2.424431    -2.917988 
H      -0.291718     3.457292    -3.256448 
H      -1.059446     1.878608    -3.209526 
C      -0.039835     2.388031    -1.400900 
C      -1.176731     2.749465    -0.650735 
H      -1.091786     3.245159     0.315439 
C       3.054204    -0.963305    -0.562926 
H       3.811769    -0.543112    -1.230545 
H       2.836040    -0.208811     0.200780 
C       1.783823    -1.233178    -1.376517 
H       2.013639    -1.866821    -2.233507 
H       1.033154    -1.740869    -0.768128 
C       1.264446     2.901331    -0.786326 
H       1.205147     2.782624     0.300063 
H       2.106545     2.282722    -1.107912 
C       1.545225     4.366667    -1.130685 
H       2.459400     4.708257    -0.636235 
H       1.675967     4.514757    -2.206718 
H       0.725768     5.014453    -0.802402 
O      -2.351495     2.827459    -1.275291 
C      -3.498873     3.109571    -0.457043 
H      -3.476382     2.449075     0.414197 
H      -3.450209     4.151998    -0.121187 
C      -4.734146     2.864352    -1.277512 
C      -5.623795     3.894554    -1.555437 
C      -4.996034     1.580807    -1.757773 
C      -6.771275     3.651691    -2.304295 
H      -5.420141     4.896058    -1.185725 
C      -6.137920     1.339238    -2.507760 
H      -4.297143     0.778439    -1.540530 
C      -7.028681     2.373836    -2.781489 
H      -7.461306     4.462557    -2.515668 
H      -6.337959     0.339595    -2.881145 
H      -7.921950     2.181247    -3.367418 
C       0.064452     0.490266    -1.189113 
O       0.183695     0.483999     0.191640 
C      -1.118617     0.679028     0.522817 
N      -1.202983     0.045835    -1.512597 
N      -1.930464     0.246597    -0.448215 
C      -1.439754     0.866831     1.947625 
O      -0.600035     1.024129     2.798761 
O      -2.759450     0.866520     2.168376 
C      -3.150715     1.030092     3.539875 
H      -2.785522     1.982535     3.930177 
H      -4.239766     1.006447     3.537579 
H      -2.750439     0.215340     4.146681 
74
     -1835.282365     -1834.749761   5.01   3.56
C       2.503957    -3.380936    -2.449024 
C       1.480866    -3.918743    -1.636984 
C       1.612414    -5.232465    -1.188302 
C       2.723863    -5.977893    -1.544919 
C       3.725908    -5.416416    -2.360243 
C       3.629109    -4.112521    -2.821616 
C       0.947414    -1.804948    -2.152899 
C       0.488956    -2.887619    -1.466371 
H       0.850923    -5.680061    -0.556711 
H       2.811623    -6.996024    -1.188640 
H       4.417678    -3.707104    -3.445495 
H       0.501786    -0.823927    -2.251766 
N       2.163107    -2.087627    -2.752733 
C       2.938590    -1.185412    -3.569520 
H       3.049096    -1.570868    -4.588896 
H       2.426668    -0.222889    -3.616761 
H       3.934804    -1.028146    -3.142572 
O       4.847380    -6.095686    -2.750938 
C       5.005385    -7.429019    -2.309926 
H       5.950879    -7.776242    -2.728806 
H       5.052404    -7.487623    -1.215448 
H       4.192922    -8.071277    -2.671764 
N       0.063609    -1.302524     1.027220 
C       1.416704    -1.090553     1.231566 
O       2.183326    -2.004153     1.449203 
C       1.864184     0.352645     1.124577 
H       1.785387     0.614060     0.065207 
H       2.920670     0.365619     1.394155 
C       1.080662     1.389584     1.959890 
H       1.570368     1.492903     2.932734 
H       1.156406     2.356985     1.463483 
C      -0.384210     1.054180     2.226764 
C      -1.361136     2.057102     2.029443 
H      -2.225877     2.125180     2.689203 
C      -0.747786    -2.964175    -0.623681 
H      -1.189072    -3.965174    -0.688707 
H      -1.500876    -2.263330    -0.998832 
C      -0.465661    -2.657145     0.853508 
H      -1.376383    -2.759652     1.448527 
H       0.294114    -3.331264     1.249329 
C      -0.634524     0.211779     3.483232 
H      -1.650713    -0.191678     3.450056 
H       0.041663    -0.648059     3.477419 
C      -0.440759     0.990707     4.787931 
H      -1.130333     1.838232     4.855983 
H      -0.627278     0.341617     5.648753 
H       0.576173     1.381590     4.884422 
O      -1.026109     3.173250     1.366607 
C      -2.056367     4.160872     1.225642 
H      -2.969824     3.670581     0.877696 
H      -2.245981     4.622417     2.202010 
C      -1.599536     5.185378     0.224748 
C      -1.386942     4.802187    -1.099660 
C      -1.395684     6.508538     0.595656 
C      -0.974061     5.737862    -2.037123 
H      -1.543563     3.765715    -1.384391 
C      -0.985435     7.448538    -0.344837 
H      -1.557340     6.809114     1.627455 
C      -0.773836     7.063611    -1.661778 
H      -0.807929     5.435170    -3.066420 
H      -0.829530     8.480456    -0.046234 
H      -0.452118     7.794174    -2.397365 
C      -0.774541    -0.207994     0.815384 
O      -2.102478    -0.392143     1.118902 
C      -2.603916     0.771823     0.614655 
N      -0.700557     0.579663    -0.325658 
N      -1.828847     1.216238    -0.390501 
C      -4.043962     1.027227     0.814133 
O      -4.705151     0.451938     1.641007 
O      -4.501445     1.983984    -0.000433 
C      -5.897455     2.290402     0.137055 
H      -6.501514     1.407438    -0.081654 
H      -6.114879     2.632912     1.151229 
H      -6.095391     3.079619    -0.587176 
74
     -1835.281565     -1834.749391   5.51   3.80
C      -2.828222    -4.808538    -0.097567 
C      -1.995516    -3.693714    -0.296008 
C      -2.586194    -2.467207    -0.641377 
C      -3.953301    -2.391857    -0.770512 
C      -4.769296    -3.526461    -0.564086 
C      -4.224893    -4.752069    -0.225740 
C      -0.716127    -5.454493     0.230636 
C      -0.638932    -4.131461    -0.081657 
H      -1.979420    -1.581926    -0.807126 
H      -4.441771    -1.460870    -1.034961 
H      -4.834264    -5.631506    -0.064565 
H       0.076503    -6.152891     0.464301 
N      -2.034055    -5.879906     0.224158 
C      -2.496013    -7.218830     0.502264 
H      -3.169622    -7.232024     1.365857 
H      -3.019466    -7.642983    -0.361371 
H      -1.635509    -7.850880     0.727597 
O      -6.107181    -3.302505    -0.726529 
C      -6.985052    -4.392401    -0.534713 
H      -7.990949    -4.008192    -0.707970 
H      -6.780460    -5.201984    -1.246725 
H      -6.919725    -4.784377     0.488191 
N       1.787485    -1.380353     0.901952 
C       2.999261    -1.606139     1.528399 
O       3.166491    -2.557531     2.263949 
C       4.091960    -0.611920     1.196458 
H       4.394549    -0.822633     0.166836 
H       4.932693    -0.852470     1.847932 
C       3.728158     0.885060     1.319776 
H       3.922220     1.202949     2.348761 
H       4.407364     1.451364     0.682367 
C       2.280343     1.256119     1.002312 
C       2.016626     2.304774     0.096322 
H       1.178152     2.979451     0.253704 
C       0.589196    -3.277417    -0.151688 
H       0.584935    -2.693376    -1.079793 
H       1.488795    -3.900312    -0.171282 
C       0.678402    -2.323813     1.044932 
H      -0.248858    -1.759116     1.156362 
H       0.853810    -2.882886     1.963571 
C       1.341053     1.259506     2.213944 
H       0.302886     1.267336     1.869671 
H       1.476947     0.329391     2.774498 
C       1.569540     2.450082     3.150810 
H       2.584175     2.460618     3.559169 
H       1.409577     3.401931     2.634193 
H       0.874893     2.408293     3.995265 
O       3.024305     2.768809    -0.663783 
C       2.711779     3.838575    -1.561813 
H       3.664133     4.068375    -2.044552 
H       2.014545     3.477526    -2.321215 
C       2.161063     5.054573    -0.852033 
C       2.822469     5.580551     0.257125 
C       0.991308     5.661768    -1.293524 
C       2.319583     6.695255     0.912097 
H       3.735680     5.108987     0.608273 
C       0.486677     6.783240    -0.641890 
H       0.469955     5.255165    -2.155074 
C       1.149318     7.300868     0.462287 
H       2.842236     7.096350     1.774806 
H      -0.425889     7.250390    -0.998424 
H       0.757418     8.174421     0.973293 
C       1.665772    -0.305674     0.022611 
O       0.394474     0.142781    -0.225058 
C       0.668070     1.027281    -1.229563 
N       2.391558    -0.226125    -1.158661 
N       1.777328     0.647230    -1.892984 
C      -0.475836     1.788970    -1.766401 
O      -1.552291     1.827851    -1.226624 
O      -0.168573     2.434933    -2.898040 
C      -1.256541     3.149208    -3.503808 
H      -1.653434     3.900151    -2.816876 
H      -0.840173     3.619470    -4.394034 
H      -2.056114     2.457236    -3.776654 
74
     -1835.286457     -1834.749287   2.44   3.86
C      -0.459146    -3.215844    -0.480217 
C      -0.030665    -3.292957     0.861309 
C      -0.994237    -3.473430     1.853538 
C      -2.333920    -3.541808     1.515280 
C      -2.733743    -3.423825     0.171917 
C      -1.802254    -3.271314    -0.842715 
C       1.756188    -2.980480    -0.447413 
C       1.401080    -3.118474     0.858324 
H      -0.707241    -3.555592     2.897270 
H      -3.069138    -3.674157     2.298078 
H      -2.136203    -3.183294    -1.869906 
H       2.732812    -2.791445    -0.871045 
N       0.651204    -3.051230    -1.270363 
C       0.631296    -2.761298    -2.684288 
H       0.105283    -3.548773    -3.232504 
H       0.147354    -1.797590    -2.875280 
H       1.658875    -2.716564    -3.048458 
O      -4.043903    -3.441375    -0.226760 
C      -5.040267    -3.444061     0.779131 
H      -5.996157    -3.387205     0.256477 
H      -5.009589    -4.366418     1.371313 
H      -4.933910    -2.578076     1.443228 
N       2.212205    -0.431842     2.254092 
C       3.438283     0.166777     2.473875 
O       4.313446    -0.414550     3.084581 
C       3.650168     1.613291     2.050029 
H       4.643784     1.650625     1.597397 
H       3.744396     2.145446     3.003536 
C       2.626016     2.307683     1.148250 
H       2.762561     3.391572     1.233167 
H       2.805584     2.040641     0.107764 
C       1.188476     1.950066     1.508819 
C       0.188425     2.325326     0.576809 
H      -0.816112     2.598752     0.884966 
C       2.286721    -2.957187     2.055504 
H       3.334275    -2.890522     1.747443 
H       2.201954    -3.831109     2.713304 
C       1.940063    -1.724028     2.902375 
H       0.883370    -1.735889     3.174473 
H       2.533583    -1.733652     3.816298 
C       0.831899     2.160769     2.989905 
H       1.266005     1.350459     3.581465 
H       1.355675     3.071527     3.307587 
C      -0.647510     2.294430     3.359868 
H      -1.088317     3.206957     2.945609 
H      -1.240409     1.439070     3.026941 
H      -0.740875     2.362386     4.447758 
O       0.580973     2.758521    -0.629170 
C      -0.466419     3.050429    -1.562816 
H      -1.151642     2.198144    -1.599875 
H      -1.015872     3.936970    -1.223916 
C       0.153286     3.287206    -2.912077 
C       0.894366     2.271333    -3.516063 
C      -0.013353     4.497166    -3.573674 
C       1.460060     2.470587    -4.766865 
H       1.025236     1.328564    -2.993058 
C       0.549786     4.696731    -4.830541 
H      -0.586352     5.292449    -3.104311 
C       1.287417     3.683825    -5.427863 
H       2.038385     1.678228    -5.232093 
H       0.413144     5.645404    -5.340097 
H       1.729678     3.837137    -6.407235 
C       1.308675     0.072156     1.304854 
O      -0.019469    -0.218785     1.533277 
C      -0.533039     0.132182     0.324815 
N       1.556463    -0.070611    -0.053754 
N       0.401980     0.031653    -0.635761 
C      -1.992175     0.038464     0.147286 
O      -2.767628    -0.029683     1.068111 
O      -2.338086     0.072303    -1.144994 
C      -3.742126    -0.074405    -1.408689 
H      -4.311221     0.695022    -0.882684 
H      -3.848149     0.040530    -2.487156 
H      -4.081314    -1.063311    -1.094384 
74
     -1835.284841     -1834.749284   3.45   3.86
C      -3.315521    -2.587015     0.073939 
C      -3.414188    -1.647437     1.117582 
C      -4.567181    -0.850403     1.186532 
C      -5.557931    -1.008301     0.247009 
C      -5.436049    -1.961373    -0.787827 
C      -4.314717    -2.765233    -0.894037 
C      -1.461740    -2.728576     1.309375 
C      -2.208093    -1.754619     1.899875 
H      -4.676568    -0.099479     1.960588 
H      -6.456957    -0.403019     0.272774 
H      -4.202675    -3.501845    -1.678867 
H      -0.475179    -3.085961     1.572637 
N      -2.115995    -3.239565     0.202526 
C      -1.613417    -4.268885    -0.675006 
H      -2.267739    -5.147097    -0.671620 
H      -1.522169    -3.900552    -1.702660 
H      -0.624261    -4.573517    -0.330216 
O      -6.496827    -2.010556    -1.646714 
C      -6.443747    -2.946133    -2.703886 
H      -7.372803    -2.828411    -3.262802 
H      -5.594246    -2.749728    -3.370239 
H      -6.377511    -3.974128    -2.325755 
N      -1.288683     0.981771     1.542673 
C      -2.129624     1.785051     0.788126 
O      -3.226759     2.109417     1.196434 
C      -1.704441     2.211281    -0.606152 
H      -2.069666     3.233981    -0.721313 
H      -2.318294     1.598643    -1.276512 
C      -0.231515     2.118768    -0.988127 
H      -0.131633     2.289717    -2.064982 
H       0.339264     2.901316    -0.486755 
C       0.357346     0.765945    -0.620946 
C       1.751740     0.608510    -0.755197 
H       2.194166    -0.346543    -1.035962 
C      -1.798356    -0.957422     3.101459 
H      -0.825741    -1.323904     3.436587 
H      -2.498693    -1.127589     3.928419 
C      -1.732926     0.569559     2.884004 
H      -2.715003     1.018786     3.011082 
H      -1.061104     1.018538     3.623600 
C      -0.425514    -0.477025    -1.048151 
H       0.114114    -1.360958    -0.695821 
H      -1.398186    -0.506960    -0.552849 
C      -0.621837    -0.564294    -2.562924 
H       0.337093    -0.586084    -3.091592 
H      -1.167846    -1.477237    -2.818771 
H      -1.196333     0.281842    -2.951376 
O       2.504145     1.697843    -0.913884 
C       3.926510     1.497212    -0.949322 
H       4.208532     0.850952    -0.113284 
H       4.194534     1.005409    -1.891783 
C       4.594282     2.838556    -0.831185 
C       5.393093     3.332531    -1.854830 
C       4.416353     3.593870     0.328320 
C       6.016087     4.570309    -1.727281 
H       5.530322     2.747749    -2.760561 
C       5.034100     4.829660     0.454187 
H       3.789336     3.205336     1.125447 
C       5.836363     5.319928    -0.572861 
H       6.639289     4.948017    -2.531810 
H       4.892354     5.415502     1.357182 
H       6.319492     6.286627    -0.470876 
C       0.080817     0.845648     1.270213 
O       0.622132    -0.393836     1.560987 
C       1.938057    -0.081749     1.503976 
N       0.976579     1.810840     1.696429 
N       2.135706     1.216828     1.761065 
C       2.895229    -1.194085     1.604274 
O       2.565903    -2.352076     1.511361 
O       4.151141    -0.769572     1.773929 
C       5.138510    -1.805761     1.887859 
H       6.088421    -1.290069     2.022735 
H       4.921034    -2.441658     2.748438 
H       5.155624    -2.417289     0.983118 
74
     -1835.284841     -1834.749275   3.45   3.87
C      -1.488790    -3.779091    -1.091568 
C      -2.540239    -2.844674    -1.036304 
C      -3.333102    -2.668961    -2.180812 
C      -3.067147    -3.406425    -3.309811 
C      -2.008531    -4.340576    -3.337747 
C      -1.200924    -4.542522    -2.232375 
C      -1.491343    -2.860524     0.942904 
C      -2.521943    -2.263490     0.282799 
H      -4.140148    -1.945362    -2.190409 
H      -3.659864    -3.287818    -4.209753 
H      -0.385490    -5.253980    -2.233366 
H      -1.125956    -2.678127     1.944682 
N      -0.854970    -3.777021     0.124774 
C       0.289802    -4.578337     0.484693 
H       0.581050    -4.336794     1.507894 
H       0.057435    -5.647334     0.433258 
H       1.139709    -4.369672    -0.174240 
O      -1.862618    -5.003013    -4.523175 
C      -0.825079    -5.956917    -4.619685 
H      -0.957847    -6.767780    -3.892350 
H      -0.880288    -6.367149    -5.628671 
H       0.159060    -5.494627    -4.471320 
N      -2.114764     0.498584    -0.533294 
C      -2.056915     0.698430    -1.903873 
O      -3.034452     0.538153    -2.606989 
C      -0.730826     1.055332    -2.552389 
H      -0.977027     1.763469    -3.346423 
H      -0.420268     0.134835    -3.060094 
C       0.395279     1.595652    -1.678378 
H       1.318244     1.627744    -2.266528 
H       0.177572     2.619088    -1.370596 
C       0.600008     0.740139    -0.438259 
C       1.487500     1.224969     0.543789 
H       2.094314     0.551303     1.147649 
C      -3.409496    -1.195190     0.846892 
H      -3.110006    -1.016306     1.881739 
H      -4.449938    -1.541346     0.877690 
C      -3.409189     0.137018     0.066840 
H      -4.108938     0.096334    -0.764500 
H      -3.722646     0.951571     0.728789 
C       0.706322    -0.772390    -0.641494 
H       0.830898    -1.242831     0.338225 
H      -0.226247    -1.171821    -1.045327 
C       1.868430    -1.169252    -1.554020 
H       1.914115    -2.258008    -1.651837 
H       1.760309    -0.753310    -2.560099 
H       2.828539    -0.826514    -1.153728 
O       1.872234     2.500158     0.481984 
C       2.698933     2.975035     1.557020 
H       2.249153     2.666970     2.505146 
H       3.694805     2.525453     1.467270 
C       2.772878     4.473566     1.467517 
C       1.608572     5.228018     1.615197 
C       3.984015     5.118238     1.249572 
C       1.663899     6.612373     1.543627 
H       0.663298     4.720319     1.783201 
C       4.040506     6.507011     1.181677 
H       4.891811     4.532668     1.130561 
C       2.880252     7.254880     1.328007 
H       0.755784     7.196377     1.657505 
H       4.991382     7.002354     1.012028 
H       2.920555     8.338284     1.273844 
C      -1.129152     0.969536     0.347082 
O      -0.902815     0.179547     1.459996 
C      -0.188033     1.050368     2.210358 
N      -1.134434     2.291078     0.758342 
N      -0.477532     2.315887     1.884603 
C       0.403105     0.534293     3.454447 
O       0.465513    -0.644097     3.710452 
O       0.881357     1.510165     4.232429 
C       1.466785     1.076636     5.469719 
H       1.795576     1.985894     5.971322 
H       0.725209     0.550889     6.074624 
H       2.312748     0.412638     5.279270 
74
     -1835.285654     -1834.749127   2.94   3.96
C       2.818205     2.169877    -1.737423 
C       3.478655     1.908295    -0.525769 
C       3.584994     2.941168     0.416492 
C       3.054051     4.176186     0.126901 
C       2.403629     4.417097    -1.103125 
C       2.271301     3.420367    -2.053428 
C       3.412998     0.021546    -1.724632 
C       3.855336     0.520838    -0.535450 
H       4.068510     2.771469     1.373635 
H       3.120297     4.997624     0.831798 
H       1.761411     3.580547    -2.994158 
H       3.470517    -0.985887    -2.115226 
N       2.798103     1.010134    -2.468041 
C       2.085872     0.807815    -3.707779 
H       2.300399    -0.197017    -4.075549 
H       1.005154     0.901531    -3.557999 
H       2.413794     1.527135    -4.464430 
O       1.929400     5.689853    -1.256392 
C       1.273338     6.002373    -2.467318 
H       1.939445     5.869012    -3.329107 
H       0.374913     5.387768    -2.606388 
H       0.983309     7.051388    -2.395941 
N       2.144737    -0.287744     1.593081 
C       2.091827     0.634600     2.617010 
O       3.027323     0.781049     3.380084 
C       0.823041     1.456642     2.684949 
H       0.870573     2.148367     1.839116 
H       0.886103     2.044897     3.601188 
C      -0.512589     0.676945     2.634124 
H      -0.809996     0.432372     3.658643 
H      -1.277344     1.341649     2.232517 
C      -0.495416    -0.631832     1.845727 
C      -1.520450    -0.890012     0.908331 
H      -1.900654    -1.899422     0.767751 
C       4.440565    -0.234397     0.619980 
H       4.897965     0.468294     1.320545 
H       5.228348    -0.920278     0.291022 
C       3.372537    -1.053540     1.365906 
H       3.103324    -1.939830     0.791313 
H       3.751918    -1.370929     2.338977 
C      -0.118497    -1.872092     2.665386 
H       0.139804    -2.689065     1.985085 
H       0.781457    -1.655496     3.248979 
C      -1.232320    -2.331896     3.611867 
H      -0.916835    -3.218072     4.171178 
H      -1.493184    -1.558403     4.340187 
H      -2.143673    -2.590699     3.063113 
O      -2.344542     0.113021     0.553740 
C      -3.375916    -0.213524    -0.381020 
H      -3.926605     0.720776    -0.510975 
H      -2.922817    -0.485135    -1.337709 
C      -4.289265    -1.310309     0.119435 
C      -4.811023    -1.254554     1.411241 
C      -4.619781    -2.384430    -0.698520 
C      -5.648491    -2.258638     1.875001 
H      -4.553925    -0.419192     2.055877 
C      -5.464321    -3.390310    -0.238438 
H      -4.214211    -2.436752    -1.704905 
C      -5.978975    -3.329692     1.049182 
H      -6.048580    -2.205716     2.882711 
H      -5.717515    -4.222179    -0.888098 
H      -6.636392    -4.113639     1.411162 
C       1.057497    -0.398219     0.721082 
O       0.949693    -1.573301     0.021860 
C      -0.072609    -1.236161    -0.818521 
N       0.650611     0.639048    -0.106780 
N      -0.082410     0.094894    -1.024395 
C      -0.537174    -2.281133    -1.748598 
O      -0.268601    -3.448720    -1.620551 
O      -1.298057    -1.780772    -2.732867 
C      -1.759273    -2.743254    -3.692189 
H      -2.365774    -2.182885    -4.402960 
H      -0.911217    -3.209857    -4.198101 
H      -2.352521    -3.519595    -3.203388 
74
     -1835.280361     -1834.749116   6.26   3.97
C       5.551425    -1.839736     1.688469 
C       4.688619    -0.902374     1.082292 
C       5.091016     0.431948     1.005854 
C       6.319828     0.804766     1.525338 
C       7.162635    -0.150817     2.125936 
C       6.791506    -1.483705     2.215689 
C       3.711133    -2.916585     1.016669 
C       3.511716    -1.620064     0.656217 
H       4.448507     1.178417     0.547162 
H       6.622848     1.841662     1.462826 
H       7.462263    -2.194995     2.683852 
H       3.067192    -3.775279     0.878703 
N       4.939743    -3.067565     1.640978 
C       5.491821    -4.298903     2.152211 
H       5.677156    -4.229441     3.229501 
H       4.780833    -5.107841     1.975818 
H       6.432038    -4.547899     1.648436 
O       8.386532     0.153523     2.656732 
C       8.822763     1.496613     2.598894 
H       8.913686     1.845967     1.562980 
H       8.145930     2.163475     3.147205 
H       9.805782     1.515452     3.071478 
N       0.560367     0.716912     0.244368 
C       0.969682     1.922667    -0.289975 
O       2.083456     2.362265    -0.078937 
C      -0.030485     2.617439    -1.189071 
H      -0.027484     2.052466    -2.126150 
H       0.381098     3.605614    -1.396745 
C      -1.482620     2.734190    -0.675527 
H      -1.578089     3.671976    -0.120272 
H      -2.142207     2.812039    -1.539871 
C      -1.962916     1.616263     0.247463 
C      -3.201249     0.990130    -0.021488 
H      -3.854410     0.679109     0.793540 
C       2.321793    -1.009934    -0.015487 
H       1.665976    -1.784112    -0.426788 
H       2.653282    -0.389741    -0.856027 
C       1.528960    -0.122049     0.951900 
H       0.998234    -0.727681     1.687320 
H       2.202364     0.550444     1.482307 
C      -1.731104     1.873762     1.740888 
H      -1.864271     0.939573     2.293887 
H      -0.691447     2.178818     1.892046 
C      -2.657724     2.943511     2.326548 
H      -2.443767     3.089202     3.389584 
H      -2.534321     3.910172     1.830086 
H      -3.709945     2.655428     2.236098 
O      -3.782819     1.184201    -1.214221 
C      -5.047480     0.539071    -1.416326 
H      -4.966635    -0.503901    -1.097611 
H      -5.807893     1.042569    -0.807587 
C      -5.391541     0.613382    -2.878045 
C      -6.507578     1.314807    -3.316672 
C      -4.582245    -0.041336    -3.806758 
C      -6.821243     1.363730    -4.671553 
H      -7.137794     1.828572    -2.595583 
C      -4.892042     0.010323    -5.158110 
H      -3.708279    -0.585182    -3.459845 
C      -6.013260     0.711891    -5.593212 
H      -7.695835     1.913419    -5.005124 
H      -4.258672    -0.498978    -5.877936 
H      -6.254228     0.749595    -6.650963 
C      -0.687299     0.206296    -0.114538 
O      -1.234439    -0.730288     0.725211 
C      -2.302016    -1.105836    -0.037160 
N      -0.988292    -0.154557    -1.420987 
N      -2.027078    -0.926060    -1.342610 
C      -3.242720    -2.076834     0.554742 
O      -3.302886    -2.296662     1.737935 
O      -4.027926    -2.641645    -0.368870 
C      -4.973635    -3.598325     0.132818 
H      -4.452537    -4.425740     0.618806 
H      -5.648766    -3.127197     0.850685 
H      -5.523002    -3.950402    -0.739429 
74
     -1835.282475     -1834.748948   4.94   4.07
C       4.101843     2.174462    -3.168517 
C       3.321181     1.494181    -2.218010 
C       2.778457     2.223900    -1.148648 
C       3.020397     3.575024    -1.063229 
C       3.806836     4.236914    -2.032503 
C       4.360961     3.552252    -3.098886 
C       4.014116     0.021610    -3.754836 
C       3.278697     0.108950    -2.612349 
H       2.173725     1.731820    -0.392536 
H       2.617507     4.169846    -0.251222 
H       4.966180     4.043047    -3.849577 
H       4.227898    -0.842626    -4.369589 
N       4.520115     1.262777    -4.104169 
C       5.349076     1.550080    -5.250588 
H       5.511810     0.627493    -5.810067 
H       4.866450     2.275633    -5.914168 
H       6.323790     1.944532    -4.943837 
O       3.962000     5.577424    -1.819637 
C       4.736164     6.306693    -2.749531 
H       4.734661     7.340828    -2.403195 
H       5.769720     5.939817    -2.785575 
H       4.300384     6.262518    -3.755651 
N       0.283181    -1.870669    -1.369225 
C       0.013419    -3.113618    -1.914096 
O       0.271774    -3.363470    -3.073872 
C      -0.566450    -4.134678    -0.957843 
H       0.256936    -4.430465    -0.301036 
H      -0.836486    -5.000318    -1.563598 
C      -1.765467    -3.688056    -0.091629 
H      -2.686880    -3.899817    -0.642822 
H      -1.785594    -4.308379     0.804643 
C      -1.804285    -2.212144     0.294702 
C      -2.004037    -1.852467     1.643631 
H      -2.589780    -0.972518     1.899398 
C       2.532700    -0.987830    -1.917805 
H       2.739329    -0.960862    -0.841010 
H       2.863818    -1.964944    -2.282408 
C       1.020942    -0.870957    -2.143082 
H       0.662615     0.120087    -1.861274 
H       0.782716    -1.037825    -3.193409 
C      -2.565100    -1.313256    -0.686106 
H      -2.314170    -0.266652    -0.490472 
H      -2.229011    -1.529409    -1.704841 
C      -4.085184    -1.488935    -0.609884 
H      -4.581227    -0.827479    -1.326718 
H      -4.390495    -2.513515    -0.841061 
H      -4.465899    -1.245544     0.387246 
O      -1.904597    -2.797973     2.592922 
C      -2.043462    -2.367799     3.955061 
H      -2.002038    -3.295639     4.529311 
H      -1.183409    -1.750203     4.223356 
C      -3.338672    -1.632249     4.213355 
C      -3.330987    -0.400770     4.859927 
C      -4.554414    -2.182151     3.808004 
C      -4.524280     0.273643     5.101052 
H      -2.384956     0.031539     5.172034 
C      -5.744439    -1.508388     4.042843 
H      -4.564136    -3.143895     3.302830 
C      -5.731328    -0.276945     4.691972 
H      -4.508718     1.231708     5.611499 
H      -6.685380    -1.944987     3.722791 
H      -6.661851     0.249571     4.879021 
C       0.048207    -1.661251    -0.011913 
O      -0.106258    -0.359100     0.395564 
C      -0.136773    -0.561646     1.747103 
N       0.734364    -2.346932     0.977293 
N       0.555671    -1.668018     2.067995 
C      -0.417217     0.558142     2.664326 
O      -0.207997     0.537170     3.850537 
O      -0.993825     1.574563     2.010183 
C      -1.378244     2.691102     2.826971 
H      -0.512385     3.093065     3.356684 
H      -1.784922     3.430088     2.137793 
H      -2.137289     2.383902     3.550380 
74
     -1835.285826     -1834.748879   2.83   4.12
C       1.329783    -1.367099     2.728801 
C      -0.014687    -1.261005     3.147480 
C      -0.753710    -2.433648     3.296333 
C      -0.171272    -3.661515     3.025391 
C       1.168040    -3.734147     2.601663 
C       1.935078    -2.589681     2.449723 
C       0.862962     0.792093     3.017951 
C      -0.296646     0.144923     3.310442 
H      -1.787818    -2.399970     3.626189 
H      -0.760962    -4.561557     3.144120 
H       2.965216    -2.672559     2.123059 
H       1.060814     1.854278     2.988028 
N       1.853975    -0.100932     2.665077 
C       3.158479     0.243077     2.146890 
H       3.274625    -0.122233     1.121609 
H       3.252668     1.329678     2.138040 
H       3.952701    -0.173019     2.775103 
O       1.800436    -4.911284     2.299974 
C       1.097772    -6.118919     2.513625 
H       1.787025    -6.921491     2.247763 
H       0.802187    -6.229428     3.563913 
H       0.205189    -6.185636     1.878898 
N      -2.487906     1.298462     1.275473 
C      -3.229040     2.454566     1.108143 
O      -3.928489     2.883602     2.003848 
C      -3.261408     3.125407    -0.258115 
H      -3.190305     4.198535    -0.066606 
H      -4.290034     2.957807    -0.597733 
C      -2.264901     2.710196    -1.343839 
H      -2.647490     3.042470    -2.315383 
H      -1.311432     3.211535    -1.183615 
C      -2.029434     1.203986    -1.382820 
C      -0.932190     0.757188    -2.161365 
H      -0.933156    -0.203344    -2.667654 
C      -1.630863     0.762324     3.603191 
H      -1.527218     1.840965     3.754534 
H      -2.039698     0.348841     4.533444 
C      -2.675983     0.512922     2.504941 
H      -2.681857    -0.542417     2.224183 
H      -3.664944     0.779809     2.875003 
C      -3.312850     0.364376    -1.487627 
H      -3.812137     0.352448    -0.515127 
H      -3.987503     0.910741    -2.159035 
C      -3.189526    -1.076812    -1.987761 
H      -2.864068    -1.118580    -3.032183 
H      -2.498035    -1.667830    -1.382290 
H      -4.169994    -1.559675    -1.940558 
O      -0.063730     1.667269    -2.612650 
C       1.091403     1.155496    -3.298170 
H       1.529024     0.350327    -2.700374 
H       0.780965     0.755269    -4.270459 
C       2.071094     2.282687    -3.468064 
C       2.640920     2.871739    -2.339147 
C       2.422957     2.742588    -4.730724 
C       3.550161     3.909904    -2.479614 
H       2.360739     2.509007    -1.354407 
C       3.338254     3.781097    -4.872990 
H       1.978310     2.287577    -5.611828 
C       3.901810     4.366095    -3.747342 
H       3.990065     4.367372    -1.598651 
H       3.607615     4.133139    -5.863886 
H       4.614646     5.177718    -3.854513 
C      -1.439302     0.974001     0.402030 
O      -1.126269    -0.367148     0.327969 
C       0.066921    -0.278523    -0.320319 
N      -0.253459     1.696415     0.421786 
N       0.641833     0.914274    -0.094877 
C       0.817401    -1.488442    -0.691833 
O       1.961082    -1.477417    -1.078555 
O       0.059310    -2.583827    -0.578983 
C       0.715182    -3.821459    -0.894110 
H       1.571292    -3.976735    -0.236447 
H      -0.033621    -4.595329    -0.729194 
H       1.044011    -3.820536    -1.935772 
74
     -1835.285307     -1834.748869   3.16   4.12
C      -3.718778     0.712007     0.370594 
C      -3.265002     0.984309     1.675104 
C      -3.584737     2.227007     2.243323 
C      -4.325161     3.132464     1.521460 
C      -4.771535     2.832940     0.215661 
C      -4.476012     1.620794    -0.382866 
C      -2.574495    -1.064604     1.089490 
C      -2.528556    -0.173042     2.117847 
H      -3.238658     2.487686     3.236963 
H      -4.582479     4.101755     1.933195 
H      -4.809209     1.371869    -1.381927 
H      -2.114531    -2.040672     1.011721 
N      -3.287862    -0.543379     0.024937 
C      -3.519404    -1.200404    -1.238729 
H      -3.031596    -2.176049    -1.222851 
H      -4.589428    -1.350238    -1.417532 
H      -3.100834    -0.619055    -2.067493 
O      -5.498356     3.823651    -0.380691 
C      -5.980868     3.589035    -1.687531 
H      -5.158012     3.424971    -2.394811 
H      -6.659492     2.727138    -1.714980 
H      -6.528756     4.486643    -1.976524 
N       0.026172     1.144879     2.562397 
C       0.023939     2.507370     2.307097 
O      -0.604468     3.278689     3.004349 
C       0.761752     3.044190     1.092953 
H       1.191808     3.995823     1.412561 
H      -0.033273     3.300364     0.383058 
C       1.819349     2.171278     0.427041 
H       2.119490     2.634705    -0.518669 
H       2.711540     2.116133     1.051876 
C       1.305158     0.763823     0.174095 
C       2.230661    -0.201035    -0.265614 
H       1.946396    -1.000169    -0.946494 
C      -1.811569    -0.384961     3.417135 
H      -1.379442    -1.387861     3.407029 
H      -2.521424    -0.358596     4.253003 
C      -0.713503     0.652273     3.735836 
H      -1.143489     1.538500     4.196445 
H       0.005410     0.222699     4.442004 
C      -0.062956     0.628184    -0.496834 
H      -0.300708    -0.436098    -0.581063 
H      -0.845904     1.059153     0.130870 
C      -0.105781     1.273776    -1.883247 
H       0.083857     2.350482    -1.840513 
H       0.638446     0.830120    -2.553051 
H      -1.092282     1.131762    -2.334615 
O       3.535276     0.091256    -0.183091 
C       4.457262    -0.950821    -0.528071 
H       5.438427    -0.492963    -0.386739 
H       4.347998    -1.770270     0.185842 
C       4.289123    -1.437417    -1.948726 
C       4.171114    -2.795614    -2.219745 
C       4.257448    -0.528230    -3.005352 
C       4.025433    -3.245837    -3.528496 
H       4.196485    -3.506856    -1.399888 
C       4.107567    -0.973202    -4.310774 
H       4.350109     0.534290    -2.799612 
C       3.992099    -2.335275    -4.575486 
H       3.937938    -4.309169    -3.728067 
H       4.083650    -0.257159    -5.126205 
H       3.877326    -2.683165    -5.597069 
C       0.962004     0.263962     2.000903 
O       0.490885    -1.004567     1.720810 
C       1.668417    -1.639782     1.514456 
N       2.225419     0.138265     2.548780 
N       2.664775    -1.029556     2.169447 
C       1.596360    -3.027221     1.029203 
O       0.575229    -3.522815     0.618831 
O       2.779998    -3.648464     1.073686 
C       2.760800    -5.021677     0.654436 
H       2.099406    -5.603933     1.299459 
H       2.415750    -5.102354    -0.378772 
H       3.788277    -5.371734     0.748229 
74
     -1835.284160     -1834.748848   3.88   4.14
C      -3.250975     0.315093     2.658096 
C      -3.023275     1.525671     1.963979 
C      -4.069983     2.063390     1.214283 
C      -5.291694     1.414634     1.166605 
C      -5.489658     0.211458     1.870995 
C      -4.471705    -0.353963     2.623902 
C      -1.146574     0.953631     3.046357 
C      -1.658571     1.913980     2.229394 
H      -3.933719     2.978125     0.648715 
H      -6.089776     1.843873     0.575228 
H      -4.653466    -1.280312     3.156846 
H      -0.144527     0.862121     3.444165 
N      -2.093037    -0.020332     3.312845 
C      -1.897043    -1.194311     4.128181 
H      -2.570996    -1.193429     4.991416 
H      -2.069080    -2.108008     3.548948 
H      -0.868215    -1.204766     4.491135 
O      -6.669902    -0.478757     1.868421 
C      -7.747871     0.049520     1.121680 
H      -8.041247     1.041418     1.486711 
H      -7.503479     0.114676     0.054322 
H      -8.578640    -0.644077     1.258364 
N      -0.733471     1.906307    -0.527625 
C      -1.705797     1.593745    -1.464608 
O      -2.638798     2.341665    -1.679658 
C      -1.646587     0.259797    -2.188106 
H      -1.977568     0.467519    -3.207861 
H      -2.446808    -0.333172    -1.730388 
C      -0.335332    -0.517729    -2.194846 
H      -0.517957    -1.520094    -2.595737 
H       0.386573    -0.036568    -2.855808 
C       0.262224    -0.617836    -0.800331 
C       1.560442    -1.155645    -0.689100 
H       1.864031    -1.740189     0.178561 
C      -0.905127     3.099987     1.707698 
H       0.101892     3.074538     2.129463 
H      -1.368084     4.030383     2.058969 
C      -0.823076     3.199636     0.169207 
H      -1.711206     3.680996    -0.233182 
H       0.043979     3.805701    -0.114951 
C      -0.667249    -1.068284     0.328182 
H      -0.097985    -1.070357     1.262302 
H      -1.472398    -0.345255     0.473766 
C      -1.265872    -2.455588     0.087664 
H      -0.485725    -3.217601    -0.013621 
H      -1.906269    -2.739051     0.928207 
H      -1.879548    -2.485975    -0.817541 
O       2.296260    -1.279542    -1.794163 
C       3.645720    -1.741173    -1.619570 
H       4.108277    -1.168671    -0.810598 
H       3.627561    -2.802593    -1.345707 
C       4.386571    -1.529030    -2.910001 
C       4.906160    -2.603221    -3.621411 
C       4.562829    -0.232718    -3.394894 
C       5.601250    -2.391905    -4.808287 
H       4.767044    -3.614238    -3.247722 
C       5.252323    -0.021974    -4.580144 
H       4.153219     0.604298    -2.837090 
C       5.774142    -1.101080    -5.288699 
H       6.004651    -3.237123    -5.357091 
H       5.386415     0.987924    -4.955416 
H       6.314343    -0.932886    -6.215099 
C       0.505155     1.249962    -0.466946 
O       1.042453     1.115651     0.800855 
C       2.309304     0.770979     0.471040 
N       1.528604     1.610412    -1.326015 
N       2.632188     1.231739    -0.743338 
C       3.202767     0.372369     1.569381 
O       2.804515     0.132492     2.683773 
O       4.477516     0.279228     1.178555 
C       5.407515    -0.098534     2.205169 
H       5.397346     0.636151     3.012878 
H       5.152103    -1.080883     2.608373 
H       6.382915    -0.122201     1.720919 
74
     -1835.285508     -1834.748834   3.03   4.15
C      -0.852113    -3.243929    -0.292173 
C      -1.880037    -2.883583     0.606395 
C      -3.188006    -2.828695     0.127891 
C      -3.454471    -3.126081    -1.199086 
C      -2.409783    -3.487825    -2.069466 
C      -1.097064    -3.549958    -1.628456 
C       0.073753    -2.844307     1.695731 
C      -1.256024    -2.623220     1.880173 
H      -4.008252    -2.555283     0.785368 
H      -4.475774    -3.078450    -1.554912 
H      -0.310544    -3.829723    -2.319778 
H       0.888723    -2.725032     2.395654 
N       0.336296    -3.216340     0.392186 
C       1.645486    -3.435196    -0.180241 
H       1.799826    -2.782587    -1.044904 
H       2.397818    -3.189304     0.570245 
H       1.775145    -4.479376    -0.484041 
O      -2.600827    -3.783649    -3.393155 
C      -3.926308    -3.826867    -3.882388 
H      -3.852761    -4.118682    -4.930851 
H      -4.528056    -4.567705    -3.342307 
H      -4.415066    -2.846758    -3.814994 
N      -1.043264     0.296670     2.861279 
C      -0.662576     1.036924     3.966733 
O      -1.271610     0.973044     5.015841 
C       0.574166     1.891967     3.783147 
H       1.419417     1.198262     3.768378 
H       0.658754     2.498000     4.685494 
C       0.636900     2.786442     2.520114 
H       0.280007     3.788366     2.780712 
H       1.682862     2.888449     2.233539 
C      -0.185295     2.311345     1.317343 
C       0.428560     2.351014     0.038058 
H      -0.144344     2.578170    -0.857216 
C      -1.916524    -2.038916     3.091002 
H      -1.277606    -2.158552     3.971392 
H      -2.855859    -2.562719     3.303443 
C      -2.240990    -0.546854     2.918962 
H      -2.820450    -0.388289     2.006475 
H      -2.820526    -0.188274     3.769483 
C      -1.640037     2.814119     1.369662 
H      -2.129099     2.375932     2.245294 
H      -1.580946     3.887858     1.585388 
C      -2.546964     2.622742     0.150615 
H      -2.674236     1.574020    -0.120138 
H      -3.534432     3.036332     0.376331 
H      -2.173783     3.159475    -0.726988 
O       1.749874     2.564543    -0.039055 
C       2.321100     2.517580    -1.354707 
H       2.013963     1.587407    -1.842123 
H       1.950284     3.368804    -1.938272 
C       3.817104     2.571247    -1.216202 
C       4.548539     3.634164    -1.730548 
C       4.482085     1.531893    -0.565585 
C       5.933992     3.664049    -1.602580 
H       4.033319     4.447243    -2.235042 
C       5.862595     1.562249    -0.433606 
H       3.905462     0.704268    -0.162869 
C       6.591974     2.628424    -0.953330 
H       6.497017     4.498582    -2.008712 
H       6.375279     0.751659     0.075164 
H       7.672362     2.649573    -0.850209 
C      -0.311548     0.437447     1.676969 
O      -0.947346     0.067282     0.520963 
C       0.107638     0.120122    -0.339488 
N       1.018346     0.036134     1.587250 
N       1.260273    -0.095605     0.323269 
C      -0.091082    -0.183971    -1.767296 
O       0.799604    -0.464716    -2.531062 
O      -1.379481    -0.069001    -2.103961 
C      -1.689888    -0.370217    -3.472824 
H      -1.375849    -1.384508    -3.721182 
H      -2.772902    -0.280867    -3.549086 
H      -1.196797     0.343243    -4.137116 
74
     -1835.284624     -1834.748491   3.59   4.36
C       3.157515     0.960046    -1.855605 
C       2.652910     2.210036    -1.428863 
C       3.494465     3.044885    -0.692946 
C       4.786229     2.642432    -0.401289 
C       5.261839     1.392533    -0.842335 
C       4.453221     0.535411    -1.573281 
C       1.048104     1.137296    -2.566702 
C       1.290915     2.297743    -1.898546 
H       3.142813     4.002769    -0.326889 
H       5.422240     3.300980     0.175515 
H       4.846765    -0.420179    -1.900622 
H       0.133600     0.801842    -3.037729 
N       2.162818     0.317502    -2.548199 
C       2.261801    -0.994217    -3.140649 
H       1.303867    -1.249308    -3.596287 
H       3.034613    -1.020756    -3.916160 
H       2.497224    -1.750200    -2.383707 
O       6.525439     0.934771    -0.590956 
C       7.399372     1.765587     0.147046 
H       7.009952     1.965449     1.152847 
H       8.339709     1.218632     0.227958 
H       7.578098     2.717765    -0.367347 
N       0.013813     2.580364     0.698745 
C       0.892082     2.598592     1.770732 
O       1.663307     3.522444     1.938587 
C       0.945134     1.412377     2.717656 
H       1.104485     1.840437     3.709675 
H       1.880010     0.900986     2.460588 
C      -0.220290     0.429826     2.735330 
H       0.058610    -0.442423     3.335826 
H      -1.088666     0.882480     3.215418 
C      -0.603814    -0.008630     1.331751 
C      -1.778162    -0.769797     1.182752 
H      -1.870006    -1.539483     0.419756 
C       0.298025     3.400518    -1.687775 
H      -0.627111     3.126683    -2.199438 
H       0.652026     4.327237    -2.155967 
C      -0.003150     3.737031    -0.211435 
H       0.739258     4.425289     0.185486 
H      -0.982947     4.221083    -0.136292 
C       0.526315    -0.467102     0.408209 
H       0.094795    -0.719096    -0.564716 
H       1.227270     0.349022     0.220342 
C       1.285199    -1.675432     0.960403 
H       0.617092    -2.529186     1.115718 
H       2.066690    -1.982252     0.258875 
H       1.770281    -1.453607     1.915706 
O      -2.621507    -0.840041     2.221069 
C      -3.862672    -1.523810     2.004397 
H      -4.374416    -1.453657     2.966424 
H      -4.443076    -0.975388     1.259097 
C      -3.675195    -2.966960     1.597595 
C      -4.328265    -3.475491     0.480914 
C      -2.849244    -3.807164     2.343213 
C      -4.163834    -4.806819     0.110400 
H      -4.973157    -2.824803    -0.101664 
C      -2.679292    -5.133580     1.973981 
H      -2.337027    -3.415465     3.217324 
C      -3.338184    -5.637174     0.855543 
H      -4.681958    -5.193511    -0.761481 
H      -2.033701    -5.779266     2.560937 
H      -3.206913    -6.675521     0.568429 
C      -1.088646     1.716047     0.628227 
O      -1.415908     1.272370    -0.638972 
C      -2.644121     0.761821    -0.386641 
N      -2.263752     2.021175     1.289974 
N      -3.202664     1.356320     0.675665 
C      -3.297456     0.033371    -1.485798 
O      -2.712365    -0.297316    -2.488309 
O      -4.583201    -0.233495    -1.231518 
C      -5.284777    -0.903616    -2.290079 
H      -4.815255    -1.864261    -2.513250 
H      -6.301581    -1.044852    -1.925095 
H      -5.285588    -0.287303    -3.191564 
74
     -1835.279980     -1834.748466   6.50   4.38
C       3.557021     3.315288    -3.508008 
C       3.361983     2.334687    -2.512583 
C       4.337829     1.352733    -2.334513 
C       5.468171     1.361093    -3.135196 
C       5.638663     2.351330    -4.122375 
C       4.687879     3.340457    -4.322309 
C       1.604893     3.723715    -2.498036 
C       2.099500     2.620153    -1.875038 
H       4.216370     0.582317    -1.578103 
H       6.218718     0.595102    -2.990912 
H       4.848089     4.088520    -5.090268 
H       0.681219     4.258291    -2.318840 
N       2.473758     4.157980    -3.487246 
C       2.283979     5.299852    -4.348910 
H       1.332906     5.775922    -4.104334 
H       3.084747     6.034423    -4.211165 
H       2.259821     4.998459    -5.401675 
O       6.731081     2.414121    -4.943969 
C       7.736463     1.432444    -4.792201 
H       7.346472     0.424575    -4.980786 
H       8.501077     1.666023    -5.534374 
H       8.183456     1.465615    -3.790935 
N       0.700560    -0.461725    -0.175608 
C       1.715850    -1.197710     0.403713 
O       2.837603    -1.206725    -0.064823 
C       1.347078    -1.936328     1.671763 
H       1.267638    -1.172544     2.451064 
H       2.198494    -2.572925     1.914541 
C       0.046248    -2.766596     1.642477 
H       0.285819    -3.768405     1.273894 
H      -0.302189    -2.884945     2.668719 
C      -1.084011    -2.226101     0.766485 
C      -2.370661    -2.077514     1.332625 
H      -3.267067    -2.292469     0.751507 
C       1.484061     1.814723    -0.774157 
H       0.643116     2.350204    -0.321801 
H       2.223610     1.650459     0.017754 
C       1.012676     0.445920    -1.280900 
H       0.129409     0.549566    -1.912106 
H       1.798836    -0.029184    -1.866654 
C      -1.111683    -2.786583    -0.659577 
H      -1.780472    -2.178114    -1.275102 
H      -0.113770    -2.689265    -1.097710 
C      -1.552520    -4.251540    -0.733461 
H      -0.889303    -4.908924    -0.164343 
H      -2.566685    -4.385041    -0.343546 
H      -1.547824    -4.596889    -1.771616 
O      -2.499644    -2.108925     2.662822 
C      -3.826923    -1.921028     3.183694 
H      -4.266797    -1.034348     2.718851 
H      -4.434301    -2.798902     2.933817 
C      -3.721654    -1.745010     4.672847 
C      -4.267976    -2.677247     5.546021 
C      -3.068928    -0.624034     5.186149 
C      -4.169813    -2.496718     6.922431 
H      -4.774512    -3.553148     5.149397 
C      -2.967000    -0.445057     6.558095 
H      -2.641229     0.101726     4.500483 
C      -3.518449    -1.380644     7.429494 
H      -4.600884    -3.230329     7.596546 
H      -2.456825     0.428219     6.952951 
H      -3.438496    -1.237471     8.502564 
C      -0.535069    -0.391051     0.468951 
O      -1.606306    -0.017562    -0.304356 
C      -2.543853     0.118163     0.680328 
N      -0.684108     0.187674     1.722034 
N      -1.950462     0.438187     1.844173 
C      -3.941685     0.442598     0.338120 
O      -4.794839     0.698412     1.149673 
O      -4.144945     0.372539    -0.983404 
C      -5.483869     0.662966    -1.412977 
H      -5.467564     0.572665    -2.498231 
H      -6.186202    -0.050796    -0.977027 
H      -5.766574     1.674680    -1.114817 
74
     -1835.284330     -1834.748396   3.77   4.42
C       3.149557     0.363113    -1.247058 
C       2.540379     0.410958    -2.511677 
C       2.509868    -0.757517    -3.286070 
C       3.082149    -1.907543    -2.795154 
C       3.697648    -1.927468    -1.524415 
C       3.739862    -0.796708    -0.728361 
C       2.312608     2.409309    -1.533956 
C       2.008012     1.735841    -2.679581 
H       2.028753    -0.765787    -4.259299 
H       3.078225    -2.828288    -3.368095 
H       4.194024    -0.795768     0.253608 
H       2.071772     3.423507    -1.243862 
N       3.015681     1.597207    -0.665339 
C       3.377715     1.933407     0.691327 
H       3.200036     2.998650     0.848048 
H       2.772497     1.369777     1.409080 
H       4.438443     1.732607     0.870445 
O       4.227812    -3.135944    -1.167886 
C       4.856855    -3.227940     0.092852 
H       5.210322    -4.255696     0.184183 
H       5.711621    -2.543663     0.165005 
H       4.153063    -3.014098     0.907412 
N      -0.738343     0.973345    -2.709647 
C      -0.965736    -0.190965    -3.412544 
O      -0.912153    -0.213067    -4.627203 
C      -1.237924    -1.417241    -2.568047 
H      -0.276279    -1.689667    -2.123645 
H      -1.520925    -2.210573    -3.260775 
C      -2.296696    -1.273057    -1.448389 
H      -3.271119    -1.563848    -1.852419 
H      -2.055474    -1.985701    -0.659813 
C      -2.453524     0.125386    -0.851633 
C      -2.502328     0.267871     0.556643 
H      -3.142784     1.021190     1.015040 
C       1.137927     2.191583    -3.812335 
H       1.278462     1.528715    -4.669461 
H       1.405089     3.202006    -4.139338 
C      -0.351114     2.191637    -3.424655 
H      -0.574348     3.037404    -2.774397 
H      -0.973364     2.265302    -4.318526 
C      -3.463081     1.026760    -1.573233 
H      -3.316356     2.061118    -1.247627 
H      -3.254779     1.006739    -2.646946 
C      -4.922010     0.621311    -1.341084 
H      -5.188452     0.666169    -0.280225 
H      -5.594999     1.294434    -1.880804 
H      -5.123669    -0.395474    -1.690226 
O      -2.152650    -0.769050     1.331601 
C      -2.238417    -0.554467     2.745792 
H      -1.750363     0.393777     2.989204 
H      -3.294082    -0.499283     3.037468 
C      -1.546683    -1.691961     3.444310 
C      -2.243572    -2.536896     4.298749 
C      -0.181147    -1.893217     3.241886 
C      -1.587614    -3.575267     4.952877 
H      -3.308199    -2.384750     4.455127 
C       0.472773    -2.930354     3.890927 
H       0.357817    -1.232894     2.568755 
C      -0.228787    -3.772810     4.749158 
H      -2.140323    -4.229812     5.619447 
H       1.535393    -3.084817     3.731294 
H       0.285897    -4.582592     5.256711 
C      -0.780379     0.941530    -1.311930 
O      -0.978303     2.144299    -0.678509 
C      -0.761372     1.750854     0.610663 
N       0.116041     0.196719    -0.556466 
N       0.070819     0.692669     0.637828 
C      -0.916663     2.776047     1.657896 
O      -1.503470     3.815228     1.487866 
O      -0.348604     2.403599     2.812742 
C      -0.468465     3.348441     3.886563 
H      -1.520114     3.533525     4.116869 
H       0.036501     2.890303     4.736191 
H       0.011043     4.291852     3.617059 
74
     -1835.283395     -1834.748295   4.36   4.48
C       3.325815    -0.506070    -0.544636 
C       3.306466    -1.021150     0.768441 
C       3.690335    -0.187256     1.817542 
C       4.091096     1.111722     1.553424 
C       4.111344     1.595802     0.231021 
C       3.725284     0.794870    -0.832748 
C       2.544119    -2.593194    -0.628404 
C       2.801296    -2.367042     0.690260 
H       3.666133    -0.540547     2.843965 
H       4.388777     1.748134     2.376778 
H       3.738176     1.199276    -1.838069 
H       2.131542    -3.470475    -1.109458 
N       2.870040    -1.486329    -1.388594 
C       2.597760    -1.320063    -2.796529 
H       3.493172    -0.979193    -3.325049 
H       2.298816    -2.283440    -3.213261 
H       1.785771    -0.602784    -2.955890 
O       4.500361     2.865034    -0.100378 
C       4.910255     3.727924     0.940618 
H       5.784114     3.330441     1.471479 
H       5.178419     4.671614     0.463586 
H       4.100331     3.904189     1.659349 
N       0.387350    -1.893026     2.131167 
C       0.565010    -1.048019     3.205972 
O       1.135930    -1.421647     4.212631 
C       0.042911     0.360208     3.018299 
H       0.737675     0.843009     2.325056 
H       0.139224     0.855297     3.985238 
C      -1.400213     0.503385     2.478317 
H      -2.085517     0.556595     3.329649 
H      -1.472774     1.455953     1.953658 
C      -1.891483    -0.625593     1.572199 
C      -2.542050    -0.295088     0.358192 
H      -3.368261    -0.902287    -0.011259 
C       2.465853    -3.244384     1.858629 
H       3.003733    -2.894490     2.743003 
H       2.776096    -4.279708     1.682081 
C       0.957588    -3.241738     2.163115 
H       0.420368    -3.841333     1.428371 
H       0.772821    -3.658168     3.155120 
C      -2.560680    -1.795984     2.303453 
H      -2.639409    -2.647187     1.620364 
H      -1.915606    -2.117045     3.126572 
C      -3.947752    -1.458726     2.859334 
H      -3.910240    -0.636424     3.579623 
H      -4.641266    -1.170070     2.063003 
H      -4.373987    -2.326401     3.371936 
O      -2.478724     0.965246    -0.094235 
C      -3.159358     1.227583    -1.327707 
H      -2.875991     0.462620    -2.056460 
H      -4.241774     1.178155    -1.158792 
C      -2.753106     2.590357    -1.815900 
C      -3.691698     3.601472    -1.978195 
C      -1.415354     2.838746    -2.124061 
C      -3.305250     4.853028    -2.447997 
H      -4.733857     3.412102    -1.735049 
C      -1.028449     4.087465    -2.588482 
H      -0.684185     2.046723    -1.991025 
C      -1.973156     5.096946    -2.753049 
H      -4.045965     5.636665    -2.572639 
H       0.013889     4.277590    -2.825369 
H      -1.668051     6.072650    -3.118013 
C      -0.243074    -1.405413     0.981547 
O      -0.774252    -2.344191     0.130845 
C      -1.098106    -1.531325    -0.917071 
N       0.297986    -0.382331     0.213535 
N      -0.284815    -0.458571    -0.939348 
C      -1.755819    -2.163222    -2.074659 
O      -2.287325    -3.244184    -2.027395 
O      -1.706677    -1.387040    -3.165466 
C      -2.337437    -1.932517    -4.333704 
H      -1.857429    -2.870414    -4.620952 
H      -3.397782    -2.115195    -4.145178 
H      -2.208980    -1.181542    -5.112352 
74
     -1835.283951     -1834.748177   4.01   4.56
C       1.942255    -2.637760    -1.017359 
C       2.345711    -1.757874    -2.035125 
C       1.752236    -1.878644    -3.299775 
C       0.805700    -2.853571    -3.511086 
C       0.423862    -3.732327    -2.473737 
C       0.981306    -3.638831    -1.211026 
C       3.421772    -1.213163    -0.151978 
C       3.299029    -0.848185    -1.459977 
H       2.022144    -1.203502    -4.106027 
H       0.328167    -2.975756    -4.477047 
H       0.692374    -4.293628    -0.399668 
H       4.018881    -0.772342     0.635326 
N       2.619131    -2.302229     0.126160 
C       2.391977    -2.867297     1.435659 
H       1.374178    -2.657452     1.780102 
H       2.558328    -3.949018     1.425928 
H       3.095121    -2.418457     2.138992 
O      -0.522559    -4.653090    -2.827489 
C      -0.951075    -5.563897    -1.837353 
H      -1.414146    -5.043652    -0.989162 
H      -1.692943    -6.206453    -2.313096 
H      -0.119410    -6.179948    -1.472825 
N       1.697541     1.495539    -1.711880 
C       1.001764     1.521625    -2.902542 
O       1.565820     1.749491    -3.955373 
C      -0.474925     1.209567    -2.796667 
H      -0.538552     0.137778    -2.588004 
H      -0.898506     1.382549    -3.786625 
C      -1.272082     1.988840    -1.724269 
H      -1.667210     2.901204    -2.181246 
H      -2.130524     1.383416    -1.433525 
C      -0.489931     2.409626    -0.479735 
C      -1.055777     2.163398     0.794664 
H      -0.917751     2.871254     1.611718 
C       3.876447     0.357970    -2.138053 
H       3.791665     0.242624    -3.221197 
H       4.941118     0.473190    -1.908932 
C       3.154230     1.650811    -1.719347 
H       3.457203     1.946624    -0.715154 
H       3.399741     2.460066    -2.409632 
C       0.188794     3.780795    -0.575930 
H       0.917082     3.878350     0.234922 
H       0.756289     3.831994    -1.509945 
C      -0.791875     4.956534    -0.523061 
H      -1.354987     4.968988     0.415644 
H      -0.253226     5.905918    -0.599473 
H      -1.515533     4.921494    -1.342428 
O      -2.101777     1.335836     0.894515 
C      -2.598097     1.093919     2.220542 
H      -1.761098     0.813035     2.866298 
H      -3.056512     2.013355     2.603701 
C      -3.605608    -0.019110     2.146289 
C      -3.193430    -1.292286     1.752254 
C      -4.938407     0.197271     2.472387 
C      -4.110016    -2.331573     1.688076 
H      -2.150992    -1.455808     1.495042 
C      -5.858035    -0.845414     2.411446 
H      -5.263158     1.188820     2.776317 
C      -5.444396    -2.110874     2.018769 
H      -3.786110    -3.321338     1.381533 
H      -6.897150    -0.666285     2.669245 
H      -6.158848    -2.926564     1.968825 
C       1.009878     1.204504    -0.529292 
O       1.612997     1.609250     0.637968 
C       0.780919     1.000944     1.535331 
N       0.400155    -0.020802    -0.297780 
N       0.228161    -0.094089     0.983094 
C       0.999737     1.173761     2.982447 
O       0.443097     0.527705     3.835105 
O       1.873195     2.159392     3.227302 
C       2.147574     2.404227     4.615223 
H       2.561931     1.509016     5.083798 
H       2.873360     3.216208     4.629736 
H       1.233776     2.694336     5.138449 
74
     -1835.283951     -1834.748169   4.01   4.56
C       3.364713     0.590507    -0.308092 
C       3.425936     0.072331     0.995968 
C       3.501408     0.969582     2.070854 
C       3.523065     2.321753     1.821392 
C       3.469868     2.817642     0.500267 
C       3.386993     1.963772    -0.585073 
C       3.217767    -1.629489    -0.439767 
C       3.330711    -1.358479     0.891750 
H       3.528861     0.608230     3.094271 
H       3.582631     3.043115     2.628941 
H       3.331640     2.324313    -1.603645 
H       3.099280    -2.579459    -0.943973 
N       3.251758    -0.462596    -1.177911 
C       3.019503    -0.359356    -2.599560 
H       3.823481     0.203110    -3.084476 
H       2.997824    -1.363448    -3.026028 
H       2.059636     0.125870    -2.804003 
O       3.504152     4.180682     0.402281 
C       3.454059     4.744797    -0.891098 
H       2.521531     4.481244    -1.406318 
H       3.496141     5.826153    -0.755171 
H       4.307313     4.423462    -1.501643 
N       0.807983    -1.607446     2.193637 
C       0.694435    -0.752627     3.270147 
O       1.291908    -0.965411     4.307586 
C      -0.179101     0.461732     3.043321 
H       0.385074     1.112816     2.369451 
H      -0.260153     0.967649     4.006047 
C      -1.583638     0.202674     2.449281 
H      -2.287081     0.055710     3.274465 
H      -1.899387     1.102225     1.920969 
C      -1.709669    -1.010500     1.527285 
C      -2.369715    -0.854494     0.284338 
H      -2.988923    -1.654025    -0.121885 
C       3.196103    -2.312243     2.040762 
H       3.565349    -1.838033     2.953164 
H       3.795092    -3.215213     1.882167 
C       1.734424    -2.740236     2.261372 
H       1.430122    -3.458169     1.500007 
H       1.621836    -3.204813     3.242776 
C      -2.068772    -2.323472     2.232405 
H      -1.885821    -3.159010     1.549909 
H      -1.396105    -2.465601     3.083510 
C      -3.517607    -2.378597     2.727083 
H      -3.734034    -1.582927     3.445648 
H      -4.228973    -2.280889     1.900747 
H      -3.714824    -3.333576     3.223501 
O      -2.613066     0.378159    -0.174210 
C      -3.244099     0.465667    -1.461597 
H      -2.691376    -0.158005    -2.170119 
H      -4.272922     0.095046    -1.381126 
C      -3.223015     1.904753    -1.895198 
C      -1.999395     2.533716    -2.126086 
C      -4.402172     2.615712    -2.078561 
C      -1.964421     3.858596    -2.535748 
H      -1.080028     1.974738    -1.978152 
C      -4.368245     3.943879    -2.492636 
H      -5.356788     2.129476    -1.896104 
C      -3.148935     4.566530    -2.721231 
H      -1.010675     4.345143    -2.715073 
H      -5.295340     4.490516    -2.634021 
H      -3.118157     5.602722    -3.043171 
C       0.120976    -1.307913     1.012787 
O      -0.095145    -2.359349     0.153806 
C      -0.589234    -1.668093    -0.916565 
N       0.391798    -0.178355     0.252836 
N      -0.103357    -0.413692    -0.919775 
C      -1.020429    -2.388552    -2.127718 
O      -1.282994    -1.855735    -3.177208 
O      -1.110790    -3.705988    -1.902879 
C      -1.529092    -4.492508    -3.028917 
H      -1.537656    -5.523245    -2.677068 
H      -2.525729    -4.188469    -3.356378 
H      -0.826506    -4.374011    -3.856557 
74
     -1835.280952     -1834.748053   5.89   4.64
C       2.149810    -1.616459    -3.795439 
C       2.986604    -0.809818    -2.993358 
C       4.071571    -0.176060    -3.596317 
C       4.311004    -0.349841    -4.949603 
C       3.462307    -1.164675    -5.723403 
C       2.371843    -1.807141    -5.157125 
C       1.355017    -1.646332    -1.706863 
C       2.457591    -0.849944    -1.654177 
H       4.733761     0.458809    -3.015348 
H       5.157325     0.149594    -5.403041 
H       1.734106    -2.425173    -5.779116 
H       0.670147    -1.906212    -0.911263 
N       1.155514    -2.117795    -2.993990 
C       0.094123    -2.995112    -3.424358 
H      -0.550802    -3.214653    -2.571870 
H      -0.512062    -2.524106    -4.205681 
H       0.493417    -3.939514    -3.810012 
O       3.640516    -1.380771    -7.063123 
C       4.732331    -0.748123    -7.698747 
H       5.689415    -1.070911    -7.270465 
H       4.688539    -1.048833    -8.746495 
H       4.657716     0.344496    -7.633497 
N       0.997584     1.450335    -0.408950 
C       0.335182     1.655934    -1.607849 
O       0.946271     1.906480    -2.625175 
C      -1.184621     1.623102    -1.645371 
H      -1.437257     0.935143    -2.456673 
H      -1.466999     2.616739    -2.006871 
C      -1.957604     1.260624    -0.379508 
H      -2.997862     1.584628    -0.492513 
H      -1.970626     0.179741    -0.238715 
C      -1.354663     1.914893     0.858078 
C      -1.873599     1.501211     2.106612 
H      -1.950115     2.170258     2.957770 
C       2.963658    -0.094217    -0.463568 
H       4.059814    -0.072643    -0.468410 
H       2.660939    -0.604795     0.455165 
C       2.467147     1.358361    -0.427155 
H       2.852742     1.870320     0.457260 
H       2.793067     1.895099    -1.317202 
C      -1.072182     3.419757     0.715102 
H      -0.154065     3.563263     0.139885 
H      -1.879005     3.825371     0.092099 
C      -0.977663     4.256885     1.992707 
H      -0.209305     3.891274     2.677689 
H      -0.721537     5.286643     1.727454 
H      -1.933462     4.294453     2.525512 
O      -2.642278     0.408194     2.133615 
C      -3.088757    -0.023140     3.429031 
H      -2.224310    -0.072445     4.097085 
H      -3.806367     0.706862     3.821453 
C      -3.723053    -1.377603     3.281688 
C      -2.944998    -2.457785     2.864556 
C      -5.069681    -1.572387     3.562128 
C      -3.514679    -3.715551     2.730579 
H      -1.893050    -2.301150     2.644622 
C      -5.641152    -2.834469     3.431787 
H      -5.679259    -0.732291     3.884243 
C      -4.864162    -3.906765     3.015188 
H      -2.905828    -4.553091     2.404223 
H      -6.694030    -2.977323     3.653941 
H      -5.307409    -4.892129     2.910880 
C       0.356067     1.082754     0.782059 
O       0.871046     1.671494     1.929023 
C       0.260754     0.896824     2.862101 
N       0.093852    -0.246263     1.071249 
N      -0.025290    -0.313982     2.365462 
C       0.425629     1.263997     4.280068 
O       0.856709     2.330579     4.640700 
O       0.010790     0.292407     5.100285 
C       0.144491     0.575377     6.501477 
H       1.192227     0.752425     6.752934 
H      -0.444185     1.455135     6.770748 
H      -0.228710    -0.309957     7.014787 
74
     -1835.280903     -1834.747949   5.92   4.70
C       3.242339    -2.641110    -1.299751 
C       2.407749    -1.803000    -2.070937 
C       2.954750    -0.642154    -2.616054 
C       4.288444    -0.337734    -2.398115 
C       5.097808    -1.194381    -1.627206 
C       4.585848    -2.355347    -1.068160 
C       1.198693    -3.547839    -1.356493 
C       1.098750    -2.405980    -2.091385 
H       2.343350     0.031954    -3.207934 
H       4.698611     0.567093    -2.827478 
H       5.232722    -2.994503    -0.477892 
H       0.442124    -4.280436    -1.112563 
N       2.487709    -3.701585    -0.870423 
C       2.961404    -4.791662    -0.051982 
H       3.342970    -4.425733     0.907260 
H       2.132296    -5.473414     0.143263 
H       3.757686    -5.348407    -0.557896 
O       6.421387    -0.954617    -1.373517 
C       7.000770     0.215135    -1.914322 
H       6.958373     0.215351    -3.010605 
H       6.510604     1.119849    -1.533699 
H       8.044110     0.211286    -1.595671 
N      -1.664679    -1.938334    -0.853068 
C      -1.789341    -2.927055     0.101612 
O      -1.759349    -4.105331    -0.202185 
C      -2.030054    -2.552767     1.555440 
H      -1.311390    -3.143271     2.129645 
H      -3.009904    -2.986653     1.782143 
C      -1.973668    -1.087033     1.976817 
H      -2.431331    -0.985158     2.966105 
H      -0.938016    -0.758929     2.069385 
C      -2.682777    -0.183570     0.981073 
C      -2.540067     1.208231     1.152418 
H      -3.337002     1.901165     0.885495 
C      -0.096212    -1.855511    -2.812138 
H      -0.067289    -2.143214    -3.871297 
H      -0.043799    -0.761906    -2.799426 
C      -1.449408    -2.308317    -2.263909 
H      -2.248874    -1.860948    -2.861191 
H      -1.554282    -3.390677    -2.310677 
C      -4.087208    -0.590538     0.533525 
H      -4.441568     0.139605    -0.200903 
H      -4.059782    -1.549901     0.009949 
C      -5.078845    -0.673537     1.697687 
H      -5.140869     0.279392     2.233304 
H      -6.080800    -0.917282     1.332087 
H      -4.793806    -1.443926     2.420352 
O      -1.608633     1.654016     1.995530 
C      -1.436675     3.081353     2.070325 
H      -1.366520     3.480908     1.054660 
H      -2.308577     3.518113     2.570986 
C      -0.177580     3.357299     2.843464 
C      -0.214001     4.046033     4.049379 
C       1.047847     2.922552     2.337473 
C       0.960616     4.305470     4.749286 
H      -1.167331     4.382907     4.447948 
C       2.218653     3.177247     3.036690 
H       1.072028     2.383553     1.394922 
C       2.177919     3.870444     4.243683 
H       0.921826     4.845336     5.690292 
H       3.170125     2.836140     2.640178 
H       3.096035     4.069399     4.787629 
C      -1.570331    -0.572477    -0.549003 
O      -2.226237     0.267651    -1.435469 
C      -1.700216     1.456222    -1.033668 
N      -0.363335     0.006034    -0.218620 
N      -0.499897     1.278868    -0.469250 
C      -2.182891     2.728706    -1.600080 
O      -1.717475     3.807098    -1.329237 
O      -3.224474     2.532885    -2.418581 
C      -3.768759     3.722054    -3.011479 
H      -4.134756     4.399834    -2.237196 
H      -3.007832     4.231900    -3.606074 
H      -4.587707     3.383167    -3.644459 
74
     -1835.280903     -1834.747939   5.92   4.71
C       0.119465     3.709137    -2.325059 
C      -0.641231     2.540008    -2.544549 
C      -2.012140     2.583747    -2.294303 
C      -2.595984     3.756894    -1.845126 
C      -1.812486     4.908646    -1.638211 
C      -0.446268     4.899631    -1.874526 
C       1.499111     2.098491    -3.035173 
C       0.267978     1.518063    -2.998917 
H      -2.629614     1.703334    -2.443145 
H      -3.661249     3.775245    -1.654925 
H       0.131336     5.801233    -1.704611 
H       2.455414     1.673006    -3.305439 
N       1.424657     3.421638    -2.628722 
C       2.529859     4.345271    -2.539655 
H       2.647784     4.719363    -1.517016 
H       3.446763     3.828169    -2.826390 
H       2.386914     5.198301    -3.211879 
O      -2.324242     6.099106    -1.197055 
C      -3.711004     6.170675    -0.935823 
H      -4.301388     5.970746    -1.838656 
H      -4.008527     5.468750    -0.146883 
H      -3.903476     7.190584    -0.599892 
N       1.582752    -1.030885    -1.920484 
C       2.899736    -0.678525    -1.706197 
O       3.609634    -0.303072    -2.620859 
C       3.506052    -0.814675    -0.318575 
H       4.012593     0.135262    -0.129049 
H       4.307057    -1.550069    -0.450265 
C       2.613631    -1.188071     0.861796 
H       3.246007    -1.503677     1.697869 
H       2.048845    -0.318805     1.199717 
C       1.634940    -2.294839     0.504286 
C       0.629452    -2.599769     1.443886 
H       0.243216    -3.611757     1.558843 
C      -0.119741     0.116245    -3.366356 
H      -0.498014     0.083960    -4.396548 
H      -0.955863    -0.196861    -2.732522 
C       1.005991    -0.913609    -3.272260 
H       0.623429    -1.894608    -3.567759 
H       1.833503    -0.658081    -3.931516 
C       2.194386    -3.533362    -0.196732 
H       1.364436    -4.213764    -0.411909 
H       2.618793    -3.265270    -1.167952 
C       3.252718    -4.259377     0.638937 
H       4.131181    -3.631889     0.816574 
H       2.852124    -4.555808     1.613852 
H       3.591143    -5.165235     0.127198 
O       0.427504    -1.756991     2.456840 
C      -0.668477    -2.060638     3.339493 
H      -1.555574    -2.276689     2.737391 
H      -0.411003    -2.945030     3.933793 
C      -0.897603    -0.866359     4.222901 
C      -1.285344     0.345951     3.651355 
C      -0.737935    -0.953094     5.600178 
C      -1.507857     1.454233     4.455569 
H      -1.408107     0.409978     2.574166 
C      -0.965000     0.157262     6.407926 
H      -0.432560    -1.895053     6.048106 
C      -1.349420     1.362153     5.835943 
H      -1.808244     2.396169     4.006795 
H      -0.838547     0.079111     7.483265 
H      -1.525737     2.230859     6.462569 
C       0.687330    -1.352822    -0.890195 
O      -0.202199    -2.372979    -1.189973 
C      -1.063591    -2.219486    -0.148202 
N       0.004118    -0.372426    -0.202658 
N      -1.045321    -0.959670     0.302707 
C      -2.163993    -3.175249     0.072364 
O      -2.993083    -3.060713     0.939768 
O      -2.097709    -4.200217    -0.786839 
C      -3.127999    -5.189542    -0.639734 
H      -2.930628    -5.932372    -1.411375 
H      -3.081185    -5.642724     0.352882 
H      -4.111514    -4.737156    -0.783055 
74
     -1835.280800     -1834.747802   5.99   4.79
C      -3.424104    -0.158456    -4.779993 
C      -3.167625     0.324533    -3.479305 
C      -3.856348     1.453031    -3.032236 
C      -4.768746     2.072171    -3.870672 
C      -5.005871     1.570413    -5.165340 
C      -4.338943     0.450367    -5.637490 
C      -1.891480    -1.481385    -3.832372 
C      -2.178878    -0.544583    -2.888653 
H      -3.678896     1.848309    -2.036142 
H      -5.296957     2.947333    -3.515795 
H      -4.543661     0.088611    -6.638635 
H      -1.200975    -2.313409    -3.786957 
N      -2.635900    -1.263473    -4.982086 
C      -2.600106    -2.058343    -6.185628 
H      -3.580937    -2.498005    -6.396817 
H      -2.291987    -1.455235    -7.046534 
H      -1.879684    -2.867811    -6.055984 
O      -5.893286     2.135922    -6.040440 
C      -6.604258     3.282640    -5.620081 
H      -7.229157     3.070047    -4.743852 
H      -5.926661     4.113482    -5.387584 
H      -7.244234     3.564984    -6.457215 
N      -0.311434     1.198389    -0.073757 
C      -1.225722     1.954940     0.634789 
O      -2.240707     2.360188     0.101452 
C      -0.916214     2.355565     2.066485 
H      -1.864457     2.281777     2.603500 
H      -0.691531     3.426265     2.007658 
C       0.185211     1.612807     2.819046 
H       0.422371     2.167256     3.733620 
H      -0.166144     0.626327     3.122044 
C       1.448120     1.459569     1.979836 
C       2.450812     0.608332     2.495817 
H       3.509155     0.787835     2.335321 
C      -1.589538    -0.390774    -1.521221 
H      -1.038451    -1.290016    -1.232589 
H      -2.391084    -0.255741    -0.787006 
C      -0.662637     0.829568    -1.455198 
H       0.262696     0.641347    -2.001403 
H      -1.151155     1.695929    -1.898839 
C       1.939148     2.757759     1.318926 
H       1.323498     2.970129     0.441037 
H       1.728576     3.564545     2.032179 
C       3.411714     2.843617     0.912014 
H       3.702524     2.050238     0.219984 
H       3.589432     3.800143     0.412227 
H       4.075921     2.810985     1.781797 
O       2.126624    -0.192056     3.516937 
C       3.145549    -1.099731     3.963463 
H       3.557111    -1.618913     3.093305 
H       3.943853    -0.529841     4.453264 
C       2.519491    -2.079089     4.916618 
C       1.510538    -2.929150     4.462839 
C       2.937675    -2.157891     6.239067 
C       0.930822    -3.844703     5.329053 
H       1.184761    -2.863318     3.428943 
C       2.359332    -3.078872     7.107360 
H       3.720819    -1.494408     6.596331 
C       1.354958    -3.922483     6.653013 
H       0.144885    -4.503503     4.972643 
H       2.693244    -3.133875     8.138784 
H       0.900482    -4.640818     7.328127 
C       0.693455     0.443481     0.549063 
O       1.862770     0.300827    -0.177158 
C       2.444090    -0.691863     0.546204 
N       0.394569    -0.778440     1.126740 
N       1.517425    -1.435219     1.167247 
C       3.816952    -1.090656     0.187767 
O       4.529836    -0.434222    -0.529500 
O       4.175870    -2.236251     0.777636 
C       5.502209    -2.692709     0.472004 
H       5.604849    -2.864078    -0.601502 
H       6.242272    -1.955607     0.791354 
H       5.624157    -3.624733     1.022492 
74
     -1835.283001     -1834.747794   4.61   4.80
C       1.997276    -2.666745     0.821748 
C       2.746901    -2.181712    -0.270434 
C       2.586196    -2.793145    -1.512972 
C       1.713119    -3.859491    -1.648352 
C       0.985166    -4.329311    -0.537949 
C       1.115240    -3.736616     0.708541 
C       3.187408    -0.915185     1.519851 
C       3.507272    -1.054357     0.202734 
H       3.128735    -2.433601    -2.382059 
H       1.599207    -4.326135    -2.618312 
H       0.532734    -4.111545     1.541909 
H       3.521609    -0.175629     2.235797 
N       2.289999    -1.889329     1.912596 
C       1.627901    -1.960971     3.193847 
H       0.565129    -1.716072     3.097937 
H       1.732868    -2.960058     3.627922 
H       2.090873    -1.241025     3.870718 
O       0.110713    -5.379824    -0.600571 
C      -0.060207    -6.029414    -1.843593 
H      -0.452731    -5.344002    -2.605008 
H       0.880267    -6.466409    -2.201327 
H      -0.784207    -6.827001    -1.671255 
N       2.186397     0.917235    -1.376251 
C       1.909174     0.453824    -2.645245 
O       2.790178     0.321426    -3.472875 
C       0.462177     0.093370    -2.900892 
H       0.281742    -0.828825    -2.341259 
H       0.384978    -0.139828    -3.963460 
C      -0.594541     1.149668    -2.501669 
H      -0.771097     1.804404    -3.360420 
H      -1.532340     0.631655    -2.301077 
C      -0.234109     2.046761    -1.316859 
C      -1.190285     2.231292    -0.288742 
H      -1.291678     3.193485     0.212834 
C       4.328836    -0.133750    -0.648727 
H       4.590401    -0.637643    -1.582211 
H       5.268281     0.134794    -0.154079 
C       3.575162     1.166007    -0.982058 
H       3.556152     1.826873    -0.115699 
H       4.067625     1.686166    -1.805826 
C       0.501545     3.339887    -1.686577 
H       0.933725     3.778170    -0.781903 
H       1.341254     3.095368    -2.344027 
C      -0.388833     4.376800    -2.378568 
H      -1.222732     4.682296    -1.738481 
H       0.188855     5.273770    -2.621504 
H      -0.811351     3.994246    -3.312046 
O      -2.247013     1.414151    -0.229069 
C      -3.152460     1.619511     0.867094 
H      -2.579312     1.652463     1.798181 
H      -3.670491     2.575940     0.728507 
C      -4.128661     0.476474     0.886012 
C      -3.662932    -0.819910     1.106819 
C      -5.487921     0.691240     0.696844 
C      -4.552628    -1.883892     1.135970 
H      -2.599087    -0.984044     1.251320 
C      -6.381919    -0.374792     0.730063 
H      -5.853613     1.699405     0.520967 
C      -5.914702    -1.663409     0.949041 
H      -4.185802    -2.891443     1.306560 
H      -7.442432    -0.196422     0.582213 
H      -6.608846    -2.497601     0.973839 
C       1.144379     1.023031    -0.449134 
O       1.362327     1.867109     0.614066 
C       0.260631     1.562462     1.363162 
N       0.437660    -0.078895     0.012686 
N      -0.136913     0.303106     1.107932 
C       0.012730     2.264319     2.635020 
O      -0.818633     1.931951     3.442857 
O       0.808943     3.333961     2.762790 
C       0.635948     4.085326     3.974016 
H       0.834088     3.454716     4.843344 
H       1.357639     4.899119     3.917445 
H      -0.381959     4.476251     4.037321 
74
     -1835.283001     -1834.747768   4.61   4.81
C       2.024643    -2.193311     1.693168 
C       0.995222    -3.093775     1.347472 
C       0.020822    -3.389315     2.299718 
C       0.086628    -2.809699     3.555663 
C       1.131874    -1.921885     3.876414 
C       2.110415    -1.600061     2.948604 
C       2.310068    -2.789583    -0.436315 
C       1.199880    -3.465933    -0.028245 
H      -0.799664    -4.060114     2.063552 
H      -0.675389    -3.049235     4.286080 
H       2.895485    -0.903925     3.219617 
H       2.788004    -2.771461    -1.407118 
N       2.828512    -2.029851     0.594492 
C       3.911416    -1.081171     0.482997 
H       4.663888    -1.260892     1.257007 
H       4.385658    -1.200507    -0.492540 
H       3.540888    -0.054410     0.567566 
O       1.259351    -1.318681     5.097914 
C       0.295188    -1.612076     6.088162 
H       0.583747    -1.039380     6.970644 
H      -0.710544    -1.307334     5.773117 
H       0.287433    -2.680350     6.337486 
N      -1.165080    -2.247735    -1.052512 
C      -2.236074    -2.411365    -0.199194 
O      -2.790763    -3.487471    -0.085217 
C      -2.625435    -1.183009     0.593660 
H      -1.835769    -1.046381     1.337941 
H      -3.544363    -1.435939     1.123743 
C      -2.807028     0.127804    -0.206735 
H      -3.851597     0.197105    -0.525134 
H      -2.626074     0.964511     0.467961 
C      -1.942646     0.275773    -1.459486 
C      -1.234471     1.486023    -1.657305 
H      -1.110137     1.902824    -2.656551 
C       0.261330    -4.285540    -0.861823 
H      -0.383927    -4.877321    -0.208242 
H       0.805832    -4.989926    -1.499561 
C      -0.621637    -3.406478    -1.765189 
H      -0.044885    -3.030313    -2.609904 
H      -1.462943    -3.986651    -2.148950 
C      -2.575516    -0.262600    -2.747773 
H      -1.803800    -0.346333    -3.518975 
H      -2.943252    -1.276932    -2.565997 
C      -3.727778     0.599533    -3.272967 
H      -4.141492     0.166055    -4.188518 
H      -4.542857     0.677393    -2.547823 
H      -3.395311     1.615809    -3.507649 
O      -1.107048     2.339433    -0.635823 
C      -0.333424     3.523829    -0.885387 
H       0.624052     3.234430    -1.328105 
H      -0.877446     4.164343    -1.589731 
C      -0.119851     4.226360     0.426368 
C      -0.622428     5.502485     0.646409 
C       0.603236     3.590128     1.435638 
C      -0.405741     6.146297     1.861033 
H      -1.189257     5.999481    -0.136382 
C       0.816293     4.229208     2.648342 
H       0.991998     2.591197     1.260759 
C       0.313349     5.509702     2.863249 
H      -0.801694     7.143999     2.022815 
H       1.378246     3.729869     3.431724 
H       0.482831     6.008052     3.812590 
C      -0.540242    -0.998475    -1.126471 
O       0.202642    -0.758320    -2.258196 
C       0.788162     0.419797    -1.888215 
N       0.119472    -0.425647    -0.047761 
N       0.896013     0.480712    -0.548875 
C       1.683228     1.126961    -2.821195 
O       2.383325     2.059772    -2.514656 
O       1.595877     0.618724    -4.057514 
C       2.432610     1.248879    -5.039514 
H       3.482962     1.167048    -4.751894 
H       2.245972     0.712164    -5.968707 
H       2.169008     2.303682    -5.143761 
74
     -1835.280208     -1834.747763   6.36   4.82
C       4.056512    -3.341424    -1.314318 
C       2.981790    -2.462617    -1.097305 
C       1.828882    -2.954938    -0.464499 
C       1.786818    -4.273047    -0.074604 
C       2.881151    -5.136985    -0.301716 
C       4.032265    -4.689651    -0.924053 
C       4.623312    -1.339422    -2.125287 
C       3.366255    -1.178373    -1.628186 
H       0.975589    -2.310173    -0.280836 
H       0.913046    -4.687008     0.416208 
H       4.879749    -5.336889    -1.107070 
H       5.269595    -0.618731    -2.608588 
N       5.055234    -2.642873    -1.943824 
C       6.332642    -3.178335    -2.350268 
H       6.895367    -3.552990    -1.488478 
H       6.207640    -3.992355    -3.072428 
H       6.914861    -2.385580    -2.822802 
O       2.697089    -6.416833     0.138845 
C       3.751388    -7.337375    -0.053786 
H       3.976584    -7.471428    -1.119345 
H       4.660968    -7.020448     0.471874 
H       3.408501    -8.285363     0.362331 
N       1.463309     1.713398    -0.076624 
C       1.829149     3.046647    -0.053257 
O       2.993704     3.388535    -0.075852 
C       0.674610     4.025597    -0.033271 
H       0.217227     3.983278    -1.025726 
H       1.113698     5.015813     0.091418 
C      -0.414040     3.782996     1.036779 
H      -0.118461     4.302544     1.953153 
H      -1.336442     4.251646     0.693368 
C      -0.679012     2.324516     1.412690 
C      -2.012638     1.854909     1.414563 
H      -2.354000     1.136183     2.159037 
C       2.541534     0.071288    -1.591529 
H       1.528107    -0.146168    -1.948792 
H       2.957554     0.829870    -2.261509 
C       2.464393     0.650896    -0.174038 
H       2.216485    -0.132268     0.544944 
H       3.419647     1.089582     0.112604 
C       0.145202     1.806134     2.596179 
H       0.077252     0.714769     2.634329 
H       1.199676     2.045064     2.426808 
C      -0.288347     2.385393     3.946331 
H       0.335173     1.982705     4.750209 
H      -0.197081     3.474825     3.972718 
H      -1.328909     2.133818     4.175306 
O      -2.956008     2.580627     0.809021 
C      -4.288043     2.037152     0.817316 
H      -4.246123     0.995871     0.486110 
H      -4.680425     2.075629     1.840308 
C      -5.132483     2.860584    -0.114537 
C      -6.202227     3.609392     0.359766 
C      -4.841059     2.867707    -1.478837 
C      -6.981418     4.359588    -0.515894 
H      -6.430090     3.608481     1.422397 
C      -5.614731     3.618405    -2.352082 
H      -4.002644     2.282732    -1.845903 
C      -6.687658     4.365187    -1.872600 
H      -7.815861     4.940588    -0.135655 
H      -5.383299     3.622033    -3.412851 
H      -7.292241     4.950554    -2.558306 
C       0.109650     1.377868    -0.075992 
O      -0.193803     0.104199     0.339370 
C      -1.523393     0.084695     0.021111 
N      -0.737522     1.701276    -1.128734 
N      -1.765909     0.922606    -1.002824 
C      -2.335734    -1.104878     0.332092 
O      -3.499870    -1.226786     0.045699 
O      -1.618803    -2.020008     1.000254 
C      -2.333005    -3.211171     1.361393 
H      -2.691064    -3.725678     0.467241 
H      -1.615716    -3.829699     1.899336 
H      -3.183550    -2.966090     2.001088 
74
     -1835.282980     -1834.747708   4.62   4.85
C       2.156449    -2.525266    -0.649867 
C       2.488855    -1.670697    -1.713765 
C       2.066526    -2.018146    -3.004784 
C       1.351123    -3.176628    -3.195667 
C       1.031080    -4.019187    -2.108566 
C       1.425396    -3.708978    -0.819696 
C       3.289390    -0.796956     0.182305 
C       3.207028    -0.556592    -1.158149 
H       2.294198    -1.380048    -3.852984 
H       1.010868    -3.473212    -4.181730 
H       1.183741    -4.336137     0.028270 
H       3.738230    -0.203292     0.967343 
N       2.658324    -1.982366     0.503424 
C       2.457187    -2.503011     1.834739 
H       2.850347    -3.521336     1.918074 
H       2.992408    -1.870584     2.545147 
H       1.395547    -2.498403     2.102315 
O       0.314173    -5.134980    -2.443202 
C      -0.030379    -6.025574    -1.403460 
H       0.862361    -6.430057    -0.909840 
H      -0.667512    -5.538569    -0.654037 
H      -0.583692    -6.841754    -1.869818 
N       1.721937     2.164532    -1.406144 
C       1.207190     2.693014    -2.575112 
O       1.937764     2.949303    -3.511984 
C      -0.267692     3.056860    -2.652268 
H      -0.604014     2.722261    -3.636510 
H      -0.263272     4.152015    -2.701931 
C      -1.227156     2.572145    -1.565682 
H      -2.155856     3.148132    -1.633163 
H      -1.487244     1.527608    -1.735446 
C      -0.637309     2.703241    -0.169557 
C      -1.332948     2.077841     0.888775 
H      -1.334735     2.496920     1.894461 
C       3.686837     0.658635    -1.899111 
H       3.377016     0.601056    -2.945979 
H       4.782556     0.703405    -1.901164 
C       3.180889     1.982456    -1.317512 
H       3.458324     2.071094    -0.265820 
H       3.628578     2.812675    -1.863877 
C      -0.050224     4.060178     0.221451 
H       0.357591     3.980838     1.234307 
H       0.797236     4.306161    -0.423678 
C      -1.079132     5.193358     0.164312 
H      -0.634813     6.133875     0.503744 
H      -1.451454     5.352154    -0.852332 
H      -1.941119     4.980577     0.805168 
O      -2.312315     1.221045     0.588477 
C      -2.909986     0.511974     1.685793 
H      -2.115929     0.098746     2.314850 
H      -3.512252     1.210563     2.278425 
C      -3.763976    -0.587262     1.117435 
C      -5.131092    -0.628619     1.359839 
C      -3.173041    -1.585449     0.341882 
C      -5.909512    -1.657455     0.837892 
H      -5.594469     0.149878     1.960093 
C      -3.949714    -2.607762    -0.183518 
H      -2.104011    -1.549485     0.153457 
C      -5.319340    -2.647340     0.064474 
H      -6.976885    -1.681412     1.033986 
H      -3.487986    -3.380131    -0.791068 
H      -5.923237    -3.449973    -0.347113 
C       0.906126     1.586603    -0.421745 
O       1.389740     1.671696     0.870730 
C       0.540005     0.799165     1.478351 
N       0.340774     0.337214    -0.593546 
N       0.071663    -0.099159     0.599474 
C       0.595877     0.586193     2.932888 
O       0.028323    -0.308317     3.510890 
O       1.332769     1.529008     3.536247 
C       1.430715     1.411627     4.963106 
H       2.062268     2.240036     5.281155 
H       0.441329     1.484001     5.420083 
H       1.883554     0.456050     5.236469 
74
     -1835.281337     -1834.747644   5.65   4.89
C       4.729846     2.331629    -2.628986 
C       4.228578     1.320294    -1.792539 
C       5.052397     0.812171    -0.775729 
C       6.322189     1.320214    -0.627347 
C       6.805290     2.338020    -1.479806 
C       6.022670     2.861611    -2.493272 
C       2.643499     1.863792    -3.277832 
C       2.885544     1.032034    -2.227525 
H       4.692647     0.030717    -0.112683 
H       6.987300     0.954222     0.146694 
H       6.377535     3.640910    -3.154759 
H       1.754724     1.965225    -3.886485 
N       3.751180     2.656784    -3.533974 
C       3.861733     3.650625    -4.574653 
H       4.050411     4.643890    -4.153089 
H       4.669124     3.403505    -5.272509 
H       2.924220     3.686159    -5.131978 
O       8.083214     2.743363    -1.213794 
C       8.633711     3.760044    -2.025016 
H       9.643908     3.934248    -1.652633 
H       8.685414     3.450164    -3.076503 
H       8.056092     4.690084    -1.949460 
N       0.802306    -0.570981     0.514077 
C       1.573897    -1.436432     1.256476 
O       2.787263    -1.341974     1.250518 
C       0.907339    -2.544393     2.052358 
H       1.355574    -2.500903     3.048123 
H       1.280775    -3.469574     1.601704 
C      -0.616503    -2.559780     2.153254 
H      -0.937255    -3.540927     2.519477 
H      -0.954858    -1.818402     2.877266 
C      -1.277403    -2.281498     0.806528 
C      -2.677877    -2.097702     0.816365 
H      -3.317297    -2.401004    -0.006373 
C       1.964622     0.031998    -1.600939 
H       2.491309    -0.920138    -1.472739 
H       1.100408    -0.156617    -2.244434 
C       1.485119     0.502889    -0.223814 
H       2.331932     0.828570     0.379559 
H       0.792605     1.341451    -0.317680 
C      -0.715139    -3.104815    -0.364456 
H       0.232029    -2.667060    -0.691272 
H      -0.460940    -4.090449     0.044434 
C      -1.603674    -3.304938    -1.593804 
H      -1.046443    -3.865044    -2.350227 
H      -2.497083    -3.892082    -1.357862 
H      -1.914345    -2.359920    -2.044811 
O      -3.269675    -1.888273     1.993960 
C      -4.677682    -1.602871     1.960739 
H      -4.857914    -0.825895     1.212525 
H      -5.220066    -2.511668     1.675036 
C      -5.094536    -1.132359     3.326016 
C      -6.025107    -1.842760     4.073949 
C      -4.546058     0.040794     3.845194 
C      -6.412802    -1.389264     5.331153 
H      -6.451163    -2.758883     3.673498 
C      -4.929343     0.491109     5.100164 
H      -3.817498     0.592568     3.258581 
C      -5.864546    -0.222267     5.845336 
H      -7.141311    -1.950409     5.907980 
H      -4.499463     1.403665     5.501615 
H      -6.163439     0.133411     6.826403 
C      -0.597641    -0.530463     0.543751 
O      -1.199948    -0.301978    -0.685811 
C      -2.450422     0.004908    -0.255934 
N      -1.246017     0.245213     1.487655 
N      -2.422313     0.498973     0.987711 
C      -3.504293     0.190070    -1.267839 
O      -3.372597    -0.122480    -2.425144 
O      -4.618696     0.709406    -0.740518 
C      -5.689983     0.930214    -1.670196 
H      -6.503266     1.354717    -1.082866 
H      -5.375453     1.626347    -2.450469 
H      -5.996348    -0.011796    -2.130340 
74
     -1835.282081     -1834.747362   5.18   5.07
C       1.428864    -2.748206     1.342123 
C       2.575280    -2.089760     0.850127 
C       3.191264    -2.595321    -0.293668 
C       2.679158    -3.721793    -0.914630 
C       1.532586    -4.357922    -0.400641 
C       0.892669    -3.878128     0.731271 
C       1.845486    -1.001277     2.662248 
C       2.817892    -0.959779     1.707581 
H       4.070056    -2.111929    -0.709179 
H       3.168828    -4.102335    -1.801748 
H       0.008755    -4.384408     1.101391 
H       1.659479    -0.329754     3.490047 
N       1.000382    -2.073972     2.455826 
C      -0.203325    -2.364425     3.197782 
H      -1.091870    -2.225716     2.573458 
H      -0.183962    -3.389443     3.581269 
H      -0.269226    -1.681444     4.046633 
O       0.971398    -5.471146    -0.966869 
C       1.606279    -6.032611    -2.097152 
H       1.017642    -6.909393    -2.370924 
H       1.622312    -5.331314    -2.940697 
H       2.632919    -6.343946    -1.867651 
N       2.423182     1.751166     0.279972 
C       3.005792     2.090431    -0.926312 
O       4.215281     2.138219    -1.036380 
C       2.128754     2.510719    -2.096260 
H       2.546199     2.011209    -2.973869 
H       2.363091     3.573621    -2.226830 
C       0.616122     2.298456    -2.029019 
H       0.140018     2.909772    -2.802578 
H       0.373828     1.259257    -2.250191 
C       0.040384     2.649072    -0.665324 
C      -1.298219     2.277016    -0.410887 
H      -1.939476     2.874961     0.235949 
C       3.869813     0.094823     1.518837 
H       4.438107    -0.108051     0.607293 
H       4.590292     0.079273     2.345414 
C       3.310452     1.518544     1.432395 
H       2.746385     1.764463     2.333484 
H       4.134356     2.226158     1.337090 
C       0.399897     4.015629    -0.080033 
H      -0.059513     4.098602     0.910241 
H       1.478298     4.085935     0.083795 
C      -0.057084     5.180789    -0.962973 
H       0.168625     6.138246    -0.483859 
H       0.443493     5.172423    -1.936000 
H      -1.136462     5.143681    -1.143416 
O      -1.905635     1.446509    -1.262208 
C      -3.228810     1.015134    -0.902131 
H      -3.224523     0.696991     0.144589 
H      -3.922204     1.855988    -1.020783 
C      -3.609713    -0.127921    -1.800871 
C      -2.892223    -1.322711    -1.734494 
C      -4.671044    -0.015564    -2.690130 
C      -3.239060    -2.388001    -2.552658 
H      -2.061477    -1.405885    -1.039699 
C      -5.021711    -1.084948    -3.508608 
H      -5.229310     0.915196    -2.745841 
C      -4.305297    -2.271931    -3.440687 
H      -2.678135    -3.315958    -2.498968 
H      -5.853155    -0.987765    -4.199691 
H      -4.574755    -3.107944    -4.078534 
C       1.066217     1.411367     0.387537 
O       0.480885     1.696901     1.606862 
C      -0.682116     1.005300     1.457141 
N       0.587936     0.190207    -0.049464 
N      -0.525769    -0.004552     0.588543 
C      -1.721412     1.049218     2.497735 
O      -2.674210     0.309820     2.537082 
O      -1.489619     2.032521     3.378134 
C      -2.461661     2.158928     4.426378 
H      -3.447312     2.374119     4.007940 
H      -2.512750     1.237721     5.010939 
H      -2.117611     2.986869     5.044746 
74
     -1835.281287     -1834.747294   5.68   5.11
C      -4.136638    -2.763693    -0.799636 
C      -2.745406    -2.525441    -0.846525 
C      -2.064512    -2.339896     0.357003 
C      -2.758832    -2.381363     1.554281 
C      -4.147295    -2.616413     1.570010 
C      -4.853492    -2.811686     0.393925 
C      -3.501662    -2.775479    -2.938229 
C      -2.359867    -2.535925    -2.236200 
H      -0.996761    -2.150810     0.367694 
H      -2.216188    -2.232705     2.478977 
H      -5.921894    -2.990468     0.434538 
H      -3.646482    -2.852516    -4.007954 
N      -4.582490    -2.918252    -2.087273 
C      -5.952903    -3.145257    -2.478097 
H      -6.590301    -2.304194    -2.184622 
H      -6.000029    -3.253447    -3.563060 
H      -6.343565    -4.060727    -2.021743 
O      -4.890562    -2.670644     2.717534 
C      -4.224956    -2.484683     3.950300 
H      -3.461180    -3.254687     4.114857 
H      -3.757855    -1.493812     4.009559 
H      -4.990766    -2.567410     4.722814 
N      -0.705621     0.034108    -1.843269 
C      -1.814723     0.702791    -1.347831 
O      -2.859156     0.747397    -1.961251 
C      -1.616676     1.338049     0.010836 
H      -1.489695     0.516049     0.719896 
H      -2.550072     1.847508     0.251804 
C      -0.422067     2.310305     0.135080 
H      -0.768544     3.319147    -0.108571 
H      -0.101479     2.328679     1.176594 
C       0.770579     2.012291    -0.770657 
C       2.069605     2.042598    -0.212550 
H       2.913942     2.423595    -0.786855 
C      -1.009678    -2.238622    -2.818525 
H      -0.894963    -2.763704    -3.772973 
H      -0.217841    -2.609612    -2.157656 
C      -0.793085    -0.741186    -3.081788 
H       0.122021    -0.583609    -3.655099 
H      -1.634840    -0.335134    -3.643808 
C       0.699076     2.644533    -2.164988 
H       1.449705     2.179030    -2.810771 
H      -0.274798     2.421547    -2.611215 
C       0.907324     4.162239    -2.159906 
H       0.148853     4.676303    -1.562942 
H       1.887948     4.432042    -1.754928 
H       0.848803     4.557311    -3.178553 
O       2.204617     2.048756     1.118320 
C       3.549072     2.062033     1.627098 
H       4.122719     1.273087     1.132825 
H       4.004522     3.033999     1.403391 
C       3.487940     1.824409     3.110162 
C       3.893272     2.801068     4.011107 
C       3.022202     0.599738     3.589117 
C       3.839552     2.562718     5.381175 
H       4.253843     3.757354     3.641495 
C       2.964399     0.362469     4.954760 
H       2.704263    -0.160796     2.881849 
C       3.374271     1.343312     5.854044 
H       4.159514     3.331890     6.077189 
H       2.599813    -0.591686     5.322808 
H       3.329408     1.154662     6.922109 
C       0.512536     0.129718    -1.167843 
O       1.643687    -0.036159    -1.932549 
C       2.578251    -0.060215    -0.937198 
N       0.740621    -0.465978     0.065273 
N       2.028401    -0.517535     0.201712 
C       4.013313    -0.158682    -1.269166 
O       4.885874    -0.331939    -0.456766 
O       4.217834     0.012726    -2.580981 
C       5.589313    -0.056013    -3.001035 
H       6.175220     0.727364    -2.515424 
H       6.013637    -1.030746    -2.751581 
H       5.570926     0.090289    -4.080121 
74
     -1835.283295     -1834.747285   4.42   5.12
C      -0.344700    -1.234478    -3.442086 
C      -0.728808     0.117278    -3.486206 
C      -2.092198     0.426268    -3.360618 
C      -3.003364    -0.585770    -3.188555 
C      -2.590075    -1.935633    -3.133557 
C      -1.258676    -2.283780    -3.262252 
C       1.488952    -0.009029    -3.743835 
C       0.468925     0.892893    -3.667718 
H      -2.431203     1.456552    -3.383188 
H      -4.061262    -0.376552    -3.078405 
H      -0.923253    -3.312184    -3.235313 
H       2.550178     0.157575    -3.873384 
N       1.014577    -1.296685    -3.606271 
C       1.813924    -2.500016    -3.639115 
H       2.830116    -2.237817    -3.938366 
H       1.854590    -2.971221    -2.652760 
H       1.414050    -3.207310    -4.372415 
O      -3.601683    -2.835493    -2.951090 
C      -3.259495    -4.203519    -2.893375 
H      -2.581372    -4.410446    -2.055432 
H      -4.192879    -4.747174    -2.741892 
H      -2.792894    -4.540336    -3.827752 
N       0.323917     2.996758    -1.215864 
C      -0.093202     4.228827    -0.738627 
O       0.237484     5.267290    -1.275692 
C      -1.001395     4.183495     0.472064 
H      -1.957387     3.778744     0.130300 
H      -1.161488     5.220055     0.769958 
C      -0.499544     3.348552     1.673973 
H       0.099464     3.997642     2.320513 
H      -1.367018     3.036772     2.255367 
C       0.358788     2.134600     1.325762 
C       0.059151     0.882672     1.911339 
H       0.856921     0.196053     2.185493 
C       0.619672     2.387467    -3.644452 
H      -0.347904     2.875081    -3.796833 
H       1.264339     2.707046    -4.470515 
C       1.249861     2.926203    -2.348699 
H       2.105480     2.306370    -2.066850 
H       1.594512     3.948328    -2.501079 
C       1.865488     2.413292     1.260625 
H       2.363914     1.585721     0.746772 
H       2.038837     3.307826     0.653662 
C       2.505883     2.612670     2.638426 
H       3.578953     2.802339     2.537274 
H       2.069943     3.462910     3.171058 
H       2.381604     1.727170     3.270169 
O      -1.103991     0.740837     2.575890 
C      -1.348001    -0.540825     3.160198 
H      -2.312562    -0.429317     3.660488 
H      -1.451175    -1.284664     2.366693 
C      -0.275019    -0.942722     4.146880 
C       0.117591    -0.061105     5.153186 
C       0.336367    -2.187948     4.061021 
C       1.105571    -0.421860     6.057627 
H      -0.353656     0.915095     5.221584 
C       1.323483    -2.555740     4.970503 
H       0.039266    -2.876484     3.275173 
C       1.710209    -1.673001     5.969351 
H       1.404367     0.272317     6.836840 
H       1.790943    -3.532466     4.895377 
H       2.481042    -1.956309     6.678824 
C      -0.077635     1.845494    -0.530066 
O       0.674668     0.716395    -0.708098 
C      -0.132247    -0.187556    -0.080180 
N      -1.414743     1.473667    -0.453547 
N      -1.416136     0.226119    -0.117926 
C       0.322871    -1.587064    -0.066986 
O       1.439149    -1.930536    -0.367130 
O      -0.643794    -2.426971     0.332383 
C      -0.290751    -3.812919     0.311183 
H      -1.170452    -4.349457     0.666138 
H      -0.041970    -4.124418    -0.706213 
H       0.566891    -4.005564     0.960243 
74
     -1835.279896     -1834.747188   6.56   5.18
C       3.900600     1.332899    -3.784236 
C       2.848118     0.950798    -2.925942 
C       3.166351     0.372261    -1.695200 
C       4.492988     0.190555    -1.343862 
C       5.523615     0.583445    -2.219874 
C       5.242423     1.158227    -3.449847 
C       1.967247     1.826163    -4.790399 
C       1.612090     1.277637    -3.596776 
H       2.389798     0.060228    -1.005091 
H       4.720466    -0.259354    -0.386312 
H       6.057458     1.449453    -4.102486 
H       1.339373     2.203674    -5.586823 
N       3.345996     1.866728    -4.920611 
C       4.082240     2.374384    -6.052951 
H       4.698291     1.589902    -6.505515 
H       3.376699     2.735521    -6.803172 
H       4.731307     3.206180    -5.758871 
O       6.852913     0.432641    -1.934368 
C       7.205611    -0.145988    -0.693690 
H       8.296045    -0.169993    -0.671446 
H       6.839968     0.454338     0.148425 
H       6.819649    -1.168721    -0.602657 
N      -1.281554     1.699531    -1.182315 
C      -2.437135     2.452414    -1.286961 
O      -2.500687     3.429138    -2.004841 
C      -3.604953     1.945103    -0.467250 
H      -3.936279     1.016502    -0.939951 
H      -4.401108     2.681354    -0.580226 
C      -3.327138     1.678559     1.031261 
H      -3.523623     2.599267     1.588779 
H      -4.045038     0.937607     1.382905 
C      -1.907122     1.234308     1.380155 
C      -1.726967     0.114427     2.223998 
H      -0.910592     0.087289     2.945224 
C       0.233949     1.073691    -3.046688 
H       0.137476     0.048004    -2.672031 
H      -0.519441     1.197343    -3.830602 
C      -0.063694     2.058789    -1.910039 
H       0.771596     2.088925    -1.207260 
H      -0.216962     3.063409    -2.302622 
C      -0.930315     2.376616     1.683003 
H       0.093451     1.990387     1.665400 
H      -0.994481     3.122586     0.884971 
C      -1.188745     3.063428     3.027590 
H      -0.465268     3.868401     3.188006 
H      -2.188419     3.504289     3.075910 
H      -1.094695     2.361250     3.862200 
O      -2.769248    -0.690012     2.470512 
C      -2.528413    -1.784366     3.366295 
H      -1.588113    -2.267647     3.087170 
H      -2.443556    -1.396435     4.388338 
C      -3.671082    -2.754993     3.253053 
C      -3.907249    -3.399318     2.038319 
C      -4.487015    -3.028889     4.343664 
C      -4.951114    -4.306086     1.924155 
H      -3.270228    -3.179619     1.186504 
C      -5.531485    -3.941416     4.230690 
H      -4.307391    -2.525501     5.289966 
C      -5.764494    -4.580282     3.020463 
H      -5.133208    -4.804217     0.976822 
H      -6.163204    -4.149941     5.088473 
H      -6.579505    -5.291345     2.928343 
C      -1.259658     0.601861    -0.322296 
O      -0.022126     0.187889     0.100115 
C      -0.380700    -0.973471     0.723302 
N      -2.041740    -0.527120    -0.539817 
N      -1.501960    -1.469960     0.164341 
C       0.708557    -1.744397     1.350424 
O       1.825711    -1.312900     1.491144 
O       0.302637    -2.953218     1.753485 
C       1.316518    -3.773129     2.354582 
H       2.118984    -3.965247     1.639424 
H       1.730850    -3.282222     3.237834 
H       0.816727    -4.701613     2.627776 
74
     -1835.280534     -1834.747074   6.15   5.25
C       4.653988     3.208997    -1.918954 
C       4.181143     2.038155    -1.289481 
C       4.960811     1.446874    -0.294322 
C       6.173014     2.020123     0.053326 
C       6.622089     3.189955    -0.590100 
C       5.871049     3.799638    -1.583349 
C       2.675227     2.683224    -2.816781 
C       2.906818     1.718640    -1.885766 
H       4.622522     0.545650     0.209187 
H       6.770257     1.555523     0.826850 
H       6.244138     4.699080    -2.059645 
H       1.830984     2.808446    -3.482079 
N       3.721982     3.592061    -2.850711 
C       3.825955     4.742435    -3.715514 
H       2.937020     4.794738    -4.346455 
H       3.892157     5.667698    -3.133021 
H       4.706633     4.670142    -4.362853 
O       7.808368     3.803888    -0.292603 
C       8.620266     3.232767     0.713366 
H       8.933184     2.215212     0.448549 
H       9.501730     3.871050     0.788645 
H       8.105886     3.212114     1.682111 
N       0.789537    -0.457352     0.393641 
C       1.588082    -1.355317     1.065156 
O       2.783194    -1.154350     1.178960 
C       0.980224    -2.627350     1.628802 
H       1.347478    -2.698139     2.655683 
H       1.477289    -3.435218     1.082185 
C      -0.537553    -2.793352     1.592171 
H      -0.783493    -3.843836     1.780965 
H      -1.001264    -2.205629     2.384553 
C      -1.122677    -2.370280     0.248083 
C      -2.531435    -2.315172     0.161831 
H      -3.074914    -2.543184    -0.749424 
C       2.034879     0.564307    -1.502271 
H       2.634345    -0.352394    -1.473486 
H       1.242411     0.413199    -2.240933 
C       1.412821     0.773125    -0.117307 
H       2.177211     1.074858     0.598074 
H       0.648745     1.552178    -0.146179 
C      -0.395689    -2.949543    -0.977129 
H       0.523837    -2.384232    -1.151688 
H      -0.073929    -3.960044    -0.696690 
C      -1.166779    -3.035219    -2.295806 
H      -0.501842    -3.420107    -3.074347 
H      -2.011332    -3.728560    -2.228059 
H      -1.537182    -2.063120    -2.628689 
O      -3.226151    -2.343483     1.300911 
C      -4.649512    -2.182363     1.186429 
H      -4.851849    -1.318173     0.547490 
H      -5.074976    -3.080557     0.723875 
C      -5.210820    -1.967334     2.564045 
C      -6.117222    -2.864530     3.114967 
C      -4.823225    -0.844506     3.295955 
C      -6.639925    -2.646973     4.386177 
H      -6.418028    -3.741926     2.548523 
C      -5.341068    -0.629340     4.564885 
H      -4.113061    -0.146259     2.862959 
C      -6.251562    -1.529449     5.112239 
H      -7.348368    -3.352930     4.808163 
H      -5.036184     0.244729     5.132132 
H      -6.656018    -1.357592     6.104820 
C      -0.605830    -0.546273     0.305973 
O      -1.136121    -0.184865    -0.924831 
C      -2.439393    -0.060127    -0.566033 
N      -1.396546     0.013638     1.292870 
N      -2.552662     0.236310     0.734228 
C      -3.429339     0.185018    -1.628481 
O      -3.181960     0.068155    -2.803024 
O      -4.626256     0.515576    -1.130723 
C      -5.643077     0.781564    -2.108505 
H      -5.343971     1.615156    -2.747264 
H      -5.817982    -0.101360    -2.727235 
H      -6.536086     1.036216    -1.539053 
74
     -1835.280193     -1834.746853   6.37   5.39
C       5.250026     2.315469     0.934707 
C       3.876400     2.237372     1.247551 
C       3.437616     2.726048     2.478975 
C       4.354518     3.270942     3.362812 
C       5.720835     3.336242     3.026582 
C       6.187201     2.861002     1.810510 
C       4.192538     1.367313    -0.791485 
C       3.216178     1.624853     0.120214 
H       2.386244     2.678507     2.747884 
H       4.005136     3.646065     4.315742 
H       7.244690     2.925703     1.581162 
H       4.115935     0.913398    -1.770883 
N       5.428482     1.779106    -0.315759 
C       6.688972     1.672330    -1.009592 
H       7.133077     2.660057    -1.174209 
H       7.398062     1.057233    -0.445068 
H       6.521869     1.202851    -1.980528 
O       6.675098     3.861977     3.854901 
C       6.264384     4.361824     5.111326 
H       5.810738     3.576240     5.728218 
H       7.168267     4.726037     5.601656 
H       5.554147     5.190747     5.002126 
N      -0.087674     0.045010     1.140569 
C      -0.696462     0.890469     2.049540 
O      -0.033103     1.646426     2.732962 
C      -2.198492     0.810565     2.256701 
H      -2.531674     1.842353     2.388497 
H      -2.314463     0.334489     3.236683 
C      -3.050988     0.102562     1.206900 
H      -4.057094    -0.047705     1.613588 
H      -3.151982     0.728730     0.320240 
C      -2.463437    -1.244647     0.803754 
C      -3.056467    -1.881650    -0.308800 
H      -3.129075    -2.960888    -0.398389 
C       1.753474     1.320354     0.027206 
H       1.474174     1.065688    -0.998809 
H       1.173403     2.206197     0.307477 
C       1.369491     0.172728     0.969632 
H       1.752058    -0.777837     0.595474 
H       1.789513     0.343744     1.959728 
C      -2.077623    -2.152758     1.981118 
H      -1.132045    -1.807894     2.407893 
H      -2.832905    -1.987557     2.759607 
C      -1.972801    -3.656996     1.722296 
H      -1.650267    -4.157738     2.639702 
H      -2.938636    -4.091148     1.444604 
H      -1.244316    -3.894827     0.944035 
O      -3.878701    -1.163391    -1.076223 
C      -4.392961    -1.817441    -2.251136 
H      -3.561315    -2.287174    -2.783890 
H      -5.106786    -2.590114    -1.942996 
C      -5.061319    -0.777956    -3.106724 
C      -4.301495     0.261444    -3.644209 
C      -6.422514    -0.840636    -3.377502 
C      -4.904258     1.223600    -4.441373 
H      -3.237823     0.307566    -3.429874 
C      -7.027138     0.121952    -4.180444 
H      -7.017941    -1.647129    -2.957722 
C      -6.268390     1.155430    -4.712350 
H      -4.309545     2.031510    -4.856659 
H      -8.091291     0.063650    -4.386948 
H      -6.736829     1.909049    -5.337668 
C      -0.792126    -0.600235     0.113462 
O      -0.287064    -1.834938    -0.260319 
C      -0.985105    -2.008333    -1.415432 
N      -1.149387     0.083402    -1.033530 
N      -1.326849    -0.827651    -1.946764 
C      -0.901649    -3.268814    -2.174852 
O      -1.473149    -3.466426    -3.217377 
O      -0.144265    -4.173018    -1.539722 
C      -0.015643    -5.438794    -2.205052 
H      -0.994614    -5.909148    -2.319449 
H       0.437233    -5.304952    -3.189563 
H       0.627902    -6.040434    -1.564739 
74
     -1835.279834     -1834.746448   6.59   5.64
C       3.878683     3.557965    -2.614534 
C       3.579031     2.286175    -2.082203 
C       4.607568     1.536591    -1.509405 
C       5.891534     2.055319    -1.473872 
C       6.164192     3.328331    -2.011697 
C       5.164207     4.096032    -2.588703 
C       1.695925     3.174066    -2.908209 
C       2.168408     2.060997    -2.284797 
H       4.407334     0.554507    -1.090382 
H       6.682498     1.467647    -1.026753 
H       5.406008     5.071885    -2.994026 
H       0.690458     3.404952    -3.235007 
N       2.716801     4.089141    -3.116057 
C       2.591412     5.377911    -3.752822 
H       3.216600     5.436172    -4.650378 
H       1.551291     5.530199    -4.046050 
H       2.880214     6.183927    -3.069654 
O       7.409482     3.895719    -2.007369 
C       8.472861     3.164523    -1.431253 
H       8.292612     2.962194    -0.368214 
H       8.640083     2.216001    -1.956427 
H       9.359880     3.791524    -1.531818 
N       0.786303    -0.517446     0.135866 
C       1.714958    -1.512407     0.344734 
O       2.890948    -1.320953     0.096068 
C       1.261715    -2.872331     0.844787 
H       1.940351    -3.124877     1.663330 
H       1.512167    -3.561798     0.032002 
C      -0.190591    -3.045878     1.283454 
H      -0.410261    -4.115978     1.363650 
H      -0.341557    -2.610422     2.271366 
C      -1.163654    -2.402030     0.300659 
C      -2.517072    -2.347899     0.699640 
H      -3.343404    -2.412019    -0.000954 
C       1.413012     0.844220    -1.850241 
H       1.949254    -0.054264    -2.175180 
H       0.421530     0.817273    -2.311408 
C       1.272083     0.792502    -0.325138 
H       2.237051     0.969790     0.148743 
H       0.575552     1.554834     0.028742 
C      -0.905239    -2.746517    -1.174439 
H      -0.064375    -2.152079    -1.542615 
H      -0.563109    -3.788483    -1.195393 
C      -2.066481    -2.599959    -2.159494 
H      -2.883848    -3.291565    -1.931777 
H      -2.463427    -1.582729    -2.184957 
H      -1.715670    -2.842214    -3.166851 
O      -2.799700    -2.579307     1.980691 
C      -4.175113    -2.409431     2.374827 
H      -4.533738    -1.451455     1.987916 
H      -4.770285    -3.220702     1.940169 
C      -4.235504    -2.442324     3.876230 
C      -4.935046    -3.440944     4.542272 
C      -3.586046    -1.450868     4.612385 
C      -4.992794    -3.454576     5.932684 
H      -5.439334    -4.216562     3.971934 
C      -3.639907    -1.466140     5.998539 
H      -3.039614    -0.672126     4.088491 
C      -4.344395    -2.467400     6.661899 
H      -5.542820    -4.238587     6.443802 
H      -3.132199    -0.693423     6.567725 
H      -4.385778    -2.475698     7.746618 
C      -0.563722    -0.601797     0.499650 
O      -1.445474    -0.031204    -0.409935 
C      -2.557583     0.005460     0.370924 
N      -0.965819    -0.240218     1.769941 
N      -2.230902     0.058056     1.666322 
C      -3.864849     0.410178    -0.174264 
O      -4.880465     0.452843     0.473446 
O      -3.785550     0.686903    -1.482991 
C      -5.020447     1.081775    -2.099906 
H      -5.409458     1.984688    -1.624851 
H      -4.776733     1.271603    -3.144274 
H      -5.760039     0.282699    -2.015210 
74
     -1835.280353     -1834.746264   6.27   5.76
C      -1.265472    -3.155159     1.330451 
C      -1.138473    -3.409512    -0.054813 
C      -0.309470    -4.457366    -0.458201 
C       0.353023    -5.220629     0.487958 
C       0.198540    -4.949100     1.860764 
C      -0.610485    -3.911552     2.298610 
C      -2.504665    -1.656201     0.234344 
C      -1.946802    -2.428109    -0.737841 
H      -0.157418    -4.672966    -1.509674 
H       0.995108    -6.025339     0.154856 
H      -0.711817    -3.726635     3.362023 
H      -3.145826    -0.790595     0.132640 
N      -2.103965    -2.081282     1.488612 
C      -2.482338    -1.487068     2.748043 
H      -3.133603    -0.633746     2.554023 
H      -3.023162    -2.203159     3.375826 
H      -1.601962    -1.133469     3.295470 
O       0.819473    -5.664841     2.846414 
C       1.653576    -6.739950     2.462773 
H       2.036665    -7.170493     3.388955 
H       1.093603    -7.505972     1.912490 
H       2.495235    -6.396308     1.848968 
N       0.212283    -1.318447    -2.525392 
C       1.508288    -1.814738    -2.601230 
O       1.729348    -2.992718    -2.794129 
C       2.625102    -0.792957    -2.538282 
H       2.591875    -0.283345    -3.506864 
H       3.552233    -1.365431    -2.499873 
C       2.589731     0.266151    -1.417949 
H       3.206074    -0.085797    -0.584923 
H       3.055568     1.177127    -1.792154 
C       1.209909     0.577257    -0.855750 
C       0.846639     1.924067    -0.642648 
H       0.234585     2.206113     0.211137 
C      -2.157664    -2.240778    -2.209003 
H      -2.779793    -1.355284    -2.354237 
H      -2.721376    -3.087151    -2.621939 
C      -0.886091    -2.134233    -3.066846 
H      -0.447519    -3.117694    -3.223586 
H      -1.157733    -1.735563    -4.052172 
C       0.750570    -0.358873     0.263900 
H      -0.321378    -0.231402     0.423346 
H       0.890851    -1.398375    -0.043849 
C       1.485090    -0.127262     1.587008 
H       2.565772    -0.267461     1.490230 
H       1.314866     0.883978     1.971443 
H       1.128520    -0.839119     2.337375 
O       1.621237     2.892839    -1.168466 
C       1.211434     4.242048    -0.933459 
H       1.979864     4.843855    -1.423894 
H       0.257670     4.421673    -1.434983 
C       1.123594     4.581465     0.537590 
C       0.005701     5.231673     1.047000 
C       2.167965     4.249932     1.399811 
C      -0.071596     5.552512     2.398962 
H      -0.811511     5.491839     0.380874 
C       2.092463     4.564680     2.748913 
H       3.042789     3.739555     1.007791 
C       0.971119     5.218739     3.252057 
H      -0.948598     6.063225     2.783887 
H       2.911368     4.302350     3.411392 
H       0.913284     5.466782     4.307004 
C       0.033010     0.053303    -2.329380 
O      -1.138407     0.433515    -1.728231 
C      -1.049611     1.779211    -1.890698 
N       0.345996     0.994834    -3.297666 
N      -0.299414     2.071909    -2.971805 
C      -2.143583     2.572820    -1.299119 
O      -2.926806     2.114584    -0.504433 
O      -2.148161     3.839704    -1.725691 
C      -3.223482     4.647295    -1.222107 
H      -4.183760     4.238059    -1.542810 
H      -3.197195     4.684662    -0.130792 
H      -3.070880     5.638322    -1.648052 
74
     -1835.283025     -1834.746089   4.59   5.87
C       1.263439    -2.940966     0.114726 
C       2.192589    -2.294073    -0.726822 
C       2.002419    -2.369281    -2.105913 
C       0.906305    -3.045234    -2.616310 
C      -0.015679    -3.663991    -1.750556 
C       0.153374    -3.622551    -0.375348 
C       2.801048    -1.965223     1.399578 
C       3.166177    -1.659071     0.124594 
H       2.704444    -1.897463    -2.786008 
H       0.772736    -3.095582    -3.689400 
H      -0.572274    -4.107211     0.267374 
H       3.253801    -1.666229     2.335968 
N       1.662928    -2.747124     1.411012 
C       0.923288    -3.156519     2.579842 
H       1.463832    -2.836473     3.471903 
H      -0.070362    -2.696590     2.591170 
H       0.812583    -4.245285     2.613380 
O      -1.121023    -4.342820    -2.187211 
C      -1.337208    -4.434627    -3.580425 
H      -1.467290    -3.443896    -4.033511 
H      -0.512213    -4.955702    -4.081727 
H      -2.255119    -5.010313    -3.706960 
N       2.441310     0.998927    -0.876015 
C       2.346589     0.839222    -2.240668 
O       3.351335     0.659157    -2.904715 
C       0.992626     0.893679    -2.923354 
H       0.944165    -0.006478    -3.540191 
H       1.058209     1.733020    -3.622657 
C      -0.246658     0.996316    -2.041957 
H      -1.115434     1.231162    -2.665231 
H      -0.444427     0.036726    -1.560500 
C      -0.066319     2.064365    -0.971190 
C      -1.090600     2.201893    -0.010535 
H      -1.356412     3.166989     0.417745 
C       4.227863    -0.697662    -0.315184 
H       4.541070    -0.928003    -1.335027 
H       5.115136    -0.781577     0.321876 
C       3.759835     0.769078    -0.253467 
H       3.674182     1.087058     0.786436 
H       4.487052     1.412673    -0.753359 
C       0.499460     3.414680    -1.417688 
H       0.585472     4.060009    -0.538230 
H       1.517746     3.297223    -1.797942 
C      -0.368850     4.102573    -2.474912 
H      -0.436004     3.515103    -3.395136 
H      -1.387920     4.260754    -2.107050 
H       0.047072     5.080182    -2.735966 
O      -1.973521     1.215805     0.123054 
C      -2.930203     1.349533     1.194800 
H      -2.415103     1.722261     2.083993 
H      -3.696109     2.070237     0.887062 
C      -3.531461    -0.003177     1.451962 
C      -4.773684    -0.344643     0.929100 
C      -2.829373    -0.935682     2.214139 
C      -5.313885    -1.605034     1.159963 
H      -5.322825     0.380620     0.334655 
C      -3.367967    -2.193273     2.447040 
H      -1.857887    -0.662041     2.614740 
C      -4.610515    -2.531355     1.919455 
H      -6.283833    -1.862603     0.746325 
H      -2.821437    -2.915976     3.045611 
H      -5.029355    -3.515910     2.102788 
C       1.355087     1.223558    -0.010407 
O       1.550587     2.255742     0.908236 
C       0.517500     1.992724     1.749269 
N       0.747545     0.179829     0.651819 
N       0.176181     0.704173     1.700937 
C       0.151929     2.914778     2.837188 
O      -0.752458     2.714618     3.610373 
O       0.918573     4.012424     2.830711 
C       0.619513     4.974008     3.854061 
H       1.331068     5.785555     3.708075 
H      -0.405458     5.336123     3.747869 
H       0.742792     4.526872     4.842743 
74
     -1835.281005     -1834.746079   5.86   5.87
C      -2.411580     2.633627    -0.887590 
C      -3.255959     1.518567    -0.726331 
C      -4.304737     1.611004     0.202115 
C      -4.483789     2.775303     0.910906 
C      -3.629717     3.883326     0.720670 
C      -2.578549     3.831564    -0.177816 
C      -1.690021     1.019582    -2.249450 
C      -2.771862     0.490748    -1.613419 
H      -4.963879     0.769477     0.382234 
H      -5.282966     2.872336     1.636874 
H      -1.913584     4.670065    -0.339101 
H      -1.025615     0.556295    -2.966597 
N      -1.458734     2.314290    -1.820677 
C      -0.386218     3.172222    -2.264303 
H       0.220960     2.629479    -2.989911 
H      -0.775280     4.076667    -2.743967 
H       0.256257     3.464556    -1.426675 
O      -3.929383     4.974010     1.486035 
C      -3.117016     6.120831     1.342658 
H      -2.074135     5.908895     1.610561 
H      -3.155447     6.513189     0.318601 
H      -3.518905     6.867488     2.028473 
N      -2.412023    -1.692074     0.437681 
C      -2.761151    -1.584691     1.778993 
O      -3.867300    -1.222057     2.122678 
C      -1.724002    -2.046013     2.782232 
H      -1.720910    -3.137841     2.700065 
H      -2.123020    -1.790887     3.764318 
C      -0.278482    -1.531828     2.629925 
H      -0.153138    -0.649437     3.264964 
H       0.398788    -2.294601     3.012734 
C       0.128282    -1.130989     1.218766 
C       1.378099    -1.556530     0.720186 
H       1.968985    -0.909322     0.075903 
C      -3.302524    -0.893740    -1.828256 
H      -2.644909    -1.406085    -2.533374 
H      -4.291697    -0.850631    -2.301827 
C      -3.486921    -1.750964    -0.565549 
H      -4.383250    -1.449932    -0.026948 
H      -3.620674    -2.797617    -0.866087 
C      -0.213882     0.311481     0.840376 
H      -0.122099     0.431360    -0.240369 
H      -1.259975     0.518064     1.081431 
C       0.673615     1.346639     1.536213 
H       0.598011     1.291256     2.626146 
H       1.728016     1.218348     1.269636 
H       0.370014     2.354493     1.237704 
O       2.055100    -2.503332     1.398446 
C       3.312531    -2.909799     0.853143 
H       3.682902    -3.653967     1.561805 
H       3.146632    -3.399630    -0.109156 
C       4.291732    -1.765353     0.717986 
C       4.997525    -1.575604    -0.464304 
C       4.501796    -0.889438     1.782267 
C       5.905578    -0.528092    -0.586175 
H       4.837961    -2.253973    -1.297108 
C       5.403357     0.158316     1.662833 
H       3.951420    -1.031462     2.707686 
C       6.109168     0.340936     0.476735 
H       6.452915    -0.392516    -1.513628 
H       5.559613     0.834226     2.497717 
H       6.815939     1.159302     0.384350 
C      -1.130579    -2.146956     0.116562 
O      -0.627140    -1.744268    -1.092857 
C       0.490346    -2.515045    -1.140421 
N      -0.722854    -3.453375     0.339244 
N       0.315515    -3.638329    -0.415758 
C       1.362441    -2.312748    -2.312970 
O       1.257213    -1.362311    -3.048221 
O       2.277394    -3.278156    -2.445773 
C       3.123176    -3.160076    -3.600295 
H       2.524676    -3.211103    -4.512242 
H       3.667579    -2.213324    -3.582236 
H       3.810362    -4.003843    -3.548458 
74
     -1835.278006     -1834.744129   7.74   7.10
C      -2.376237     1.807900    -3.206871 
C      -2.626148     0.672796    -2.405087 
C      -3.611728     0.758459    -1.422642 
C      -4.320237     1.936923    -1.254797 
C      -4.051116     3.052275    -2.071372 
C      -3.076549     3.002591    -3.056366 
C      -0.989619     0.175615    -3.851205 
C      -1.721185    -0.362676    -2.836855 
H      -3.827984    -0.090223    -0.781145 
H      -5.081938     1.988281    -0.487672 
H      -2.890576     3.877742    -3.668662 
H      -0.194094    -0.263028    -4.437100 
N      -1.373326     1.487177    -4.084149 
C      -0.815903     2.369928    -5.080395 
H      -0.023319     1.844145    -5.614882 
H      -1.577483     2.679500    -5.804374 
H      -0.387172     3.264815    -4.616685 
O      -4.713010     4.245259    -1.959883 
C      -5.716576     4.359035    -0.971769 
H      -6.530586     3.643143    -1.140664 
H      -5.308061     4.210450     0.035547 
H      -6.108514     5.373805    -1.053874 
N       0.821149    -1.770740    -1.856617 
C       1.824884    -1.272416    -2.661904 
O       1.803918    -1.429835    -3.868616 
C       3.014237    -0.562860    -2.035376 
H       3.126445     0.367892    -2.597542 
H       3.872166    -1.180344    -2.320943 
C       3.019210    -0.281687    -0.534630 
H       4.042891    -0.047529    -0.222775 
H       2.405810     0.591063    -0.311378 
C       2.504233    -1.469869     0.268341 
C       2.276165    -1.248774     1.645149 
H       2.413308    -2.021293     2.394996 
C      -1.656036    -1.747818    -2.264557 
H      -2.434221    -2.380223    -2.711780 
H      -1.889039    -1.700330    -1.195788 
C      -0.324415    -2.470738    -2.465251 
H      -0.386875    -3.470786    -2.027108 
H      -0.085746    -2.576237    -3.521934 
C       3.133812    -2.820077    -0.106605 
H       2.685623    -3.184846    -1.034901 
H       4.184758    -2.615751    -0.346364 
C       3.083758    -3.946355     0.927906 
H       3.660380    -3.700905     1.825496 
H       2.061624    -4.193121     1.224007 
H       3.529963    -4.848420     0.499328 
O       2.270987     0.012133     2.082504 
C       1.946329     0.206868     3.471202 
H       1.040095    -0.359935     3.703048 
H       2.773424    -0.167981     4.085219 
C       1.733002     1.677610     3.696297 
C       0.693468     2.330450     3.033044 
C       2.549184     2.395293     4.561609 
C       0.480429     3.685885     3.237914 
H       0.057930     1.766348     2.356777 
C       2.333487     3.754205     4.770772 
H       3.362043     1.890635     5.077132 
C       1.299218     4.400758     4.108274 
H      -0.328859     4.190381     2.718859 
H       2.976220     4.305911     5.449724 
H       1.128950     5.460972     4.267506 
C       0.738767    -1.521407    -0.478262 
O       0.277443    -2.590868     0.277624 
C       0.040457    -1.935640     1.446877 
N       0.146136    -0.369776     0.000637 
N      -0.217315    -0.640531     1.221798 
C      -0.369183    -2.666365     2.659030 
O      -0.629710    -2.137391     3.710192 
O      -0.377164    -3.990301     2.452356 
C      -0.754803    -4.784087     3.587578 
H      -1.764437    -4.524576     3.912589 
H      -0.714813    -5.817653     3.246558 
H      -0.057926    -4.622852     4.412888 
74
     -1835.279997     -1834.744058   6.49   7.14
C       1.920796    -2.598906    -0.999139 
C       2.555483    -1.641274    -1.807159 
C       2.218958    -1.582310    -3.167024 
C       1.291628    -2.463431    -3.671911 
C       0.674701    -3.423953    -2.840751 
C       0.974651    -3.506827    -1.492730 
C       3.261972    -1.380191     0.298459 
C       3.416023    -0.866452    -0.955042 
H       2.672079    -0.841814    -3.819015 
H       1.009899    -2.446970    -4.719017 
H       0.503063    -4.226627    -0.836954 
H       3.710787    -1.069555     1.232669 
N       2.372899    -2.437189     0.284540 
C       1.866472    -3.125440     1.448742 
H       0.811811    -2.884340     1.616670 
H       1.980648    -4.208506     1.339778 
H       2.437958    -2.806505     2.321821 
O      -0.221524    -4.236133    -3.477850 
C      -0.873682    -5.222403    -2.706197 
H      -1.473064    -4.771498    -1.904996 
H      -1.532968    -5.759169    -3.389431 
H      -0.156069    -5.927114    -2.267468 
N       2.001355     1.590437    -1.227155 
C       1.557191     1.799243    -2.516042 
O       2.328574     2.104290    -3.404954 
C       0.077241     1.576493    -2.734879 
H      -0.063186     0.492038    -2.700495 
H      -0.136975     1.906560    -3.751963 
C      -0.890359     2.248304    -1.730966 
H      -1.206233     3.213566    -2.139585 
H      -1.782916     1.627535    -1.661487 
C      -0.337439     2.514050    -0.324603 
C      -1.158840     2.162688     0.779159 
H      -1.178166     2.759272     1.686721 
C       4.169168     0.364840    -1.360558 
H       4.295727     0.373708    -2.445750 
H       5.171374     0.383170    -0.919469 
C       3.435902     1.649593    -0.936708 
H       3.546935     1.814623     0.134753 
H       3.848190     2.510851    -1.466006 
C       0.380325     3.871661    -0.204267 
H       1.330795     3.816950    -0.742579 
H      -0.227553     4.590706    -0.765723 
C       0.635707     4.450365     1.190249 
H       1.208924     3.775159     1.827834 
H       1.204109     5.379932     1.091450 
H      -0.297940     4.704706     1.702361 
O      -2.228804     1.386427     0.565592 
C      -2.990371     1.025604     1.728623 
H      -2.312067     0.615902     2.482751 
H      -3.476435     1.922594     2.130449 
C      -4.009630    -0.000570     1.319388 
C      -3.582426    -1.241736     0.847023 
C      -5.370182     0.263464     1.412780 
C      -4.511716    -2.202091     0.474911 
H      -2.517654    -1.442515     0.772542 
C      -6.303252    -0.700396     1.042711 
H      -5.706121     1.230640     1.777066 
C      -5.874510    -1.934162     0.573028 
H      -4.176202    -3.167228     0.108266 
H      -7.364218    -0.484478     1.120379 
H      -6.599058    -2.688325     0.282273 
C       1.078767     1.230034    -0.239220 
O       1.466678     1.461289     1.061231 
C       0.448063     0.818300     1.707175 
N       0.384286     0.026744    -0.272606 
N      -0.032874    -0.174532     0.934690 
C       0.390571     0.812334     3.179215 
O      -0.349287     0.115915     3.828424 
O       1.245509     1.702326     3.702518 
C       1.255287     1.772974     5.136226 
H       1.532719     0.806266     5.561755 
H       1.998099     2.529489     5.385654 
H       0.270394     2.061594     5.509818 
74
     -1835.280515     -1834.743690   6.17   7.37
C       1.718826    -1.311159     2.566157 
C       1.006345    -2.496889     2.323290 
C      -0.104458    -2.788854     3.127413 
C      -0.456957    -1.919299     4.132802 
C       0.282469    -0.738842     4.364467 
C       1.378269    -0.412359     3.585468 
C       2.632931    -2.317236     0.799149 
C       1.609623    -3.131942     1.183337 
H      -0.693658    -3.684435     2.955635 
H      -1.308455    -2.115270     4.775152 
H       1.948499     0.494311     3.738181 
H       3.320938    -2.416098    -0.030060 
N       2.720878    -1.220757     1.635004 
C       3.591244    -0.085245     1.440884 
H       4.318977    -0.329777     0.665315 
H       3.022272     0.793897     1.120525 
H       4.136005     0.147030     2.361129 
O      -0.177829     0.026993     5.399054 
C       0.517939     1.220839     5.689033 
H       0.005077     1.675619     6.537400 
H       1.561489     1.020012     5.962417 
H       0.494338     1.914059     4.838517 
N      -0.628542    -2.847002    -0.556582 
C      -1.834975    -3.073130     0.071116 
O      -2.180338    -4.195956     0.384922 
C      -2.650717    -1.835078     0.371958 
H      -2.142518    -1.347187     1.209071 
H      -3.619464    -2.184429     0.730814 
C      -2.833223    -0.815543    -0.778559 
H      -3.774338    -1.031841    -1.294155 
H      -2.936617     0.173768    -0.334130 
C      -1.730609    -0.788473    -1.845244 
C      -1.237294     0.480501    -2.250519 
H      -0.947967     0.673879    -3.279439 
C       1.079342    -4.342335     0.475292 
H       0.421601    -4.898677     1.147373 
H       1.888317    -5.019936     0.182543 
C       0.289894    -3.963853    -0.789846 
H       0.970093    -3.667293    -1.588107 
H      -0.301023    -4.814901    -1.133939 
C      -1.969641    -1.790461    -2.991919 
H      -1.791187    -2.802770    -2.618748 
H      -3.042389    -1.750321    -3.214419 
C      -1.202044    -1.604157    -4.304143 
H      -1.432507    -2.439369    -4.972161 
H      -1.506522    -0.690894    -4.825663 
H      -0.120198    -1.577607    -4.163110 
O      -1.549910     1.559127    -1.515930 
C      -1.008527     2.804857    -1.971634 
H       0.065584     2.682013    -2.138951 
H      -1.488816     3.082393    -2.917631 
C      -1.257991     3.846305    -0.916491 
C      -0.695375     3.689362     0.350410 
C      -2.028247     4.969870    -1.188334 
C      -0.905140     4.650558     1.328468 
H      -0.098042     2.806938     0.560126 
C      -2.236385     5.936063    -0.208785 
H      -2.471213     5.092642    -2.173073 
C      -1.674928     5.776924     1.050646 
H      -0.466104     4.525969     2.313404 
H      -2.838992     6.811084    -0.431097 
H      -1.836031     6.527846     1.817708 
C      -0.266501    -1.535245    -0.882664 
O       0.691371    -1.395736    -1.859956 
C       0.923539    -0.055698    -1.745146 
N      -0.030835    -0.570087     0.090986 
N       0.668828     0.351600    -0.485632 
C       1.890707     0.536376    -2.684950 
O       2.222863     0.004397    -3.715118 
O       2.332412     1.730796    -2.270669 
C       3.268914     2.374704    -3.147497 
H       2.817076     2.549169    -4.126597 
H       3.518543     3.319118    -2.665323 
H       4.161307     1.757117    -3.268943 
74
     -1835.279051     -1834.743513   7.09   7.48
C       1.350749    -0.033786    -3.097202 
C       0.793647     1.261409    -3.143302 
C      -0.422481     1.440822    -3.800767 
C      -1.048134     0.360035    -4.399395 
C      -0.463537    -0.920193    -4.346302 
C       0.739811    -1.133253    -3.691655 
C       2.678808     1.334739    -1.941573 
C       1.666671     2.126804    -2.393780 
H      -0.893567     2.418409    -3.837943 
H      -1.990880     0.513654    -4.908520 
H       1.159554    -2.131739    -3.656589 
H       3.527916     1.588685    -1.320522 
N       2.511554     0.032103    -2.370438 
C       3.310770    -1.099907    -1.964548 
H       4.188076    -0.737166    -1.426396 
H       2.743066    -1.760600    -1.301272 
H       3.650785    -1.665775    -2.837381 
O      -1.024714    -2.028662    -4.919551 
C      -2.249265    -1.873831    -5.607142 
H      -3.044035    -1.520265    -4.938600 
H      -2.151414    -1.179522    -6.450818 
H      -2.511576    -2.863113    -5.984682 
N      -0.178712     2.715702    -0.303773 
C      -1.461291     2.889432    -0.779529 
O      -1.774375     3.891952    -1.392165 
C      -2.407673     1.737741    -0.523704 
H      -2.096593     0.945827    -1.211397 
H      -3.397035     2.076618    -0.832977 
C      -2.453040     1.173358     0.916326 
H      -3.259700     1.671634     1.463496 
H      -2.719254     0.118861     0.852800 
C      -1.176321     1.332979     1.752808 
C      -0.719326     0.196535     2.471682 
H      -0.259068     0.288690     3.451272 
C       1.391740     3.559309    -2.047959 
H       0.657329     3.967964    -2.746108 
H       2.295351     4.171631    -2.136958 
C       0.850428     3.710410    -0.615413 
H       1.654571     3.588232     0.109850 
H       0.409149     4.700068    -0.482127 
C      -1.122118     2.665176     2.524356 
H      -0.944277     3.477070     1.813389 
H      -2.133348     2.837267     2.910983 
C      -0.137411     2.804085     3.688737 
H      -0.190087     3.824526     4.079714 
H      -0.390916     2.135409     4.517757 
H       0.895400     2.613820     3.391961 
O      -1.238935    -1.001680     2.178229 
C      -0.697774    -2.121834     2.896200 
H       0.392908    -2.100840     2.814456 
H      -0.981467    -2.041134     3.952284 
C      -1.251857    -3.378580     2.284970 
C      -0.961731    -3.680430     0.954179 
C      -2.039908    -4.249364     3.026743 
C      -1.458311    -4.841109     0.379146 
H      -0.347680    -2.995731     0.376492 
C      -2.535127    -5.416191     2.452259 
H      -2.271032    -4.015518     4.062574 
C      -2.245159    -5.712601     1.127585 
H      -1.231446    -5.071417    -0.657334 
H      -3.149167    -6.090689     3.040788 
H      -2.631157    -6.620879     0.675530 
C       0.139670     1.537479     0.380429 
O       1.251537     1.592705     1.190589 
C       1.357310     0.265811     1.501105 
N       0.118904     0.291803    -0.235512 
N       0.840466    -0.482117     0.507755 
C       2.416220    -0.200930     2.412611 
O       2.698893    -1.359559     2.590198 
O       3.004509     0.826593     3.041102 
C       4.048525     0.467180     3.958418 
H       4.413218     1.408187     4.368063 
H       3.654787    -0.171972     4.751732 
H       4.848580    -0.060329     3.434763 
74
     -1835.279051     -1834.743506   7.09   7.49
C       1.160779     1.572853    -2.756186 
C       0.586104     2.693917    -2.121375 
C      -0.669713     3.127788    -2.543386 
C      -1.317209     2.465885    -3.573206 
C      -0.714851     1.355408    -4.195749 
C       0.528454     0.893304    -3.792442 
C       2.539548     2.234302    -1.133364 
C       1.492274     3.104189    -1.080510 
H      -1.154110     3.973064    -2.063959 
H      -2.290870     2.814532    -3.892592 
H       0.961732     0.028898    -4.281789 
H       3.421542     2.178619    -0.508733 
N       2.362583     1.314391    -2.148846 
C       3.198722     0.164767    -2.402179 
H       2.680455    -0.761481    -2.133480 
H       3.491968     0.124828    -3.455775 
H       4.102610     0.245907    -1.796160 
O      -1.296112     0.659511    -5.220493 
C      -2.561868     1.086803    -5.680453 
H      -3.318948     1.026348    -4.888749 
H      -2.523806     2.113018    -6.066281 
H      -2.834443     0.408526    -6.490185 
N      -0.230015     2.494516     1.106352 
C      -1.541125     2.829945     0.841741 
O      -1.903050     3.990654     0.829130 
C      -2.456054     1.666755     0.529693 
H      -2.177482     1.337595    -0.475728 
H      -3.466427     2.073932     0.477951 
C      -2.407151     0.457360     1.493658 
H      -3.185089     0.582412     2.253624 
H      -2.663974    -0.434377     0.922940 
C      -1.084058     0.229932     2.237232 
C      -0.570464    -1.093850     2.267900 
H      -0.052823    -1.484565     3.139289 
C       1.221334     4.159914    -0.051290 
H       0.440996     4.832159    -0.415888 
H       2.110334     4.771261     0.136612 
C       0.766099     3.553099     1.287580 
H       1.614184     3.118080     1.815873 
H       0.321662     4.324916     1.918997 
C      -0.999399     0.999591     3.568938 
H      -0.875114     2.064587     3.353035 
H      -1.987289     0.913853     4.036274 
C       0.052498     0.578686     4.599023 
H       0.011005     1.264177     5.450680 
H      -0.141755    -0.424520     4.992098 
H       1.067633     0.604895     4.199294 
O      -1.092231    -2.005416     1.438063 
C      -0.494822    -3.311186     1.472163 
H       0.588540    -3.207482     1.361344 
H      -0.714791    -3.780474     2.438439 
C      -1.069639    -4.116114     0.340047 
C      -1.800719    -5.272304     0.581416 
C      -0.857014    -3.700830    -0.974724 
C      -2.315667    -6.015336    -0.476647 
H      -1.971488    -5.596716     1.604471 
C      -1.373425    -4.438323    -2.030116 
H      -0.287416    -2.794721    -1.159432 
C      -2.102895    -5.598408    -1.783398 
H      -2.884726    -6.918029    -0.277454 
H      -1.206980    -4.110706    -3.051763 
H      -2.504542    -6.174387    -2.611191 
C       0.143669     1.146230     1.092598 
O       1.301874     0.834904     1.768831 
C       1.442495    -0.464101     1.367511 
N       0.100806     0.375059    -0.062815 
N       0.875532    -0.636351     0.158317 
C       2.560341    -1.279927     1.872314 
O       2.867477    -2.359634     1.432125 
O       3.172947    -0.680657     2.903079 
C       4.274971    -1.407116     3.467361 
H       4.652219    -0.782543     4.275999 
H       3.937919    -2.372625     3.850870 
H       5.048250    -1.569187     2.713476 
74
     -1835.279279     -1834.742783   6.94   7.94
C      -0.546273    -1.262077    -3.303318 
C      -0.878094     0.102760    -3.366288 
C      -2.220434     0.470462    -3.184903 
C      -3.162559    -0.499118    -2.946863 
C      -2.801832    -1.863481    -2.879285 
C      -1.492579    -2.268676    -3.057780 
C       1.318076    -0.120179    -3.723265 
C       0.339008     0.823948    -3.626425 
H      -2.517941     1.513291    -3.215749 
H      -4.205076    -0.244220    -2.794138 
H      -1.197986    -3.309238    -3.021037 
H       2.377693    -0.000715    -3.906675 
N       0.800447    -1.383598    -3.526958 
C       1.550716    -2.618140    -3.556558 
H       1.627291    -3.055382    -2.556634 
H       1.084834    -3.334634    -4.240216 
H       2.558177    -2.407858    -3.919635 
O      -3.839865    -2.716907    -2.632382 
C      -3.553377    -4.097531    -2.571737 
H      -2.847670    -4.324129    -1.762167 
H      -4.501078    -4.599058    -2.371661 
H      -3.143866    -4.464404    -3.521413 
N       0.468212     3.040693    -1.251468 
C       0.166170     4.313400    -0.795917 
O       0.534473     5.309258    -1.386144 
C      -0.674473     4.366304     0.461458 
H      -1.675743     4.031859     0.177358 
H      -0.738669     5.418252     0.740855 
C      -0.180129     3.519298     1.657729 
H       0.480812     4.136830     2.274674 
H      -1.045849     3.273803     2.271825 
C       0.588050     2.239698     1.307001 
C       0.206309     1.034652     1.952807 
H       0.939104     0.291842     2.247063 
C       0.546679     2.311686    -3.664852 
H      -0.411891     2.831301    -3.755568 
H       1.131654     2.579837    -4.551445 
C       1.300447     2.867438    -2.444257 
H       2.140502     2.212291    -2.196268 
H       1.687826     3.860639    -2.668163 
C       2.109011     2.462439     1.188893 
H       2.316088     3.023718     0.272609 
H       2.383991     3.140286     2.005571 
C       3.039031     1.246712     1.248973 
H       4.069954     1.579246     1.094671 
H       3.006507     0.762070     2.229960 
H       2.810683     0.499812     0.486823 
O      -0.953185     1.019171     2.639847 
C      -1.318428    -0.225811     3.242293 
H      -2.262588    -0.011306     3.747697 
H      -1.502876    -0.963470     2.457885 
C      -0.285326    -0.724944     4.226273 
C       0.166175     0.105522     5.251141 
C       0.229033    -2.012018     4.121604 
C       1.116409    -0.346378     6.155051 
H      -0.229569     1.113626     5.334968 
C       1.178639    -2.470828     5.029661 
H      -0.116592    -2.661547     3.322747 
C       1.624279    -1.638351     6.046909 
H       1.461975     0.308806     6.948511 
H       1.570179    -3.479222     4.939910 
H       2.365816    -1.992731     6.755704 
C       0.036597     1.942532    -0.499021 
O       0.706440     0.762391    -0.689185 
C      -0.120886    -0.071929     0.003459 
N      -1.318511     1.654480    -0.356697 
N      -1.379860     0.418542     0.009205 
C       0.250961    -1.494586     0.035232 
O       1.338629    -1.906092    -0.286345 
O      -0.749875    -2.270193     0.475968 
C      -0.479455    -3.674623     0.467734 
H       0.381851    -3.908492     1.098091 
H      -1.379819    -4.152847     0.852967 
H      -0.276382    -4.014185    -0.550714 
