74
     -1835.310520     -1834.775826   0.00   0.00
C       3.210203    -4.961180     0.683537 
C       2.459804    -4.126078    -0.160822 
C       2.774052    -4.089026    -1.528491 
C       3.806455    -4.866470    -1.999311 
C       4.548831    -5.698008    -1.131315 
C       4.266296    -5.761935     0.221267 
C       1.669860    -3.923496     1.924736 
C       1.472706    -3.468050     0.657233 
H       2.212709    -3.454492    -2.208090 
H       4.078986    -4.863674    -3.048668 
H       4.824516    -6.393685     0.899464 
H       1.139474    -3.677133     2.835080 
N       2.717565    -4.828484     1.957829 
C       3.206094    -5.519352     3.127549 
H       4.257147    -5.277198     3.318003 
H       2.619262    -5.208778     3.993487 
H       3.107733    -6.604380     3.014738 
O       5.542704    -6.411141    -1.739936 
C       6.329558    -7.264445    -0.934821 
H       7.053553    -7.732153    -1.602997 
H       6.865149    -6.702396    -0.159305 
H       5.719475    -8.044183    -0.461548 
N       0.276595    -0.233755    -0.930191 
C       0.132651    -0.416535    -2.307917 
O       0.807776    -1.234969    -2.891155 
C      -0.850452     0.470372    -3.070286 
H      -1.336788    -0.191212    -3.789632 
H      -0.215033     1.137177    -3.663588 
C      -1.883187     1.271814    -2.261415 
H      -2.261647     2.106393    -2.853918 
H      -2.739518     0.645195    -2.012296 
C      -1.226402     1.757445    -0.974980 
C      -2.112253     2.337777     0.164923 
H      -1.866460     3.390625     0.335636 
C       0.469872    -2.464629     0.180856 
H      -0.290998    -2.287930     0.946037 
H      -0.046573    -2.848475    -0.705294 
C       1.154060    -1.142220    -0.185140 
H       1.492346    -0.623498     0.712444 
H       2.017590    -1.329387    -0.821782 
C      -0.056100     2.745796    -1.239423 
H       0.404290     2.989977    -0.275616 
H       0.721687     2.249739    -1.827442 
C      -0.475487     4.037481    -1.943356 
H      -0.854769     3.846523    -2.951052 
H      -1.251134     4.576803    -1.394249 
H       0.384980     4.705831    -2.039579 
O      -3.476791     2.226876    -0.163706 
C      -4.321296     3.215339     0.425544 
H      -5.331670     2.919553     0.132996 
H      -4.244801     3.181443     1.515129 
C      -4.004722     4.602684    -0.082976 
C      -4.178963     4.910058    -1.432070 
C      -3.487852     5.571918     0.770963 
C      -3.846151     6.165999    -1.918960 
H      -4.573191     4.151669    -2.103043 
C      -3.152196     6.832939     0.285985 
H      -3.333987     5.327617     1.818301 
C      -3.330834     7.131845    -1.058141 
H      -3.986683     6.394354    -2.970949 
H      -2.749163     7.581145     0.961476 
H      -3.070263     8.115070    -1.437046 
C      -0.642151     0.546977    -0.279833 
O      -0.494051     0.823352     1.002400 
C      -1.648201     1.503699     1.361812 
N      -2.250058    -0.567450     0.064652 
N      -2.777460    -0.119840     0.975827 
C      -1.734910     1.959348     2.741131 
O      -2.465256     2.859918     3.102126 
O      -0.950682     1.259422     3.577341 
C      -1.045089     1.634406     4.956114 
H      -0.362899     0.971363     5.487107 
H      -0.750401     2.677311     5.091570 
H      -2.067457     1.502384     5.317052 
74
     -1835.310244     -1834.775407   0.18   0.26
C      -3.502645    -0.293442    -1.846657 
C      -3.750789     0.127156    -0.523076 
C      -3.956217     1.486230    -0.280779 
C      -3.890348     2.388574    -1.328198 
C      -3.626133     1.942804    -2.639303 
C      -3.435680     0.597545    -2.915386 
C      -3.422384    -2.087060    -0.516882 
C      -3.684928    -1.043324     0.316114 
H      -4.150330     1.844876     0.725361 
H      -4.044548     3.440523    -1.126791 
H      -3.238339     0.285262    -3.934394 
H      -3.282072    -3.134323    -0.286024 
N      -3.312209    -1.652488    -1.826969 
C      -3.056455    -2.481920    -2.980947 
H      -2.940890    -3.516640    -2.654872 
H      -3.887247    -2.432522    -3.692392 
H      -2.137191    -2.174015    -3.489799 
O      -3.533707     2.780873    -3.714071 
C      -3.750929     4.163188    -3.506049 
H      -3.646005     4.635056    -4.483680 
H      -4.758078     4.356764    -3.117651 
H      -3.008761     4.587483    -2.818831 
N      -1.482482    -0.050748     1.920502 
C      -1.641630     1.287463     2.277161 
O      -2.605015     1.629177     2.928518 
C      -0.609264     2.304684     1.801598 
H      -0.488065     3.003614     2.631277 
H      -1.114637     2.865575     1.007106 
C       0.745365     1.766061     1.317764 
H       1.275946     2.529503     0.746694 
H       1.376674     1.508381     2.168786 
C       0.488657     0.517764     0.481654 
C       1.679545    -0.391365     0.065707 
H       1.821018    -0.384686    -1.023567 
C      -3.773666    -1.051751     1.812456 
H      -4.306183    -1.939957     2.167826 
H      -4.339303    -0.181823     2.151762 
C      -2.396104    -1.048451     2.493078 
H      -2.504783    -0.843059     3.560296 
H      -1.913881    -2.018649     2.374310 
C      -0.357495     0.815553    -0.785275 
H      -0.518050    -0.127688    -1.317505 
H      -1.348938     1.164817    -0.499235 
C       0.275266     1.837983    -1.729294 
H       1.298100     1.568226    -2.010851 
H      -0.317679     1.909747    -2.645130 
H       0.306853     2.835907    -1.282705 
O       2.851765     0.078027     0.681565 
C       4.036995    -0.648803     0.377109 
H       3.940021    -1.681538     0.728774 
H       4.192508    -0.681857    -0.708628 
C       5.190742     0.033959     1.063089 
C       5.185217     0.175911     2.450756 
C       6.272997     0.517485     0.338155 
C       6.246121     0.792101     3.097842 
H       4.339887    -0.198973     3.020100 
C       7.341083     1.133393     0.984657 
H       6.282511     0.414751    -0.743670 
C       7.329002     1.271837     2.365562 
H       6.231301     0.898887     4.178273 
H       8.180793     1.506259     0.406236 
H       8.159399     1.752866     2.872965 
C      -0.305707    -0.444117     1.339960 
O      -0.179125    -1.657208     0.826997 
C       1.164672    -1.772051     0.506197 
N       0.934599    -0.866241     2.821179 
N       1.697926    -1.617138     2.410886 
C       1.555034    -3.022461    -0.140785 
O       2.555437    -3.146483    -0.812837 
O       0.701152    -4.030114     0.113833 
C       1.078050    -5.295733    -0.439834 
H       0.297265    -5.992533    -0.136311 
H       1.139368    -5.236594    -1.528704 
H       2.046625    -5.610503    -0.045023 
74
     -1835.313989     -1834.775167  -2.17   0.41
C       2.456547     3.083355    -0.791847 
C       3.235893     1.919888    -0.672164 
C       3.708242     1.310711    -1.843228 
C       3.388958     1.851420    -3.066545 
C       2.584274     3.006772    -3.160067 
C       2.107047     3.643084    -2.028876 
C       2.710693     2.643157     1.378367 
C       3.376459     1.646184     0.735357 
H       4.326125     0.419114    -1.795376 
H       3.741462     1.403400    -3.989113 
H       1.490532     4.530829    -2.080705 
H       2.559153     2.790754     2.438609 
N       2.151150     3.521211     0.471926 
C       1.272892     4.621355     0.795620 
H       0.246015     4.410362     0.478909 
H       1.278345     4.769288     1.876364 
H       1.616663     5.545628     0.321161 
O       2.320705     3.415041    -4.438213 
C       1.539515     4.580362    -4.608468 
H       2.021910     5.454160    -4.153421 
H       1.454463     4.736576    -5.684446 
H       0.536465     4.456770    -4.180653 
N       2.020008    -1.009840     1.719430 
C       1.993893    -1.364503     3.067155 
O       3.029842    -1.535313     3.671863 
C       0.647145    -1.586376     3.754669 
H       0.700288    -1.020747     4.687506 
H       0.674417    -2.640488     4.050249 
C      -0.643457    -1.263843     2.981055 
H      -1.470418    -1.866927     3.359730 
H      -0.921483    -0.220442     3.123563 
C      -0.408358    -1.520794     1.496980 
C      -1.434704    -0.981344     0.459461 
H      -1.899803    -1.814100    -0.076981 
C       4.043662     0.456872     1.350814 
H       4.128412     0.578081     2.433418 
H       5.063767     0.352437     0.962385 
C       3.322038    -0.863360     1.054588 
H       3.148652    -0.972666    -0.016040 
H       3.933741    -1.698852     1.398444 
C      -0.135982    -3.020097     1.192987 
H       0.108592    -3.109410     0.128356 
H       0.755057    -3.349212     1.736522 
C      -1.301626    -3.953257     1.526035 
H      -1.525253    -3.960184     2.596473 
H      -2.218216    -3.678415     0.998544 
H      -1.052092    -4.978782     1.238449 
O      -2.436857    -0.226577     1.101451 
C      -3.702738    -0.217902     0.443031 
H      -4.312201     0.468646     1.035688 
H      -3.602824     0.181004    -0.569226 
C      -4.332049    -1.591376     0.408661 
C      -4.511954    -2.259897    -0.798305 
C      -4.692234    -2.227072     1.596506 
C      -5.047546    -3.544671    -0.820536 
H      -4.213846    -1.772730    -1.722535 
C      -5.226989    -3.507371     1.578470 
H      -4.543855    -1.710907     2.541203 
C      -5.405849    -4.169708     0.366572 
H      -5.182901    -4.056763    -1.768167 
H      -5.504453    -3.992230     2.509349 
H      -5.824438    -5.171093     0.350396 
C       0.829671    -0.749222     1.089763 
O       0.791587    -0.533857    -0.211549 
C      -0.525107    -0.203722    -0.491296 
N       0.272923     1.115499     1.504623 
N      -0.386415     1.470960     0.643485 
C      -0.856153     0.074981    -1.878187 
O      -1.989163     0.024763    -2.316574 
O       0.207151     0.424014    -2.614824 
C      -0.076510     0.788340    -3.969354 
H      -0.757426     1.642635    -3.994761 
H       0.882404     1.054459    -4.410019 
H      -0.533857    -0.048056    -4.502704 
74
     -1835.310694     -1834.775003  -0.10   0.52
C      -2.697464    -3.837427    -2.863591 
C      -1.955441    -2.729430    -2.422673 
C      -2.618742    -1.710657    -1.720460 
C      -3.967901    -1.828439    -1.483987 
C      -4.692998    -2.954835    -1.932086 
C      -4.074337    -3.977074    -2.628408 
C      -0.577384    -4.121309    -3.506826 
C      -0.593323    -2.930505    -2.848011 
H      -2.083399    -0.836229    -1.364315 
H      -4.514771    -1.057395    -0.953590 
H      -4.613769    -4.846187    -2.980853 
H       0.249518    -4.634494    -3.979566 
N      -1.842705    -4.683356    -3.525043 
C      -2.205623    -5.937373    -4.141442 
H      -2.610573    -6.636994    -3.402484 
H      -2.948728    -5.788054    -4.932102 
H      -1.315071    -6.384370    -4.586112 
O      -6.022796    -2.934950    -1.620698 
C      -6.812557    -4.030644    -2.035593 
H      -6.815249    -4.131532    -3.128185 
H      -6.463934    -4.968658    -1.585537 
H      -7.826548    -3.823010    -1.692045 
N       1.856552    -1.016811    -0.671980 
C       3.201659    -1.036823    -1.049219 
O       3.657875    -2.001755    -1.619203 
C       4.088208     0.154346    -0.687836 
H       4.693113     0.342998    -1.576938 
H       4.781945    -0.238915     0.063148 
C       3.409921     1.441935    -0.190876 
H       4.119224     2.049168     0.373930 
H       3.075873     2.046022    -1.034440 
C       2.205133     1.060667     0.660826 
C       1.171168     2.152682     1.060574 
H       1.160726     2.282529     2.147309 
C       0.554649    -2.013070    -2.565303 
H       0.264021    -0.980145    -2.784213 
H       1.410930    -2.249949    -3.201100 
C       0.979901    -2.114886    -1.095142 
H       0.106177    -2.101846    -0.444383 
H       1.523075    -3.044651    -0.923787 
C       2.606271     0.274956     1.940872 
H       1.686851    -0.017117     2.460392 
H       3.104176    -0.658415     1.662133 
C       3.503847     1.059567     2.899387 
H       3.053647     2.005724     3.209791 
H       3.689326     0.471275     3.802666 
H       4.475788     1.285932     2.452338 
O       1.487346     3.380607     0.449097 
C       1.051311     4.538273     1.161338 
H       1.303216     5.373534     0.503448 
H      -0.032226     4.513831     1.301890 
C       1.753169     4.678542     2.492183 
C       1.045833     4.561911     3.684605 
C       3.133213     4.874116     2.538082 
C       1.706232     4.642675     4.907461 
H      -0.026462     4.390803     3.649916 
C       3.794802     4.955720     3.754988 
H       3.689435     4.955501     1.608137 
C       3.080179     4.839731     4.944653 
H       1.144065     4.549715     5.831509 
H       4.869337     5.108685     3.778699 
H       3.595910     4.903686     5.897618 
C       1.333717     0.145421    -0.172009 
O       0.106055     0.171140     0.316528 
C      -0.140475     1.504800     0.608268 
N       0.830461     1.308432    -1.701149 
N       0.002527     2.007137    -1.331613 
C      -1.435056     1.808224     1.197502 
O      -1.664634     2.817017     1.832347 
O      -2.363575     0.869317     0.940503 
C      -3.665989     1.140810     1.468628 
H      -3.625390     1.249452     2.554549 
H      -4.070356     2.057377     1.033381 
H      -4.278909     0.283051     1.194099 
74
     -1835.308956     -1834.774875   0.99   0.60
C      -2.020982    -3.582160    -4.314503 
C      -0.949942    -2.957960    -3.641198 
C       0.269964    -2.815561    -4.304198 
C       0.400561    -3.284284    -5.600992 
C      -0.684865    -3.902950    -6.251500 
C      -1.908244    -4.060689    -5.618461 
C      -2.721858    -3.007704    -2.271383 
C      -1.425805    -2.598691    -2.327353 
H       1.114420    -2.339664    -3.813874 
H       1.349657    -3.168809    -6.107721 
H      -2.724574    -4.541143    -6.145364 
H      -3.434220    -2.924706    -1.460961 
N      -3.098084    -3.604920    -3.463192 
C      -4.394368    -4.162977    -3.766512 
H      -4.319709    -5.232774    -3.989010 
H      -5.048122    -4.034612    -2.902215 
H      -4.849584    -3.655595    -4.623718 
O      -0.619478    -4.385884    -7.529581 
C       0.600490    -4.253624    -8.231214 
H       1.414342    -4.789982    -7.727908 
H       0.432943    -4.696428    -9.213927 
H       0.882229    -3.200494    -8.353312 
N       0.629104     0.198022    -0.817495 
C       1.969625     0.130372    -1.191787 
O       2.305775    -0.553768    -2.133643 
C       3.006068     0.907582    -0.381817 
H       3.631650     1.408382    -1.123743 
H       3.641118     0.136450     0.066883 
C       2.501824     1.898323     0.680512 
H       3.278884     2.084768     1.423536 
H       2.261616     2.858101     0.223008 
C       1.245864     1.322059     1.321722 
C       0.367515     2.218190     2.240570 
H       0.367992     1.827010     3.262788 
C      -0.628653    -1.887495    -1.279849 
H       0.341597    -2.381668    -1.157542 
H      -1.139016    -1.924058    -0.312833 
C      -0.382185    -0.427677    -1.674916 
H      -0.022931    -0.370338    -2.701664 
H      -1.299882     0.156253    -1.598549 
C       1.516979    -0.018176     2.062442 
H       0.560037    -0.396442     2.438469 
H       1.880916    -0.768526     1.354050 
C       2.507042     0.100746     3.222348 
H       2.597795    -0.860674     3.736014 
H       3.505646     0.381846     2.876568 
H       2.192292     0.840835     3.962214 
O       0.851522     3.540428     2.250092 
C       0.577599     4.272910     3.444148 
H       0.942786     5.281353     3.235132 
H      -0.499234     4.317560     3.625168 
C       1.290030     3.686599     4.640976 
C       0.571432     3.114950     5.686243 
C       2.683778     3.665894     4.684515 
C       1.234726     2.533009     6.762998 
H      -0.514145     3.113618     5.644402 
C       3.348363     3.087362     5.756369 
H       3.247405     4.102963     3.864709 
C       2.622645     2.518521     6.799996 
H       0.663592     2.089494     7.572705 
H       4.433684     3.077760     5.780061 
H       3.140695     2.065883     7.639602 
C       0.265980     1.027568     0.208184 
O      -0.949566     0.964361     0.721164 
C      -1.017566     2.021125     1.617365 
N      -0.075778     2.817980    -0.575798 
N      -0.802499     3.355610     0.125646 
C      -2.259766     2.168383     2.360848 
O      -2.342439     2.779191     3.407312 
O      -3.309290     1.589100     1.754952 
C      -4.565030     1.756235     2.422600 
H      -4.530919     1.314981     3.421109 
H      -4.811947     2.816669     2.509030 
H      -5.297496     1.241981     1.801285 
74
     -1835.310959     -1834.773866  -0.27   1.23
C       2.417726     3.068722    -0.654413 
C       3.142879     1.868668    -0.751812 
C       3.465090     1.386421    -2.028233 
C       3.058175     2.084642    -3.140867 
C       2.313290     3.276582    -3.015821 
C       1.982048     3.789639    -1.775196 
C       2.854622     2.357074     1.412136 
C       3.404688     1.420855     0.592470 
H       4.034985     0.469957    -2.148381 
H       3.293960     1.737247    -4.140803 
H       1.412293     4.702254    -1.659463 
H       2.812925     2.380232     2.492218 
N       2.257241     3.360773     0.676388 
C       1.474016     4.448860     1.214120 
H       1.824648     5.409865     0.825334 
H       0.412835     4.324705     0.973724 
H       1.583894     4.458017     2.299354 
O       1.950953     3.848849    -4.203744 
C       1.225158     5.060498    -4.155720 
H       1.798285     5.849192    -3.652943 
H       1.046574     5.350823    -5.191666 
H       0.262208     4.931577    -3.645337 
N       2.000307    -1.234621     1.434334 
C       2.080122    -1.680312     2.751046 
O       3.149796    -1.996873     3.224181 
C       0.802577    -1.776844     3.586348 
H       0.980075    -1.129898     4.449635 
H       0.826409    -2.795429     3.982875 
C      -0.561942    -1.458333     2.934085 
H      -1.326922    -2.134025     3.325187 
H      -0.873646    -0.444349     3.177816 
C      -0.454991    -1.613282     1.418324 
C      -1.546519    -0.961207     0.518563 
H      -2.060675    -1.737438    -0.058082 
C       4.066753     0.140723     0.994958 
H       4.280709     0.137030     2.066534 
H       5.028059     0.032463     0.478787 
C       3.236348    -1.102122     0.652678 
H       2.951129    -1.092577    -0.399605 
H       3.821557    -2.001403     0.851671 
C      -0.319816    -3.121728     1.073815 
H       0.390031    -3.583246     1.768245 
H      -1.297123    -3.567292     1.296960 
C       0.090591    -3.477846    -0.355310 
H      -0.573531    -3.037196    -1.103323 
H       1.109113    -3.151425    -0.580330 
H       0.057153    -4.563332    -0.486638 
O      -2.498243    -0.263821     1.290231 
C      -3.834442    -0.341339     0.797013 
H      -4.414797     0.281588     1.482500 
H      -3.893974     0.089322    -0.206038 
C      -4.359050    -1.759705     0.794925 
C      -4.820162    -2.345822    -0.379097 
C      -4.349227    -2.512367     1.969281 
C      -5.274058    -3.661697    -0.381888 
H      -4.810916    -1.769861    -1.300408 
C      -4.795470    -3.826302     1.969273 
H      -3.985477    -2.058863     2.887143 
C      -5.262351    -4.404049     0.791310 
H      -5.633166    -4.106724    -1.304664 
H      -4.783880    -4.402222     2.889552 
H      -5.614633    -5.430692     0.790825 
C       0.770653    -0.858150     0.959449 
O       0.618485    -0.488428    -0.297795 
C      -0.702907    -0.091367    -0.408019 
N       0.337589     0.965750     1.635357 
N      -0.397294     1.431406     0.896708 
C      -1.158331     0.375574    -1.705226 
O      -2.331183     0.415304    -2.021695 
O      -0.160585     0.786356    -2.500528 
C      -0.565413     1.331281    -3.760413 
H       0.354171     1.618295    -4.266990 
H      -1.115981     0.586893    -4.340057 
H      -1.203419     2.204749    -3.604857 
74
     -1835.306719     -1834.773549   2.39   1.43
C       0.367406     2.075040    -4.923114 
C       0.128165     1.521256    -3.654744 
C       0.890060     0.414407    -3.248197 
C       1.845309    -0.090509    -4.098276 
C       2.072737     0.486503    -5.367409 
C       1.340591     1.575921    -5.803092 
C      -1.274000     3.240340    -3.955068 
C      -0.932971     2.284654    -3.048066 
H       0.734986    -0.045358    -2.277307 
H       2.445596    -0.949812    -3.822090 
H       1.499613     2.029623    -6.772338 
H      -2.025700     4.015566    -3.887282 
N      -0.496406     3.127597    -5.095317 
C      -0.583631     3.964594    -6.268326 
H       0.364016     4.480852    -6.455361 
H      -0.847356     3.376648    -7.154009 
H      -1.359070     4.715895    -6.110600 
O       3.054793    -0.118794    -6.098833 
C       3.339621     0.405377    -7.379649 
H       2.465728     0.345363    -8.040451 
H       3.678130     1.447384    -7.319629 
H       4.141877    -0.209432    -7.789182 
N      -0.834249     2.084536     0.740950 
C      -1.870017     2.704104     1.444553 
O      -2.413285     3.684293     0.988460 
C      -2.263503     2.151963     2.813591 
H      -3.354918     2.172657     2.830304 
H      -1.942442     2.922706     3.522813 
C      -1.726026     0.770312     3.219652 
H      -1.766556     0.650882     4.303307 
H      -2.345075    -0.017733     2.791282 
C      -0.301437     0.630220     2.694299 
C       0.390951    -0.763290     2.718796 
H       1.262725    -0.761224     3.387854 
C      -1.490601     2.068713    -1.676118 
H      -1.687916     1.002796    -1.521498 
H      -2.439952     2.594979    -1.552161 
C      -0.504506     2.558217    -0.608438 
H       0.504119     2.214965    -0.835722 
H      -0.497869     3.647920    -0.573651 
C       0.668661     1.671419     3.316416 
H       1.659753     1.513803     2.877368 
H       0.368642     2.682567     3.026746 
C       0.763301     1.590301     4.840805 
H       1.560172     2.244159     5.206077 
H      -0.166042     1.907070     5.322057 
H       0.984775     0.575257     5.183596 
O      -0.529467    -1.722230     3.170644 
C      -0.029996    -3.052565     3.264318 
H       0.252060    -3.413331     2.269266 
H       0.869260    -3.075425     3.892307 
C      -1.114663    -3.917249     3.850246 
C      -2.346189    -4.017614     3.202842 
C      -0.907501    -4.631773     5.023867 
C      -3.350346    -4.819863     3.724412 
H      -2.512117    -3.458957     2.286520 
C      -1.911933    -5.440619     5.548250 
H       0.047603    -4.555101     5.536611 
C      -3.135100    -5.535601     4.899326 
H      -4.305852    -4.889866     3.213432 
H      -1.736552    -5.994005     6.465714 
H      -3.921211    -6.164128     5.306020 
C      -0.346063     0.892226     1.203553 
O       0.727588     0.353024     0.652512 
C       0.866173    -0.883997     1.262764 
N      -1.513434    -0.563127     0.533111 
N      -0.876073    -1.514719     0.506663 
C       2.032560    -1.657312     0.849751 
O       2.524184    -2.543981     1.512778 
O       2.491194    -1.296238    -0.363009 
C       3.620416    -2.040666    -0.831536 
H       3.363398    -3.096914    -0.938382 
H       3.876203    -1.608411    -1.798273 
H       4.457659    -1.946272    -0.136701 
74
     -1835.304996     -1834.773305   3.47   1.58
C       5.930219     0.893455    -0.364909 
C       4.722596     1.049974     0.347372 
C       4.524644     2.216519     1.087646 
C       5.510146     3.189647     1.104285 
C       6.706749     3.009370     0.383378 
C       6.933290     1.860824    -0.359451 
C       4.679045    -0.927068    -0.705192 
C       3.934761    -0.135941     0.113546 
H       3.606019     2.368037     1.647255 
H       5.347791     4.091276     1.680136 
H       7.864387     1.751183    -0.903420 
H       4.447910    -1.901516    -1.115275 
N       5.888339    -0.321178    -1.003873 
C       6.933305    -0.866072    -1.837453 
H       6.618648    -1.842361    -2.209932 
H       7.130800    -0.214962    -2.695663 
H       7.861877    -0.993885    -1.270909 
O       7.716564     3.931713     0.359585 
C       7.546246     5.126610     1.095324 
H       8.454712     5.709669     0.938454 
H       6.682851     5.700365     0.736546 
H       7.427161     4.925696     2.167148 
N       0.248686     0.498410     0.695500 
C       0.023430     1.419576     1.716540 
O       0.922405     2.133741     2.103272 
C      -1.362029     1.491113     2.355239 
H      -1.596028     2.556161     2.413523 
H      -1.207886     1.165989     3.389656 
C      -2.504640     0.706828     1.690838 
H      -3.312697     0.535478     2.403450 
H      -2.926626     1.278346     0.864290 
C      -1.941064    -0.604362     1.155528 
C      -2.806289    -1.486022     0.210455 
H      -3.050105    -2.450328     0.677596 
C       2.563209    -0.388333     0.655705 
H       2.551675    -0.189734     1.733241 
H       2.276329    -1.434255     0.512375 
C       1.530674     0.522965    -0.015806 
H       1.882832     1.553636    -0.020832 
H       1.352363     0.215714    -1.046684 
C      -1.364901    -1.509771     2.278990 
H      -0.971782    -2.419089     1.811970 
H      -0.509385    -1.020977     2.754506 
C      -2.389010    -1.885567     3.350841 
H      -2.683849    -1.020312     3.950876 
H      -3.297378    -2.312463     2.915663 
H      -1.967734    -2.629165     4.033146 
O      -3.999492    -0.804994    -0.080569 
C      -4.907231    -1.498250    -0.931018 
H      -4.445117    -1.663394    -1.910121 
H      -5.146159    -2.481510    -0.507095 
C      -6.149303    -0.658188    -1.069686 
C      -7.393201    -1.147875    -0.690717 
C      -6.058915     0.629839    -1.597544 
C      -8.536889    -0.367700    -0.836936 
H      -7.471130    -2.148704    -0.274509 
C      -7.195910     1.411154    -1.741442 
H      -5.088076     1.016326    -1.892966 
C      -8.439812     0.913236    -1.362283 
H      -9.502727    -0.762799    -0.537326 
H      -7.114366     2.413003    -2.152066 
H      -9.329234     1.525042    -1.476399 
C      -0.795633    -0.253407     0.231235 
O      -0.572692    -1.283204    -0.565775 
C      -1.830792    -1.716548    -0.954491 
N      -1.664108     0.777703    -1.217504 
N      -2.188107     0.019047    -1.896593 
C      -1.856273    -2.900171    -1.808367 
O      -2.821851    -3.623838    -1.922181 
O      -0.703886    -3.085575    -2.474854 
C      -0.690727    -4.209487    -3.362095 
H       0.299154    -4.211248    -3.817203 
H      -0.861712    -5.136304    -2.810172 
H      -1.464075    -4.101086    -4.125794 
74
     -1835.309145     -1834.772996   0.87   1.78
C       1.086413     3.459728     0.523364 
C       1.863536     2.798016     1.489541 
C       3.244523     2.689652     1.274151 
C       3.796599     3.214274     0.129199 
C       2.990495     3.852888    -0.836961 
C       1.626050     3.988940    -0.657442 
C      -0.262150     2.836374     2.185234 
C       0.971719     2.391930     2.545875 
H       3.883777     2.200058     2.002618 
H       4.861767     3.147829    -0.063511 
H       0.992264     4.477576    -1.385775 
H      -1.207613     2.717633     2.695864 
N      -0.211476     3.484238     0.967108 
C      -1.349283     3.973182     0.224078 
H      -1.521446     3.368189    -0.672389 
H      -2.235128     3.912355     0.857627 
H      -1.205237     5.018732    -0.065479 
O       3.667149     4.298567    -1.938333 
C       2.927632     4.972049    -2.936742 
H       2.454850     5.878760    -2.539697 
H       3.643011     5.249665    -3.711670 
H       2.157255     4.322685    -3.371760 
N       0.650494    -0.717912     2.908854 
C      -0.216173    -1.283154     3.843349 
O      -0.074983    -1.050828     5.023907 
C      -1.305314    -2.241667     3.364327 
H      -2.221586    -1.913086     3.859573 
H      -1.043205    -3.194521     3.836624 
C      -1.522540    -2.417020     1.851861 
H      -1.973816    -3.388285     1.643838 
H      -2.213358    -1.662004     1.479349 
C      -0.181616    -2.262755     1.141312 
C      -0.156508    -2.093542    -0.405076 
H       0.363877    -2.934089    -0.884949 
C       1.326058     1.569320     3.744154 
H       0.491538     1.531170     4.448575 
H       2.170529     2.022145     4.277262 
C       1.744176     0.136868     3.391428 
H       2.512000     0.142387     2.617750 
H       2.143372    -0.356131     4.278966 
C       0.828402    -3.373928     1.535023 
H       1.768259    -3.175778     1.007804 
H       1.060465    -3.306101     2.602112 
C       0.346363    -4.789873     1.214226 
H      -0.488698    -5.088284     1.854120 
H       0.017558    -4.885168     0.175096 
H       1.153595    -5.510497     1.373311 
O      -1.478197    -2.050600    -0.879482 
C      -1.621827    -1.950462    -2.290211 
H      -1.269732    -0.969512    -2.629873 
H      -1.007097    -2.708543    -2.790370 
C      -3.077375    -2.136662    -2.633772 
C      -3.456619    -2.952475    -3.693716 
C      -4.061834    -1.463772    -1.911125 
C      -4.798210    -3.093711    -4.035576 
H      -2.696668    -3.487023    -4.257511 
C      -5.400655    -1.605438    -2.247194 
H      -3.770705    -0.829213    -1.080246 
C      -5.773257    -2.419836    -3.312726 
H      -5.079440    -3.733493    -4.866477 
H      -6.158527    -1.077443    -1.676292 
H      -6.820845    -2.528683    -3.575574 
C       0.411317    -0.938440     1.576610 
O       1.280039    -0.542277     0.665713 
C       0.687774    -0.822239    -0.554719 
N      -0.971881     0.343119     0.940175 
N      -0.809047     0.483826    -0.181556 
C       1.478250    -0.505192    -1.737696 
O       1.281779    -1.002662    -2.826901 
O       2.426017     0.412390    -1.500965 
C       3.190181     0.811649    -2.643401 
H       2.535946     1.255635    -3.397720 
H       3.902802     1.548613    -2.278279 
H       3.704213    -0.048136    -3.078801 
74
     -1835.308305     -1834.772783   1.39   1.91
C      -0.205767    -3.372125     3.799438 
C       0.359824    -2.102758     4.005917 
C       1.461347    -1.995246     4.866322 
C       1.954235    -3.122279     5.480838 
C       1.366496    -4.387175     5.258320 
C       0.278889    -4.534954     4.416438 
C      -1.358511    -1.894107     2.585106 
C      -0.397647    -1.165410     3.218679 
H       1.929367    -1.033129     5.051566 
H       2.805276    -3.072644     6.150911 
H      -0.183461    -5.495941     4.232530 
H      -2.124929    -1.563294     1.898131 
N      -1.254770    -3.230457     2.925674 
C      -2.112888    -4.292572     2.456489 
H      -1.534988    -5.062510     1.934531 
H      -2.655602    -4.758708     3.285855 
H      -2.840432    -3.875418     1.758577 
O       1.958575    -5.416584     5.933510 
C       1.426373    -6.712892     5.754474 
H       0.382128    -6.766838     6.087339 
H       1.489417    -7.030410     4.705968 
H       2.033337    -7.379425     6.368268 
N       0.868522     0.143199     0.792691 
C       1.283016    -1.141567     0.414011 
O       2.036901    -1.776238     1.110094 
C       0.756357    -1.725614    -0.898318 
H       0.151916    -2.584536    -0.592182 
H       1.641115    -2.152694    -1.376374 
C      -0.034790    -0.818556    -1.868258 
H       0.229302    -1.056793    -2.901618 
H      -1.105708    -0.984970    -1.764531 
C       0.288572     0.643214    -1.568434 
C      -0.643206     1.752293    -2.137421 
H      -0.076603     2.409499    -2.805522 
C      -0.126267     0.301373     3.076722 
H       0.085279     0.741080     4.058251 
H      -1.009818     0.813468     2.684479 
C       1.075725     0.602273     2.170482 
H       1.271140     1.675855     2.142636 
H       1.966735     0.086666     2.528099 
C       1.757892     0.933028    -1.982188 
H       2.393334     0.102612    -1.658070 
H       1.763928     0.908792    -3.078951 
C       2.379350     2.242837    -1.497242 
H       1.791699     3.118157    -1.785746 
H       2.495875     2.260274    -0.410893 
H       3.374554     2.358915    -1.936159 
O      -1.711178     1.180750    -2.855888 
C      -2.209717     1.978794    -3.929335 
H      -3.026653     1.386972    -4.349941 
H      -2.614915     2.919334    -3.548112 
C      -1.153002     2.247690    -4.976209 
C      -0.504844     1.185251    -5.606018 
C      -0.781518     3.550385    -5.291567 
C       0.493063     1.421892    -6.540424 
H      -0.787211     0.166562    -5.354358 
C       0.215959     3.791318    -6.232288 
H      -1.266603     4.378611    -4.782845 
C       0.853882     2.728875    -6.858245 
H       0.990190     0.587394    -7.025393 
H       0.496446     4.812389    -6.471628 
H       1.632637     2.915565    -7.590893 
C       0.102651     0.856364    -0.084198 
O      -0.167049     2.128959     0.147909 
C      -1.032601     2.509814    -0.866828 
N      -1.814799     0.352258     0.145532 
N      -2.438453     1.235575    -0.231059 
C      -1.475062     3.896345    -0.862077 
O      -1.897991     4.466708    -1.846913 
O      -1.400039     4.467996     0.351560 
C      -1.885391     5.813321     0.419968 
H      -2.937639     5.852871     0.129770 
H      -1.763160     6.116100     1.459391 
H      -1.308087     6.464218    -0.240340 
74
     -1835.307296     -1834.772703   2.03   1.96
C       0.886692    -3.858867    -3.669628 
C       0.904728    -2.855558    -2.686245 
C       0.600823    -1.537516    -3.064010 
C       0.288807    -1.271856    -4.376631 
C       0.275097    -2.297462    -5.347752 
C       0.574231    -3.605712    -5.014415 
C       1.437968    -4.805860    -1.723852 
C       1.262529    -3.486376    -1.440481 
H       0.611134    -0.730444    -2.337674 
H       0.042515    -0.268581    -4.705451 
H       0.569753    -4.404187    -5.744492 
H       1.709920    -5.619777    -1.064880 
N       1.215667    -5.048014    -3.068571 
C       1.315419    -6.328267    -3.728482 
H       1.592003    -7.085278    -2.992921 
H       0.358607    -6.616161    -4.177039 
H       2.082011    -6.310250    -4.510534 
O      -0.051405    -1.882574    -6.607352 
C      -0.086426    -2.854510    -7.632354 
H      -0.364177    -2.325579    -8.544704 
H       0.895126    -3.324522    -7.772408 
H      -0.833677    -3.630319    -7.423316 
N       0.029934    -1.570538     1.602217 
C       0.194570    -2.147607     2.863916 
O       0.167179    -3.349937     2.993922 
C       0.378450    -1.234110     4.077160 
H       1.245653    -1.638038     4.604450 
H      -0.479222    -1.464849     4.716107 
C       0.526174     0.287798     3.863996 
H       0.121332     0.824831     4.725772 
H       1.577582     0.558826     3.782132 
C      -0.210907     0.700238     2.591000 
C       0.104870     2.085631     1.952986 
H      -0.800243     2.701758     1.933161 
C       1.366911    -2.809481    -0.109700 
H       1.980971    -1.907033    -0.198528 
H       1.854552    -3.462190     0.619526 
C      -0.021700    -2.428020     0.413924 
H      -0.583370    -1.894182    -0.353065 
H      -0.579681    -3.321623     0.691950 
C      -1.741837     0.568532     2.820538 
H      -1.946538    -0.374363     3.336584 
H      -2.003802     1.365817     3.527201 
C      -2.649456     0.658264     1.593129 
H      -2.500259    -0.183924     0.913157 
H      -3.695524     0.640080     1.912477 
H      -2.498835     1.579619     1.024712 
O       1.098812     2.756446     2.690183 
C       1.012057     4.181060     2.660602 
H       1.856426     4.516571     3.268082 
H       1.143279     4.549431     1.640127 
C      -0.291793     4.683139     3.237289 
C      -0.660210     4.340261     4.538150 
C      -1.159327     5.450926     2.467657 
C      -1.872694     4.764148     5.062697 
H       0.012062     3.732638     5.137851 
C      -2.374515     5.881880     2.992679 
H      -0.885949     5.696966     1.445493 
C      -2.732743     5.540303     4.289819 
H      -2.148964     4.492387     6.076870 
H      -3.042958     6.482128     2.383233 
H      -3.680503     5.874675     4.699727 
C       0.241551    -0.223650     1.485790 
O       0.090520     0.377192     0.319183 
C       0.496712     1.685772     0.529607 
N       2.203038     0.104296     1.479217 
N       2.369459     1.100658     0.940125 
C       0.427486     2.580416    -0.614290 
O       0.376719     3.789074    -0.521686 
O       0.466376     1.930228    -1.792285 
C       0.478986     2.771070    -2.950457 
H      -0.433174     3.369621    -3.001592 
H       1.342899     3.438846    -2.926536 
H       0.542308     2.095677    -3.803059 
74
     -1835.309372     -1834.772381   0.72   2.16
C       1.275477    -3.347114    -1.807986 
C      -0.070563    -3.448099    -1.395218 
C      -1.069153    -3.374052    -2.365931 
C      -0.729227    -3.203143    -3.697162 
C       0.621416    -3.096528    -4.077710 
C       1.639083    -3.162231    -3.139706 
C       1.248930    -3.666195     0.398960 
C      -0.060703    -3.643207     0.034448 
H      -2.116750    -3.453923    -2.091237 
H      -1.514978    -3.145556    -4.439707 
H       2.670255    -3.077890    -3.462516 
H       1.680155    -3.774895     1.384603 
N       2.069305    -3.489608    -0.697427 
C       3.505364    -3.338012    -0.665063 
H       3.983569    -4.024029    -1.370783 
H       3.796332    -2.309841    -0.904911 
H       3.861716    -3.573519     0.338737 
O       1.022402    -2.905175    -5.373098 
C       0.061319    -3.066303    -6.398123 
H       0.605929    -2.983163    -7.339536 
H      -0.419778    -4.050075    -6.342272 
H      -0.709335    -2.286042    -6.360905 
N      -1.264110    -1.345613     1.781526 
C      -1.203137    -1.399895     3.171005 
O      -1.796736    -2.266532     3.775143 
C      -0.381486    -0.351381     3.922851 
H       0.384412    -0.923736     4.453553 
H      -1.062314     0.005160     4.700148 
C       0.255628     0.826976     3.149030 
H       0.164050     1.745159     3.733793 
H       1.318109     0.649794     2.990521 
C      -0.445196     1.000895     1.803147 
C       0.274450     1.800118     0.672419 
H      -0.341469     2.660382     0.390666 
C      -1.253466    -3.719181     0.934670 
H      -0.962807    -4.053166     1.933859 
H      -1.970888    -4.454301     0.551084 
C      -2.003685    -2.387453     1.058365 
H      -2.238353    -1.988775     0.070935 
H      -2.933763    -2.538658     1.608594 
C      -1.860011     1.592729     2.050771 
H      -2.316259     1.074417     2.901132 
H      -1.698422     2.627829     2.376839 
C      -2.840946     1.569648     0.878454 
H      -2.439816     2.059666    -0.012529 
H      -3.119914     0.549945     0.600319 
H      -3.758406     2.096181     1.156914 
O       1.552567     2.263737     1.048451 
C       1.760231     3.651192     0.795149 
H       2.814715     3.821940     1.025619 
H       1.598211     3.865790    -0.266519 
C       0.876842     4.520776     1.662776 
C      -0.085143     5.355541     1.103452 
C       0.985892     4.455445     3.051889 
C      -0.929798     6.109059     1.913556 
H      -0.180625     5.412688     0.022499 
C       0.145014     5.202556     3.864067 
H       1.737035     3.807473     3.494719 
C      -0.818440     6.031499     3.295023 
H      -1.675608     6.755719     1.461904 
H       0.240429     5.142145     4.943828 
H      -1.475944     6.617581     3.929209 
C      -0.550268    -0.359336     1.152600 
O      -0.594995    -0.227353    -0.158592 
C       0.299152     0.783942    -0.458113 
N       1.381956    -0.876125     1.116588 
N       1.855631    -0.328347     0.235357 
C       0.482864     1.150800    -1.848755 
O       0.959759     2.213937    -2.192127 
O       0.108364     0.188746    -2.706214 
C       0.367468     0.466029    -4.085423 
H      -0.134609     1.385316    -4.394543 
H       1.441880     0.569080    -4.254006 
H      -0.018818    -0.391431    -4.633057 
74
     -1835.304163     -1834.771988   3.99   2.41
C       2.238444    -3.857218    -3.036568 
C       1.868244    -2.738644    -2.271518 
C       1.003000    -1.790128    -2.840513 
C       0.539742    -1.988480    -4.120021 
C       0.924634    -3.121877    -4.870070 
C       1.779632    -4.073702    -4.345330 
C       3.242658    -4.014770    -1.048059 
C       2.525949    -2.859104    -0.994534 
H       0.699226    -0.906597    -2.287845 
H      -0.136720    -1.283374    -4.589859 
H       2.085928    -4.947484    -4.905034 
H       3.873586    -4.467725    -0.294768 
N       3.080946    -4.630328    -2.277399 
C       3.693430    -5.869862    -2.693234 
H       4.335694    -5.718592    -3.567414 
H       4.307960    -6.252690    -1.876888 
H       2.935340    -6.621940    -2.936648 
O       0.387020    -3.182429    -6.124117 
C       0.726921    -4.289580    -6.933535 
H       1.806764    -4.330023    -7.123987 
H       0.403361    -5.233598    -6.477362 
H       0.201132    -4.149182    -7.878589 
N       0.731518    -0.953029     1.756628 
C       1.146981    -1.089105     3.079877 
O       1.585862    -2.142612     3.481446 
C       1.060996     0.127232     4.001023 
H       2.106182     0.375379     4.209132 
H       0.669339    -0.270391     4.938969 
C       0.296649     1.400409     3.551285 
H      -0.384369     1.726071     4.342489 
H       1.004268     2.212111     3.390582 
C      -0.485405     1.169777     2.259039 
C      -0.740350     2.388450     1.307876 
H      -1.818104     2.559595     1.217630 
C       2.390468    -1.910658     0.155182 
H       2.552214    -0.883793    -0.189857 
H       3.144632    -2.116979     0.919866 
C       0.997908    -2.018073     0.786405 
H       0.226488    -1.967613     0.017708 
H       0.895183    -2.963684     1.318053 
C      -1.880543     0.523411     2.507777 
H      -2.500306     1.328823     2.921425 
H      -2.318986     0.273219     1.534452 
C      -1.986430    -0.686456     3.435503 
H      -1.456286    -1.562013     3.056431 
H      -1.617915    -0.469363     4.441330 
H      -3.039833    -0.965217     3.533414 
O      -0.129528     3.564244     1.782035 
C      -0.881425     4.756574     1.558915 
H      -0.249543     5.555880     1.954482 
H      -1.024162     4.919674     0.487185 
C      -2.215089     4.730421     2.270885 
C      -2.271586     4.499858     3.645471 
C      -3.401324     4.895335     1.563700 
C      -3.493280     4.439926     4.300837 
H      -1.347075     4.364332     4.199783 
C      -4.628264     4.841613     2.218884 
H      -3.362883     5.053717     0.489466 
C      -4.676599     4.613873     3.587553 
H      -3.525364     4.260848     5.371143 
H      -5.546875     4.973786     1.655743 
H      -5.632466     4.570356     4.099888 
C       0.342881     0.292166     1.348897 
O      -0.017279     0.495480     0.095661 
C      -0.191013     1.867084    -0.015445 
N       1.989348     1.388813     1.146924 
N       1.754004     2.205958     0.381345 
C      -0.599064     2.379402    -1.311493 
O      -1.138182     3.455434    -1.466254 
O      -0.280335     1.556824    -2.328774 
C      -0.591564     2.055269    -3.633933 
H      -0.080728     3.004388    -3.810313 
H      -0.237510     1.296272    -4.330890 
H      -1.668143     2.204308    -3.742077 
74
     -1835.305207     -1834.771430   3.34   2.76
C       1.346119    -1.794388    -4.195973 
C       0.582631    -0.617071    -4.266760 
C      -0.203188    -0.399186    -5.406999 
C      -0.205708    -1.332151    -6.417160 
C       0.572474    -2.507079    -6.323029 
C       1.360465    -2.759001    -5.214354 
C       1.694699    -0.628656    -2.323070 
C       0.823140     0.120562    -3.054254 
H      -0.809769     0.496570    -5.500299 
H      -0.803269    -1.193477    -7.311266 
H       1.961768    -3.654173    -5.123815 
H       2.118417    -0.427103    -1.349087 
N       2.019662    -1.790171    -3.000117 
C       2.925199    -2.814760    -2.536868 
H       3.786204    -2.914617    -3.206500 
H       3.288749    -2.541464    -1.545109 
H       2.418731    -3.783032    -2.464819 
O       0.473255    -3.343212    -7.398794 
C       1.220685    -4.541659    -7.371370 
H       2.297893    -4.340848    -7.312520 
H       0.924338    -5.179295    -6.528895 
H       1.002813    -5.058680    -8.306594 
N      -1.372300     0.403329    -0.983949 
C      -1.565468    -0.979181    -1.113353 
O      -1.908756    -1.458252    -2.166208 
C      -1.332004    -1.869133     0.107932 
H      -0.485414    -2.502400    -0.172866 
H      -2.197322    -2.535948     0.125449 
C      -1.086926    -1.213215     1.484857 
H      -1.562602    -1.802520     2.272619 
H      -0.022213    -1.181184     1.709059 
C      -1.648435     0.207378     1.475180 
C      -1.209212     1.192188     2.597001 
H      -2.067460     1.504557     3.208949 
C       0.180134     1.414375    -2.656876 
H       0.166893     2.104264    -3.508517 
H       0.761196     1.898666    -1.866690 
C      -1.269920     1.241169    -2.184089 
H      -1.714099     2.211999    -1.957216 
H      -1.867821     0.745230    -2.948354 
C      -3.197992     0.147305     1.397184 
H      -3.489866    -0.594626     0.647492 
H      -3.529403    -0.256008     2.361267 
C      -3.939148     1.452291     1.105415 
H      -3.678995     2.249256     1.807003 
H      -3.737097     1.816849     0.095738 
H      -5.017082     1.285249     1.185687 
O      -0.275264     0.546037     3.424788 
C       0.199576     1.310511     4.528869 
H       0.752211     2.183366     4.165432 
H      -0.644849     1.677299     5.125375 
C       1.094836     0.425606     5.355351 
C       2.236533    -0.133462     4.781146 
C       0.810261     0.160974     6.689393 
C       3.075980    -0.943148     5.531795 
H       2.460794     0.069945     3.738126 
C       1.652366    -0.648429     7.446878 
H      -0.079665     0.589239     7.142805 
C       2.786337    -1.202008     6.869009 
H       3.961348    -1.374515     5.074628 
H       1.418586    -0.846684     8.488393 
H       3.444422    -1.834850     7.456234 
C      -1.091817     0.905569     0.254703 
O      -1.109584     2.212064     0.458909 
C      -0.695597     2.381288     1.770327 
N       0.861875     0.821250     0.586030 
N       1.102666     1.624911     1.367385 
C      -0.685654     3.761091     2.250611 
O      -0.753236     4.067300     3.421151 
O      -0.567259     4.654764     1.253647 
C      -0.502980     6.023062     1.670731 
H       0.360750     6.182743     2.319982 
H      -0.405649     6.603894     0.754145 
H      -1.410979     6.303427     2.209093 
74
     -1835.308136     -1834.771409   1.50   2.77
C       3.852598    -0.217852    -1.461887 
C       3.585666     1.091874    -1.010907 
C       3.353383     2.088772    -1.958875 
C       3.382815     1.776672    -3.307034 
C       3.647754     0.458454    -3.729213 
C       3.885431    -0.553450    -2.812693 
C       3.884196    -0.232376     0.768025 
C       3.608895     1.057724     0.429512 
H       3.140442     3.107041    -1.649273 
H       3.203492     2.559969    -4.032121 
H       4.083081    -1.558409    -3.166654 
H       3.974198    -0.684085     1.747442 
N       4.044785    -1.012023    -0.360299 
C       4.233033    -2.443688    -0.380706 
H       3.335654    -2.953399    -0.747391 
H       5.083969    -2.712090    -1.013968 
H       4.438146    -2.788345     0.634119 
O       3.691243     0.083628    -5.043214 
C       3.469412     1.074216    -6.026941 
H       3.553120     0.568048    -6.989504 
H       2.468487     1.513872    -5.936320 
H       4.221196     1.871025    -5.971362 
N       0.831791     1.873728     0.909040 
C       0.607830     2.790070    -0.112041 
O       1.145810     3.876276    -0.084143 
C      -0.304082     2.395046    -1.272472 
H       0.368536     2.307963    -2.131122 
H      -0.904845     3.288159    -1.459298 
C      -1.183135     1.127315    -1.146385 
H      -2.180290     1.322667    -1.548841 
H      -0.757086     0.309935    -1.724866 
C      -1.283263     0.721624     0.322685 
C      -1.754218    -0.719988     0.674922 
H      -2.675116    -0.675433     1.266318 
C       3.291609     2.200967     1.345338 
H       3.424409     3.143864     0.812746 
H       3.974957     2.217046     2.200885 
C       1.865445     2.145268     1.915120 
H       1.787204     1.354644     2.660834 
H       1.620173     3.097850     2.391200 
C      -2.164619     1.758059     1.072000 
H      -1.892732     2.766029     0.740934 
H      -3.188148     1.588713     0.715423 
C      -2.143239     1.719555     2.600127 
H      -2.404739     0.735200     2.996843 
H      -1.163132     1.990678     3.000590 
H      -2.869763     2.435470     2.995288 
O      -2.000605    -1.463014    -0.496550 
C      -3.019538    -2.454572    -0.376207 
H      -3.057760    -2.924472    -1.362230 
H      -2.733437    -3.206906     0.362848 
C      -4.360340    -1.853184    -0.021286 
C      -5.027933    -2.240294     1.135809 
C      -4.922209    -0.866679    -0.831643 
C      -6.247000    -1.659814     1.474763 
H      -4.579248    -2.989360     1.782136 
C      -6.134500    -0.282395    -0.493972 
H      -4.397407    -0.555926    -1.731009 
C      -6.802296    -0.681425     0.661116 
H      -6.759894    -1.971334     2.379449 
H      -6.563254     0.483818    -1.132588 
H      -7.752094    -0.227185     0.925054 
C       0.116918     0.704658     0.890314 
O       0.161688    -0.123788     1.921237 
C      -0.599811    -1.217876     1.542906 
N       0.987922    -0.598084    -0.304400 
N       0.679334    -1.643552     0.037351 
C      -0.726593    -2.294769     2.512070 
O      -1.629464    -3.106695     2.498116 
O       0.276848    -2.318793     3.407090 
C       0.225941    -3.397294     4.347102 
H      -0.689263    -3.346688     4.941079 
H       0.261191    -4.357224     3.827217 
H       1.102444    -3.273434     4.982369 
74
     -1835.309843     -1834.771315   0.43   2.83
C       1.129595     3.809985    -0.403688 
C       0.159379     3.769533     0.612398 
C       0.586009     3.850881     1.945373 
C       1.928666     3.954215     2.223414 
C       2.884552     3.969928     1.185309 
C       2.504106     3.899692    -0.142326 
C      -0.875401     3.679577    -1.368739 
C      -1.125746     3.672838    -0.031619 
H      -0.131740     3.836900     2.760045 
H       2.288477     4.022024     3.244233 
H       3.222107     3.911823    -0.951756 
H      -1.569281     3.602950    -2.194300 
N       0.480974     3.762973    -1.611624 
C       1.113265     3.668048    -2.906948 
H       0.342484     3.707051    -3.677807 
H       1.801082     4.504179    -3.066320 
H       1.658628     2.723876    -3.008856 
O       4.182552     4.047261     1.607725 
C       5.193170     4.103120     0.621353 
H       6.139921     4.175235     1.157827 
H       5.197828     3.198424     0.000134 
H       5.074255     4.983516    -0.022101 
N      -2.703041     1.006444     0.436396 
C      -3.906082     0.768722    -0.218705 
O      -4.857960     1.496635    -0.037633 
C      -4.025351    -0.449463    -1.131999 
H      -4.422744    -0.068041    -2.075322 
H      -4.839957    -1.029358    -0.686382 
C      -2.790253    -1.338486    -1.372536 
H      -3.124526    -2.358778    -1.565927 
H      -2.245281    -1.004249    -2.255669 
C      -1.867833    -1.270575    -0.158137 
C      -0.383919    -1.772899    -0.264787 
H      -0.227393    -2.617791     0.416523 
C      -2.451554     3.509633     0.641933 
H      -3.267207     3.632061    -0.074593 
H      -2.583842     4.282218     1.408629 
C      -2.609813     2.156686     1.346209 
H      -1.767648     1.971391     2.012934 
H      -3.529881     2.155254     1.932887 
C      -2.516194    -1.899211     1.105413 
H      -1.846737    -1.720287     1.954517 
H      -3.446125    -1.370947     1.337534 
C      -2.807608    -3.396854     0.997105 
H      -3.225177    -3.764199     1.938969 
H      -3.536980    -3.615779     0.211766 
H      -1.906604    -3.979702     0.790904 
O       0.041198    -2.147735    -1.557541 
C      -0.294463    -3.470692    -1.941496 
H      -1.381653    -3.617860    -1.931761 
H       0.032353    -3.542604    -2.983208 
C       0.362728    -4.562845    -1.122656 
C      -0.327927    -5.744863    -0.866536 
C       1.667104    -4.421344    -0.654654 
C       0.273509    -6.778201    -0.156968 
H      -1.348041    -5.860809    -1.225340 
C       2.265990    -5.451122     0.060133 
H       2.202070    -3.494849    -0.827444 
C       1.574672    -6.632337     0.307864 
H      -0.275079    -7.695685     0.032306 
H       3.280408    -5.329061     0.426721 
H       2.047949    -7.435405     0.864128 
C      -1.633754     0.195918     0.147359 
O      -0.504579     0.324536     0.812291 
C       0.382635    -0.554140     0.216741 
N      -0.810626     0.803710    -1.565113 
N       0.288212     0.501719    -1.534507 
C       1.737218    -0.588456     0.742664 
O       2.516875    -1.492054     0.529816 
O       2.044718     0.503611     1.461626 
C       3.392712     0.559765     1.937021 
H       3.611422    -0.300894     2.573170 
H       4.089384     0.566441     1.094912 
H       3.469797     1.488796     2.498711 
74
     -1835.305432     -1834.771284   3.20   2.85
C       2.323074     5.362059    -0.600713 
C       1.213790     4.493953    -0.677171 
C       0.126561     4.860271    -1.471991 
C       0.161582     6.058482    -2.165787 
C       1.281899     6.907198    -2.073220 
C       2.376047     6.571745    -1.290573 
C       2.743050     3.580416     0.681645 
C       1.507885     3.354804     0.158227 
H      -0.742642     4.213800    -1.552858 
H      -0.685328     6.333776    -2.780457 
H       3.223362     7.245745    -1.239409 
H       3.325901     2.967482     1.356740 
N       3.250294     4.788911     0.234382 
C       4.529545     5.359581     0.583411 
H       5.150571     5.505150    -0.306859 
H       4.405416     6.323612     1.088143 
H       5.049883     4.679677     1.260067 
O       1.376967     8.101665    -2.732854 
C       0.294674     8.500544    -3.549979 
H       0.119893     7.785582    -4.363388 
H      -0.627287     8.618379    -2.967365 
H       0.576534     9.465045    -3.974440 
N      -0.549551     0.344436    -0.864650 
C      -1.792251     0.701637    -1.384471 
O      -2.020981     1.853970    -1.679799 
C      -2.858037    -0.376590    -1.579433 
H      -3.154209    -0.287463    -2.627603 
H      -3.717453    -0.018480    -1.005809 
C      -2.512730    -1.839492    -1.232381 
H      -3.411338    -2.367712    -0.903610 
H      -2.135881    -2.360692    -2.111230 
C      -1.453518    -1.859165    -0.133461 
C      -0.687363    -3.183408     0.151910 
H      -0.889157    -3.521782     1.173723 
C       0.618412     2.168019     0.356429 
H      -0.394385     2.503161     0.606414 
H       0.976365     1.556277     1.189522 
C       0.548471     1.315872    -0.915115 
H       0.380909     1.952065    -1.783438 
H       1.478164     0.766461    -1.066356 
C      -2.074839    -1.323808     1.186891 
H      -2.657038    -0.422927     0.971245 
H      -2.799415    -2.085240     1.500547 
C      -1.124140    -1.020311     2.345164 
H      -0.504290    -1.878257     2.617394 
H      -0.458805    -0.185757     2.116254 
H      -1.706010    -0.744893     3.229710 
O      -1.088718    -4.188534    -0.748680 
C      -0.988597    -5.520986    -0.246685 
H      -1.305682    -6.149966    -1.082409 
H       0.049219    -5.758470    -0.000350 
C      -1.878170    -5.745331     0.954619 
C      -1.337517    -6.133295     2.175955 
C      -3.252071    -5.524435     0.859510 
C      -2.158486    -6.310938     3.286083 
H      -0.264427    -6.280525     2.258523 
C      -4.072742    -5.698170     1.964666 
H      -3.675143    -5.212612    -0.091562 
C      -3.526064    -6.095292     3.182361 
H      -1.725499    -6.615261     4.233947 
H      -5.141193    -5.525766     1.878611 
H      -4.166939    -6.233184     4.047448 
C      -0.315871    -0.974301    -0.583508 
O       0.791265    -1.340062     0.036683 
C       0.768925    -2.725724     0.028807 
N       0.258678    -1.849691    -2.269932 
N       0.876076    -2.766943    -1.972305 
C       1.883701    -3.399618     0.679270 
O       1.832480    -4.546416     1.074185 
O       2.983244    -2.633137     0.766243 
C       4.126389    -3.273550     1.343978 
H       4.918873    -2.526043     1.329735 
H       3.913769    -3.588642     2.367926 
H       4.411901    -4.146912     0.753485 
74
     -1835.305432     -1834.771277   3.20   2.85
C      -2.260955    -2.955303     4.545722 
C      -1.142046    -2.507469     3.812612 
C       0.072291    -3.179211     3.961417 
C       0.150890    -4.265130     4.817507 
C      -0.981619    -4.692963     5.537494 
C      -2.200942    -4.045049     5.412270 
C      -2.889629    -1.194365     3.321411 
C      -1.572102    -1.371904     3.033134 
H       0.952493    -2.860006     3.410662 
H       1.096129    -4.780567     4.925718 
H      -3.054402    -4.397792     5.979736 
H      -3.581407    -0.451744     2.945761 
N      -3.322378    -2.141728     4.234117 
C      -4.655566    -2.259677     4.775103 
H      -4.650293    -2.138413     5.863581 
H      -5.285099    -1.479735     4.343521 
H      -5.093628    -3.233302     4.530976 
O      -0.968496    -5.756813     6.397121 
C       0.244744    -6.461900     6.567581 
H       0.588142    -6.905408     5.624855 
H       1.032998    -5.814608     6.971320 
H       0.033122    -7.258079     7.282557 
N       0.701166    -0.820792     0.054851 
C       2.014498    -1.211510     0.309031 
O       2.274886    -1.871332     1.290988 
C       3.117779    -0.800700    -0.665900 
H       3.610983    -1.737410    -0.937281 
H       3.841971    -0.262268    -0.048230 
C       2.738781     0.001995    -1.927568 
H       3.565708     0.655351    -2.217263 
H       2.550376    -0.669569    -2.763955 
C       1.486132     0.826146    -1.641933 
C       0.703889     1.447564    -2.835241 
H       0.708801     2.540089    -2.759833 
C      -0.716362    -0.593023     2.084471 
H       0.221789    -0.314176     2.577103 
H      -1.218438     0.332259     1.787528 
C      -0.383864    -1.420918     0.838716 
H      -0.062066    -2.420576     1.128427 
H      -1.255783    -1.515278     0.190712 
C       1.827892     1.937226    -0.610101 
H       2.424040     1.505493     0.199379 
H       2.491471     2.633648    -1.137194 
C       0.664044     2.713600     0.006533 
H       0.019135     3.174286    -0.745965 
H       0.040666     2.077382     0.637545 
H       1.056974     3.517886     0.635484 
O       1.291884     1.072477    -4.058351 
C       1.120577     2.010207    -5.120786 
H       1.606266     1.538999    -5.979076 
H       0.059249     2.142611    -5.344829 
C       1.762710     3.343457    -4.812711 
C       3.124424     3.413578    -4.519008 
C       1.001478     4.506975    -4.777549 
C       3.716813     4.628322    -4.205118 
H       3.719041     2.504259    -4.537194 
C       1.593260     5.727760    -4.465445 
H      -0.064179     4.450297    -4.980471 
C       2.950554     5.790896    -4.180313 
H       4.778134     4.671608    -3.980532 
H       0.989405     6.629626    -4.442351 
H       3.412799     6.742209    -3.936502 
C       0.441796    -0.112580    -1.087024 
O      -0.758014     0.396391    -1.300501 
C      -0.708710     0.910863    -2.586390 
N       0.223633    -1.421982    -2.562926 
N      -0.422729    -0.915569    -3.360972 
C      -1.916172     1.561216    -3.075307 
O      -1.921579     2.358440    -3.990800 
O      -3.025664     1.162629    -2.431716 
C      -4.247388     1.729266    -2.918542 
H      -4.232719     2.816920    -2.819780 
H      -4.395910     1.467907    -3.968586 
H      -5.035676     1.299009    -2.301711 
74
     -1835.306029     -1834.771160   2.82   2.93
C       0.160176    -0.885841    -3.979093 
C       0.824883     0.292769    -3.599383 
C       0.153534     1.515429    -3.745775 
C      -1.134404     1.527804    -4.222988 
C      -1.796599     0.326903    -4.558362 
C      -1.160656    -0.897070    -4.454608 
C       2.204729    -1.439102    -3.269696 
C       2.136212    -0.086329    -3.135956 
H       0.638368     2.450897    -3.485620 
H      -1.677584     2.457719    -4.347833 
H      -1.648877    -1.825967    -4.718672 
H       3.019797    -2.110855    -3.036048 
N       1.019055    -1.938088    -3.782650 
C       0.726307    -3.326968    -4.047338 
H      -0.124346    -3.671958    -3.449841 
H       0.502699    -3.487114    -5.107216 
H       1.597802    -3.928923    -3.785332 
O      -3.087186     0.488737    -4.976344 
C      -3.805008    -0.665317    -5.366190 
H      -4.793417    -0.320634    -5.671894 
H      -3.320811    -1.169203    -6.211809 
H      -3.910498    -1.372297    -4.533769 
N       2.633673     0.614713    -0.178724 
C       3.782212     0.197608     0.500043 
O       4.875477     0.418223     0.028391 
C       3.639633    -0.546136     1.825077 
H       4.396861    -0.106314     2.477283 
H       3.986637    -1.563401     1.618736 
C       2.261158    -0.547025     2.505876 
H       2.180857    -1.390059     3.196769 
H       2.129503     0.362637     3.091367 
C       1.176380    -0.620788     1.435219 
C      -0.292184    -0.325500     1.844676 
H      -0.922135    -1.219409     1.759422 
C       3.195040     0.831034    -2.606954 
H       3.411480     1.614502    -3.343361 
H       4.126366     0.284746    -2.442027 
C       2.805185     1.541669    -1.307299 
H       3.582424     2.258335    -1.034585 
H       1.864108     2.078206    -1.423668 
C       1.250315    -1.989098     0.699342 
H       2.257906    -2.121312     0.294973 
H       1.132885    -2.753654     1.476925 
C       0.245451    -2.250863    -0.424058 
H       0.416284    -3.254663    -0.824276 
H      -0.791567    -2.214452    -0.081533 
H       0.354726    -1.543782    -1.245071 
O      -0.318216     0.109106     3.181962 
C      -1.612535     0.402223     3.696708 
H      -2.061567     1.223125     3.126878 
H      -2.267971    -0.471519     3.591959 
C      -1.461127     0.789049     5.144012 
C      -0.688816     1.899063     5.486342 
C      -2.086075     0.063488     6.150788 
C      -0.546270     2.272721     6.814501 
H      -0.197531     2.467280     4.701964 
C      -1.947907     0.437566     7.484564 
H      -2.685960    -0.804948     5.892112 
C      -1.177404     1.542643     7.818298 
H       0.058306     3.137518     7.070554 
H      -2.441947    -0.137829     8.261446 
H      -1.066185     1.836467     8.857386 
C       1.422007     0.505718     0.455255 
O       0.295404     0.748461    -0.192095 
C      -0.693167     0.707979     0.776965 
N       1.201484     2.128901     1.563494 
N       0.073193     2.286868     1.699269 
C      -2.064119     0.833991     0.280740 
O      -3.027898     0.405389     0.878757 
O      -2.140556     1.477302    -0.891814 
C      -3.458087     1.589356    -1.441570 
H      -4.110267     2.139830    -0.759953 
H      -3.339841     2.122630    -2.382766 
H      -3.879795     0.597815    -1.621885 
74
     -1835.307616     -1834.771118   1.83   2.95
C      -0.379030     0.062135    -3.647107 
C      -1.644145    -0.397585    -3.221843 
C      -2.743954     0.444327    -3.383614 
C      -2.578364     1.699855    -3.943555 
C      -1.302345     2.136041    -4.346009 
C      -0.187588     1.326100    -4.199677 
C      -0.139692    -2.018497    -2.881078 
C      -1.459511    -1.737446    -2.718501 
H      -3.736271     0.125359    -3.079002 
H      -3.441114     2.343132    -4.061869 
H       0.782043     1.686682    -4.522938 
H       0.404947    -2.912750    -2.612077 
N       0.528603    -0.945427    -3.436444 
C       1.955485    -0.847886    -3.636096 
H       2.406830    -1.818698    -3.427189 
H       2.186045    -0.574539    -4.670419 
H       2.395360    -0.108212    -2.958964 
O      -1.067910     3.372876    -4.884442 
C      -2.182181     4.153164    -5.271468 
H      -2.826764     3.607892    -5.971201 
H      -2.777627     4.471440    -4.406533 
H      -1.776022     5.035781    -5.767216 
N      -2.000710    -2.176551     0.371737 
C      -1.876177    -3.401000     1.027466 
O      -2.545156    -4.349330     0.680431 
C      -0.931436    -3.511150     2.223425 
H      -0.354749    -4.423425     2.056520 
H      -1.596995    -3.735551     3.063957 
C      -0.010675    -2.323372     2.551479 
H       0.263081    -2.336883     3.607494 
H       0.916286    -2.396340     1.984551 
C      -0.725322    -1.028294     2.178377 
C       0.086856     0.298159     2.118040 
H      -0.277161     1.016542     2.865861 
C      -2.497989    -2.598508    -2.071479 
H      -2.126430    -3.617051    -1.933388 
H      -3.382815    -2.669650    -2.715212 
C      -2.978399    -2.057513    -0.719171 
H      -3.240916    -1.002590    -0.801967 
H      -3.858351    -2.614277    -0.394535 
C      -2.001971    -0.790395     3.028862 
H      -2.469520     0.137437     2.680816 
H      -2.729635    -1.585177     2.839118 
C      -1.735927    -0.700566     4.532647 
H      -1.435254    -1.665890     4.949256 
H      -0.947606     0.020979     4.766975 
H      -2.640813    -0.384896     5.059673 
O       1.437330     0.016620     2.382122 
C       2.305424     1.142339     2.413470 
H       2.394276     1.569788     1.408255 
H       1.893108     1.922794     3.064506 
C       3.651581     0.688429     2.916088 
C       4.330264     1.417571     3.885764 
C       4.248048    -0.456086     2.388116 
C       5.589823     1.017491     4.322125 
H       3.869678     2.306572     4.308441 
C       5.502054    -0.859677     2.823723 
H       3.719954    -1.030622     1.633797 
C       6.178399    -0.122287     3.791460 
H       6.108538     1.597391     5.079393 
H       5.956005    -1.753400     2.406284 
H       7.160075    -0.438211     4.130411 
C      -1.162532    -1.153730     0.733595 
O      -1.329111     0.055003     0.233348 
C      -0.267753     0.803187     0.713735 
N       0.589031    -1.387507    -0.188501 
N       1.061697    -0.351337    -0.275549 
C      -0.243908     2.203700     0.312947 
O       0.401852     3.055647     0.886587 
O      -0.991372     2.443651    -0.774308 
C      -0.935770     3.783335    -1.273286 
H      -1.664498     3.822871    -2.080416 
H      -1.184399     4.498491    -0.486818 
H       0.063187     3.999522    -1.658989 
74
     -1835.306208     -1834.771091   2.71   2.97
C       2.836187     3.963860     2.110393 
C       2.062816     2.932112     1.553192 
C       2.600160     1.635386     1.510576 
C       3.863708     1.416978     2.007353 
C       4.622918     2.470198     2.564074 
C       4.125154     3.758896     2.627067 
C       0.890591     4.837628     1.447683 
C       0.813363     3.515838     1.133316 
H       2.035229     0.808129     1.092795 
H       4.316562     0.432037     1.981590 
H       4.692017     4.577775     3.049760 
H       0.163026     5.624156     1.296990 
N       2.107631     5.125175     2.040796 
C       2.538958     6.421319     2.508632 
H       3.443560     6.748216     1.984848 
H       1.748432     7.148507     2.316526 
H       2.739322     6.405188     3.585254 
O       5.856863     2.102081     3.019021 
C       6.674471     3.103661     3.589117 
H       6.902028     3.895466     2.864409 
H       6.204718     3.547417     4.475891 
H       7.601121     2.609722     3.883439 
N      -0.898801     1.491576    -1.585104 
C      -1.783523     1.968161    -2.556025 
O      -1.925454     3.157736    -2.721437 
C      -2.564669     0.963679    -3.404832 
H      -2.366581     1.261883    -4.437180 
H      -3.614847     1.213167    -3.229608 
C      -2.298636    -0.543662    -3.212672 
H      -3.198601    -1.115674    -3.452774 
H      -1.512790    -0.880777    -3.887516 
C      -1.875621    -0.798228    -1.768194 
C      -1.228171    -2.164983    -1.397838 
H      -1.860342    -2.698742    -0.680812 
C      -0.308287     2.790203     0.458067 
H      -1.211715     3.406731     0.428340 
H      -0.548723     1.887157     1.027598 
C       0.078046     2.398394    -0.970841 
H       0.143743     3.283218    -1.602341 
H       1.047059     1.896607    -0.982021 
C      -3.081811    -0.526416    -0.825789 
H      -3.551772     0.420603    -1.106673 
H      -3.814656    -1.309240    -1.056657 
C      -2.820495    -0.508564     0.680718 
H      -3.772183    -0.412186     1.211722 
H      -2.340764    -1.423223     1.038006 
H      -2.194667     0.335195     0.975590 
O      -1.070927    -2.962560    -2.547083 
C      -1.091165    -4.369620    -2.307938 
H      -0.919799    -4.814430    -3.291501 
H      -0.271334    -4.655697    -1.644172 
C      -2.413189    -4.831157    -1.738640 
C      -2.471727    -5.463082    -0.501028 
C      -3.597571    -4.589212    -2.434493 
C      -3.695362    -5.860382     0.030818 
H      -1.552885    -5.628949     0.054180 
C      -4.818950    -4.981879    -1.906183 
H      -3.554722    -4.087570    -3.397450 
C      -4.869641    -5.622097    -0.670489 
H      -3.728696    -6.354013     0.997127 
H      -5.734441    -4.790811    -2.457643 
H      -5.824215    -5.931277    -0.256567 
C      -0.733725     0.139740    -1.461256 
O      -0.025713    -0.354263    -0.459683 
C       0.070586    -1.712470    -0.721194 
N       0.633780    -0.406312    -2.785667 
N       1.110870    -1.371424    -2.393480 
C       0.789796    -2.506061     0.263799 
O       0.672010    -3.708057     0.377825 
O       1.624934    -1.770543     1.020534 
C       2.388894    -2.507236     1.981082 
H       2.981578    -1.765223     2.515320 
H       1.729678    -3.039208     2.670423 
H       3.037356    -3.228566     1.478904 
74
     -1835.306860     -1834.771090   2.30   2.97
C       1.906655    -2.774500     1.440492 
C       2.934122    -1.816282     1.448995 
C       4.054026    -2.031126     0.632432 
C       4.118789    -3.162741    -0.144709 
C       3.072053    -4.111626    -0.135422 
C       1.950254    -3.934037     0.654088 
C       1.323937    -1.149246     2.850745 
C       2.536464    -0.772497     2.354428 
H       4.867018    -1.312387     0.606488 
H       4.970972    -3.357534    -0.786261 
H       1.135922    -4.646130     0.671480 
H       0.663567    -0.639423     3.538174 
N       0.931671    -2.356489     2.309060 
C      -0.348900    -2.990692     2.514123 
H      -0.222886    -4.029605     2.834441 
H      -0.884425    -2.449039     3.294279 
H      -0.951394    -2.962267     1.600237 
O       3.270126    -5.185332    -0.956258 
C       2.262605    -6.174746    -0.996493 
H       2.608648    -6.934549    -1.698195 
H       2.113190    -6.634125    -0.011244 
H       1.310052    -5.761899    -1.351857 
N       1.889685     2.033315     1.219072 
C       2.734802     2.588437     0.259877 
O       3.885147     2.848111     0.537203 
C       2.178097     2.912490    -1.125945 
H       2.889010     2.478748    -1.832835 
H       2.303691     3.996878    -1.213226 
C       0.735974     2.493749    -1.461107 
H       0.322907     3.142310    -2.234989 
H       0.718343     1.479185    -1.856881 
C      -0.097419     2.548765    -0.185212 
C      -1.512910     1.901284    -0.171295 
H      -2.289869     2.658268     0.005195 
C       3.287905     0.494434     2.639952 
H       4.120313     0.598626     1.940159 
H       3.728104     0.472190     3.643748 
C       2.428230     1.756351     2.558149 
H       1.579576     1.694697     3.239749 
H       3.029868     2.624320     2.831990 
C      -0.208077     3.986790     0.388503 
H      -0.791685     3.936045     1.314448 
H       0.782056     4.352616     0.675839 
C      -0.852740     4.987018    -0.572825 
H      -0.208666     5.195898    -1.431515 
H      -1.811208     4.626526    -0.958135 
H      -1.037111     5.937315    -0.063757 
O      -1.747287     1.289905    -1.412844 
C      -3.032507     0.703242    -1.576663 
H      -3.138253    -0.152562    -0.900150 
H      -3.815984     1.425937    -1.317332 
C      -3.168954     0.261725    -3.010595 
C      -2.174852    -0.521724    -3.596349 
C      -4.289669     0.602140    -3.758735 
C      -2.304430    -0.956263    -4.907382 
H      -1.296178    -0.785831    -3.016042 
C      -4.424459     0.164613    -5.073300 
H      -5.065692     1.218460    -3.312578 
C      -3.431848    -0.615685    -5.649936 
H      -1.523648    -1.564641    -5.353817 
H      -5.305759     0.437298    -5.645779 
H      -3.532838    -0.957475    -6.675307 
C       0.611539     1.697025     0.849854 
O      -0.274627     1.337890     1.768229 
C      -1.407332     0.984552     1.054440 
N       0.615775    -0.067007     0.005392 
N      -0.433670    -0.506250     0.127558 
C      -2.546179     0.555928     1.855280 
O      -3.695977     0.589577     1.476121 
O      -2.184371     0.083692     3.067608 
C      -3.269552    -0.361190     3.887642 
H      -3.802878    -1.182892     3.404070 
H      -2.817006    -0.694316     4.821561 
H      -3.969856     0.455754     4.073871 
74
     -1835.304347     -1834.770872   3.88   3.11
C       3.578439     1.964423    -3.466001 
C       2.669325     1.411577    -2.548349 
C       2.659194     1.902276    -1.232556 
C       3.529859     2.908648    -0.886183 
C       4.433555     3.450823    -1.826667 
C       4.476035     2.989766    -3.129608 
C       2.401663     0.387034    -4.521276 
C       1.921497     0.397059    -3.247895 
H       1.977995     1.497973    -0.489860 
H       3.548961     3.316646     0.118055 
H       5.161822     3.391944    -3.863476 
H       2.106909    -0.227337    -5.361721 
N       3.405578     1.328645    -4.669863 
C       4.147174     1.595287    -5.879557 
H       3.785843     0.934778    -6.669361 
H       4.009225     2.631559    -6.206224 
H       5.216817     1.408721    -5.735755 
O       5.235393     4.442403    -1.337533 
C       6.165092     5.033834    -2.222057 
H       6.884572     4.296119    -2.599021 
H       5.661220     5.515168    -3.069642 
H       6.696882     5.790529    -1.644208 
N      -1.495295    -0.288820    -1.726385 
C      -2.364454    -1.139450    -2.414200 
O      -2.329474    -1.202763    -3.621682 
C      -3.379553    -1.958953    -1.617032 
H      -3.287284    -2.976017    -2.004419 
H      -4.350489    -1.601998    -1.973371 
C      -3.308846    -1.953099    -0.075917 
H      -4.304841    -2.112302     0.345146 
H      -2.679545    -2.769270     0.274978 
C      -2.733532    -0.621769     0.406255 
C      -2.213867    -0.517802     1.870500 
H      -2.795516     0.216458     2.446013 
C       0.813153    -0.431150    -2.676932 
H       1.126128    -0.863503    -1.720753 
H       0.568801    -1.262507    -3.343752 
C      -0.442965     0.419318    -2.462616 
H      -0.199668     1.322761    -1.903055 
H      -0.869643     0.711028    -3.421720 
C      -3.750384     0.516214     0.120462 
H      -4.133395     0.402959    -0.897888 
H      -4.602593     0.330453     0.784786 
C      -3.267515     1.956289     0.298723 
H      -4.110186     2.641011     0.167059 
H      -2.849483     2.140956     1.291742 
H      -2.508053     2.224962    -0.438867 
O      -2.337579    -1.774693     2.485256 
C      -1.928048    -1.835290     3.848296 
H      -0.855671    -1.626352     3.923113 
H      -2.456562    -1.074220     4.435689 
C      -2.233114    -3.217004     4.363198 
C      -1.629771    -4.325465     3.768988 
C      -3.102322    -3.411001     5.429747 
C      -1.894812    -5.604210     4.236241 
H      -0.951214    -4.177414     2.933975 
C      -3.368077    -4.692749     5.903621 
H      -3.579399    -2.552726     5.895285 
C      -2.764948    -5.791292     5.307200 
H      -1.421073    -6.460387     3.765618 
H      -4.048868    -4.830265     6.738082 
H      -2.970991    -6.792335     5.673075 
C      -1.454550    -0.379489    -0.361391 
O      -0.680825     0.435709     0.333903 
C      -0.785907     0.003325     1.645681 
N      -0.367291    -1.954634     0.137601 
N       0.032698    -1.758486     1.194052 
C      -0.033685     0.785299     2.621483 
O      -0.299131     0.832450     3.802162 
O       1.013174     1.429560     2.071539 
C       1.822374     2.166750     2.993785 
H       2.622655     2.604209     2.397900 
H       1.235286     2.948243     3.481080 
H       2.233111     1.501584     3.756503 
74
     -1835.303376     -1834.770604   4.49   3.28
C      -2.439744     3.893871     3.651469 
C      -2.108066     3.553430     2.329613 
C      -1.744233     4.575643     1.438758 
C      -1.720765     5.876039     1.886406 
C      -2.057332     6.195324     3.220903 
C      -2.422278     5.214822     4.125813 
C      -2.633224     1.678738     3.437094 
C      -2.240418     2.123336     2.211881 
H      -1.481790     4.346298     0.410133 
H      -1.444095     6.692142     1.228471 
H      -2.683209     5.442201     5.150922 
H      -2.842128     0.670564     3.769880 
N      -2.759111     2.737952     4.319615 
C      -3.161354     2.647255     5.703386 
H      -2.376558     3.025416     6.367191 
H      -4.081346     3.213332     5.884442 
H      -3.346652     1.600819     5.951002 
O      -1.989092     7.526394     3.520945 
C      -2.310412     7.922582     4.838332 
H      -2.194061     9.006537     4.867695 
H      -3.345908     7.664047     5.093406 
H      -1.631849     7.467088     5.570613 
N      -0.185262     0.761783    -0.665926 
C      -0.074416     1.664335    -1.722537 
O      -0.397991     2.821665    -1.571663 
C       0.458218     1.174094    -3.067960 
H       1.277008     1.856579    -3.308501 
H      -0.335424     1.412525    -3.781541 
C       0.916658    -0.292272    -3.195423 
H       0.782376    -0.640240    -4.222626 
H       1.977083    -0.378983    -2.963274 
C       0.112094    -1.157261    -2.227666 
C       0.607790    -2.599431    -1.920296 
H      -0.114557    -3.350990    -2.268685 
C      -1.961616     1.319788     0.980346 
H      -2.473727     1.768927     0.122163 
H      -2.343453     0.301118     1.093936 
C      -0.459831     1.274643     0.681042 
H      -0.035006     2.275937     0.741159 
H       0.059968     0.637547     1.397222 
C      -1.373915    -1.196039    -2.679205 
H      -1.704142    -0.179751    -2.912817 
H      -1.380815    -1.739517    -3.631499 
C      -2.389640    -1.826063    -1.725432 
H      -2.114793    -2.840778    -1.425932 
H      -2.515730    -1.232999    -0.818013 
H      -3.363715    -1.884162    -2.219790 
O       1.830233    -2.808990    -2.580545 
C       2.399144    -4.104763    -2.417428 
H       2.647408    -4.270646    -1.363812 
H       1.675577    -4.874369    -2.713506 
C       3.638344    -4.178522    -3.269690 
C       4.704156    -3.314691    -3.017760 
C       3.744968    -5.099872    -4.304315 
C       5.854501    -3.374123    -3.790387 
H       4.623541    -2.592172    -2.210976 
C       4.899264    -5.164722    -5.079776 
H       2.917370    -5.773696    -4.509167 
C       5.955607    -4.301540    -4.824142 
H       6.677720    -2.696058    -3.586776 
H       4.969699    -5.889696    -5.884847 
H       6.856652    -4.348247    -5.427734 
C       0.227521    -0.528435    -0.858213 
O      -0.019552    -1.449529     0.056808 
C       0.645220    -2.581548    -0.383391 
N       2.168997    -0.595166    -0.499566 
N       2.413981    -1.676092    -0.206537 
C       0.474095    -3.772776     0.445118 
O       0.626939    -4.902816     0.035273 
O       0.152686    -3.478664     1.716136 
C       0.017142    -4.609185     2.584748 
H      -0.238181    -4.198727     3.561116 
H      -0.772639    -5.274324     2.228728 
H       0.956071    -5.164927     2.635590 
74
     -1835.304750     -1834.770504   3.63   3.34
C       2.496121     3.402253     2.194861 
C       1.721487     2.228945     2.210738 
C       2.248599     1.076017     1.610560 
C       3.484839     1.129770     1.010735 
C       4.238053     2.324391     0.997653 
C       3.760521     3.477865     1.591987 
C       0.585346     3.850706     3.250911 
C       0.489630     2.541680     2.888642 
H       1.689505     0.147678     1.610828 
H       3.917503     0.254738     0.538638 
H       4.322324     4.402626     1.595118 
H      -0.130586     4.476286     3.767414 
N       1.791708     4.384255     2.841504 
C       2.219024     5.751989     3.019687 
H       1.455223     6.290700     3.582577 
H       3.158927     5.799712     3.579336 
H       2.353946     6.250776     2.054239 
O       5.444866     2.230479     0.365348 
C       6.255507     3.386919     0.320369 
H       7.160750     3.103836    -0.217940 
H       5.757367     4.204596    -0.215588 
H       6.525722     3.725695     1.328422 
N      -1.297645     1.421025     0.601875 
C      -0.504564     2.266236    -0.192831 
O      -0.411871     3.440419     0.069483 
C       0.239445     1.662144    -1.382417 
H       1.296356     1.731003    -1.108675 
H       0.095735     2.383243    -2.190455 
C      -0.116218     0.225543    -1.823788 
H      -0.059364     0.139789    -2.911708 
H       0.592190    -0.490108    -1.408894 
C      -1.523553    -0.112678    -1.336488 
C      -1.999874    -1.592093    -1.373590 
H      -2.842821    -1.721308    -2.067013 
C      -0.723304     1.671424     3.038584 
H      -1.230867     1.898424     3.982178 
H      -0.437733     0.615467     3.080882 
C      -1.758089     1.875605     1.919261 
H      -2.675079     1.332774     2.151299 
H      -1.990246     2.936265     1.815758 
C      -2.555820     0.784696    -2.074294 
H      -2.190326     1.815647    -2.093138 
H      -2.548076     0.446979    -3.117355 
C      -3.991905     0.788987    -1.548852 
H      -4.420298    -0.214907    -1.484815 
H      -4.060916     1.245387    -0.558939 
H      -4.624414     1.371234    -2.225124 
O      -0.933869    -2.400978    -1.803861 
C      -1.230650    -3.788795    -1.925088 
H      -1.485467    -4.200864    -0.942820 
H      -2.098325    -3.933273    -2.580766 
C      -0.014592    -4.476760    -2.486604 
C      -0.071099    -5.165494    -3.692068 
C       1.190479    -4.433599    -1.785452 
C       1.057004    -5.807454    -4.195300 
H      -1.005233    -5.200158    -4.246278 
C       2.317373    -5.069167    -2.285403 
H       1.238234    -3.894557    -0.843818 
C       2.253057    -5.759863    -3.492793 
H       0.999001    -6.342569    -5.138158 
H       3.250878    -5.028193    -1.732381 
H       3.135116    -6.258029    -3.882915 
C      -1.563256     0.159047     0.151311 
O      -2.546101    -0.548750     0.685885 
C      -2.477872    -1.789518     0.074068 
N      -0.208971    -1.114088     0.859852 
N      -0.693841    -2.152571     0.862570 
C      -3.521414    -2.737856     0.457656 
O      -3.861873    -3.675799    -0.230198 
O      -4.044958    -2.472332     1.666369 
C      -5.038794    -3.401193     2.113786 
H      -5.349393    -3.046589     3.096007 
H      -5.886401    -3.417791     1.425151 
H      -4.616159    -4.405914     2.184264 
74
     -1835.307189     -1834.770463   2.10   3.37
C       2.978043     1.947048    -0.306145 
C       3.521080     0.655322    -0.196358 
C       4.098641     0.075987    -1.334770 
C       4.107619     0.772136    -2.520728 
C       3.536101     2.059279    -2.609663 
C       2.964883     2.669180    -1.507801 
C       2.746956     1.278614     1.807822 
C       3.350246     0.238252     1.172299 
H       4.542369    -0.914074    -1.290103 
H       4.549088     0.350993    -3.417357 
H       2.523781     3.656111    -1.556186 
H       2.427623     1.358113     2.837610 
N       2.515773     2.319414     0.930614 
C       1.786674     3.529329     1.231116 
H       0.826028     3.548400     0.705696 
H       1.594003     3.565701     2.304104 
H       2.369002     4.414248     0.956011 
O       3.588642     2.620506    -3.855412 
C       3.059044     3.921186    -4.013761 
H       1.986928     3.948831    -3.780999 
H       3.585619     4.646121    -3.380929 
H       3.206075     4.185312    -5.061601 
N       1.401453    -2.168914     1.634834 
C       1.083106    -2.610661     2.917011 
O       1.945079    -3.063522     3.638050 
C      -0.367455    -2.536504     3.393218 
H      -0.336454    -1.933391     4.304346 
H      -0.584756    -3.553685     3.730469 
C      -1.456984    -2.016089     2.430562 
H      -2.393968    -2.553048     2.598858 
H      -1.654839    -0.962650     2.618188 
C      -0.995609    -2.199472     0.985074 
C      -1.726477    -1.402754    -0.134398 
H      -2.220293    -2.082655    -0.843460 
C       3.685076    -1.103376     1.743769 
H       3.604009    -1.091358     2.833494 
H       4.722099    -1.368340     1.505705 
C       2.801355    -2.229260     1.193713 
H       2.796748    -2.211655     0.103628 
H       3.183868    -3.194227     1.529609 
C      -0.977400    -3.712844     0.641422 
H      -0.508202    -4.258268     1.466347 
H      -2.026007    -4.032690     0.628042 
C      -0.298982    -4.125782    -0.665271 
H       0.778363    -3.946141    -0.638783 
H      -0.450105    -5.195836    -0.834048 
H      -0.703082    -3.597133    -1.532522 
O      -2.705423    -0.586563     0.458216 
C      -3.506872     0.169016    -0.441361 
H      -2.892982     0.930498    -0.935411 
H      -3.915557    -0.480864    -1.224693 
C      -4.617020     0.814774     0.346819 
C      -4.327231     1.515218     1.517342 
C      -5.934352     0.747513    -0.091376 
C      -5.339771     2.137312     2.233135 
H      -3.300169     1.566852     1.864913 
C      -6.952120     1.373729     0.622330 
H      -6.170448     0.197390    -0.998401 
C      -6.656503     2.070088     1.786163 
H      -5.102347     2.678678     3.143954 
H      -7.976530     1.313668     0.267704 
H      -7.447909     2.558414     2.346158 
C       0.399221    -1.627254     0.871783 
O       0.625564    -1.279737    -0.381271 
C      -0.550055    -0.695959    -0.819811 
N       0.083672     0.251251     1.424195 
N      -0.367430     0.794520     0.525330 
C      -0.559819    -0.250772    -2.208552 
O      -1.574952    -0.069426    -2.847870 
O       0.670850    -0.040041    -2.695521 
C       0.721294     0.459684    -4.035946 
H       0.234788    -0.237181    -4.722054 
H       0.218885     1.428247    -4.095672 
H       1.778452     0.565182    -4.271421 
74
     -1835.305899     -1834.770453   2.90   3.37
C       0.886909    -2.574292     2.444285 
C       2.176013    -2.206826     2.003273 
C       2.933855    -3.149688     1.309506 
C       2.417719    -4.411554     1.071327 
C       1.127090    -4.750425     1.523824 
C       0.346772    -3.836199     2.214056 
C       1.258123    -0.464312     3.064690 
C       2.389170    -0.840622     2.405161 
H       3.928048    -2.904286     0.949331 
H       3.018186    -5.132326     0.531719 
H      -0.643568    -4.123696     2.547256 
H       0.993551     0.487800     3.503347 
N       0.343764    -1.498129     3.098502 
C      -1.005550    -1.413205     3.604049 
H      -1.204775    -2.219655     4.316422 
H      -1.127108    -0.457970     4.115708 
H      -1.733843    -1.462863     2.787808 
O       0.556529    -5.976794     1.322540 
C       1.302784    -6.950859     0.621422 
H       0.671022    -7.838787     0.573064 
H       1.538804    -6.619902    -0.397470 
H       2.233798    -7.198534     1.146061 
N       2.597851     1.370645     0.243834 
C       3.364668     1.137251    -0.896314 
O       4.560581     0.967607    -0.803120 
C       2.686747     1.150232    -2.265866 
H       3.022966     0.238406    -2.764599 
H       3.179444     1.972138    -2.795975 
C       1.155761     1.287646    -2.332693 
H       0.855648     1.727142    -3.285021 
H       0.684478     0.307409    -2.274861 
C       0.690236     2.138018    -1.155592 
C      -0.826781     2.198355    -0.812077 
H      -1.215904     3.219639    -0.927875 
C       3.595950    -0.001447     2.104547 
H       4.235582    -0.515409     1.383192 
H       4.203653     0.148727     3.004621 
C       3.266329     1.385881     1.552512 
H       2.620254     1.935211     2.237667 
H       4.189288     1.951935     1.418353 
C       1.238666     3.588728    -1.219198 
H       0.886283     4.121357    -0.328879 
H       2.330563     3.579656    -1.152636 
C       0.819166     4.352626    -2.476440 
H      -0.262737     4.318048    -2.635710 
H       1.108197     5.404323    -2.395178 
H       1.298433     3.950389    -3.373280 
O      -1.525409     1.344459    -1.679862 
C      -2.939505     1.336203    -1.527793 
H      -3.205089     0.907719    -0.554600 
H      -3.330452     2.360835    -1.553528 
C      -3.528019     0.513578    -2.644310 
C      -4.575098     1.002854    -3.416195 
C      -3.039756    -0.768009    -2.897869 
C      -5.135207     0.225505    -4.426000 
H      -4.956861     2.003256    -3.230268 
C      -3.593288    -1.543806    -3.905907 
H      -2.219125    -1.151539    -2.299482 
C      -4.645194    -1.049547    -4.672509 
H      -5.953430     0.620073    -5.020649 
H      -3.204378    -2.539717    -4.095533 
H      -5.078515    -1.658062    -5.460131 
C       1.238519     1.497017     0.104517 
O       0.498263     1.897633     1.128767 
C      -0.808550     1.825908     0.676169 
N       0.416800    -0.277217     0.061928 
N      -0.669300    -0.158256     0.401668 
C      -1.827980     2.233299     1.633512 
O      -2.937854     2.609349     1.327251 
O      -1.416480     2.120291     2.914736 
C      -2.389846     2.496162     3.894092 
H      -1.904119     2.361295     4.860459 
H      -2.687334     3.538212     3.759395 
H      -3.275420     1.861118     3.816851 
74
     -1835.303236     -1834.769820   4.58   3.77
C      -0.257870     3.940475     3.808712 
C      -0.167957     2.958184     2.799540 
C       0.703820     1.883878     2.988426 
C       1.447316     1.803025     4.153950 
C       1.335804     2.795884     5.146705 
C       0.484115     3.877299     4.986450 
C      -1.645172     4.513516     2.154284 
C      -1.071329     3.350673     1.744209 
H       0.810110     1.110445     2.233599 
H       2.116494     0.964226     4.293185 
H       0.419437     4.626940     5.766612 
H      -2.379535     5.129433     1.651891 
N      -1.164734     4.885670     3.398571 
C      -1.542775     6.063505     4.142375 
H      -0.677385     6.710690     4.320702 
H      -2.281359     6.624896     3.567766 
H      -1.986136     5.793895     5.106879 
O       2.041640     2.772767     6.317796 
C       2.924321     1.692428     6.544004 
H       2.390870     0.734014     6.561067 
H       3.715685     1.653887     5.785257 
H       3.374173     1.869461     7.521753 
N      -2.285879     0.440293    -0.380120 
C      -3.295516     0.680722    -1.315569 
O      -4.126562     1.535787    -1.112080 
C      -3.349998    -0.178092    -2.579310 
H      -3.462964     0.534178    -3.399609 
H      -4.312639    -0.693621    -2.510892 
C      -2.201601    -1.166817    -2.868871 
H      -2.576402    -2.018106    -3.442866 
H      -1.434965    -0.686126    -3.474227 
C      -1.588541    -1.641385    -1.551679 
C      -0.192710    -2.331203    -1.581655 
H      -0.256525    -3.369817    -1.226809 
C      -1.340598     2.587634     0.485354 
H      -0.394908     2.309111     0.008630 
H      -1.894134     3.203668    -0.228585 
C      -2.151759     1.322697     0.783467 
H      -1.680597     0.747885     1.581081 
H      -3.160970     1.586807     1.097608 
C      -2.608797    -2.536935    -0.798228 
H      -3.590505    -2.055050    -0.822803 
H      -2.706598    -3.449584    -1.397890 
C      -2.288075    -2.908702     0.650093 
H      -3.033358    -3.620677     1.016029 
H      -1.307335    -3.379420     0.757332 
H      -2.314789    -2.038031     1.309057 
O       0.283009    -2.333157    -2.903212 
C       1.546096    -2.961390    -3.101254 
H       2.322828    -2.411883    -2.559060 
H       1.525284    -3.984447    -2.705649 
C       1.836108    -2.963952    -4.578818 
C       1.937247    -1.754235    -5.265951 
C       2.014064    -4.153574    -5.274388 
C       2.211001    -1.739404    -6.625582 
H       1.796908    -0.822627    -4.725565 
C       2.292347    -4.142456    -6.638389 
H       1.932746    -5.100185    -4.746867 
C       2.390808    -2.935240    -7.316045 
H       2.286145    -0.792330    -7.151280 
H       2.429696    -5.079194    -7.169771 
H       2.606179    -2.922778    -8.379936 
C      -1.273985    -0.411027    -0.732544 
O      -0.320503    -0.701464     0.135476 
C       0.585624    -1.476969    -0.568901 
N      -0.011726     0.556454    -1.907101 
N       1.001239     0.028157    -1.809930 
C       1.729160    -1.953354     0.201642 
O       2.384759    -2.928920    -0.089794 
O       2.001112    -1.169193     1.263008 
C       3.152817    -1.556020     2.018979 
H       3.244185    -0.816027     2.813709 
H       3.020305    -2.555557     2.438657 
H       4.043748    -1.549638     1.387366 
74
     -1835.303460     -1834.769803   4.43   3.78
C      -1.680781    -3.523960     3.678910 
C      -1.035817    -2.671664     2.767461 
C      -1.153324    -1.283597     2.944293 
C      -1.897618    -0.802544     3.995794 
C      -2.536629    -1.679022     4.900866 
C      -2.440011    -3.051458     4.760922 
C      -0.628873    -4.791598     2.170755 
C      -0.363402    -3.508013     1.804892 
H      -0.668090    -0.589513     2.265516 
H      -2.020675     0.262572     4.157960 
H      -2.922520    -3.737804     5.444073 
H      -0.311485    -5.717692     1.709987 
N      -1.423749    -4.819041     3.303575 
C      -1.900335    -6.003523     3.977891 
H      -1.535368    -6.884408     3.447336 
H      -1.533490    -6.044675     5.009045 
H      -2.995005    -6.036532     3.989819 
O      -3.236669    -1.057431     5.895225 
C      -3.903566    -1.870785     6.838795 
H      -3.198261    -2.505114     7.390280 
H      -4.393965    -1.190032     7.535481 
H      -4.660966    -2.502877     6.358428 
N       0.276764    -1.728391    -1.487852 
C       0.440044    -2.336962    -2.734683 
O       0.168603    -3.506173    -2.883248 
C       0.966965    -1.502245    -3.902042 
H       0.244700    -1.662826    -4.705932 
H       1.875915    -2.018434    -4.223360 
C       1.213903     0.004173    -3.686261 
H       1.996449     0.357425    -4.362424 
H       0.312656     0.572075    -3.913750 
C       1.612521     0.244700    -2.231756 
C       1.594655     1.698109    -1.675622 
H       2.604922     2.031010    -1.400299 
C       0.431120    -3.027833     0.630656 
H       0.998045    -3.848234     0.180575 
H       1.154190    -2.277419     0.965198 
C      -0.481587    -2.409232    -0.431776 
H      -1.086333    -3.179644    -0.907983 
H      -1.152633    -1.675714     0.017743 
C       2.998275    -0.403965    -1.959951 
H       2.996647    -1.427353    -2.345790 
H       3.710621     0.150210    -2.582664 
C       3.503710    -0.433918    -0.516728 
H       4.531791    -0.807412    -0.501867 
H       3.510089     0.553967    -0.048945 
H       2.905653    -1.096164     0.110816 
O       1.092343     2.558189    -2.666145 
C       1.040662     3.935883    -2.307475 
H       0.348921     4.075006    -1.469844 
H       2.030695     4.278067    -1.981086 
C       0.575500     4.712580    -3.510601 
C       1.376860     5.689399    -4.088891 
C      -0.683355     4.457734    -4.054747 
C       0.932017     6.408043    -5.195062 
H       2.360421     5.890967    -3.673031 
C      -1.128547     5.169450    -5.158888 
H      -1.311650     3.693740    -3.606393 
C      -0.321318     6.148730    -5.731920 
H       1.568029     7.168939    -5.636904 
H      -2.109531     4.962207    -5.575613 
H      -0.670931     6.706087    -6.595357 
C       0.552775    -0.394774    -1.365634 
O       0.587057     0.167224    -0.168074 
C       0.734933     1.522915    -0.411929 
N      -1.083412     0.591861    -1.855572 
N      -1.030423     1.607571    -1.325136 
C       0.861463     2.358249     0.778559 
O       1.361913     3.461090     0.781158 
O       0.341793     1.777604     1.876040 
C       0.412942     2.560600     3.072473 
H      -0.162599     3.481977     2.959006 
H      -0.013263     1.935948     3.856938 
H       1.449613     2.813680     3.304770 
74
     -1835.303057     -1834.769784   4.69   3.79
C       0.030494    -2.079142     5.355564 
C       0.753800    -1.791952     4.186174 
C       1.976213    -2.447190     3.968651 
C       2.426345    -3.350871     4.902853 
C       1.681258    -3.625453     6.071512 
C       0.474170    -2.997341     6.320076 
C      -1.118673    -0.562861     4.184587 
C      -0.002178    -0.812817     3.447142 
H       2.561039    -2.247251     3.075516 
H       3.364903    -3.877168     4.769944 
H      -0.108341    -3.195758     7.209993 
H      -1.941883     0.109543     3.982097 
N      -1.113806    -1.320814     5.343119 
C      -2.132364    -1.313918     6.366611 
H      -2.919472    -0.615136     6.078819 
H      -2.578605    -2.307112     6.484765 
H      -1.721145    -0.993621     7.329882 
O       2.252443    -4.543713     6.906236 
C       1.564462    -4.871294     8.095894 
H       2.179726    -5.610391     8.610208 
H       1.440301    -3.993037     8.741941 
H       0.580168    -5.306965     7.882620 
N       0.839219    -0.815523    -0.247017 
C       2.174358    -1.100374    -0.510841 
O       2.884866    -1.557964     0.357324 
C       2.714379    -0.858859    -1.917878 
H       2.937359    -1.862218    -2.293269 
H       3.687413    -0.390608    -1.760629 
C       1.858879    -0.084758    -2.952684 
H       2.479776     0.645996    -3.478624 
H       1.478749    -0.775481    -3.703557 
C       0.674171     0.615798    -2.292701 
C      -0.593847     0.919905    -3.156867 
H      -0.739374     2.002483    -3.230586 
C       0.383020    -0.237479     2.120884 
H       1.427380     0.091202     2.154432 
H      -0.229707     0.637903     1.884487 
C       0.239387    -1.279267     1.007188 
H       0.743180    -2.203260     1.289566 
H      -0.810494    -1.503298     0.817584 
C       1.057325     1.971512    -1.626373 
H       1.203817     2.669853    -2.459800 
H       0.180966     2.336302    -1.077973 
C       2.284498     2.047376    -0.719523 
H       2.402035     3.078193    -0.372188 
H       2.198864     1.418066     0.167847 
H       3.204485     1.779905    -1.244874 
O      -0.467461     0.387966    -4.453514 
C      -1.145835     1.122506    -5.472162 
H      -0.949565     0.560336    -6.388723 
H      -2.222581     1.126939    -5.284818 
C      -0.628831     2.537757    -5.594898 
C       0.726131     2.770855    -5.830293 
C      -1.484877     3.622046    -5.433879 
C       1.214891     4.066947    -5.910800 
H       1.398382     1.925208    -5.947286 
C      -0.998363     4.923539    -5.519300 
H      -2.535377     3.442632    -5.223539 
C       0.350653     5.148212    -5.758340 
H       2.271107     4.237037    -6.095701 
H      -1.676313     5.762059    -5.393679 
H       0.731309     6.162553    -5.823827 
C       0.074905    -0.318604    -1.265950 
O      -1.177843     0.032606    -1.044975 
C      -1.702800     0.313353    -2.297876 
N      -0.468604    -1.873262    -2.376397 
N      -1.450815    -1.589064    -2.890473 
C      -3.086143     0.762689    -2.344433 
O      -3.554031     1.381696    -3.278354 
O      -3.797818     0.393011    -1.266949 
C      -5.180751     0.763768    -1.295994 
H      -5.604965     0.384969    -0.366710 
H      -5.286244     1.849413    -1.352071 
H      -5.677720     0.311688    -2.157185 
74
     -1835.303713     -1834.769755   4.28   3.81
C       1.048754     3.310372    -3.419071 
C       0.651309     2.015750    -3.018946 
C      -0.560812     1.876063    -2.343180 
C      -1.328386     2.993987    -2.063446 
C      -0.900510     4.274565    -2.464290 
C       0.290946     4.447665    -3.150032 
C       2.618496     1.869220    -4.074605 
C       1.684792     1.104576    -3.446181 
H      -0.908657     0.899186    -2.028116 
H      -2.266038     2.867210    -1.538111 
H       0.595391     5.443868    -3.449714 
H       3.556175     1.574230    -4.527137 
N       2.250275     3.200697    -4.070021 
C       3.014816     4.299352    -4.611016 
H       2.437148     4.843774    -5.365125 
H       3.312649     4.996760    -3.821119 
H       3.916174     3.905711    -5.083518 
O      -1.609561     5.417497    -2.218138 
C      -2.839460     5.303764    -1.530582 
H      -2.701670     4.882720    -0.527008 
H      -3.231526     6.317932    -1.443480 
H      -3.555415     4.686539    -2.087046 
N       2.016108    -0.183391    -0.637109 
C       2.163129     1.155309    -0.236475 
O       2.998940     1.858025    -0.750004 
C       1.236829     1.696963     0.850771 
H       0.605361     2.425944     0.334235 
H       1.890771     2.281726     1.501812 
C       0.372924     0.697527     1.650755 
H       0.286071     1.021615     2.690727 
H      -0.636558     0.651272     1.244576 
C       1.013593    -0.686895     1.576897 
C       0.188646    -1.925095     2.027713 
H       0.641929    -2.406900     2.905487 
C       1.804982    -0.358674    -3.137795 
H       2.295628    -0.876277    -3.969023 
H       0.814662    -0.811616    -3.025953 
C       2.642644    -0.647194    -1.880636 
H       2.814710    -1.719518    -1.781292 
H       3.604908    -0.138328    -1.949408 
C       2.374581    -0.667402     2.326917 
H       2.928179     0.233998     2.047914 
H       2.125155    -0.547133     3.387759 
C       3.295408    -1.875647     2.151881 
H       4.157159    -1.775184     2.817994 
H       2.802280    -2.820303     2.396558 
H       3.675749    -1.952033     1.130851 
O      -1.110516    -1.506578     2.363651 
C      -1.979148    -2.532041     2.835947 
H      -2.144478    -3.271484     2.045123 
H      -1.521135    -3.052283     3.686367 
C      -3.280205    -1.889868     3.238531 
C      -3.747291    -1.969822     4.544725 
C      -4.038781    -1.208043     2.287050 
C      -4.956914    -1.380860     4.902326 
H      -3.160060    -2.495879     5.292640 
C      -5.242834    -0.617113     2.640380 
H      -3.675436    -1.142442     1.265666 
C      -5.706258    -0.703255     3.950648 
H      -5.310604    -1.451227     5.926358 
H      -5.824885    -0.087460     1.892300 
H      -6.649240    -0.241509     4.226267 
C       1.227162    -1.007872     0.113898 
O       1.310294    -2.321658    -0.024870 
C       0.325130    -2.839665     0.799646 
N      -0.629204    -1.011074    -0.603185 
N      -1.111643    -1.999157    -0.279741 
C       0.265756    -4.298146     0.868309 
O      -0.223445    -4.907210     1.794875 
O       0.789281    -4.890440    -0.218306 
C       0.711903    -6.320337    -0.225695 
H       1.254118    -6.738508     0.625227 
H      -0.329943    -6.645165    -0.179874 
H       1.169699    -6.633133    -1.163544 
74
     -1835.307060     -1834.769578   2.18   3.92
C       2.904447     2.146168    -1.988160 
C       2.574669     0.912639    -2.573544 
C       1.608555     0.897876    -3.590979 
C       1.030645     2.076186    -3.996131 
C       1.390293     3.304338    -3.399508 
C       2.329436     3.361330    -2.386008 
C       4.086613     0.561613    -0.959982 
C       3.352881    -0.095296    -1.900502 
H       1.297360    -0.034149    -4.051704 
H       0.271704     2.090355    -4.769084 
H       2.609282     4.290520    -1.907738 
H       4.789305     0.159999    -0.241980 
N       3.831981     1.917025    -1.003672 
C       4.387510     2.915741    -0.122452 
H       4.908648     3.693664    -0.689907 
H       3.604902     3.381848     0.485173 
H       5.106138     2.438352     0.545414 
O       0.738928     4.394216    -3.901227 
C       1.035076     5.653566    -3.334695 
H       2.091827     5.916123    -3.471430 
H       0.414135     6.379197    -3.861480 
H       0.791378     5.678244    -2.265020 
N       1.565258    -1.945492    -0.404550 
C       2.303651    -2.354947     0.696435 
O       3.286440    -3.050483     0.551947 
C       1.862193    -1.912566     2.092960 
H       2.688526    -1.301355     2.466657 
H       1.895978    -2.832062     2.682883 
C       0.513847    -1.174816     2.275104 
H       0.011836    -1.540075     3.173601 
H       0.678123    -0.106448     2.406967 
C      -0.370489    -1.415106     1.053680 
C      -1.573388    -0.455046     0.783078 
H      -2.503344    -1.033530     0.797350 
C       3.352712    -1.572386    -2.138840 
H       4.164315    -2.032735    -1.573291 
H       3.530537    -1.790658    -3.198574 
C       2.036430    -2.261278    -1.758187 
H       1.238309    -1.972684    -2.440832 
H       2.163500    -3.345198    -1.812797 
C      -0.863901    -2.887824     1.078288 
H      -0.021553    -3.537039     1.339670 
H      -1.568747    -2.955837     1.916143 
C      -1.520125    -3.427494    -0.192674 
H      -2.363633    -2.815257    -0.522249 
H      -0.811437    -3.488355    -1.022386 
H      -1.899854    -4.436751    -0.009179 
O      -1.682121     0.593504     1.722695 
C      -2.932785     0.645348     2.398810 
H      -2.908689     1.582755     2.960007 
H      -3.750047     0.704605     1.670560 
C      -3.139589    -0.526612     3.333151 
C      -4.114783    -1.486401     3.080244 
C      -2.321704    -0.677904     4.452782 
C      -4.267128    -2.584835     3.921408 
H      -4.762662    -1.377728     2.214488 
C      -2.468874    -1.770718     5.294663 
H      -1.560821     0.069476     4.659855 
C      -3.441998    -2.730440     5.028122 
H      -5.032201    -3.325161     3.709994 
H      -1.825532    -1.876079     6.162656 
H      -3.557908    -3.585482     5.686336 
C       0.464565    -1.158307    -0.179861 
O      -0.327529    -0.817753    -1.183325 
C      -1.268293     0.027710    -0.631264 
N       1.032098     0.692903     0.141006 
N       0.151092     1.370994    -0.123141 
C      -2.227492     0.564134    -1.588559 
O      -2.125367     0.519599    -2.791400 
O      -3.263574     1.155872    -0.949334 
C      -4.222770     1.779443    -1.809131 
H      -4.966742     2.227892    -1.150503 
H      -3.741649     2.547017    -2.419773 
H      -4.688403     1.042031    -2.467071 
74
     -1835.307176     -1834.769435   2.10   4.01
C       1.347040    -2.815816    -2.524688 
C       0.414964    -1.960522    -3.150785 
C       0.884984    -1.033888    -4.080912 
C       2.237410    -0.969144    -4.370148 
C       3.144391    -1.830197    -3.724593 
C       2.712818    -2.759515    -2.791946 
C      -0.687002    -3.338695    -1.774413 
C      -0.888964    -2.312482    -2.643405 
H       0.199902    -0.360853    -4.587904 
H       2.588815    -0.243935    -5.093124 
H       3.434389    -3.409579    -2.310923 
H      -1.408311    -3.875243    -1.173437 
N       0.654087    -3.656367    -1.689876 
C       1.242729    -4.613939    -0.782738 
H       1.876058    -5.323244    -1.324255 
H       1.837612    -4.109994    -0.013758 
H       0.443525    -5.170834    -0.291725 
O       4.494807    -1.802027    -3.950298 
C       4.970531    -1.050869    -5.050173 
H       6.040482    -1.252900    -5.114610 
H       4.485465    -1.360150    -5.983684 
H       4.818288     0.026090    -4.904988 
N      -2.332734    -0.255981    -0.848258 
C      -3.513182    -0.615958    -0.208391 
O      -4.523544    -0.819518    -0.845627 
C      -3.462302    -0.811954     1.303091 
H      -3.292519    -1.887334     1.424462 
H      -4.479760    -0.625354     1.649102 
C      -2.415513    -0.028124     2.139981 
H      -2.919167     0.659572     2.823904 
H      -1.849668    -0.727110     2.754413 
C      -1.445019     0.755509     1.253495 
C       0.048811     0.903242     1.707680 
H       0.272059     1.964828     1.854975 
C      -2.182232    -1.624027    -2.947062 
H      -3.028563    -2.224720    -2.604144 
H      -2.300478    -1.496455    -4.029442 
C      -2.280745    -0.230808    -2.313704 
H      -1.424464     0.381332    -2.597691 
H      -3.195277     0.262722    -2.648278 
C      -1.954406     2.200778     0.974805 
H      -1.832025     2.735504     1.925205 
H      -1.267442     2.677526     0.265291 
C      -3.392620     2.392649     0.493406 
H      -3.552177     2.024071    -0.521502 
H      -4.119826     1.906670     1.149891 
H      -3.628090     3.461133     0.488797 
O       0.352709     0.209557     2.896550 
C       1.020416     1.004027     3.874186 
H       1.264311     0.306807     4.679665 
H       1.955252     1.397287     3.460874 
C       0.145598     2.127127     4.387402 
C      -1.086671     1.838511     4.973980 
C       0.527033     3.457357     4.245992 
C      -1.922555     2.859268     5.403140 
H      -1.390231     0.801892     5.087771 
C      -0.306378     4.485095     4.678294 
H       1.482726     3.694019     3.786169 
C      -1.533594     4.188152     5.255000 
H      -2.879063     2.620936     5.858081 
H       0.005558     5.518215     4.561190 
H      -2.185672     4.987497     5.592462 
C      -1.252887     0.008300    -0.047780 
O      -0.088331     0.327643    -0.574979 
C       0.794452     0.387850     0.488500 
N      -0.565882    -1.734315     0.656224 
N       0.544237    -1.591017     0.876793 
C       2.180006     0.717264     0.214010 
O       2.943309     1.117478     1.069983 
O       2.534918     0.502566    -1.061878 
C       3.918146     0.718873    -1.355508 
H       4.537808     0.019177    -0.789936 
H       4.021891     0.535266    -2.423162 
H       4.209757     1.741076    -1.105029 
74
     -1835.305459     -1834.769393   3.18   4.04
C       2.751630    -2.181811     0.666489 
C       3.194789    -0.997689     1.278577 
C       4.135740    -0.205515     0.603377 
C       4.587638    -0.601362    -0.633076 
C       4.122222    -1.794117    -1.230917 
C       3.199844    -2.603758    -0.593427 
C       1.703651    -1.982881     2.623992 
C       2.506389    -0.885239     2.537307 
H       4.501257     0.716070     1.044836 
H       5.316574    -0.014159    -1.180670 
H       2.829416    -3.518507    -1.036704 
H       1.010097    -2.272284     3.402524 
N       1.848209    -2.780256     1.506274 
C       1.075523    -3.963604     1.209794 
H       0.502134    -4.241984     2.095310 
H       0.376812    -3.782202     0.386148 
H       1.731408    -4.800115     0.949694 
O       4.657617    -2.060715    -2.458611 
C       4.251991    -3.248103    -3.108347 
H       4.509821    -4.135582    -2.516877 
H       3.173145    -3.246750    -3.308240 
H       4.792470    -3.277676    -4.055101 
N       1.099619     1.631421     1.990625 
C       2.036584     2.342828     1.248781 
O       3.032136     2.779875     1.785053 
C       1.795626     2.548047    -0.245336 
H       2.578767     1.960734    -0.734102 
H       2.059822     3.593621    -0.420464 
C       0.410631     2.198202    -0.837664 
H       0.121452     2.941034    -1.585177 
H       0.448119     1.234245    -1.341197 
C      -0.623459     2.149098     0.286286 
C      -1.990343     1.455728     0.016224 
H      -2.819674     2.172192     0.105556 
C       2.593361     0.266626     3.492437 
H       3.524560     0.810428     3.326883 
H       2.607919    -0.086656     4.528831 
C       1.414037     1.244544     3.371770 
H       0.509426     0.797102     3.782222 
H       1.633463     2.158809     3.928683 
C      -0.855234     3.584660     0.829981 
H       0.112081     4.083870     0.945900 
H      -1.376403     4.126970     0.032293 
C      -1.635516     3.721889     2.137693 
H      -1.085867     3.304384     2.984558 
H      -1.812590     4.780351     2.348861 
H      -2.610088     3.228361     2.098022 
O      -1.985387     0.937424    -1.290111 
C      -3.196909     0.324652    -1.712244 
H      -3.368007    -0.593588    -1.138801 
H      -4.046589     0.991860    -1.522850 
C      -3.083247     0.014921    -3.182851 
C      -1.935740    -0.598606    -3.683935 
C      -4.128426     0.305372    -4.052165 
C      -1.840279    -0.916212    -5.031252 
H      -1.115714    -0.823169    -3.009248 
C      -4.037188    -0.015390    -5.403305 
H      -5.023337     0.790775    -3.671890 
C      -2.892465    -0.627334    -5.895521 
H      -0.941331    -1.392605    -5.410650 
H      -4.861808     0.216450    -6.070403 
H      -2.817115    -0.877686    -6.949087 
C      -0.067371     1.259318     1.375379 
O      -1.073390     0.779477     2.091704 
C      -2.048640     0.443465     1.168384 
N       0.175947    -0.435045     0.422229 
N      -0.848650    -0.935437     0.330911 
C      -3.290507    -0.082983     1.727775 
O      -4.356391    -0.052421     1.151545 
O      -3.120452    -0.628006     2.945436 
C      -4.298683    -1.200155     3.523576 
H      -3.987987    -1.593639     4.490877 
H      -5.073149    -0.440207     3.648409 
H      -4.683987    -2.001347     2.889016 
74
     -1835.304965     -1834.769332   3.49   4.07
C       3.267349    -0.781743    -1.198274 
C       2.780869    -0.205057    -2.383458 
C       2.633142    -1.023388    -3.512844 
C       2.970157    -2.353345    -3.434235 
C       3.459905    -2.909039    -2.231065 
C       3.614976    -2.135695    -1.094766 
C       2.865851     1.375026    -0.802696 
C       2.521286     1.181839    -2.107613 
H       2.252854    -0.618156    -4.445212 
H       2.868016    -3.012027    -4.289519 
H       3.982010    -2.543684    -0.162383 
H       2.799128     2.262735    -0.189095 
N       3.321148     0.199256    -0.241726 
C       3.651823     0.008258     1.150580 
H       3.627883     0.977366     1.649814 
H       2.923891    -0.647432     1.639413 
H       4.654843    -0.416118     1.259686 
O       3.753879    -4.241235    -2.298097 
C       4.249333    -4.863114    -1.130387 
H       3.523146    -4.809630    -0.309495 
H       4.420927    -5.908273    -1.390432 
H       5.195494    -4.411167    -0.807001 
N      -0.412853     2.025920    -2.143352 
C      -1.197214     1.510038    -3.171340 
O      -0.998595     1.844922    -4.318608 
C      -2.314835     0.524144    -2.830789 
H      -2.049966    -0.394030    -3.362533 
H      -3.186148     0.920685    -3.358396 
C      -2.638241     0.221118    -1.349568 
H      -3.717352     0.110981    -1.216096 
H      -2.181773    -0.719187    -1.047209 
C      -2.112019     1.353525    -0.468247 
C      -1.952796     1.096001     1.059626 
H      -2.598143     1.770513     1.640941 
C       1.924898     2.183542    -3.052076 
H       1.626463     1.688178    -3.978737 
H       2.657628     2.949817    -3.330398 
C       0.708135     2.912826    -2.480099 
H       0.973356     3.454753    -1.571883 
H       0.329813     3.626696    -3.213708 
C      -2.966941     2.625668    -0.710046 
H      -3.124637     2.748813    -1.786311 
H      -3.954804     2.409790    -0.286238 
C      -2.441610     3.943282    -0.139303 
H      -2.236569     3.883529     0.932787 
H      -1.523091     4.264005    -0.636353 
H      -3.187396     4.729566    -0.287098 
O      -2.322297    -0.230504     1.335525 
C      -2.302701    -0.605679     2.707534 
H      -1.273576    -0.587945     3.083069 
H      -2.883646     0.108148     3.304786 
C      -2.881766    -1.991798     2.821292 
C      -2.383289    -3.020648     2.022325 
C      -3.894755    -2.272135     3.730348 
C      -2.891317    -4.306446     2.134897 
H      -1.594561    -2.803608     1.308358 
C      -4.404198    -3.562261     3.848514 
H      -4.293988    -1.474908     4.351742 
C      -3.903177    -4.581706     3.050893 
H      -2.496899    -5.099516     1.506811 
H      -5.195014    -3.767473     4.563535 
H      -4.299156    -5.588576     3.139277 
C      -0.673533     1.606630    -0.863774 
O      -0.039869     2.160623     0.160391 
C      -0.478873     1.465429     1.273004 
N       0.132618    -0.142357    -0.553709 
N       0.284319    -0.252837     0.575454 
C       0.089929     1.896368     2.543384 
O      -0.433580     1.719772     3.621166 
O       1.291900     2.494751     2.398606 
C       1.900788     2.923410     3.620754 
H       2.841734     3.392541     3.333506 
H       1.260046     3.640527     4.138171 
H       2.081641     2.069728     4.277974 
74
     -1835.303102     -1834.769197   4.66   4.16
C       1.309482    -0.028680    -4.223387 
C       0.546946     0.921370    -3.523228 
C       1.119482     2.174019    -3.259455 
C       2.398404     2.438449    -3.690480 
C       3.143958     1.466787    -4.394023 
C       2.615306     0.218974    -4.672357 
C      -0.679485    -0.937714    -3.760085 
C      -0.727635     0.317302    -3.231162 
H       0.565407     2.933164    -2.716292 
H       2.869369     3.396744    -3.502068 
H       3.170946    -0.538269    -5.209841 
H      -1.424519    -1.720351    -3.756891 
N       0.548918    -1.161112    -4.358800 
C       0.954674    -2.375507    -5.026178 
H       0.147779    -3.105783    -4.951443 
H       1.161661    -2.194278    -6.086461 
H       1.849729    -2.800048    -4.559313 
O       4.398074     1.866678    -4.760393 
C       5.201914     0.944380    -5.466596 
H       4.741877     0.661295    -6.421785 
H       6.148524     1.450175    -5.660316 
H       5.390291     0.040772    -4.873167 
N      -2.375653    -0.801720    -0.844641 
C      -2.244935    -2.173877    -1.052938 
O      -2.718536    -2.705344    -2.033543 
C      -1.492142    -3.011737    -0.018245 
H      -0.653809    -3.446193    -0.569795 
H      -2.164834    -3.848204     0.187716 
C      -0.997646    -2.344537     1.282928 
H      -1.057538    -3.051415     2.114118 
H       0.045856    -2.049699     1.187252 
C      -1.852114    -1.112341     1.569528 
C      -1.339313    -0.069920     2.605422 
H      -2.018484    -0.001921     3.467469 
C      -1.858365     0.999508    -2.519227 
H      -2.395584     1.657879    -3.214032 
H      -1.451193     1.655912    -1.744565 
C      -2.906841     0.077312    -1.896221 
H      -3.700924     0.685750    -1.456028 
H      -3.353368    -0.582218    -2.638751 
C      -3.293718    -1.558345     1.935113 
H      -3.619149    -2.330007     1.230814 
H      -3.213987    -2.056737     2.908371 
C      -4.371322    -0.475660     2.001458 
H      -5.302615    -0.910948     2.374877 
H      -4.102194     0.344913     2.671540 
H      -4.579364    -0.048321     1.017999 
O      -0.071769    -0.470038     3.060252 
C       0.516400     0.366940     4.050877 
H       0.716171     1.357589     3.628385 
H      -0.174304     0.498987     4.892802 
C       1.797344    -0.280765     4.506651 
C       2.005716    -0.596899     5.843565 
C       2.801315    -0.558983     3.579084 
C       3.200446    -1.180325     6.256341 
H       1.226423    -0.387987     6.571616 
C       3.991443    -1.143434     3.986198 
H       2.640526    -0.315352     2.533019 
C       4.195089    -1.454724     5.328106 
H       3.350421    -1.421600     7.304209 
H       4.765841    -1.357125     3.255698 
H       5.127363    -1.910989     5.646063 
C      -1.866222    -0.272176     0.312837 
O      -2.146989     0.979225     0.641279 
C      -1.405071     1.225531     1.783903 
N       0.032875     0.127458     0.042338 
N       0.313845     0.952208     0.786354 
C      -1.571776     2.555191     2.364024 
O      -1.351385     2.817284     3.526246 
O      -1.973541     3.465239     1.459239 
C      -2.110842     4.799195     1.960893 
H      -2.853318     4.834016     2.761135 
H      -1.154832     5.161864     2.344967 
H      -2.434500     5.399179     1.111021 
74
     -1835.303102     -1834.769191   4.66   4.16
C       1.544988     0.336859     4.129092 
C       2.062288     0.853057     2.929000 
C       2.030924     2.240933     2.730696 
C       1.502336     3.052798     3.706818 
C       0.989842     2.509359     4.905557 
C       1.001171     1.145634     5.138165 
C       2.280819    -1.375738     2.895179 
C       2.527691    -0.263634     2.147233 
H       2.415337     2.678579     1.814717 
H       1.463205     4.129343     3.583705 
H       0.613136     0.710748     6.049946 
H       2.471943    -2.416090     2.674392 
N       1.682322    -1.026631     4.094040 
C       1.284253    -1.942093     5.137234 
H       1.498500    -2.961370     4.812981 
H       1.835295    -1.749706     6.064180 
H       0.211270    -1.862419     5.341396 
O       0.497134     3.432432     5.784260 
C      -0.033844     2.959813     7.005000 
H       0.727012     2.434654     7.596155 
H      -0.369235     3.840798     7.553456 
H      -0.888127     2.291596     6.838152 
N       1.814610    -1.881616    -0.409613 
C       1.274281    -3.038006     0.150831 
O       1.956194    -3.789275     0.813352 
C      -0.203575    -3.354265    -0.084145 
H      -0.645791    -3.372702     0.915789 
H      -0.203593    -4.395172    -0.417498 
C      -1.030978    -2.454196    -1.026488 
H      -1.769370    -3.052738    -1.565622 
H      -1.579084    -1.706785    -0.455577 
C      -0.090648    -1.758736    -2.007648 
C      -0.619554    -0.536555    -2.813392 
H      -0.622264    -0.745702    -3.892870 
C       3.183006    -0.156474     0.801913 
H       4.237362     0.124865     0.920211 
H       2.719885     0.660499     0.240814 
C       3.165142    -1.425267    -0.051157 
H       3.714100    -1.239999    -0.977902 
H       3.635670    -2.261630     0.463449 
C       0.513993    -2.810979    -2.976147 
H       0.831298    -3.686192    -2.401061 
H      -0.317949    -3.151549    -3.603734 
C       1.676215    -2.366019    -3.864456 
H       2.573913    -2.149264    -3.281150 
H       1.925343    -3.166682    -4.566667 
H       1.438476    -1.476592    -4.453676 
O      -1.934717    -0.259857    -2.404213 
C      -2.575092     0.814802    -3.084555 
H      -2.054780     1.753861    -2.867234 
H      -2.531481     0.655155    -4.168972 
C      -4.003109     0.880547    -2.610747 
C      -4.275576     1.056398    -1.254070 
C      -5.061547     0.781834    -3.505549 
C      -5.585588     1.131562    -0.804675 
H      -3.450516     1.131428    -0.551850 
C      -6.377644     0.860410    -3.058500 
H      -4.857688     0.639661    -4.563484 
C      -6.641636     1.035149    -1.707199 
H      -5.786583     1.267100     0.253728 
H      -7.195244     0.782430    -3.768558 
H      -7.666615     1.095335    -1.354772 
C       1.003522    -1.104212    -1.195405 
O       1.527853    -0.117619    -1.905618 
C       0.445680     0.520150    -2.487723 
N       0.005359     0.129830    -0.046337 
N      -0.282003     1.033091    -0.689955 
C       0.776045     1.644924    -3.358386 
O       0.052237     2.050729    -4.241250 
O       1.963524     2.198804    -3.056129 
C       2.321080     3.336477    -3.848466 
H       3.293014     3.658291    -3.475909 
H       2.384885     3.064390    -4.904292 
H       1.581677     4.131433    -3.728788 
74
     -1835.303102     -1834.769190   4.66   4.16
C      -1.629930    -1.781014     3.704282 
C      -0.374850    -1.956063     3.097312 
C       0.756244    -1.431589     3.739230 
C       0.609756    -0.768389     4.935077 
C      -0.663054    -0.606972     5.525714 
C      -1.803029    -1.108273     4.923108 
C      -1.929389    -2.916613     1.802251 
C      -0.588249    -2.685596     1.873792 
H       1.742946    -1.540575     3.300063 
H       1.464244    -0.351117     5.456011 
H      -2.786475    -0.994501     5.360067 
H      -2.505572    -3.425669     1.042987 
N      -2.571347    -2.370465     2.900866 
C      -3.990033    -2.425697     3.163669 
H      -4.482615    -2.937722     2.335924 
H      -4.200417    -2.976390     4.086904 
H      -4.413235    -1.419226     3.248737 
O      -0.658476     0.071362     6.711794 
C      -1.897973     0.271777     7.359091 
H      -1.679123     0.825163     8.273037 
H      -2.584358     0.859716     6.736712 
H      -2.372586    -0.682614     7.619933 
N      -0.538755    -2.290897    -1.209303 
C      -1.902926    -2.242432    -1.492095 
O      -2.613038    -3.208063    -1.314211 
C      -2.500508    -0.944788    -2.038270 
H      -3.245631    -0.648017    -1.294979 
H      -3.076330    -1.263219    -2.910991 
C      -1.566828     0.238153    -2.372374 
H      -1.945810     0.782538    -3.240797 
H      -1.531868     0.942121    -1.542803 
C      -0.163294    -0.294777    -2.649219 
C       1.030190     0.704364    -2.651286 
H       1.502653     0.754083    -3.642916 
C       0.495569    -3.113053     0.928582 
H       0.991867    -4.014402     1.310772 
H       1.269311    -2.340373     0.896194 
C       0.047501    -3.435470    -0.497309 
H       0.909539    -3.783005    -1.072326 
H      -0.711058    -4.216537    -0.512785 
C      -0.173219    -1.111839    -3.969486 
H      -1.047570    -1.769761    -3.976741 
H      -0.341662    -0.382403    -4.770444 
C       1.066188    -1.947554    -4.290876 
H       1.986215    -1.357511    -4.277447 
H       1.191105    -2.775744    -3.589744 
H       0.966991    -2.376148    -5.292222 
O       0.551417     1.981642    -2.315167 
C       1.525093     3.020766    -2.314880 
H       2.269254     2.831500    -1.533733 
H       2.052744     3.044631    -3.276319 
C       0.814502     4.324369    -2.062412 
C       0.062400     4.489604    -0.899324 
C       0.904315     5.377291    -2.964629 
C      -0.587010     5.688955    -0.647206 
H      -0.011771     3.667678    -0.193351 
C       0.256735     6.583743    -2.713130 
H       1.484152     5.254762    -3.875548 
C      -0.490191     6.741279    -1.554025 
H      -1.171064     5.806498     0.260567 
H       0.335815     7.398564    -3.426254 
H      -0.997757     7.680053    -1.355307 
C       0.218659    -1.182213    -1.486501 
O       1.538989    -1.257218    -1.424814 
C       1.982840     0.034554    -1.650673 
N       0.124707     0.044401     0.038635 
N       1.069818     0.691457     0.010468 
C       3.433022     0.205398    -1.660823 
O       4.001672     1.116498    -2.221677 
O       4.068848    -0.747472    -0.956545 
C       5.492205    -0.606222    -0.892902 
H       5.760067     0.342103    -0.421815 
H       5.842533    -1.444742    -0.291926 
H       5.926890    -0.642679    -1.894197 
74
     -1835.302202     -1834.768983   5.22   4.29
C      -2.879094    -4.941847    -1.114821 
C      -1.754990    -4.281378    -0.576253 
C      -0.576627    -5.004855    -0.386131 
C      -0.536076    -6.345676    -0.731243 
C      -1.672283    -6.981485    -1.268735 
C      -2.857485    -6.289959    -1.467127 
C      -3.440572    -2.813216    -0.727923 
C      -2.142304    -2.912663    -0.334445 
H       0.306732    -4.526501     0.027225 
H       0.381747    -6.898909    -0.581333 
H      -3.714858    -6.807097    -1.882251 
H      -4.099979    -1.955275    -0.711368 
N      -3.902245    -4.030060    -1.201514 
C      -5.229751    -4.304851    -1.697775 
H      -5.197466    -4.643346    -2.738837 
H      -5.724693    -5.072015    -1.092785 
H      -5.823763    -3.390654    -1.650145 
O      -1.695770    -8.300740    -1.629013 
C      -0.517349    -9.061553    -1.453823 
H       0.312471    -8.660702    -2.048867 
H      -0.218988    -9.104149    -0.399066 
H      -0.753888   -10.068359    -1.800585 
N       0.852365    -0.598604    -0.220427 
C       1.982568    -1.200138     0.321313 
O       2.024099    -2.402119     0.469150 
C       3.176438    -0.324711     0.692735 
H       3.959355    -0.630785    -0.007758 
H       3.500135    -0.701839     1.664231 
C       3.035321     1.218575     0.687670 
H       3.500743     1.639029     1.583626 
H       3.566254     1.632046    -0.168243 
C       1.573405     1.650039     0.607241 
C       1.237547     3.053082     0.002446 
H       0.779165     3.685664     0.769463 
C      -1.249369    -1.843274     0.209984 
H      -0.737972    -2.215841     1.104160 
H      -1.829941    -0.964092     0.505792 
C      -0.189948    -1.436879    -0.819251 
H       0.296290    -2.322408    -1.227403 
H      -0.640053    -0.881340    -1.642140 
C       0.844336     1.606423     1.983952 
H       1.228593     2.470653     2.539995 
H      -0.218514     1.809456     1.808083 
C       0.979081     0.370315     2.871601 
H       2.016210     0.175116     3.154678 
H       0.420734     0.539356     3.797189 
H       0.571647    -0.531578     2.411863 
O       2.395051     3.690436    -0.481508 
C       2.369621     5.115778    -0.409688 
H       3.326831     5.426272    -0.836282 
H       1.561769     5.513458    -1.029148 
C       2.234164     5.612718     1.011573 
C       3.158890     5.224150     1.980884 
C       1.167679     6.425928     1.379985 
C       3.023065     5.648365     3.294966 
H       3.987779     4.581344     1.697207 
C       1.031646     6.857349     2.696514 
H       0.431499     6.707375     0.632451 
C       1.958327     6.470471     3.655186 
H       3.749326     5.341071     4.041176 
H       0.196082     7.493299     2.972037 
H       1.852509     6.805189     4.682242 
C       0.863899     0.758560    -0.386832 
O      -0.211431     1.381321    -0.831022 
C       0.191939     2.690148    -1.051437 
N       1.865873     1.114259    -2.064509 
N       1.481834     2.109917    -2.477970 
C      -0.823688     3.619444    -1.523115 
O      -0.728923     4.824412    -1.407319 
O      -1.856427     3.010160    -2.128427 
C      -2.853420     3.889723    -2.660568 
H      -3.299697     4.490489    -1.865070 
H      -2.414226     4.555172    -3.407084 
H      -3.601229     3.242330    -3.117382 
74
     -1835.303713     -1834.768916   4.28   4.34
C      -0.411309    -2.387429     4.774994 
C      -0.231269    -1.972946     3.444788 
C      -1.339478    -1.479016     2.737665 
C      -2.559327    -1.407877     3.368567 
C      -2.716234    -1.829559     4.707569 
C      -1.649570    -2.327356     5.433287 
C       1.735038    -2.692363     4.238772 
C       1.157947    -2.177728     3.118927 
H      -1.246948    -1.157510     1.704966 
H      -3.435590    -1.022865     2.859144 
H      -1.750878    -2.655658     6.459222 
H       2.762934    -2.983293     4.410400 
N       0.799001    -2.827282     5.249765 
C       1.049046    -3.342919     6.574918 
H       0.449204    -4.238460     6.769278 
H       2.103631    -3.610532     6.657732 
H       0.822365    -2.592073     7.339404 
O      -3.984385    -1.701877     5.198344 
C      -4.217506    -2.103504     6.532821 
H      -4.002992    -3.170377     6.673291 
H      -3.616355    -1.516562     7.238561 
H      -5.275459    -1.922041     6.725431 
N       2.333837     0.076928     0.294695 
C       3.690136     0.119393    -0.026436 
O       4.530728    -0.045235     0.827891 
C       4.094816     0.409486    -1.472559 
H       4.811540    -0.374274    -1.728320 
H       4.686838     1.326768    -1.401308 
C       3.008151     0.536081    -2.563801 
H       3.343222     1.262296    -3.308784 
H       2.868607    -0.416440    -3.075429 
C       1.686488     0.981400    -1.936288 
C       0.342318     0.776408    -2.721657 
H      -0.135330     1.749059    -2.891442 
C       1.814000    -1.838896     1.816935 
H       1.234933    -2.261041     0.988739 
H       2.816931    -2.271391     1.764015 
C       1.915385    -0.319797     1.642817 
H       0.951239     0.149505     1.840331 
H       2.648458     0.092888     2.335085 
C       1.809286     2.463760    -1.488043 
H       2.776970     2.606526    -0.997018 
H       1.848214     3.056939    -2.410143 
C       0.713553     3.017811    -0.576423 
H       0.714691     2.532936     0.402665 
H       0.882317     4.086101    -0.412831 
H      -0.285667     2.907176    -1.004970 
O       0.453430     0.109203    -3.957783 
C       0.806879     0.941564    -5.053490 
H       1.812712     1.359023    -4.917217 
H       0.848957     0.261192    -5.908842 
C      -0.168062     2.065583    -5.330621 
C      -1.541699     1.829343    -5.324643 
C       0.301534     3.344113    -5.616001 
C      -2.427464     2.860657    -5.605016 
H      -1.914347     0.843127    -5.071603 
C      -0.585062     4.376638    -5.904513 
H       1.371679     3.537253    -5.614511 
C      -1.952647     4.135147    -5.900426 
H      -3.495784     2.669222    -5.591291 
H      -0.205413     5.368353    -6.129803 
H      -2.648506     4.938191    -6.122381 
C       1.437341     0.091869    -0.740508 
O       0.143250     0.026351    -0.496664 
C      -0.462150    -0.055506    -1.738376 
N       1.445180    -1.709799    -1.594427 
N       0.428715    -1.836530    -2.102427 
C      -1.910576    -0.184715    -1.756330 
O      -2.603141     0.083137    -2.711605 
O      -2.398431    -0.682493    -0.601127 
C      -3.809227    -0.920365    -0.591743 
H      -4.084643    -1.608680    -1.393886 
H      -4.027206    -1.361845     0.380378 
H      -4.358858     0.014809    -0.720713 
74
     -1835.302344     -1834.768886   5.14   4.35
C      -0.516702    -2.204449     5.007937 
C      -0.581162    -1.744304     3.675888 
C       0.443395    -2.097841     2.795711 
C       1.494192    -2.878774     3.247059 
C       1.534771    -3.323546     4.583049 
C       0.530151    -2.994246     5.479321 
C      -2.376209    -0.986733     4.781966 
C      -1.788704    -0.962369     3.555696 
H       0.430938    -1.769756     1.761044 
H       2.288387    -3.138506     2.559170 
H       0.587645    -3.351031     6.501173 
H      -3.296304    -0.521763     5.111027 
N      -1.622661    -1.733710     5.671372 
C      -1.936785    -1.981724     7.058329 
H      -1.151880    -1.591405     7.714878 
H      -2.874456    -1.481235     7.305618 
H      -2.055161    -3.053700     7.248885 
O       2.543325    -4.095565     5.089575 
C       3.601757    -4.461477     4.227247 
H       4.134420    -3.580803     3.847769 
H       4.285737    -5.063073     4.827202 
H       3.242471    -5.060662     3.381507 
N      -1.638668     1.546651     0.709864 
C      -2.358000     2.741357     0.624790 
O      -2.947085     3.169136     1.590550 
C      -2.387671     3.493900    -0.705609 
H      -2.088141     4.513961    -0.453706 
H      -3.448515     3.559834    -0.962766 
C      -1.549028     2.956190    -1.882223 
H      -2.004304     3.247131    -2.832187 
H      -0.548083     3.385344    -1.861179 
C      -1.452500     1.435690    -1.776773 
C      -0.398357     0.685351    -2.641516 
H      -0.882402     0.022818    -3.372319 
C      -2.251415    -0.248231     2.324558 
H      -3.283272     0.097432     2.438153 
H      -2.230551    -0.938152     1.475183 
C      -1.352097     0.953276     2.021170 
H      -1.493268     1.731393     2.769888 
H      -0.301614     0.658292     2.027401 
C      -2.857173     0.810436    -2.002285 
H      -3.588213     1.339573    -1.384410 
H      -3.119539     1.041638    -3.041522 
C      -3.019293    -0.691103    -1.760958 
H      -2.911897    -0.948056    -0.706189 
H      -4.020538    -1.001127    -2.074091 
H      -2.301625    -1.291468    -2.326041 
O       0.376637     1.629625    -3.334860 
C       1.374463     1.086171    -4.194164 
H       2.111833     0.533274    -3.602470 
H       0.919945     0.381255    -4.901455 
C       2.031879     2.227588    -4.923624 
C       1.985911     2.315992    -6.309572 
C       2.706786     3.212761    -4.202727 
C       2.605963     3.370699    -6.973709 
H       1.458693     1.554423    -6.877914 
C       3.322889     4.266881    -4.860840 
H       2.743233     3.147807    -3.119253 
C       3.275053     4.347968    -6.250125 
H       2.562841     3.427487    -8.057044 
H       3.844341     5.029306    -4.290108 
H       3.758453     5.172672    -6.764506 
C      -0.949445     1.114383    -0.389045 
O      -0.414584    -0.096125    -0.400765 
C       0.324886    -0.150011    -1.570959 
N       0.825554     1.971658    -0.344719 
N       1.537120     1.294144    -0.936878 
C       0.969363    -1.431457    -1.840292 
O       1.322274    -1.793547    -2.940681 
O       1.149434    -2.166051    -0.725997 
C       1.798892    -3.425551    -0.927011 
H       1.234598    -4.041340    -1.630551 
H       2.809190    -3.275924    -1.314209 
H       1.829880    -3.898677     0.054270 
74
     -1835.304279     -1834.768881   3.92   4.36
C       0.688968     4.230921     2.544867 
C       0.036055     3.938278     1.328469 
C      -1.336213     4.167914     1.239499 
C      -2.023804     4.675533     2.329346 
C      -1.345443     4.960615     3.530235 
C       0.018053     4.741565     3.653531 
C       2.210745     3.448662     1.104886 
C       1.034776     3.433864     0.418442 
H      -1.876087     3.947986     0.323690 
H      -3.088764     4.848300     2.245295 
H       0.513332     4.969576     4.590483 
H       3.199073     3.146277     0.789216 
N       2.016290     3.923291     2.391502 
C       3.036168     4.083174     3.400689 
H       3.140921     5.133631     3.692783 
H       2.801383     3.492099     4.292160 
H       3.989753     3.738418     2.998222 
O      -1.962818     5.462949     4.642877 
C      -3.353662     5.706027     4.580127 
H      -3.597947     6.447970     3.809856 
H      -3.914695     4.783746     4.384892 
H      -3.636535     6.097795     5.558093 
N       1.967031     0.812204    -0.984781 
C       3.115547     0.492433    -0.267884 
O       4.080085     1.226785    -0.263358 
C       3.163441    -0.830168     0.496726 
H       3.463715    -0.562074     1.512382 
H       4.023500    -1.353269     0.066909 
C       1.920201    -1.737843     0.511243 
H       2.240082    -2.771455     0.649993 
H       1.268360    -1.484199     1.348337 
C       1.156762    -1.550113    -0.795455 
C      -0.310190    -2.090885    -0.950596 
H      -0.343126    -2.860152    -1.731563 
C       0.773980     3.029373    -1.001991 
H       0.707996     3.921236    -1.638574 
H      -0.206489     2.548498    -1.065311 
C       1.823967     2.120441    -1.641896 
H       1.553070     1.942372    -2.685646 
H       2.813528     2.574392    -1.618461 
C       1.979973    -2.009744    -2.030564 
H       1.409014    -1.759513    -2.931623 
H       2.907132    -1.431826    -2.091079 
C       2.321109    -3.500588    -2.045209 
H       2.862629    -3.749894    -2.962115 
H       2.960638    -3.781228    -1.203326 
H       1.427642    -4.128833    -2.012989 
O      -0.896857    -2.608305     0.222981 
C      -0.580381    -3.960879     0.509634 
H       0.501031    -4.090793     0.640633 
H      -1.049165    -4.149521     1.479959 
C      -1.083745    -4.964288    -0.507494 
C      -0.320487    -6.090370    -0.805387 
C      -2.321733    -4.798443    -1.124246 
C      -0.785080    -7.044725    -1.703532 
H       0.648689    -6.224795    -0.330678 
C      -2.783161    -5.747986    -2.026887 
H      -2.911094    -3.913006    -0.916635 
C      -2.020077    -6.874289    -2.316543 
H      -0.181416    -7.919681    -1.923812 
H      -3.745755    -5.606084    -2.508009 
H      -2.386130    -7.615339    -3.020220 
C       0.910429    -0.063340    -0.949836 
O      -0.108404     0.113488    -1.770634 
C      -1.041826    -0.840519    -1.406079 
N      -0.166922     0.354972     0.651030 
N      -1.237131     0.020306     0.434593 
C      -2.300688    -0.836162    -2.134286 
O      -3.057687    -1.779823    -2.181590 
O      -2.551932     0.351378    -2.720005 
C      -3.808722     0.435890    -3.398701 
H      -3.862097    -0.300431    -4.203797 
H      -4.631173     0.260963    -2.701361 
H      -3.857639     1.447253    -3.801431 
74
     -1835.305674     -1834.768774   3.05   4.43
C       0.305593     1.372749    -3.283198 
C      -1.012687     0.867727    -3.284754 
C      -2.070508     1.776179    -3.299979 
C      -1.814366     3.136980    -3.307520 
C      -0.489318     3.611020    -3.293669 
C       0.585770     2.736974    -3.277434 
C       0.415785    -0.854148    -3.330527 
C      -0.913583    -0.571944    -3.302218 
H      -3.099540     1.429384    -3.311253 
H      -2.645528     3.830683    -3.318353 
H       1.595529     3.130767    -3.271521 
H       0.908446    -1.816458    -3.332094 
N       1.166601     0.304620    -3.316995 
C       2.605404     0.379952    -3.219240 
H       3.017683     1.004378    -4.017880 
H       2.910733     0.784298    -2.248457 
H       3.017598    -0.624959    -3.319629 
O      -0.169233     4.942170    -3.277317 
C      -1.201042     5.878680    -3.519257 
H      -1.707984     5.676355    -4.470317 
H      -1.942461     5.886765    -2.710418 
H      -0.717880     6.855367    -3.568047 
N      -1.953002    -2.115405    -0.758348 
C      -1.890177    -3.501585    -0.632300 
O      -2.502266    -4.212790    -1.398592 
C      -1.059940    -4.110751     0.497580 
H      -0.349865    -4.776784     0.000700 
H      -1.762653    -4.773078     1.010706 
C      -0.332069    -3.180942     1.492862 
H      -0.326781    -3.629318     2.489629 
H       0.706718    -3.050037     1.196455 
C      -1.028169    -1.820671     1.529218 
C      -0.261384    -0.609048     2.135934 
H      -0.780361    -0.219770     3.023716 
C      -2.046373    -1.545749    -3.215784 
H      -1.702455    -2.560725    -3.430784 
H      -2.809070    -1.305013    -3.965884 
C      -2.747189    -1.538804    -1.851627 
H      -3.004140    -0.519541    -1.561621 
H      -3.661105    -2.131930    -1.904824 
C      -2.414817    -1.972836     2.209404 
H      -2.912323    -2.860084     1.805178 
H      -2.212046    -2.196232     3.263464 
C      -3.375852    -0.787402     2.112415 
H      -4.264425    -0.985871     2.718535 
H      -2.932089     0.142858     2.476539 
H      -3.709462    -0.617066     1.086113 
O       1.022346    -1.033615     2.518678 
C       1.835800    -0.051270     3.148340 
H       2.095952     0.732227     2.428081 
H       1.287402     0.427348     3.968956 
C       3.078070    -0.730541     3.663774 
C       3.819338    -1.560989     2.823682 
C       3.517387    -0.521296     4.965687 
C       4.979659    -2.168349     3.281126 
H       3.477498    -1.729819     1.807276 
C       4.683219    -1.126103     5.426706 
H       2.942020     0.118371     5.629653 
C       5.416661    -1.950850     4.584937 
H       5.547896    -2.814099     2.618445 
H       5.015013    -0.952937     6.445876 
H       6.325519    -2.425390     4.941551 
C      -1.202107    -1.356113     0.101242 
O      -1.290128    -0.040119     0.080129 
C      -0.348955     0.407575     0.989770 
N       0.685462    -1.323007    -0.516324 
N       1.154214    -0.364453    -0.106289 
C      -0.270800     1.853316     1.158695 
O       0.238657     2.392674     2.118465 
O      -0.801760     2.522728     0.125255 
C      -0.675875     3.946705     0.186773 
H      -1.077335     4.329096     1.127196 
H       0.373803     4.235059     0.095264 
H      -1.242675     4.324881    -0.661543 
74
     -1835.303991     -1834.768701   4.10   4.47
C       2.671218    -2.350428     0.148645 
C       3.347882    -1.206792     0.623473 
C       4.370903    -0.668900    -0.156644 
C       4.703999    -1.260405    -1.362655 
C       4.012473    -2.403493    -1.810502 
C       2.987847    -2.960540    -1.061513 
C       1.774399    -1.776703     2.108395 
C       2.748790    -0.851361     1.883531 
H       4.910133     0.214799     0.169823 
H       5.500612    -0.831740    -1.956764 
H       2.470295    -3.837096    -1.433275 
H       1.069198    -1.858404     2.924115 
N       1.717157    -2.689236     1.074189 
C       0.726241    -3.727658     0.921241 
H       1.202514    -4.700661     0.765543 
H       0.126306    -3.774035     1.830700 
H       0.059849    -3.511608     0.079748 
O       4.289759    -3.036985    -2.990184 
C       5.322761    -2.513209    -3.800072 
H       6.288901    -2.531009    -3.280823 
H       5.375257    -3.158449    -4.678012 
H       5.102365    -1.487010    -4.118995 
N       1.184273     1.773900     1.949983 
C       1.755941     2.859476     1.292094 
O       2.776511     3.359955     1.711389 
C       1.073996     3.414255     0.041390 
H       1.811339     3.292601    -0.757019 
H       1.023245     4.490754     0.224131 
C      -0.297233     2.847581    -0.393188 
H      -0.928991     3.650454    -0.781401 
H      -0.170645     2.124507    -1.196390 
C      -0.974994     2.175050     0.800230 
C      -2.154504     1.193929     0.531679 
H      -3.082706     1.559655     0.994334 
C       3.092665     0.337683     2.731262 
H       3.813836     0.970081     2.208487 
H       3.570669     0.030104     3.668570 
C       1.881722     1.194105     3.104926 
H       1.149889     0.608339     3.661886 
H       2.202804     2.031790     3.726254 
C      -1.405534     3.262265     1.820225 
H      -0.587500     3.979420     1.942118 
H      -2.220985     3.817766     1.342148 
C      -1.850730     2.789205     3.204371 
H      -2.226140     3.640706     3.779092 
H      -2.652343     2.047537     3.156092 
H      -1.024820     2.350189     3.768929 
O      -2.351534     1.092631    -0.855157 
C      -3.446792     0.283573    -1.266806 
H      -3.257348    -0.762065    -1.000007 
H      -4.363666     0.594404    -0.750595 
C      -3.599581     0.427843    -2.758572 
C      -2.500063     0.224466    -3.592286 
C      -4.829394     0.739484    -3.325605 
C      -2.633157     0.330777    -4.968875 
H      -1.537054    -0.015275    -3.151706 
C      -4.967254     0.843196    -4.706975 
H      -5.689757     0.906579    -2.682998 
C      -3.869190     0.638924    -5.530991 
H      -1.770172     0.171924    -5.608438 
H      -5.934172     1.086438    -5.136698 
H      -3.972707     0.720526    -6.608501 
C       0.034328     1.238663     1.428072 
O      -0.615696     0.288643     2.085543 
C      -1.666182    -0.066368     1.258063 
N       0.461582     0.060381    -0.066451 
N      -0.406849    -0.676856    -0.178611 
C      -2.537916    -1.115272     1.770631 
O      -3.686305    -1.279873     1.422682 
O      -1.917952    -1.916123     2.663956 
C      -2.727467    -2.974997     3.184986 
H      -3.053272    -3.638557     2.380640 
H      -2.093939    -3.511080     3.891556 
H      -3.607117    -2.572372     3.691590 
74
     -1835.300877     -1834.768616   6.06   4.52
C       4.146961    -0.578449    -3.878911 
C       2.792186    -0.690146    -3.524358 
C       1.837730    -0.846344    -4.541907 
C       2.255677    -0.882134    -5.851908 
C       3.623700    -0.766569    -6.185278 
C       4.592211    -0.613565    -5.209580 
C       4.000802    -0.462206    -1.652861 
C       2.719687    -0.614396    -2.087072 
H       0.782249    -0.935848    -4.301887 
H       1.548073    -1.000527    -6.664764 
H       5.643884    -0.524102    -5.447618 
H       4.378710    -0.366641    -0.643491 
N       4.877113    -0.439097    -2.724935 
C       6.311758    -0.298690    -2.645951 
H       6.817666    -1.173933    -3.067513 
H       6.650067     0.596396    -3.178877 
H       6.601578    -0.205176    -1.598120 
O       3.888453    -0.819127    -7.524659 
C       5.235629    -0.708573    -7.935002 
H       5.846525    -1.525016    -7.529528 
H       5.229068    -0.772506    -9.023694 
H       5.669034     0.253218    -7.632836 
N      -0.716322     0.496941    -0.923938 
C      -1.695290    -0.114378    -1.704890 
O      -1.474860    -0.390162    -2.863146 
C      -3.053969    -0.422809    -1.081111 
H      -3.175291    -1.501360    -1.213995 
H      -3.771871     0.028673    -1.768594 
C      -3.340302    -0.030205     0.387791 
H      -4.364487     0.341344     0.482630 
H      -3.265894    -0.912002     1.021688 
C      -2.351490     1.016094     0.897735 
C      -2.087306     1.100319     2.437353 
H      -2.437888     2.060132     2.842014 
C       1.466296    -0.662766    -1.270921 
H       1.701435    -0.801280    -0.212011 
H       0.854733    -1.517294    -1.579783 
C       0.644606     0.618519    -1.454937 
H       1.129395     1.460094    -0.959422 
H       0.543173     0.851550    -2.513863 
C      -2.689515     2.467468     0.445644 
H      -3.549085     2.770748     1.054522 
H      -1.859663     3.114943     0.751631 
C      -3.028253     2.743411    -1.018793 
H      -3.927808     2.213118    -1.339978 
H      -3.227790     3.812473    -1.137403 
H      -2.214687     2.490750    -1.700920 
O      -2.769506     0.059505     3.087392 
C      -2.643605     0.038163     4.506556 
H      -1.596613    -0.123311     4.783479 
H      -2.954041     1.002777     4.926850 
C      -3.506326    -1.078615     5.031211 
C      -3.215812    -2.398124     4.684732 
C      -4.590839    -0.820406     5.860627 
C      -4.000063    -3.438407     5.160866 
H      -2.369896    -2.603279     4.035063 
C      -5.378146    -1.862080     6.343186 
H      -4.825213     0.205373     6.132216 
C      -5.084089    -3.172679     5.993474 
H      -3.766299    -4.461881     4.883793 
H      -6.222366    -1.646542     6.990892 
H      -5.696732    -3.987443     6.366612 
C      -0.967898     0.639385     0.413668 
O      -0.074305     1.222114     1.191420 
C      -0.553355     1.055746     2.481346 
N      -0.676950    -1.126389     1.252404 
N      -0.388131    -0.934776     2.344493 
C       0.246780     1.675588     3.534404 
O      -0.192968     1.978413     4.622208 
O       1.530205     1.848910     3.175301 
C       2.371915     2.413540     4.186991 
H       3.362712     2.481106     3.738993 
H       2.012596     3.403372     4.476655 
H       2.392316     1.769054     5.068608 
74
     -1835.301030     -1834.768491   5.96   4.60
C      -1.851802     4.609515     2.033793 
C      -1.377731     3.379606     1.547304 
C      -2.242900     2.273584     1.556947 
C      -3.523714     2.428905     2.032710 
C      -3.979045     3.675947     2.515189 
C      -3.154288     4.785811     2.526365 
C       0.264465     4.892389     1.379583 
C      -0.012665     3.583233     1.131586 
H      -1.914135     1.303126     1.197592 
H      -4.222748     1.600339     2.050444 
H      -3.485090     5.748582     2.892762 
H       1.178588     5.445402     1.208555 
N      -0.837232     5.527470     1.926824 
C      -0.908597     6.914498     2.321168 
H       0.050747     7.391400     2.114166 
H      -1.685694     7.444408     1.759994 
H      -1.117757     7.009878     3.392042 
O      -5.271843     3.676844     2.955737 
C      -5.797392     4.890734     3.452496 
H      -6.826121     4.679862     3.746676 
H      -5.236545     5.241609     4.327890 
H      -5.795291     5.672833     2.682895 
N       1.159347     1.109672    -1.506625 
C       2.395119     1.319181    -2.116284 
O       2.812974     2.441769    -2.287060 
C       3.209292     0.106504    -2.562109 
H       4.134581     0.174849    -1.982949 
H       3.499757     0.342058    -3.587657 
C       2.614108    -1.319230    -2.446675 
H       2.838954    -1.892486    -3.350416 
H       3.084563    -1.843872    -1.617279 
C       1.105089    -1.289363    -2.207949 
C       0.443335    -2.499923    -1.468967 
H      -0.252718    -3.029355    -2.134768 
C       0.881800     2.555932     0.511226 
H       0.864733     1.637839     1.107958 
H       1.916769     2.908332     0.488478 
C       0.433528     2.239760    -0.919373 
H      -0.629501     1.999726    -0.942332 
H       0.608602     3.098355    -1.567031 
C       0.277635    -1.080859    -3.510532 
H       0.323043    -2.038992    -4.041134 
H      -0.771871    -0.943762    -3.224968 
C       0.681900     0.020109    -4.490458 
H       1.690324    -0.128975    -4.883868 
H      -0.001197    -0.001360    -5.344677 
H       0.623984     1.020336    -4.057852 
O       1.440093    -3.396101    -1.051788 
C       0.972109    -4.570561    -0.394355 
H       0.469256    -4.297482     0.539200 
H       0.241349    -5.090460    -1.026252 
C       2.161734    -5.449889    -0.114829 
C       3.164984    -5.003032     0.745044 
C       2.280175    -6.705909    -0.697217 
C       4.266767    -5.801545     1.014062 
H       3.076482    -4.020849     1.200368 
C       3.382767    -7.511548    -0.426935 
H       1.504103    -7.059381    -1.370789 
C       4.377961    -7.060160     0.428811 
H       5.042985    -5.443567     1.683577 
H       3.462770    -8.491110    -0.888181 
H       5.239982    -7.685003     0.640704 
C       0.800548    -0.179369    -1.225475 
O      -0.363321    -0.426398    -0.651734 
C      -0.346055    -1.783067    -0.365209 
N       1.810289    -0.744304     0.377567 
N       1.191707    -1.560818     0.891714 
C      -1.563261    -2.309024     0.242857 
O      -1.895200    -3.472917     0.196384 
O      -2.267820    -1.363451     0.893346 
C      -3.443129    -1.835455     1.560177 
H      -3.182736    -2.598228     2.297261 
H      -3.873693    -0.962826     2.050189 
H      -4.148206    -2.259767     0.842090 
74
     -1835.301030     -1834.768487   5.96   4.61
C       3.578923     3.361252     2.169478 
C       2.665320     2.441805     1.627226 
C       1.894206     1.662319     2.504539 
C       2.050393     1.827161     3.860781 
C       2.974075     2.759441     4.383170 
C       3.754353     3.540471     3.550521 
C       3.705663     3.489086    -0.056324 
C       2.763069     2.539441     0.192443 
H       1.182361     0.934312     2.127321 
H       1.468861     1.248445     4.569578 
H       4.467555     4.258961     3.932254 
H       4.072826     3.860933    -1.003749 
N       4.210372     3.995574     1.129119 
C       5.227603     5.012608     1.252937 
H       6.106364     4.629188     1.782450 
H       5.537303     5.327151     0.255052 
H       4.846025     5.888737     1.788098 
O       3.019259     2.810936     5.747251 
C       3.920453     3.722112     6.342320 
H       4.958476     3.495895     6.067890 
H       3.688044     4.756894     6.060925 
H       3.801664     3.608341     7.420392 
N      -0.386631     1.432554    -1.625930 
C      -0.477175     1.652982    -2.999219 
O       0.059922     2.612681    -3.503675 
C      -1.264896     0.660853    -3.852097 
H      -0.525765     0.259527    -4.551296 
H      -1.916905     1.290323    -4.460582 
C      -2.046285    -0.497076    -3.182087 
H      -3.028294    -0.605821    -3.650872 
H      -1.516612    -1.434189    -3.342524 
C      -2.205643    -0.281707    -1.677681 
C      -2.380118    -1.537038    -0.759439 
H      -3.370352    -1.536045    -0.282456 
C       1.946397     1.772802    -0.800318 
H       1.963190     0.706274    -0.552303 
H       2.362603     1.878117    -1.806074 
C       0.496889     2.269174    -0.808471 
H       0.093696     2.287493     0.204087 
H       0.446571     3.277096    -1.219394 
C      -3.374371     0.680078    -1.311728 
H      -4.290515     0.100610    -1.474570 
H      -3.327248     0.873006    -0.233598 
C      -3.517651     2.007215    -2.056034 
H      -2.663663     2.671690    -1.914151 
H      -3.669819     1.863328    -3.128442 
H      -4.399621     2.530474    -1.675108 
O      -2.250550    -2.703176    -1.530174 
C      -2.426023    -3.927806    -0.823012 
H      -1.641565    -4.034875    -0.066625 
H      -3.392011    -3.927707    -0.302949 
C      -2.353704    -5.053007    -1.820635 
C      -1.170465    -5.278454    -2.523979 
C      -3.447082    -5.877991    -2.054551 
C      -1.087014    -6.311743    -3.445535 
H      -0.314526    -4.634116    -2.344991 
C      -3.366041    -6.918153    -2.976132 
H      -4.373303    -5.706304    -1.512732 
C      -2.185860    -7.136141    -3.673351 
H      -0.161787    -6.477676    -3.988983 
H      -4.227600    -7.555733    -3.149044 
H      -2.119453    -7.945328    -4.393917 
C      -0.903581     0.265971    -1.134750 
O      -0.844142     0.015961     0.160917 
C      -1.298810    -1.286635     0.300455 
N       0.374733    -1.180370    -1.561938 
N       0.227615    -1.999949    -0.774326 
C      -1.367087    -1.781394     1.671046 
O      -2.082971    -2.690883     2.027881 
O      -0.520845    -1.137193     2.497196 
C      -0.502847    -1.621920     3.843865 
H      -0.222775    -2.677392     3.865284 
H       0.241349    -1.019242     4.363414 
H      -1.484521    -1.504218     4.307855 
74
     -1835.300050     -1834.768210   6.57   4.78
C      -2.858748    -5.077223     0.298119 
C      -1.618248    -4.418430     0.276763 
C      -0.531961    -5.042310    -0.357032 
C      -0.714890    -6.274970    -0.939367 
C      -1.972292    -6.918551    -0.907033 
C      -3.064121    -6.335109    -0.289891 
C      -3.089315    -3.130415     1.369338 
C      -1.787695    -3.168092     0.972763 
H       0.441134    -4.561030    -0.390668 
H       0.099521    -6.787884    -1.438581 
H      -4.033471    -6.814530    -0.255696 
H      -3.620018    -2.364533     1.919428 
N      -3.751183    -4.278810     0.969415 
C      -5.139291    -4.589098     1.218072 
H      -5.688120    -4.718790     0.279186 
H      -5.238401    -5.501953     1.815129 
H      -5.593268    -3.765137     1.770937 
O      -2.002973    -8.136086    -1.525856 
C      -3.227812    -8.840050    -1.535709 
H      -3.565457    -9.071251    -0.517536 
H      -4.010383    -8.275383    -2.058075 
H      -3.039876    -9.771383    -2.071095 
N       0.792171    -0.577336    -0.024781 
C       2.040788    -1.117854    -0.313251 
O       2.165110    -2.310801    -0.483917 
C       3.240762    -0.183080    -0.430472 
H       3.562532    -0.287046    -1.470876 
H       4.022164    -0.667566     0.157321 
C       3.088375     1.314410    -0.068651 
H       3.967889     1.657070     0.483544 
H       3.037263     1.908079    -0.979746 
C       1.822907     1.570462     0.745934 
C       1.195692     3.002639     0.721229 
H       1.261902     3.476056     1.710687 
C      -0.727235    -2.131000     1.169292 
H       0.185996    -2.607807     1.541690 
H      -1.039850    -1.392822     1.914195 
C      -0.400055    -1.421496    -0.148054 
H      -0.203914    -2.152934    -0.931318 
H      -1.230302    -0.790729    -0.466033 
C       1.965814     1.204046     2.253622 
H       2.600438     1.987276     2.684135 
H       0.981568     1.323559     2.720829 
C       2.548596    -0.149860     2.656459 
H       3.576703    -0.277480     2.310214 
H       2.568849    -0.211544     3.748549 
H       1.956302    -0.993484     2.298872 
O       1.883876     3.799989    -0.207285 
C       1.435209     5.148983    -0.303848 
H       0.399334     5.170518    -0.658037 
H       1.459022     5.625335     0.684142 
C       2.338336     5.870088    -1.268815 
C       3.136946     6.928056    -0.852028 
C       2.377331     5.476178    -2.606268 
C       3.964639     7.589979    -1.754527 
H       3.114267     7.238468     0.189136 
C       3.203336     6.131128    -3.507769 
H       1.755950     4.648311    -2.935103 
C       3.999338     7.192005    -3.083757 
H       4.583203     8.415415    -1.415848 
H       3.227406     5.815463    -4.546353 
H       4.644714     7.704830    -3.790080 
C       0.689463     0.776830     0.131977 
O      -0.454024     1.310925     0.522514 
C      -0.272080     2.679901     0.404368 
N       0.523089     1.543552    -1.681715 
N      -0.042454     2.534400    -1.574390 
C      -1.394311     3.505922     0.842058 
O      -1.283400     4.665977     1.174768 
O      -2.565981     2.848754     0.810614 
C      -3.707722     3.626370     1.188353 
H      -3.825528     4.480482     0.517785 
H      -4.560479     2.953471     1.104758 
H      -3.603075     3.988923     2.213258 
74
     -1835.300050     -1834.768208   6.57   4.78
C       5.241693     2.460441    -0.714423 
C       4.195741     2.141402     0.167339 
C       3.896385     3.030805     1.211509 
C       4.631831     4.186316     1.337776 
C       5.678788     4.487587     0.438099 
C       6.003261     3.634042    -0.600908 
C       4.377117     0.499510    -1.345286 
C       3.653542     0.874908    -0.255138 
H       3.094762     2.814002     1.911560 
H       4.430159     4.897851     2.130623 
H       6.802127     3.849429    -1.298098 
H       4.288674    -0.387383    -1.958815 
N       5.342863     1.448006    -1.635988 
C       6.297020     1.384380    -2.717879 
H       6.177125     2.233533    -3.399132 
H       7.324192     1.377682    -2.337781 
H       6.132667     0.464898    -3.281977 
O       6.319518     5.668085     0.687428 
C       7.378014     6.038131    -0.171958 
H       7.747102     6.996779     0.194248 
H       8.192679     5.303515    -0.143807 
H       7.031645     6.156401    -1.206451 
N       0.086811     0.347990     0.912596 
C      -0.178598     0.905024     2.159067 
O       0.593816     1.698662     2.650210 
C      -1.463753     0.515778     2.883185 
H      -2.027082     1.450926     2.953510 
H      -1.146258     0.299011     3.904471 
C      -2.363431    -0.604273     2.306402 
H      -2.735386    -1.239007     3.115501 
H      -3.234995    -0.163104     1.825885 
C      -1.619225    -1.448558     1.274967 
C      -2.452079    -2.216768     0.197308 
H      -2.361786    -3.303347     0.334157 
C       2.502500     0.164366     0.384386 
H       2.653066     0.126433     1.468779 
H       2.435685    -0.867273     0.025539 
C       1.183103     0.889967     0.104135 
H       1.276323     1.948162     0.346019 
H       0.905927     0.799968    -0.946274 
C      -0.671222    -2.512376     1.905354 
H      -1.332299    -3.288565     2.307905 
H      -0.112336    -2.986144     1.090187 
C       0.304331    -2.104812     3.008605 
H       1.028521    -1.356293     2.683569 
H      -0.208653    -1.727414     3.896070 
H       0.871675    -2.987514     3.318175 
O      -3.805363    -1.859120     0.307820 
C      -4.686511    -2.518787    -0.597073 
H      -4.428725    -2.250804    -1.626966 
H      -4.580917    -3.606449    -0.499888 
C      -6.091884    -2.085467    -0.274657 
C      -6.456607    -0.748248    -0.430512 
C      -7.039426    -2.996655     0.175548 
C      -7.747656    -0.333550    -0.138687 
H      -5.717977    -0.032914    -0.780275 
C      -8.336998    -2.584881     0.466190 
H      -6.761673    -4.039552     0.302476 
C      -8.692792    -1.252428     0.309921 
H      -8.020756     0.710061    -0.261869 
H      -9.067795    -3.307202     0.816697 
H      -9.703304    -0.927366     0.537060 
C      -0.824434    -0.521222     0.380626 
O      -0.549926    -1.158644    -0.743508 
C      -1.728130    -1.800354    -1.091650 
N      -2.215475     0.581478    -0.487749 
N      -2.674772    -0.056659    -1.321393 
C      -1.662270    -2.635633    -2.288000 
O      -2.432357    -3.543406    -2.515242 
O      -0.672757    -2.271995    -3.121248 
C      -0.590677    -3.030984    -4.332917 
H       0.248309    -2.609616    -4.885662 
H      -0.415314    -4.086413    -4.113502 
H      -1.515374    -2.934349    -4.906192 
74
     -1835.305059     -1834.768176   3.43   4.80
C       2.361654     0.362840     2.792709 
C       2.030685     1.678466     2.421932 
C       1.563402     2.552200     3.415678 
C       1.448120     2.106137     4.710348 
C       1.795805     0.782179     5.058941 
C       2.255995    -0.111538     4.108425 
C       2.694959     0.564720     0.594975 
C       2.255147     1.786589     1.001632 
H       1.277797     3.569903     3.173459 
H       1.086750     2.757044     5.498336 
H       2.525496    -1.129769     4.356049 
H       2.958987     0.235144    -0.401133 
N       2.763702    -0.309298     1.665892 
C       3.210480    -1.681190     1.615141 
H       3.467734    -1.931687     0.584977 
H       4.097969    -1.829824     2.239185 
H       2.423814    -2.364896     1.951249 
O       1.636467     0.480545     6.379960 
C       1.972913    -0.825104     6.804157 
H       1.353438    -1.580465     6.304530 
H       3.032166    -1.044684     6.620968 
H       1.780286    -0.855878     7.877016 
N      -0.451636     2.539209     0.148269 
C      -1.552408     2.736551     0.992872 
O      -1.500805     3.530104     1.903817 
C      -2.842013     1.960205     0.730309 
H      -3.579441     2.740480     0.520590 
H      -3.122831     1.560644     1.705930 
C      -2.885898     0.877687    -0.373036 
H      -3.462735     0.014517    -0.028572 
H      -3.394689     1.268514    -1.253061 
C      -1.480478     0.442865    -0.773227 
C      -1.271617    -0.185118    -2.191247 
H      -0.935610    -1.222404    -2.090688 
C       2.046341     2.978227     0.118996 
H       2.329290     2.715117    -0.901230 
H       2.704186     3.800072     0.426795 
C       0.618162     3.546730     0.135451 
H       0.446655     4.148241     1.024856 
H       0.470526     4.193010    -0.736975 
C      -0.841421    -0.564660     0.229813 
H      -1.326960    -1.525560     0.018667 
H       0.211788    -0.689474    -0.042926 
C      -0.943036    -0.299855     1.730681 
H      -0.483353     0.640049     2.036252 
H      -1.978666    -0.316351     2.078964 
H      -0.413203    -1.094052     2.264657 
O      -2.464772    -0.162347    -2.936984 
C      -2.592430    -1.210159    -3.897390 
H      -3.547818    -1.011696    -4.389899 
H      -1.793370    -1.146269    -4.640377 
C      -2.601081    -2.577636    -3.252927 
C      -3.540512    -2.881620    -2.267718 
C      -1.655119    -3.534386    -3.605325 
C      -3.539769    -4.125303    -1.652537 
H      -4.274382    -2.132139    -1.984168 
C      -1.653954    -4.784262    -2.992397 
H      -0.906035    -3.290321    -4.353129 
C      -2.595842    -5.082140    -2.016917 
H      -4.276943    -4.352108    -0.888477 
H      -0.911701    -5.523632    -3.276774 
H      -2.595404    -6.056088    -1.537861 
C      -0.613480     1.677485    -0.900774 
O       0.408071     1.396640    -1.691930 
C      -0.129987     0.671205    -2.741649 
N      -1.530427     2.698367    -2.323475 
N      -1.242215     2.216260    -3.323106 
C       0.816154     0.199907    -3.743626 
O       0.584798    -0.710578    -4.511182 
O       1.966980     0.897617    -3.746263 
C       2.904733     0.517093    -4.759304 
H       3.759231     1.181191    -4.632241 
H       3.206010    -0.525147    -4.632805 
H       2.465348     0.643886    -5.751147 
74
     -1835.301849     -1834.767736   5.45   5.08
C       1.967624    -4.729487    -1.980926 
C       1.218075    -4.142853    -0.947700 
C       0.428073    -4.968846    -0.132599 
C       0.408810    -6.323394    -0.371127 
C       1.169775    -6.891479    -1.417166 
C       1.961163    -6.109222    -2.238844 
C       2.343168    -2.527697    -2.015616 
C       1.474829    -2.725334    -0.986130 
H      -0.162752    -4.547107     0.675276 
H      -0.189589    -6.992833     0.236517 
H       2.550333    -6.528201    -3.043834 
H       2.784146    -1.608232    -2.377415 
N       2.652013    -3.730840    -2.627865 
C       3.543821    -3.908579    -3.749157 
H       4.387887    -4.554104    -3.483528 
H       3.018741    -4.346734    -4.604697 
H       3.935819    -2.935090    -4.048069 
O       1.051257    -8.247597    -1.534150 
C       1.782414    -8.887096    -2.559803 
H       1.483225    -8.524361    -3.551313 
H       2.862702    -8.743072    -2.431684 
H       1.550906    -9.949994    -2.482147 
N      -1.328983    -0.750990     0.640704 
C      -1.751085    -1.414471     1.794548 
O      -1.677142    -2.620372     1.871145 
C      -2.336833    -0.598906     2.947227 
H      -1.823423    -0.964833     3.839134 
H      -3.365395    -0.960899     3.037467 
C      -2.286029     0.940871     2.880471 
H      -3.125971     1.367296     3.434712 
H      -1.374011     1.308144     3.348320 
C      -2.328054     1.390414     1.421416 
C      -1.916268     2.851599     1.074196 
H      -2.759844     3.392350     0.624032 
C       0.864773    -1.701375    -0.081121 
H       1.385188    -0.744216    -0.175669 
H       0.964568    -2.021520     0.961474 
C      -0.623952    -1.513359    -0.394724 
H      -0.752220    -0.993441    -1.344697 
H      -1.121329    -2.479895    -0.459445 
C      -3.728178     1.081038     0.824768 
H      -4.025537     0.070110     1.118127 
H      -4.426161     1.758897     1.330275 
C      -3.891355     1.213377    -0.689989 
H      -3.311207     0.459947    -1.227402 
H      -4.942508     1.071901    -0.957199 
H      -3.588890     2.195649    -1.062285 
O      -1.525665     3.521639     2.246740 
C      -1.377493     4.938969     2.155684 
H      -1.837266     5.315531     1.238940 
H      -1.923645     5.353859     3.011179 
C       0.069702     5.371436     2.227444 
C       0.563710     6.342233     1.363228 
C       0.913631     4.835092     3.197909 
C       1.879842     6.779609     1.471559 
H      -0.080096     6.745936     0.588655 
C       2.228474     5.265632     3.304787 
H       0.537541     4.065695     3.864773 
C       2.714889     6.243740     2.442897 
H       2.252675     7.538449     0.790195 
H       2.877071     4.836911     4.062631 
H       3.743089     6.582378     2.526737 
C      -1.266011     0.616654     0.676817 
O      -0.905337     1.295528    -0.396254 
C      -0.830475     2.616287     0.018183 
N       0.387435     1.136494     1.647122 
N       0.670817     2.179593     1.273018 
C      -0.496809     3.586171    -1.020041 
O      -0.862336     4.741931    -1.001453 
O       0.278293     3.066682    -1.985466 
C       0.679337     3.988876    -3.005064 
H       1.241583     4.817270    -2.568057 
H       1.307647     3.416700    -3.686823 
H      -0.193200     4.385544    -3.528850 
74
     -1835.304392     -1834.767578   3.85   5.18
C       0.489126    -1.393011     3.335752 
C       0.232472    -0.013871     3.500606 
C      -0.817870     0.367931     4.335817 
C      -1.573820    -0.595569     4.980323 
C      -1.290184    -1.963540     4.802299 
C      -0.256254    -2.378733     3.977029 
C       1.942407    -0.261914     2.073144 
C       1.184571     0.692531     2.676464 
H      -1.065061     1.414288     4.477317 
H      -2.387662    -0.281994     5.620703 
H      -0.062392    -3.438455     3.857598 
H       2.752975    -0.137142     1.367272 
N       1.536249    -1.527989     2.458698 
C       2.123931    -2.778177     2.040327 
H       2.938515    -2.572438     1.344255 
H       2.529181    -3.327691     2.896433 
H       1.386067    -3.409794     1.534476 
O      -1.993971    -2.964193     5.409823 
C      -3.056889    -2.605146     6.271158 
H      -2.702490    -2.001924     7.115819 
H      -3.839533    -2.054472     5.735229 
H      -3.470004    -3.542075     6.646844 
N      -0.711032     2.142270     0.974755 
C      -2.107658     2.101910     1.080048 
O      -2.659915     2.385420     2.117984 
C      -2.937039     1.728060    -0.147632 
H      -3.540885     2.620245    -0.337405 
H      -3.643160     0.981059     0.218014 
C      -2.236583     1.274107    -1.449479 
H      -2.788269     0.445360    -1.902543 
H      -2.237822     2.088710    -2.172292 
C      -0.794037     0.859335    -1.181701 
C       0.226708     0.909060    -2.366862 
H       0.590983    -0.100467    -2.583932 
C       1.326315     2.170778     2.485555 
H       2.148082     2.359081     1.793091 
H       1.594707     2.654018     3.432870 
C       0.053631     2.878023     1.991337 
H      -0.647139     3.038436     2.807039 
H       0.315325     3.859350     1.580231 
C      -0.669951    -0.573357    -0.579849 
H      -0.822201    -1.253687    -1.426966 
H       0.366988    -0.715559    -0.257745 
C      -1.609417    -1.000825     0.546249 
H      -1.530661    -0.377244     1.436655 
H      -2.652490    -1.021200     0.220878 
H      -1.350094    -2.017737     0.854603 
O      -0.368405     1.438652    -3.526917 
C       0.181456     0.962339    -4.754655 
H      -0.375843     1.498152    -5.527345 
H       1.237583     1.233385    -4.830403 
C       0.010559    -0.531073    -4.915697 
C      -1.260554    -1.101648    -4.850238 
C       1.115451    -1.356752    -5.094242 
C      -1.424392    -2.474131    -4.971242 
H      -2.124143    -0.459246    -4.701178 
C       0.954002    -2.733750    -5.219455 
H       2.108475    -0.917194    -5.118690 
C      -0.314743    -3.294231    -5.159461 
H      -2.418546    -2.907481    -4.921018 
H       1.823669    -3.368092    -5.360045 
H      -0.441718    -4.367813    -5.256243 
C      -0.167466     1.876109    -0.251239 
O       1.145752     1.832012    -0.398359 
C       1.358717     1.742186    -1.763720 
N      -0.302539     3.549560    -1.294698 
N       0.538696     3.529610    -2.073602 
C       2.747899     1.636028    -2.187913 
O       3.089565     1.210977    -3.271557 
O       3.614350     2.083281    -1.260198 
C       4.990392     2.063437    -1.655800 
H       5.312849     1.043313    -1.875817 
H       5.140315     2.684213    -2.541830 
H       5.544873     2.466386    -0.808726 
74
     -1835.302793     -1834.767570   4.85   5.18
C      -2.340494     0.930145    -3.110509 
C      -2.699004    -0.406454    -2.830874 
C      -4.039155    -0.690551    -2.566564 
C      -4.975840     0.328103    -2.567999 
C      -4.587184     1.654706    -2.842515 
C      -3.266142     1.970675    -3.118679 
C      -0.494681    -0.324791    -3.215019 
C      -1.491560    -1.194139    -2.889435 
H      -4.357970    -1.706132    -2.353196 
H      -6.011145     0.091795    -2.359717 
H      -2.997634     2.998740    -3.332515 
H       0.562971    -0.499209    -3.350295 
N      -0.988587     0.961435    -3.343026 
C      -0.216004     2.135303    -3.674567 
H      -0.499357     2.536088    -4.653667 
H      -0.354741     2.916313    -2.920396 
H       0.840709     1.864730    -3.697391 
O      -5.459072     2.706337    -2.859885 
C      -6.824764     2.446251    -2.600460 
H      -7.333401     3.408648    -2.668639 
H      -7.250508     1.759499    -3.342191 
H      -6.970942     2.031292    -1.595663 
N      -0.369575    -2.398338    -0.340521 
C      -1.191653    -2.989574     0.616560 
O      -1.916455    -3.909803     0.310205 
C      -1.151668    -2.473027     2.052579 
H      -0.839142    -3.339651     2.642010 
H      -2.200100    -2.315885     2.311688 
C      -0.280669    -1.244223     2.409443 
H      -0.813924    -0.598927     3.113044 
H       0.628086    -1.573065     2.910416 
C       0.110523    -0.453921     1.163167 
C       1.401366     0.427691     1.218297 
H       1.150581     1.493098     1.120632 
C      -1.376689    -2.665953    -2.607575 
H      -1.223486    -3.232501    -3.533566 
H      -2.311610    -3.030008    -2.174464 
C      -0.236061    -3.038154    -1.656383 
H      -0.226325    -4.118237    -1.500024 
H       0.730453    -2.739883    -2.063139 
C      -1.024548     0.472193     0.629892 
H      -1.004364     1.362860     1.268169 
H      -0.745539     0.811328    -0.374004 
C      -2.459811    -0.048878     0.603995 
H      -2.578013    -0.952400     0.006730 
H      -2.841287    -0.240222     1.610423 
H      -3.101569     0.708765     0.146084 
O       2.054505     0.227432     2.445008 
C       3.234905     0.999993     2.643822 
H       3.990185     0.721007     1.901714 
H       3.014310     2.066431     2.509552 
C       3.737437     0.727481     4.036673 
C       4.166436    -0.554925     4.378473 
C       3.784349     1.733640     4.993814 
C       4.632487    -0.822521     5.657168 
H       4.129028    -1.344348     3.633329 
C       4.254585     1.469837     6.277190 
H       3.448727     2.734478     4.735777 
C       4.678868     0.191098     6.610758 
H       4.962488    -1.824684     5.913350 
H       4.286468     2.265164     7.015495 
H       5.044723    -0.018634     7.611034 
C       0.507270    -1.435642     0.079500 
O       1.266124    -0.802322    -0.798702 
C       2.140874    -0.042824    -0.042625 
N       2.046990    -2.364408     0.863657 
N       2.950406    -1.662945     0.763092 
C       3.048372     0.803454    -0.811481 
O       3.606627     1.780742    -0.364812 
O       3.219012     0.369457    -2.077603 
C       4.177691     1.107576    -2.842723 
H       4.204902     0.629026    -3.821458 
H       3.878061     2.154308    -2.932676 
H       5.160151     1.060066    -2.367781 
74
     -1835.305373     -1834.767526   3.23   5.21
C       2.010209     3.422717    -1.414207 
C       1.345315     2.673471    -2.399161 
C       0.144781     3.175449    -2.926242 
C      -0.356322     4.363751    -2.450023 
C       0.325154     5.094273    -1.449668 
C       1.519463     4.641015    -0.919361 
C       3.201716     1.574378    -1.802439 
C       2.126863     1.485398    -2.634442 
H      -0.384448     2.634725    -3.704123 
H      -1.280147     4.780169    -2.835826 
H       2.058463     5.190351    -0.158830 
H       4.031770     0.892892    -1.672096 
N       3.147272     2.742003    -1.060465 
C       4.088457     3.142492    -0.040941 
H       4.911117     2.426235    -0.016791 
H       4.500626     4.133086    -0.257474 
H       3.616449     3.162203     0.947525 
O      -0.287612     6.254367    -1.076315 
C       0.347701     7.051971    -0.096781 
H      -0.292435     7.922656     0.048392 
H       0.446795     6.514419     0.854485 
H       1.338064     7.383695    -0.432519 
N      -0.159727    -0.342272    -2.174983 
C      -1.277094     0.111460    -2.880480 
O      -1.217717     0.259062    -4.081394 
C      -2.542572     0.467198    -2.109066 
H      -3.368269     0.182328    -2.763238 
H      -2.547836     1.562182    -2.079910 
C      -2.717817    -0.125453    -0.701458 
H      -3.447654     0.459372    -0.135779 
H      -3.101806    -1.143106    -0.769434 
C      -1.367868    -0.135084     0.010707 
C      -1.210953    -0.998547     1.296349 
H      -1.010946    -0.362330     2.167057 
C       1.788209     0.374293    -3.583032 
H       2.702643    -0.057163    -4.003387 
H       1.208345     0.768820    -4.418864 
C       1.014648    -0.785652    -2.939444 
H       0.683550    -1.483579    -3.713219 
H       1.655861    -1.322733    -2.241353 
C      -0.915935     1.322670     0.311628 
H      -0.970790     1.917263    -0.603104 
H      -1.674192     1.732006     0.990090 
C       0.472742     1.517381     0.923706 
H       1.264033     1.217322     0.236253 
H       0.614788     2.578508     1.145446 
H       0.607653     0.965144     1.857354 
O      -2.396152    -1.718645     1.533485 
C      -2.520330    -2.342455     2.811625 
H      -1.775164    -1.947534     3.506631 
H      -3.515717    -2.071044     3.182945 
C      -2.408663    -3.848323     2.729945 
C      -1.615010    -4.552246     3.628475 
C      -3.139961    -4.552594     1.775373 
C      -1.557249    -5.941562     3.580636 
H      -1.024036    -4.009547     4.358957 
C      -3.080166    -5.937610     1.721793 
H      -3.749252    -4.006958     1.061605 
C      -2.289715    -6.637397     2.628512 
H      -0.933089    -6.478893     4.288283 
H      -3.650989    -6.474174     0.970124 
H      -2.243142    -7.721424     2.588416 
C      -0.368739    -0.807802    -0.901359 
O       0.634254    -1.262296    -0.170073 
C       0.037998    -1.819873     0.951574 
N      -1.122308    -2.634179    -1.102610 
N      -0.855949    -3.203841    -0.145389 
C       0.953998    -2.341334     1.963176 
O       0.687036    -2.388675     3.144624 
O       2.108042    -2.784679     1.442005 
C       3.021524    -3.356606     2.385434 
H       3.883563    -3.676465     1.801104 
H       3.317019    -2.615416     3.131317 
H       2.561649    -4.209239     2.890249 
74
     -1835.299929     -1834.767143   6.65   5.45
C      -0.114557     4.115405     3.642023 
C      -0.040751     3.073740     2.692950 
C       0.865046     2.033799     2.910990 
C       1.657202     2.043377     4.046860 
C       1.561039     3.094118     4.979868 
C       0.676337     4.143632     4.788904 
C      -1.582964     4.550233     2.015692 
C      -0.996446     3.377458     1.654696 
H       0.960254     1.217194     2.201566 
H       2.351868     1.229884     4.209870 
H       0.624500     4.939274     5.523109 
H      -2.353122     5.115853     1.507770 
N      -1.061605     5.011475     3.212778 
C      -1.439371     6.224772     3.897379 
H      -0.584475     6.901898     3.998343 
H      -2.215104     6.731433     3.320856 
H      -1.835829     6.006296     4.894683 
O       2.314224     3.160916     6.119346 
C       3.232921     2.117624     6.374297 
H       2.725520     1.150052     6.473102 
H       3.993358     2.049857     5.586526 
H       3.717627     2.366098     7.319292 
N      -2.223809     0.315696    -0.234440 
C      -3.286907     0.461915    -1.123969 
O      -4.152213     1.281916    -0.917124 
C      -3.336765    -0.430802    -2.362037 
H      -3.295822     0.269193    -3.201427 
H      -4.356180    -0.821126    -2.369047 
C      -2.289532    -1.555863    -2.556610 
H      -2.779801    -2.464762    -2.916412 
H      -1.575815    -1.260010    -3.323126 
C      -1.522862    -1.850075    -1.267921 
C      -0.081069    -2.448820    -1.378573 
H      -0.045783    -3.460835    -0.951165 
C      -1.297538     2.529852     0.458779 
H      -0.365762     2.246206    -0.041840 
H      -1.898751     3.085529    -0.266263 
C      -2.058974     1.265438     0.869793 
H      -1.536885     0.750139     1.676087 
H      -3.059365     1.524480     1.215299 
C      -2.296711    -2.779904    -0.287400 
H      -2.235102    -3.782349    -0.726627 
H      -1.731053    -2.826377     0.650507 
C      -3.765051    -2.490714     0.022689 
H      -3.918044    -1.523999     0.505400 
H      -4.390863    -2.533749    -0.871973 
H      -4.136559    -3.256325     0.710141 
O       0.296637    -2.514669    -2.728958 
C       1.580640    -3.079571    -2.979604 
H       2.356405    -2.450990    -2.530111 
H       1.650984    -4.073891    -2.521381 
C       1.767164    -3.161582    -4.471257 
C       1.911199    -4.386287    -5.111678 
C       1.799527    -1.991187    -5.229351 
C       2.087909    -4.448530    -6.491070 
H       1.883670    -5.302519    -4.527993 
C       1.971978    -2.049414    -6.604410 
H       1.685172    -1.032280    -4.732099 
C       2.118029    -3.280007    -7.239474 
H       2.199770    -5.411932    -6.978955 
H       1.994046    -1.132500    -7.185525 
H       2.254084    -3.324735    -8.315530 
C      -1.212875    -0.534275    -0.587729 
O      -0.186689    -0.707323     0.226024 
C       0.713324    -1.485696    -0.485981 
N      -0.101627     0.388019    -1.936549 
N       0.951463    -0.058804    -1.864702 
C       1.928991    -1.850693     0.232229 
O       2.615617    -2.810059    -0.041526 
O       2.228648    -0.983791     1.219265 
C       3.447053    -1.261310     1.916464 
H       3.554745    -0.461978     2.649283 
H       3.393938    -2.232679     2.412815 
H       4.291740    -1.260357     1.224172 
74
     -1835.302940     -1834.766831   4.76   5.64
C      -1.356825     1.462348     2.852107 
C      -0.694836     0.384155     3.461922 
C      -1.453642    -0.715331     3.889079 
C      -2.816983    -0.701038     3.716694 
C      -3.462868     0.403308     3.116427 
C      -2.746231     1.499395     2.671028 
C       0.829802     1.897167     2.838097 
C       0.710641     0.684871     3.449864 
H      -0.973062    -1.578121     4.340105 
H      -3.434662    -1.532696     4.037073 
H      -3.221612     2.348540     2.198366 
H       1.717149     2.466308     2.594528 
N      -0.411260     2.383533     2.479876 
C      -0.652209     3.579218     1.707046 
H      -1.266126     4.295033     2.263253 
H       0.306903     4.046074     1.477380 
H      -1.146563     3.333933     0.762049 
O      -4.819647     0.283184     3.018869 
C      -5.532903     1.352073     2.431418 
H      -6.584895     1.065357     2.453230 
H      -5.399651     2.281633     2.998972 
H      -5.224465     1.515318     1.391114 
N       1.786269    -1.382917     1.700412 
C       1.071667    -2.551767     1.927044 
O       1.212391    -3.174378     2.957340 
C       0.064612    -2.947122     0.856721 
H      -0.847463    -2.413201     1.147650 
H      -0.132429    -4.008353     1.012226 
C       0.392673    -2.634396    -0.629165 
H       0.625656    -3.558637    -1.164360 
H      -0.487345    -2.207487    -1.106346 
C       1.568630    -1.657559    -0.763372 
C       1.521304    -0.555791    -1.875387 
H       2.324803    -0.715010    -2.608590 
C       1.808984    -0.220799     3.918908 
H       1.383825    -1.038744     4.503445 
H       2.509911     0.308866     4.572675 
C       2.620932    -0.810555     2.759782 
H       3.238262    -0.041232     2.296729 
H       3.273743    -1.605942     3.127260 
C       2.923109    -2.402074    -0.948758 
H       2.887691    -2.815387    -1.963592 
H       3.728097    -1.657583    -0.951905 
C       3.280752    -3.531751     0.017647 
H       3.524555    -3.170516     1.017758 
H       2.479747    -4.270360     0.111620 
H       4.162014    -4.059194    -0.359174 
O       0.287764    -0.607090    -2.543417 
C       0.145396     0.287157    -3.640970 
H       0.143164     1.321401    -3.279190 
H       0.992833     0.180817    -4.329538 
C      -1.151314    -0.030998    -4.338720 
C      -1.191872    -0.241149    -5.711778 
C      -2.336985    -0.095928    -3.607226 
C      -2.398366    -0.507847    -6.352933 
H      -0.271611    -0.199528    -6.288349 
C      -3.540318    -0.365489    -4.242346 
H      -2.308287     0.063874    -2.533653 
C      -3.574804    -0.570481    -5.619090 
H      -2.415629    -0.669026    -7.426454 
H      -4.457137    -0.415307    -3.662742 
H      -4.517251    -0.779866    -6.115409 
C       1.626186    -0.790590     0.475179 
O       2.278112     0.323913     0.188679 
C       1.812466     0.707615    -1.056987 
N      -0.127649     0.085168     0.400917 
N      -0.057068     0.937291    -0.357944 
C       2.400339     1.928724    -1.593388 
O       2.460043     2.196083    -2.773445 
O       2.844627     2.754555    -0.624581 
C       3.410756     3.983486    -1.090781 
H       4.273819     3.789639    -1.731339 
H       2.670531     4.555817    -1.654405 
H       3.713813     4.525385    -0.195156 
74
     -1835.300832     -1834.766516   6.08   5.84
C       4.395193     3.159741    -1.598350 
C       3.619945     2.776208    -0.491539 
C       3.393028     3.710236     0.531695 
C       3.932714     4.970390     0.418781 
C       4.708642     5.334762    -0.704267 
C       4.954495     4.440368    -1.730425 
C       3.764303     1.037649    -1.896305 
C       3.224960     1.406428    -0.702068 
H       2.797902     3.445785     1.400848 
H       3.778580     5.718914     1.187813 
H       5.546682     4.703055    -2.596990 
H       3.703879     0.090897    -2.416723 
N       4.476183     2.087203    -2.451422 
C       5.186550     2.060878    -3.708228 
H       4.788522     2.809737    -4.401289 
H       6.255642     2.247742    -3.560811 
H       5.068645     1.075409    -4.161694 
O       5.177899     6.617571    -0.678340 
C       5.961339     7.055228    -1.769394 
H       5.396898     7.015489    -2.709598 
H       6.229862     8.090483    -1.556082 
H       6.876855     6.458744    -1.870351 
N       0.127365     0.523420     1.294383 
C       0.042286     1.227587     2.494118 
O       0.768934     2.174828     2.698039 
C      -0.978704     0.790985     3.544231 
H      -1.557081     1.692593     3.760429 
H      -0.385325     0.606093     4.443924 
C      -1.915079    -0.392741     3.227059 
H      -2.181404    -0.917533     4.147863 
H      -2.841785    -0.033717     2.781979 
C      -1.216522    -1.340782     2.255418 
C      -2.059602    -2.422164     1.518364 
H      -1.723381    -3.429610     1.797820 
C       2.366172     0.594769     0.216543 
H       2.743994     0.673724     1.241982 
H       2.398407    -0.461813    -0.064570 
C       0.915964     1.088024     0.193322 
H       0.886791     2.172277     0.294665 
H       0.428596     0.817468    -0.743810 
C      -0.011157    -2.012864     2.969609 
H       0.555150    -1.250164     3.511953 
H      -0.445553    -2.665251     3.736429 
C       0.963205    -2.816182     2.107573 
H       1.517615    -2.175340     1.419815 
H       1.691590    -3.316694     2.752217 
H       0.465595    -3.588749     1.515795 
O      -3.413217    -2.285170     1.873144 
C      -4.282635    -3.357547     1.507707 
H      -3.705373    -4.239535     1.220403 
H      -4.856988    -3.599967     2.409766 
C      -5.232994    -2.973331     0.396152 
C      -5.925393    -1.765417     0.453405 
C      -5.465441    -3.836322    -0.668915 
C      -6.837790    -1.428085    -0.536062 
H      -5.735804    -1.080968     1.274234 
C      -6.383542    -3.503117    -1.659591 
H      -4.911446    -4.767071    -0.733528 
C      -7.072628    -2.299486    -1.595210 
H      -7.367802    -0.482075    -0.482067 
H      -6.555392    -4.186316    -2.485886 
H      -7.787441    -2.037139    -2.369222 
C      -0.736216    -0.516712     1.084358 
O      -0.591979    -1.303536     0.033537 
C      -1.695597    -2.141868     0.055297 
N      -2.422423     0.243817     0.363590 
N      -2.928646    -0.592044    -0.231327 
C      -1.739910    -3.159133    -0.989892 
O      -2.298777    -4.227492    -0.861746 
O      -1.117273    -2.775800    -2.115735 
C      -1.176174    -3.716953    -3.193554 
H      -0.692696    -4.654852    -2.911304 
H      -2.214784    -3.917638    -3.466277 
H      -0.646431    -3.247324    -4.021685 
74
     -1835.302153     -1834.766308   5.26   5.97
C      -3.322691    -1.024468     2.299803 
C      -2.281364    -1.960046     2.151764 
C      -1.522650    -2.285999     3.288603 
C      -1.804642    -1.681864     4.490275 
C      -2.852506    -0.742329     4.608997 
C      -3.629744    -0.399757     3.518032 
C      -3.267463    -1.656531     0.162958 
C      -2.262010    -2.352396     0.762644 
H      -0.710731    -3.001576     3.236130 
H      -1.232369    -1.914766     5.381165 
H      -4.439996     0.313951     3.587109 
H      -3.566172    -1.651413    -0.876665 
N      -3.924925    -0.857773     1.079592 
C      -4.997553     0.062975     0.786868 
H      -4.679800     1.101977     0.928645 
H      -5.301522    -0.067138    -0.252704 
H      -5.864313    -0.133118     1.425743 
O      -3.018298    -0.226462     5.860870 
C      -4.057874     0.711419     6.054909 
H      -5.038398     0.273792     5.829496 
H      -4.023103     0.991142     7.108281 
H      -3.909237     1.606892     5.438522 
N       0.710052    -2.024048     0.767395 
C       1.628449    -1.948507     1.828286 
O       1.731780    -2.855698     2.622714 
C       2.484962    -0.695624     1.989092 
H       3.476598    -1.066888     2.254808 
H       2.101474    -0.207854     2.890839 
C       2.557978     0.284266     0.810243 
H       2.877828     1.270378     1.155406 
H       3.292476    -0.056025     0.080745 
C       1.181668     0.360580     0.156050 
C       1.068158     1.046921    -1.234949 
H       0.462706     1.959491    -1.188809 
C      -1.364508    -3.321877     0.048847 
H      -1.437794    -3.126493    -1.022512 
H      -1.717800    -4.349047     0.202927 
C       0.110422    -3.335416     0.475209 
H       0.247323    -3.916833     1.383157 
H       0.705733    -3.815242    -0.309825 
C       0.158997     0.962772     1.166812 
H       0.055734     0.277738     2.012654 
H       0.623646     1.873048     1.564739 
C      -1.246790     1.299009     0.665118 
H      -1.254581     2.137759    -0.035318 
H      -1.729856     0.446684     0.189864 
H      -1.863350     1.585833     1.521752 
O       2.357313     1.387612    -1.680541 
C       2.409924     2.055935    -2.936606 
H       2.017291     1.401885    -3.722482 
H       1.784257     2.957223    -2.911642 
C       3.846936     2.409377    -3.214860 
C       4.242769     3.730790    -3.381400 
C       4.800921     1.396837    -3.317134 
C       5.572412     4.044109    -3.649559 
H       3.506087     4.525454    -3.299025 
C       6.127195     1.705533    -3.580910 
H       4.495157     0.363025    -3.185648 
C       6.516628     3.031799    -3.749338 
H       5.868276     5.080767    -3.778033 
H       6.862227     0.910008    -3.657132 
H       7.554610     3.272461    -3.956884 
C       0.772481    -1.054209    -0.199627 
O      -0.138903    -0.994508    -1.158183 
C       0.327246    -0.036453    -2.039174 
N       2.162297    -1.625055    -1.474868 
N       1.916553    -1.125230    -2.478771 
C      -0.556606     0.251480    -3.167859 
O      -0.513036     1.273992    -3.814665 
O      -1.412363    -0.755083    -3.425113 
C      -2.258673    -0.553018    -4.562542 
H      -2.884242     0.331585    -4.424189 
H      -1.657967    -0.427417    -5.466023 
H      -2.872731    -1.450342    -4.634070 
74
     -1835.301913     -1834.766076   5.41   6.12
C       2.606618    -2.316619    -0.061803 
C       3.208977    -1.259441     0.651821 
C       4.112449    -0.432804    -0.015223 
C       4.412035    -0.673137    -1.344730 
C       3.808469    -1.747228    -2.028975 
C       2.896317    -2.578345    -1.397596 
C       1.768019    -2.307433     2.005011 
C       2.659258    -1.277528     1.981987 
H       4.574200     0.407273     0.494688 
H       5.116390    -0.025921    -1.850994 
H       2.439810    -3.389489    -1.952489 
H       1.114806    -2.638578     2.801720 
N       1.731453    -2.950486     0.783845 
C       0.815933    -4.003381     0.413022 
H       1.353468    -4.912578     0.125035 
H       0.177358    -4.229959     1.268424 
H       0.176868    -3.683353    -0.415704 
O       4.064931    -2.043857    -3.338638 
C       4.986804    -1.231715    -4.037606 
H       4.647190    -0.189833    -4.087762 
H       5.982055    -1.266232    -3.577666 
H       5.043667    -1.639701    -5.047616 
N       1.211750     1.249258     2.109725 
C       1.937183     2.195197     1.398061 
O       2.984624     2.626492     1.829376 
C       1.384846     2.586485     0.034931 
H       1.819620     1.844325    -0.644563 
H       1.848644     3.542646    -0.209781 
C      -0.155269     2.626248    -0.164081 
H      -0.496200     3.661626    -0.245877 
H      -0.406065     2.137032    -1.103308 
C      -0.900129     1.933695     0.985083 
C      -2.166704     1.071043     0.662088 
H      -3.061399     1.514804     1.121617 
C       2.946001    -0.283752     3.066513 
H       3.818623     0.312735     2.794013 
H       3.183065    -0.783329     4.011784 
C       1.765746     0.658575     3.330578 
H       0.953157     0.123569     3.821328 
H       2.081470     1.480638     3.977381 
C      -1.333319     2.943608     2.087653 
H      -2.148017     3.525532     1.640879 
H      -1.780782     2.379942     2.914898 
C      -0.294244     3.918904     2.641873 
H      -0.799330     4.665701     3.261542 
H       0.451185     3.429497     3.270340 
H       0.233541     4.460446     1.851827 
O      -2.359045     1.010361    -0.727158 
C      -3.530303     0.325430    -1.155997 
H      -3.449416    -0.738832    -0.908460 
H      -4.412052     0.718939    -0.635173 
C      -3.662930     0.512698    -2.644848 
C      -2.593068     0.199156    -3.482859 
C      -4.847249     0.975762    -3.205179 
C      -2.710489     0.346711    -4.857053 
H      -1.664930    -0.159215    -3.047958 
C      -4.969893     1.121158    -4.584206 
H      -5.683458     1.229081    -2.558939 
C      -3.901475     0.806843    -5.412517 
H      -1.870623     0.101171    -5.499944 
H      -5.901354     1.483053    -5.008630 
H      -3.992895     0.920549    -6.488202 
C       0.001945     0.877276     1.584308 
O      -0.743392    -0.018824     2.209269 
C      -1.821029    -0.244131     1.370255 
N       0.298204    -0.286919     0.033661 
N      -0.624438    -0.952246    -0.080484 
C      -2.799139    -1.208675     1.857262 
O      -3.961100    -1.234248     1.515442 
O      -2.259834    -2.101410     2.711792 
C      -3.168302    -3.091385     3.204405 
H      -2.580833    -3.723528     3.869935 
H      -3.989711    -2.621095     3.749278 
H      -3.578269    -3.678249     2.379362 
74
     -1835.304524     -1834.765954   3.77   6.19
C       1.995584    -2.224829    -0.927089 
C       0.909274    -2.496199    -1.776904 
C       1.005990    -2.118908    -3.123570 
C       2.143508    -1.489534    -3.572430 
C       3.212631    -1.212530    -2.694174 
C       3.159458    -1.574823    -1.360757 
C       0.434720    -3.279773     0.263944 
C      -0.091579    -3.165469    -0.985131 
H       0.195076    -2.321099    -3.816902 
H       2.248018    -1.187162    -4.608693 
H       3.969345    -1.371267    -0.672655 
H      -0.007318    -3.702399     1.155422 
N       1.695014    -2.718241     0.317233 
C       2.478925    -2.521711     1.514597 
H       2.513768    -1.462311     1.790346 
H       2.016209    -3.076626     2.331634 
H       3.497634    -2.897231     1.378468 
O       4.266220    -0.556872    -3.269000 
C       5.385322    -0.270313    -2.454847 
H       6.107294     0.236993    -3.095740 
H       5.116149     0.389719    -1.620418 
H       5.835981    -1.188609    -2.058713 
N      -2.762158    -1.594671    -0.524458 
C      -3.762113    -2.101236     0.301977 
O      -4.325837    -3.134784     0.015711 
C      -4.151992    -1.327950     1.561879 
H      -4.005478    -2.033485     2.383798 
H      -5.235681    -1.212272     1.473534 
C      -3.464146     0.020095     1.870500 
H      -4.176649     0.705054     2.337299 
H      -2.649253    -0.124348     2.577086 
C      -2.919145     0.626690     0.578348 
C      -1.854392     1.759109     0.675308 
H      -2.239641     2.688620     0.234408 
C      -1.464694    -3.560509    -1.429836 
H      -1.945401    -4.196388    -0.682284 
H      -1.409431    -4.145637    -2.355494 
C      -2.374717    -2.359822    -1.717406 
H      -1.884249    -1.665421    -2.400013 
H      -3.304652    -2.704388    -2.172206 
C      -4.106757     1.086503    -0.309521 
H      -4.867777     0.299719    -0.319431 
H      -4.561765     1.937869     0.210366 
C      -3.789240     1.477375    -1.753384 
H      -3.459269     0.619098    -2.343500 
H      -4.687759     1.879196    -2.230485 
H      -3.012618     2.243951    -1.819033 
O      -1.548299     1.997448     2.028565 
C      -0.766010     3.156558     2.315459 
H      -0.710827     3.810452     1.442678 
H      -1.295360     3.688837     3.114999 
C       0.625656     2.800728     2.787828 
C       1.740680     3.459238     2.281401 
C       0.800974     1.836429     3.778766 
C       3.012646     3.166911     2.763913 
H       1.614659     4.192425     1.491828 
C       2.068364     1.541892     4.261118 
H      -0.065279     1.308355     4.165265 
C       3.179776     2.209926     3.755850 
H       3.874603     3.688787     2.359240 
H       2.191204     0.791310     5.036171 
H       4.171895     1.981601     4.133360 
C      -2.126818    -0.443562    -0.136230 
O      -1.233971     0.126153    -0.923355 
C      -0.731517     1.193967    -0.198265 
N      -0.760732    -0.875896     1.242354 
N       0.039112    -0.064798     1.182528 
C       0.254226     2.019493    -0.882722 
O       0.450403     3.188243    -0.618566 
O       0.935548     1.348947    -1.820285 
C       1.960201     2.095319    -2.485180 
H       2.704626     2.437043    -1.761784 
H       2.409670     1.408492    -3.199580 
H       1.532164     2.962539    -2.993137 
74
     -1835.301592     -1834.765887   5.61   6.24
C      -2.895747     3.078196    -0.391600 
C      -2.091478     3.157791     0.766822 
C      -1.393459     4.341632     1.006878 
C      -1.503982     5.400724     0.122906 
C      -2.319306     5.294993    -1.020501 
C      -3.023795     4.132086    -1.292306 
C      -3.022979     1.121395     0.676329 
C      -2.193045     1.883266     1.437895 
H      -0.747518     4.441610     1.872143 
H      -0.952121     6.309871     0.322060 
H      -3.641822     4.078681    -2.181152 
H      -3.338760     0.098611     0.833998 
N      -3.456220     1.825989    -0.433890 
C      -4.369947     1.349964    -1.444721 
H      -5.282559     1.954869    -1.466419 
H      -3.906894     1.376631    -2.436692 
H      -4.643713     0.318332    -1.218618 
O      -2.474933     6.301605    -1.930667 
C      -1.787558     7.517116    -1.705843 
H      -0.700897     7.368418    -1.697688 
H      -2.054202     8.172239    -2.536127 
H      -2.096743     7.984435    -0.762994 
N       0.647504     1.144715     1.433819 
C       1.686869     1.932539     0.921052 
O       1.862139     3.061864     1.316414 
C       2.623217     1.338388    -0.128909 
H       3.608454     1.378286     0.344503 
H       2.658715     2.090016    -0.918858 
C       2.360667    -0.077948    -0.689258 
H       2.576033    -0.103102    -1.761176 
H       3.032547    -0.791715    -0.215385 
C       0.922780    -0.516094    -0.430446 
C       0.608791    -2.048505    -0.402246 
H      -0.052813    -2.326581    -1.234443 
C      -1.526213     1.448881     2.706180 
H      -1.828018     0.424691     2.929768 
H      -1.864809     2.068068     3.545848 
C       0.007748     1.551331     2.693010 
H       0.333088     2.576079     2.854349 
H       0.423238     0.939338     3.501180 
C      -0.104056     0.110745    -1.420644 
H       0.011253    -0.452293    -2.354073 
H      -1.109747    -0.115488    -1.051236 
C      -0.014561     1.598798    -1.754955 
H      -0.116342     2.245691    -0.883922 
H       0.917145     1.844427    -2.270204 
H      -0.833002     1.857905    -2.432619 
O       1.805010    -2.775018    -0.513275 
C       1.658859    -4.192217    -0.536395 
H       1.227336    -4.536066     0.409409 
H       0.973962    -4.487083    -1.341351 
C       3.022541    -4.795300    -0.744482 
C       4.012205    -4.617324     0.222139 
C       3.316400    -5.531786    -1.885517 
C       5.273356    -5.167225     0.045970 
H       3.786510    -4.040436     1.114360 
C       4.579862    -6.088059    -2.064304 
H       2.551343    -5.671927    -2.644440 
C       5.560318    -5.906056    -1.098878 
H       6.037139    -5.021364     0.803753 
H       4.796239    -6.661774    -2.960236 
H       6.547180    -6.337092    -1.235646 
C       0.557521    -0.146081     0.993138 
O      -0.461113    -0.901978     1.369652 
C      -0.155770    -2.175232     0.923453 
N       1.828812    -1.194771     2.072879 
N       1.438967    -2.274026     2.095534 
C      -1.187523    -3.180384     1.170128 
O      -1.281538    -4.217895     0.552825 
O      -2.014895    -2.835400     2.174652 
C      -3.013990    -3.809106     2.497525 
H      -2.546118    -4.748404     2.800423 
H      -3.583199    -3.382301     3.322848 
H      -3.662371    -3.994191     1.638281 
74
     -1835.299567     -1834.765692   6.88   6.36
C      -3.041297    -2.734308    -3.690074 
C      -2.397995    -2.076937    -2.620023 
C      -2.273006    -0.686991    -2.668343 
C      -2.770492     0.007480    -3.758375 
C      -3.406682    -0.674287    -4.814064 
C      -3.552296    -2.052302    -4.792553 
C      -2.410915    -4.278683    -2.204573 
C      -2.001185    -3.094487    -1.675628 
H      -1.791378    -0.139591    -1.864289 
H      -2.658347     1.083410    -3.791036 
H      -4.046487    -2.550505    -5.618586 
H      -2.303300    -5.279982    -1.808447 
N      -3.043035    -4.080268    -3.419797 
C      -3.608189    -5.104423    -4.265764 
H      -4.682582    -4.947284    -4.408562 
H      -3.120307    -5.117739    -5.246213 
H      -3.461044    -6.077094    -3.793414 
O      -3.917651    -0.047069    -5.916414 
C      -3.795401     1.358430    -6.001888 
H      -4.319727     1.858410    -5.178196 
H      -2.744061     1.671433    -6.006087 
H      -4.258369     1.644832    -6.947045 
N       0.871607    -1.993898     0.543622 
C       1.783042    -2.833627     1.180129 
O       1.878090    -3.994710     0.853681 
C       2.670914    -2.254601     2.278560 
H       3.685723    -2.347694     1.880794 
H       2.615998    -2.985204     3.087123 
C       2.429751    -0.811343     2.784737 
H       2.539192    -0.773261     3.872168 
H       3.183944    -0.145569     2.368257 
C       1.052277    -0.296350     2.375891 
C       0.827270     1.248316     2.281533 
H       0.120270     1.588072     3.051040 
C      -1.252608    -2.871280    -0.399220 
H      -1.233156    -3.787208     0.199332 
H      -1.757221    -2.103897     0.198087 
C       0.187275    -2.428560    -0.677511 
H       0.763158    -3.250573    -1.100228 
H       0.206015    -1.597221    -1.383369 
C      -0.105997    -0.829706     3.271941 
H       0.005694    -0.308819     4.229934 
H      -1.049769    -0.472167     2.844430 
C      -0.225222    -2.326262     3.558003 
H      -0.377319    -2.923227     2.657166 
H       0.644876    -2.717767     4.089707 
H      -1.093604    -2.490609     4.202918 
O       2.049395     1.913299     2.466543 
C       1.979344     3.336232     2.435521 
H       1.645082     3.669073     1.447303 
H       1.248460     3.693477     3.171704 
C       3.352208     3.875278     2.737569 
C       3.588687     4.646009     3.869336 
C       4.408936     3.603150     1.868714 
C       4.861277     5.143718     4.134988 
H       2.771017     4.859326     4.552596 
C       5.679081     4.094512     2.131959 
H       4.228230     2.999382     0.984146 
C       5.908488     4.868161     3.266743 
H       5.032291     5.745067     5.022576 
H       6.495145     3.875493     1.450069 
H       6.902567     5.253275     3.471435 
C       0.804460    -0.686902     0.935315 
O      -0.145669     0.095968     0.450069 
C       0.176489     1.369672     0.894453 
N       2.213209     0.272730    -0.053695 
N       1.875645     1.364901    -0.144464 
C      -0.778119     2.414989     0.541129 
O      -0.868453     3.472646     1.124343 
O      -1.540641     2.087416    -0.519640 
C      -2.485344     3.085987    -0.918556 
H      -3.041369     2.648582    -1.747424 
H      -3.158251     3.330011    -0.093889 
H      -1.968617     3.993668    -1.238196 
74
     -1835.303538     -1834.765692   4.39   6.36
C       1.328924     2.690345    -1.414982 
C       0.374403     3.372226    -0.630714 
C      -0.568613     4.169952    -1.278186 
C      -0.551319     4.279116    -2.657792 
C       0.413662     3.586058    -3.415191 
C       1.363673     2.783444    -2.803219 
C       1.712750     2.201230     0.726982 
C       0.634297     3.033478     0.744682 
H      -1.322161     4.707381    -0.711022 
H      -1.289630     4.902196    -3.145548 
H       2.092422     2.260342    -3.411265 
H       2.212818     1.693741     1.540142 
N       2.144473     1.985792    -0.566815 
C       3.168359     1.050652    -0.969071 
H       3.916175     1.540699    -1.600093 
H       3.661648     0.668208    -0.075201 
H       2.733378     0.204370    -1.510738 
O       0.487421     3.648691    -4.779280 
C      -0.457171     4.449177    -5.460610 
H      -0.222135     4.357138    -6.521817 
H      -1.481789     4.098338    -5.286134 
H      -0.380053     5.502471    -5.163975 
N      -1.410986     1.315452     2.305391 
C      -2.765970     1.596029     2.144554 
O      -3.216807     2.660126     2.507989 
C      -3.682806     0.526639     1.550286 
H      -4.241006     1.031757     0.758726 
H      -4.411649     0.334212     2.344532 
C      -3.061728    -0.786253     1.039610 
H      -3.792526    -1.594660     1.091472 
H      -2.772696    -0.687736    -0.005864 
C      -1.825951    -1.100203     1.875485 
C      -0.834594    -2.203462     1.398231 
H      -0.789876    -3.020084     2.131027 
C      -0.167241     3.474815     1.933928 
H      -1.088385     3.958126     1.600063 
H       0.379189     4.222575     2.520729 
C      -0.539059     2.342647     2.892518 
H       0.352533     1.834669     3.260733 
H      -1.080167     2.753752     3.746191 
C      -2.175110    -1.366904     3.364840 
H      -1.237537    -1.542863     3.903987 
H      -2.616465    -0.471247     3.811885 
C      -3.120889    -2.550441     3.576515 
H      -3.211868    -2.777043     4.642629 
H      -4.125690    -2.338457     3.200798 
H      -2.764537    -3.455491     3.075438 
O      -1.258374    -2.723829     0.162681 
C      -0.611398    -3.914590    -0.285115 
H      -0.068926    -4.389483     0.536062 
H      -1.414090    -4.589887    -0.604284 
C       0.322291    -3.664710    -1.448673 
C       1.589082    -4.237634    -1.479557 
C      -0.100443    -2.898235    -2.533091 
C       2.420311    -4.055003    -2.580170 
H       1.934471    -4.817115    -0.629824 
C       0.727433    -2.712131    -3.631370 
H      -1.082637    -2.437022    -2.507206 
C       1.991436    -3.293512    -3.659234 
H       3.406984    -4.508253    -2.590425 
H       0.385973    -2.113021    -4.470103 
H       2.639233    -3.149986    -4.518699 
C      -0.930299     0.121833     1.830208 
O       0.308199    -0.256639     2.112177 
C       0.490451    -1.438855     1.411724 
N      -0.561865     0.287094    -0.088520 
N       0.234348    -0.489719    -0.345897 
C       1.785935    -2.079178     1.588798 
O       1.970622    -3.273877     1.508692 
O       2.777130    -1.196647     1.832144 
C       4.074493    -1.778479     1.995190 
H       4.081576    -2.469738     2.840572 
H       4.366834    -2.317630     1.091118 
H       4.751511    -0.944751     2.180961 
74
     -1835.303086     -1834.765195   4.67   6.67
C       1.838896    -3.064705    -0.447777 
C       0.640109    -3.429135     0.197533 
C      -0.490440    -3.666501    -0.584856 
C      -0.426638    -3.507612    -1.954261 
C       0.774973    -3.106911    -2.569297 
C       1.927110    -2.899296    -1.827690 
C       2.215649    -3.093283     1.750744 
C       0.904606    -3.431958     1.613117 
H      -1.431747    -3.956701    -0.129062 
H      -1.318216    -3.666339    -2.544976 
H       2.836783    -2.590062    -2.329142 
H       2.795296    -2.962163     2.654615 
N       2.799208    -2.883411     0.517617 
C       4.132401    -2.382755     0.284366 
H       4.106336    -1.350298    -0.080843 
H       4.690255    -2.407712     1.221847 
H       4.657360    -3.007264    -0.444781 
O       0.889011    -2.897865    -3.913914 
C      -0.307733    -2.828778    -4.669601 
H      -0.012579    -2.513510    -5.671347 
H      -0.800217    -3.806701    -4.732353 
H      -1.002891    -2.097354    -4.241496 
N      -0.680134    -1.222071     2.928935 
C      -0.133720    -0.855988     4.153654 
O      -0.158384    -1.625944     5.089507 
C       0.503268     0.526587     4.302126 
H       1.560791     0.327201     4.497543 
H       0.101848     0.902727     5.246314 
C       0.347175     1.563963     3.165372 
H       0.166726     2.556127     3.587594 
H       1.262199     1.627998     2.579468 
C      -0.815949     1.160256     2.262124 
C      -0.912402     1.790971     0.838590 
H      -1.840624     2.369404     0.755396 
C      -0.087344    -3.658517     2.709029 
H       0.417497    -3.684859     3.676808 
H      -0.590138    -4.624627     2.580887 
C      -1.186180    -2.589024     2.752547 
H      -1.765257    -2.593724     1.829960 
H      -1.859123    -2.788841     3.589052 
C      -2.148530     1.376262     3.029699 
H      -2.034942     0.998044     4.050933 
H      -2.271540     2.461777     3.126818 
C      -3.412668     0.768914     2.420536 
H      -3.384684    -0.323285     2.433436 
H      -4.286157     1.082592     2.999150 
H      -3.573865     1.083493     1.386153 
O       0.174709     2.651847     0.571871 
C      -0.101603     3.884046    -0.069992 
H      -1.181358     4.074684    -0.082929 
H       0.363977     4.670631     0.537724 
C       0.434303     3.969748    -1.484520 
C       0.007507     5.013850    -2.302245 
C       1.344586     3.045647    -1.983839 
C       0.476522     5.132655    -3.604699 
H      -0.704360     5.741680    -1.918942 
C       1.810769     3.160392    -3.289199 
H       1.675104     2.227379    -1.355153 
C       1.380314     4.200878    -4.103714 
H       0.135567     5.952261    -4.229859 
H       2.517943     2.430044    -3.670967 
H       1.749608     4.287813    -5.120787 
C      -0.650271    -0.302323     1.911314 
O      -1.256954    -0.545426     0.759950 
C      -0.971263     0.543463    -0.038749 
N       1.133555    -0.285622     1.090041 
N       1.014592     0.131923     0.034604 
C      -1.489042     0.483006    -1.400208 
O      -1.824616    -0.512292    -1.997590 
O      -1.511483     1.721444    -1.934281 
C      -1.753520     1.789014    -3.342298 
H      -1.030466     1.166109    -3.874231 
H      -2.766006     1.453105    -3.577978 
H      -1.613506     2.834919    -3.613389 
74
     -1835.300113     -1834.764316   6.53   7.22
C       2.965623    -2.471203    -0.213464 
C       1.909631    -3.222906    -0.773070 
C       2.121046    -3.847274    -2.002745 
C       3.336759    -3.708929    -2.649204 
C       4.370418    -2.945992    -2.069745 
C       4.197867    -2.320625    -0.844889 
C       1.227982    -2.386061     1.188684 
C       0.796335    -3.142642     0.141446 
H       1.337408    -4.440028    -2.464423 
H       3.484706    -4.198055    -3.603111 
H       5.013109    -1.746196    -0.420446 
H       0.706598    -2.074563     2.082366 
N       2.530311    -1.964947     0.985326 
C       3.309650    -1.158209     1.894712 
H       2.658832    -0.803751     2.695559 
H       4.131513    -1.732732     2.335398 
H       3.725547    -0.287361     1.378850 
O       5.593063    -2.768982    -2.652944 
C       5.836486    -3.394507    -3.897755 
H       5.754540    -4.485615    -3.821509 
H       5.148158    -3.031972    -4.671027 
H       6.857833    -3.129602    -4.173862 
N      -1.709167    -1.621040    -0.661262 
C      -2.270557    -1.720247    -1.932288 
O      -2.601613    -2.800104    -2.368623 
C      -2.482038    -0.449602    -2.752255 
H      -3.565297    -0.400191    -2.895303 
H      -2.075334    -0.691881    -3.735528 
C      -1.952568     0.908359    -2.229225 
H      -1.503987     1.476428    -3.048762 
H      -2.782653     1.502499    -1.851402 
C      -0.937820     0.717942    -1.104981 
C      -0.734552     1.881851    -0.078045 
H       0.291739     2.266949    -0.142654 
C      -0.563225    -3.752127    -0.056595 
H      -0.699867    -4.625053     0.592448 
H      -0.657242    -4.114174    -1.083496 
C      -1.727617    -2.797176     0.218723 
H      -2.674260    -3.315544     0.057254 
H      -1.705165    -2.432055     1.245783 
C       0.485872     0.337229    -1.614798 
H       0.943379     1.277723    -1.942747 
H       1.075658    -0.005068    -0.756962 
C       0.624759    -0.669392    -2.754757 
H       1.687560    -0.846050    -2.940851 
H       0.187935    -1.640893    -2.525370 
H       0.184707    -0.296860    -3.683532 
O      -1.628777     2.930816    -0.349945 
C      -1.377106     4.175579     0.302575 
H      -0.375761     4.185824     0.739761 
H      -1.418412     4.941156    -0.481587 
C      -2.409875     4.487114     1.362158 
C      -3.766228     4.320899     1.089440 
C      -2.025724     4.989134     2.600578 
C      -4.722274     4.654701     2.038232 
H      -4.071498     3.914640     0.130340 
C      -2.982142     5.330032     3.551514 
H      -0.970649     5.098056     2.829421 
C      -4.332255     5.164836     3.272622 
H      -5.775715     4.516304     1.814891 
H      -2.668099     5.721219     4.514518 
H      -5.079606     5.427786     4.015050 
C      -1.445253    -0.367872    -0.180440 
O      -0.877346    -0.214703     1.002301 
C      -0.916947     1.146783     1.253202 
N      -3.157041     0.373283     0.458836 
N      -2.904349     1.139810     1.272519 
C      -0.276734     1.570571     2.492438 
O       0.184289     2.676533     2.671839 
O      -0.265240     0.604486     3.432334 
C       0.258828     1.004651     4.702859 
H       0.177694     0.127716     5.344638 
H       1.300937     1.319479     4.610318 
H      -0.326769     1.831795     5.110661 
74
     -1835.297509     -1834.764048   8.17   7.39
C       5.009646     2.020980    -1.489047 
C       4.130816     1.870102    -0.403638 
C       4.075350     2.882430     0.567473 
C       4.878403     3.990184     0.425887 
C       5.753975     4.121545    -0.675205 
C       5.836855     3.143534    -1.649852 
C       3.945986     0.070619    -1.724400 
C       3.456917     0.607710    -0.573224 
H       3.407783     2.796784     1.419937 
H       4.863299     4.792984     1.154485 
H       6.502254     3.228257    -2.498799 
H       3.701054    -0.867082    -2.205609 
N       4.887282     0.913256    -2.290658 
C       5.619691     0.670091    -3.511082 
H       5.418106     1.449814    -4.253332 
H       6.697913     0.630863    -3.322664 
H       5.307696    -0.289397    -3.926665 
O       6.488115     5.273626    -0.682456 
C       7.385956     5.476698    -1.754158 
H       6.860035     5.510492    -2.716654 
H       7.864046     6.439993    -1.572967 
H       8.153938     4.693615    -1.787561 
N       0.146660     0.456485     1.265781 
C       0.145581     1.155646     2.467626 
O       1.035513     1.937734     2.720906 
C      -1.005857     0.939285     3.445452 
H      -1.509582     1.909668     3.485379 
H      -0.521826     0.830415     4.417366 
C      -2.039397    -0.184308     3.184221 
H      -2.266451    -0.708036     4.116895 
H      -2.972494     0.252260     2.832646 
C      -1.541507    -1.173909     2.134172 
C      -2.593626    -2.000344     1.322055 
H      -2.491155    -3.070040     1.547701 
C       2.410494     0.050608     0.339661 
H       2.757435     0.116126     1.376646 
H       2.227164    -1.005823     0.120596 
C       1.099605     0.833198     0.217450 
H       1.288118     1.901847     0.314846 
H       0.628370     0.653256    -0.748872 
C      -0.535181    -2.221619     2.698712 
H      -1.141285    -2.916743     3.291325 
H      -0.150068    -2.803427     1.853272 
C       0.636352    -1.761879     3.565312 
H       1.212103    -2.640471     3.871045 
H       1.322523    -1.096785     3.038936 
H       0.304578    -1.263455     4.479062 
O      -3.895408    -1.592154     1.657915 
C      -4.962834    -2.438590     1.228154 
H      -4.578203    -3.410249     0.909265 
H      -5.598981    -2.591063     2.108143 
C      -5.780329    -1.814200     0.119961 
C      -6.216409    -0.495215     0.229744 
C      -6.146647    -2.556868    -0.996874 
C      -7.008173     0.070359    -0.759355 
H      -5.920569     0.094157     1.091916 
C      -6.944864    -1.994031    -1.987597 
H      -5.790132    -3.576280    -1.101396 
C      -7.378368    -0.680272    -1.871067 
H      -7.337714     1.100424    -0.663980 
H      -7.223296    -2.585292    -2.854738 
H      -7.999078    -0.239110    -2.645005 
C      -0.891509    -0.395870     1.011801 
O      -0.881446    -1.146761    -0.073530 
C      -2.135178    -1.740097    -0.116249 
N      -2.382876     0.720007     0.321387 
N      -3.019660     0.042054    -0.344135 
C      -2.354970    -2.683610    -1.206752 
O      -3.134828    -3.610148    -1.143501 
O      -1.622093    -2.401361    -2.295763 
C      -1.838057    -3.268574    -3.414755 
H      -1.189779    -2.893128    -4.205810 
H      -1.575296    -4.297518    -3.159338 
H      -2.884483    -3.233404    -3.726443 
74
     -1835.298743     -1834.763718   7.39   7.60
C      -0.234101     2.579985     2.564669 
C      -1.540874     2.425999     2.067881 
C      -2.119368     3.502480     1.378888 
C      -1.403000     4.663123     1.208049 
C      -0.092958     4.792097     1.717835 
C       0.512953     3.755145     2.404479 
C      -0.927226     0.529025     3.085822 
C      -1.964946     1.092531     2.409274 
H      -3.119335     3.429811     0.966550 
H      -1.824231     5.508820     0.676340 
H       1.516662     3.832279     2.801084 
H      -0.832462    -0.477748     3.470158 
N       0.123505     1.415146     3.193796 
C       1.418857     1.123966     3.760042 
H       2.193976     1.120467     2.986661 
H       1.681917     1.854905     4.531166 
H       1.386729     0.135376     4.219933 
O       0.497836     5.999265     1.475690 
C       1.810137     6.196705     1.960343 
H       2.094271     7.208357     1.668414 
H       1.850040     6.111427     3.053578 
H       2.513132     5.481340     1.515241 
N      -2.509299     0.482557    -0.385827 
C      -2.420795     1.476050    -1.360354 
O      -3.284888     2.313726    -1.493443 
C      -1.150366     1.477040    -2.198449 
H      -0.423188     2.021336    -1.585851 
H      -1.367878     2.106352    -3.061722 
C      -0.546243     0.111412    -2.621732 
H      -0.744322    -0.075202    -3.680439 
H       0.535191     0.147981    -2.504676 
C      -1.113783    -1.041566    -1.784329 
C      -0.156182    -2.191951    -1.325527 
H      -0.455437    -3.146244    -1.782039 
C      -3.236099     0.388658     2.050310 
H      -4.084200     0.797512     2.612495 
H      -3.139629    -0.658283     2.345203 
C      -3.627499     0.471506     0.562791 
H      -4.288581    -0.366863     0.318366 
H      -4.174310     1.388431     0.351870 
C      -2.316075    -1.735751    -2.489039 
H      -1.876856    -2.292463    -3.325223 
H      -2.727481    -2.489160    -1.806594 
C      -3.452489    -0.870349    -3.034719 
H      -4.065287    -0.427412    -2.248230 
H      -3.090712    -0.060286    -3.674008 
H      -4.112504    -1.492685    -3.646225 
O       1.160111    -1.901237    -1.715512 
C       2.121739    -2.913078    -1.437602 
H       2.242596    -3.022847    -0.354357 
H       1.780431    -3.878643    -1.831091 
C       3.424385    -2.507506    -2.076168 
C       3.971592    -1.254276    -1.802137 
C       4.106314    -3.372132    -2.923680 
C       5.180664    -0.876743    -2.367295 
H       3.439068    -0.574899    -1.143405 
C       5.322053    -2.998121    -3.489423 
H       3.683648    -4.347870    -3.148006 
C       5.861217    -1.749615    -3.212133 
H       5.596664     0.102012    -2.148347 
H       5.844763    -3.683933    -4.149083 
H       6.808183    -1.453933    -3.652819 
C      -1.553491    -0.499683    -0.439454 
O      -1.585530    -1.498150     0.428864 
C      -0.439824    -2.231293     0.180465 
N       0.137823     0.205971     0.256840 
N       0.743844    -0.682545     0.647842 
C      -0.258608    -3.405970     1.027293 
O       0.403772    -4.371931     0.719377 
O      -0.890360    -3.287983     2.211773 
C      -0.728015    -4.401292     3.097132 
H       0.327043    -4.544534     3.340816 
H      -1.297283    -4.150405     3.991830 
H      -1.115399    -5.314217     2.639782 
74
     -1835.296646     -1834.763224   8.71   7.91
C      -0.413780    -2.522253     5.074358 
C       0.461729    -1.918276     4.147714 
C       1.753020    -2.429925     4.010243 
C       2.142783    -3.514205     4.779059 
C       1.248664    -4.100142     5.696281 
C      -0.039399    -3.612962     5.856806 
C      -1.496849    -0.831774     4.091973 
C      -0.258506    -0.831659     3.529208 
H       2.452326    -1.987625     3.306452 
H       3.145437    -3.905064     4.665605 
H      -0.704141    -4.084978     6.571066 
H      -2.337412    -0.176662     3.903632 
N      -1.608128    -1.846156     5.028354 
C      -2.772349    -2.146401     5.827376 
H      -3.130330    -3.163063     5.633203 
H      -2.551980    -2.048250     6.895710 
H      -3.568989    -1.445297     5.573007 
O       1.572872    -5.171104     6.482932 
C       2.871538    -5.716814     6.365318 
H       3.642217    -4.981704     6.628038 
H       2.914257    -6.548547     7.069770 
H       3.059862    -6.092309     5.351955 
N       1.192744     0.097836     0.156826 
C       2.573099    -0.055955     0.097528 
O       3.156845    -0.677817     0.958199 
C       3.332755     0.548770    -1.079721 
H       3.743103    -0.317329    -1.607402 
H       4.195206     1.039066    -0.625220 
C       2.597524     1.478016    -2.077081 
H       3.228829     2.336065    -2.323937 
H       2.414384     0.943363    -3.007400 
C       1.258485     1.954139    -1.520225 
C       0.139408     2.389630    -2.523990 
H      -0.082120     3.458377    -2.404105 
C       0.279169     0.068320     2.462149 
H       1.265356     0.439662     2.761422 
H      -0.370631     0.937669     2.322336 
C       0.426426    -0.680831     1.134188 
H       0.953846    -1.621457     1.288980 
H      -0.549614    -0.900920     0.701642 
C       1.392071     3.132622    -0.509090 
H       1.627398     4.013076    -1.118335 
H       0.400229     3.318925    -0.081179 
C       2.418068     3.053959     0.620484 
H       2.365033     3.975934     1.207029 
H       2.235045     2.226530     1.307571 
H       3.440881     2.972149     0.245536 
O       0.557866     2.162242    -3.845830 
C      -0.220365     2.770954    -4.877529 
H      -0.888457     3.527552    -4.459233 
H       0.496296     3.271330    -5.539598 
C      -1.014445     1.758206    -5.671258 
C      -0.399180     0.600025    -6.142442 
C      -2.350159     1.988376    -5.981010 
C      -1.107120    -0.310961    -6.913157 
H       0.638972     0.407539    -5.890616 
C      -3.060957     1.079284    -6.758050 
H      -2.842854     2.875380    -5.596687 
C      -2.441528    -0.071389    -7.226797 
H      -0.617372    -1.211627    -7.270472 
H      -4.103705     1.271329    -6.992233 
H      -2.996074    -0.782932    -7.831006 
C       0.573717     0.783227    -0.851269 
O      -0.720954     1.030795    -0.785761 
C      -1.051210     1.566385    -2.022666 
N       0.332283    -0.504621    -2.344102 
N      -0.576020    -0.149037    -2.941227 
C      -2.437808     1.990072    -2.182051 
O      -2.786274     2.868970    -2.941527 
O      -3.288915     1.286086    -1.418635 
C      -4.670623     1.628539    -1.574982 
H      -4.984615     1.478247    -2.610460 
H      -5.215275     0.960496    -0.908600 
H      -4.841607     2.670907    -1.297063 
74
     -1835.299411     -1834.761516   6.98   8.98
C       1.666820     2.685960     0.354630 
C       2.316666     1.942803     1.362500 
C       2.175247     2.351154     2.688072 
C       1.423297     3.474153     2.986278 
C       0.794660     4.204680     1.958201 
C       0.905652     3.817410     0.631887 
C       2.713661     0.970793    -0.613209 
C       2.985434     0.844180     0.715815 
H       2.641951     1.791175     3.492528 
H       1.323306     3.782000     4.019068 
H       0.403154     4.393018    -0.136528 
H       2.993236     0.333537    -1.441273 
N       1.926965     2.080615    -0.848981 
C       1.337698     2.440314    -2.117319 
H       1.606476     3.463595    -2.397882 
H       1.711676     1.757856    -2.881273 
H       0.247637     2.347480    -2.079526 
O       0.040913     5.323164     2.182601 
C      -0.111556     5.767055     3.515751 
H      -0.607869     5.011260     4.136884 
H       0.854397     6.027586     3.965618 
H      -0.737325     6.659208     3.467572 
N       1.706792    -1.712516     1.521186 
C       1.318560    -1.693846     2.854723 
O       2.144285    -1.729622     3.740692 
C      -0.172126    -1.551310     3.136238 
H      -0.320380    -0.468716     3.217795 
H      -0.319529    -1.957925     4.137483 
C      -1.194926    -2.133427     2.121971 
H      -1.722142    -2.982055     2.565583 
H      -1.946048    -1.378125     1.899247 
C      -0.520781    -2.575954     0.818675 
C      -1.273565    -2.364574    -0.539824 
H      -1.477529    -3.336725    -1.008792 
C       3.742559    -0.256491     1.397446 
H       3.778464    -0.065657     2.471995 
H       4.780793    -0.301047     1.050250 
C       3.127687    -1.640485     1.169006 
H       3.213037    -1.931599     0.122054 
H       3.648207    -2.381458     1.779707 
C      -0.114133    -4.078349     0.857326 
H      -1.056666    -4.633844     0.784756 
H       0.444473    -4.307415    -0.058050 
C       0.658972    -4.602940     2.067812 
H       0.710523    -5.694340     2.013015 
H       1.684947    -4.233846     2.106449 
H       0.172934    -4.351672     3.014695 
O      -2.495260    -1.700259    -0.332383 
C      -3.414370    -1.697690    -1.424535 
H      -3.124799    -2.439564    -2.172844 
H      -4.382735    -1.993048    -1.003323 
C      -3.544833    -0.335082    -2.068528 
C      -3.691353     0.803470    -1.278580 
C      -3.578703    -0.205305    -3.452869 
C      -3.873685     2.049303    -1.863110 
H      -3.651793     0.710152    -0.198075 
C      -3.764132     1.041303    -4.041472 
H      -3.442387    -1.083333    -4.075573 
C      -3.913635     2.171575    -3.248489 
H      -3.987259     2.928579    -1.236236 
H      -3.788395     1.127249    -5.123632 
H      -4.057865     3.145377    -3.706492 
C       0.704585    -1.718991     0.587335 
O       0.998496    -1.728008    -0.702280 
C      -0.219584    -1.613858    -1.352326 
N      -0.102871     0.070185     0.511913 
N      -0.548876     0.194955    -0.531059 
C      -0.154717    -1.621269    -2.806756 
O      -1.028193    -2.053803    -3.526218 
O       0.980943    -1.066678    -3.278915 
C       1.085696    -1.032924    -4.705902 
H       0.266662    -0.450719    -5.134461 
H       2.044942    -0.562335    -4.921221 
H       1.057618    -2.044340    -5.116825 
74
     -1835.292492     -1834.758904  11.32  10.62
C      -3.709840    -4.151646     0.926759 
C      -2.375621    -3.751051     0.746554 
C      -1.426278    -4.712891     0.365928 
C      -1.830393    -6.013988     0.177457 
C      -3.178731    -6.394022     0.362348 
C      -4.140579    -5.474481     0.739607 
C      -3.580464    -1.962636     1.352606 
C      -2.313479    -2.338905     1.026692 
H      -0.385599    -4.437955     0.220377 
H      -1.127073    -6.784841    -0.116987 
H      -5.176790    -5.749053     0.886137 
H      -3.960121    -0.988327     1.630724 
N      -4.437451    -3.048153     1.297576 
C      -5.852644    -3.028208     1.584461 
H      -6.435656    -3.340344     0.711470 
H      -6.093523    -3.687233     2.425379 
H      -6.146552    -2.011171     1.848807 
O      -3.430855    -7.717792     0.139159 
C      -4.758197    -8.173299     0.303117 
H      -4.743877    -9.240665     0.079906 
H      -5.108627    -8.024814     1.332307 
H      -5.443360    -7.669082    -0.389990 
N       0.629081    -0.624019    -0.637296 
C       1.780180    -1.403783    -0.716025 
O       1.724342    -2.595100    -0.506331 
C       3.091584    -0.734148    -1.115399 
H       3.292587    -1.125088    -2.117759 
H       3.842644    -1.194250    -0.471490 
C       3.201457     0.812527    -1.121588 
H       4.113424     1.124762    -0.605468 
H       3.280601     1.170184    -2.146977 
C       1.987688     1.467963    -0.467950 
C       1.586605     2.914528    -0.907339 
H       1.673069     3.593325    -0.054323 
C      -1.088221    -1.485851     0.931829 
H      -0.259991    -1.971234     1.459163 
H      -1.254736    -0.514012     1.406833 
C      -0.675643    -1.280229    -0.528466 
H      -0.602680    -2.240809    -1.037424 
H      -1.408704    -0.670111    -1.056631 
C       2.089503     1.515563     1.086558 
H       2.827523     2.298868     1.299479 
H       1.134864     1.885678     1.478276 
C       2.494323     0.257067     1.852019 
H       1.775576    -0.557032     1.745922 
H       3.478710    -0.110894     1.552383 
H       2.552842     0.496749     2.917900 
O       2.396898     3.389016    -1.955543 
C       2.730620     4.775690    -1.876869 
H       3.354932     4.954741    -2.755854 
H       1.828086     5.387521    -1.952983 
C       3.484645     5.110116    -0.610318 
C       4.695334     4.478296    -0.326617 
C       2.961032     6.014099     0.308385 
C       5.373599     4.750597     0.853042 
H       5.102887     3.766336    -1.039194 
C       3.641579     6.293337     1.490103 
H       2.005264     6.487224     0.101417 
C       4.848010     5.663153     1.764165 
H       6.316006     4.254222     1.063131 
H       3.223761     7.001697     2.198716 
H       5.379130     5.879265     2.685765 
C       0.747689     0.713940    -0.885553 
O      -0.301693     1.507990    -0.769751 
C       0.111909     2.742970    -1.262779 
N       0.791113     0.912651    -2.869396 
N       0.403461     1.960764    -3.110040 
C      -0.811832     3.875447    -1.170296 
O      -0.387954     4.999392    -1.013766 
O      -2.142616     3.694791    -1.273516 
C      -2.715829     2.481932    -1.772755 
H      -3.718811     2.755385    -2.100744 
H      -2.149904     2.092343    -2.621938 
H      -2.778238     1.726992    -0.987108 
74
     -1835.294314     -1834.758796  10.17  10.69
C      -1.278186    -4.017574    -0.796053 
C      -0.856402    -3.191423    -1.860979 
C      -1.829552    -2.537504    -2.616408 
C      -3.168905    -2.685413    -2.299943 
C      -3.559636    -3.504167    -1.221821 
C      -2.619918    -4.183432    -0.461478 
C       0.952495    -4.078336    -0.884275 
C       0.585160    -3.247240    -1.896702 
H      -1.547911    -1.915010    -3.460200 
H      -3.911698    -2.168712    -2.893581 
H      -2.950978    -4.809467     0.359049 
H       1.944316    -4.384914    -0.579590 
N      -0.159473    -4.555150    -0.211117 
C      -0.154968    -5.478460     0.899138 
H       0.876799    -5.734744     1.144393 
H      -0.621392    -5.031901     1.783489 
H      -0.690666    -6.399206     0.645750 
O      -4.860866    -3.692618    -0.853871 
C      -5.865131    -2.999140    -1.569309 
H      -5.884108    -3.295972    -2.625027 
H      -6.811826    -3.273931    -1.102848 
H      -5.729312    -1.912982    -1.498849 
N       1.926815    -0.615475    -1.298596 
C       3.279837    -0.734102    -0.956234 
O       4.041773    -1.310231    -1.699309 
C       3.767134    -0.155653     0.367817 
H       4.741539     0.281898     0.143502 
H       3.973869    -1.027107     0.997355 
C       2.861175     0.854893     1.088678 
H       3.117521     0.902609     2.149984 
H       3.009552     1.852925     0.677147 
C       1.403714     0.441546     0.906080 
C       0.294652     1.469975     1.255454 
H      -0.304284     1.140228     2.112339 
C       1.496072    -2.533202    -2.846130 
H       1.179990    -2.716458    -3.880106 
H       2.511877    -2.918844    -2.749503 
C       1.528582    -1.012629    -2.656723 
H       2.233117    -0.569798    -3.365122 
H       0.544459    -0.581657    -2.835588 
C       1.130766    -0.892250     1.657574 
H       1.860198    -1.639965     1.333377 
H       1.350581    -0.686902     2.712201 
C      -0.266889    -1.500881     1.536478 
H      -0.329718    -2.380834     2.183176 
H      -1.057559    -0.814965     1.849502 
H      -0.485210    -1.823362     0.519198 
O       0.891663     2.702971     1.574260 
C      -0.014028     3.734526     1.949878 
H      -0.687548     3.960485     1.114809 
H      -0.632028     3.407029     2.794743 
C       0.792334     4.953241     2.313565 
C       1.641951     5.529116     1.368940 
C       0.697383     5.525921     3.575997 
C       2.382339     6.658280     1.686433 
H       1.720120     5.082854     0.381936 
C       1.436499     6.661127     3.896952 
H       0.041074     5.080141     4.318625 
C       2.280365     7.228808     2.952543 
H       3.041881     7.097975     0.944365 
H       1.352585     7.098844     4.886957 
H       2.859373     8.113176     3.199662 
C       1.156327     0.256467    -0.573141 
O      -0.144900     0.362397    -0.795921 
C      -0.561311     1.441523    -0.022458 
N       1.497309     2.059016    -1.314508 
N       0.575449     2.697827    -1.076453 
C      -2.013412     1.683836     0.040075 
O      -2.529884     2.074031     1.060732 
O      -2.789661     1.473865    -1.039996 
C      -2.248164     1.319805    -2.356557 
H      -3.068497     1.565296    -3.031371 
H      -1.417333     2.007298    -2.530723 
H      -1.927290     0.291682    -2.521676 
