72
     -1725.725703     -1725.196882   0.00   0.00
C       1.678160     2.482880     0.820178 
C       0.714414     3.103582     0.014489 
C       1.136707     3.745228    -1.150901 
C       2.472753     3.728023    -1.491047 
C       3.421454     3.082596    -0.673866 
C       3.039988     2.450918     0.500041 
C      -0.298731     2.211051     1.831068 
C      -0.585054     2.881369     0.636593 
H       0.425457     4.243871    -1.801172 
H       2.829411     4.213331    -2.392557 
H       3.753606     1.960189     1.148252 
H      -0.944542     2.077624     2.687663 
N       1.039477     1.944912     1.921697 
C       1.674630     1.213990     2.994894 
H       2.276232     0.392572     2.594623 
H       2.317276     1.866360     3.595160 
H       0.898851     0.790828     3.633754 
O       4.703873     3.140984    -1.130829 
C       5.715999     2.541604    -0.345028 
H       5.550807     1.462799    -0.234761 
H       6.652276     2.708345    -0.878022 
H       5.777641     3.005223     0.647161 
N      -2.263733     2.173161    -1.415482 
C      -2.441165     1.841145    -2.745014 
O      -2.779856     2.676154    -3.556781 
C      -2.216395     0.383746    -3.121951 
H      -1.423538     0.392456    -3.876681 
H      -3.121980     0.059628    -3.642014 
C      -1.876446    -0.558247    -1.965926 
H      -2.777715    -0.809232    -1.399857 
H      -1.474464    -1.498944    -2.339955 
C      -0.855897     0.118740    -1.007459 
C      -0.677013    -0.681191     0.317302 
H       0.358076    -0.581537     0.672037 
C      -1.829365     3.714042     0.432355 
H      -1.616408     4.773076     0.606241 
H      -2.564570     3.404236     1.180653 
C      -2.428715     3.563300    -0.973665 
H      -3.487258     3.835869    -0.983442 
H      -1.924757     4.203310    -1.701496 
C       0.460313     0.442931    -1.723759 
H       0.302522     1.252198    -2.443799 
H       1.165590     0.832266    -0.990878 
C       1.100694    -0.755919    -2.426688 
H       1.209951    -1.606508    -1.747532 
H       0.522870    -1.091836    -3.292328 
H       2.099064    -0.485353    -2.782437 
O      -0.933873    -2.063317     0.087351 
C      -0.043466    -2.961254     0.729067 
H       0.996532    -2.663425     0.515828 
H      -0.181212    -2.931983     1.814208 
C      -0.290536    -4.353450     0.205967 
C      -0.373055    -4.588940    -1.166167 
C      -0.410892    -5.426323     1.082066 
C      -0.568805    -5.874175    -1.650254 
H      -0.288243    -3.755441    -1.855912 
C      -0.603428    -6.717524     0.600365 
H      -0.357474    -5.251883     2.153195 
C      -0.682227    -6.944005    -0.766822 
H      -0.633255    -6.044474    -2.720557 
H      -0.694645    -7.545630     1.296382 
H      -0.834059    -7.949804    -1.145559 
C      -1.673427     1.293162    -0.529650 
O      -2.370195     0.938715     0.527132 
C      -1.653332     0.005147     1.229207 
C      -2.116871    -0.271793     2.543695 
O      -2.986741     0.336558     3.145214 
O      -1.404212    -1.285938     3.126279 
C      -1.827957    -1.626168     4.445826 
H      -1.717404    -0.774858     5.122466 
H      -2.875020    -1.939376     4.447751 
H      -1.186693    -2.449590     4.764083 
72
     -1725.726994     -1725.195418  -0.81   0.92
C       1.383881    -0.821702    -1.900120 
C       1.691224     0.550054    -1.965327 
C       1.335605     1.253117    -3.106334 
C       0.671234     0.605500    -4.141195 
C       0.362426    -0.760145    -4.042371 
C       0.718590    -1.493417    -2.915352 
C       2.453008    -0.295896    -0.005503 
C       2.335438     0.913069    -0.704926 
H       1.551064     2.313187    -3.196826 
H       0.396424     1.169303    -5.023127 
H       0.476972    -2.548694    -2.869187 
H       3.098191    -0.506192     0.835910 
N       1.852624    -1.310475    -0.692245 
C       1.682991    -2.665536    -0.215139 
H       2.225144    -3.376311    -0.846613 
H       2.067678    -2.724761     0.803362 
H       0.622536    -2.934582    -0.199128 
O      -0.289713    -1.461419    -5.013086 
C      -0.642254    -0.785116    -6.205667 
H      -1.341446     0.036525    -6.009305 
H       0.243693    -0.394668    -6.720530 
H      -1.128865    -1.527143    -6.839357 
N       1.192490     3.255589    -0.030975 
C       0.198317     4.164280    -0.349841 
O       0.431506     5.120625    -1.057200 
C      -1.168071     3.917088     0.267592 
H      -1.864942     3.810462    -0.569352 
H      -1.445085     4.845908     0.773787 
C      -1.246738     2.725212     1.220771 
H      -0.781415     2.973598     2.178561 
H      -2.281994     2.466875     1.436427 
C      -0.511636     1.500728     0.604493 
C      -0.359878     0.327733     1.621193 
H      -0.483505    -0.634213     1.110023 
C       3.278527     2.075930    -0.502584 
H       4.068339     2.067814    -1.259133 
H       3.756295     1.953736     0.472980 
C       2.549870     3.429066    -0.562154 
H       3.082877     4.193073     0.010333 
H       2.454526     3.799109    -1.584577 
C      -1.146605     1.084652    -0.728366 
H      -0.936205     1.837632    -1.493764 
H      -0.663002     0.170884    -1.067241 
C      -2.652454     0.829002    -0.648068 
H      -3.225516     1.744242    -0.474887 
H      -3.001336     0.395429    -1.589731 
H      -2.890713     0.124538     0.152069 
O      -1.406226     0.451540     2.588117 
C      -1.709596    -0.717334     3.341803 
H      -0.833454    -1.052600     3.900728 
H      -2.469467    -0.387916     4.055906 
C      -2.253313    -1.850868     2.499263 
C      -1.472832    -2.969997     2.220614 
C      -3.543229    -1.784145     1.974677 
C      -1.968002    -4.002689     1.430431 
H      -0.466100    -3.022578     2.624370 
C      -4.041680    -2.810141     1.183631 
H      -4.160426    -0.916064     2.190682 
C      -3.253017    -3.923638     0.908994 
H      -1.350727    -4.872694     1.226726 
H      -5.047793    -2.743958     0.781495 
H      -3.642192    -4.727887     0.292812 
C       0.901792     2.035446     0.545928 
O       1.531831     1.732934     1.658223 
C       1.046513     0.521244     2.115186 
C       1.924575    -0.173471     2.978879 
O       3.063799     0.160751     3.272953 
O       1.401557    -1.370274     3.411065 
C       2.252643    -2.102293     4.291820 
H       2.480964    -1.517612     5.186306 
H       1.702079    -3.005090     4.562445 
H       3.192199    -2.364361     3.798652 
72
     -1725.726895     -1725.195080  -0.75   1.13
C       1.549355     2.251025     1.361127 
C       0.658317     2.903975     0.487587 
C       1.167393     3.856330    -0.382693 
C       2.530524     4.126623    -0.396966 
C       3.398244     3.447689     0.472678 
C       2.914537     2.500031     1.368220 
C      -0.498442     1.464172     1.797197 
C      -0.670785     2.351608     0.729715 
H       0.516151     4.386544    -1.070102 
H       2.911758     4.868691    -1.086268 
H       3.604716     2.000709     2.037930 
H      -1.262714     1.050756     2.440230 
N       0.819357     1.375846     2.144812 
C       1.362837     0.496168     3.155894 
H       0.578829    -0.188613     3.479756 
H       2.186162    -0.093147     2.741682 
H       1.731090     1.062352     4.017753 
O       4.745421     3.656213     0.513965 
C       5.297521     4.636596    -0.344868 
H       6.368187     4.648521    -0.138614 
H       5.135598     4.383083    -1.399436 
H       4.878597     5.629103    -0.140123 
N      -1.719290     1.939989    -1.754735 
C      -1.493303     1.963411    -3.120105 
O      -1.784637     2.935398    -3.783233 
C      -0.900963     0.705198    -3.733272 
H       0.048313     1.008339    -4.185976 
H      -1.557289     0.432874    -4.564245 
C      -0.714546    -0.466960    -2.771195 
H      -1.678800    -0.936681    -2.558782 
H      -0.085006    -1.236664    -3.214402 
C      -0.093082     0.031041    -1.434111 
C      -0.103921    -1.068531    -0.330256 
H       0.817275    -1.028357     0.267269 
C      -1.987002     3.025846     0.423503 
H      -2.010738     4.034311     0.847022 
H      -2.778391     2.449934     0.910968 
C      -2.270470     3.124347    -1.084017 
H      -3.343063     3.201899    -1.281036 
H      -1.796533     4.000332    -1.531336 
C       1.287767     0.658734    -1.659546 
H       1.187084     1.605428    -2.198902 
H       1.711567     0.912172    -0.689403 
C       2.266948    -0.259548    -2.394672 
H       2.306121    -1.251046    -1.932879 
H       2.004027    -0.393575    -3.447860 
H       3.273052     0.168045    -2.358843 
O      -0.137477    -2.341441    -0.986487 
C       0.199998    -3.476565    -0.217072 
H       0.848615    -4.097532    -0.847973 
H       0.780220    -3.185033     0.666816 
C      -0.993541    -4.305560     0.216193 
C      -2.283299    -4.025981    -0.217570 
C      -0.785897    -5.389695     1.067454 
C      -3.352605    -4.811022     0.203679 
H      -2.452096    -3.183984    -0.878100 
C      -1.850201    -6.175375     1.487873 
H       0.220961    -5.618845     1.409786 
C      -3.141511    -5.886265     1.056770 
H      -4.356376    -4.576342    -0.137388 
H      -1.672582    -7.016170     2.151759 
H      -3.976638    -6.498463     1.382742 
C      -1.192505     0.949789    -0.951931 
O      -2.026242     0.277378    -0.191046 
C      -1.308262    -0.691945     0.475964 
C      -1.910372    -1.236576     1.637532 
O      -2.988407    -0.922364     2.115281 
O      -1.069128    -2.124322     2.254931 
C      -1.662596    -2.861943     3.323884 
H      -2.517978    -3.436643     2.960377 
H      -0.889057    -3.541196     3.683266 
H      -1.990792    -2.194117     4.123822 
72
     -1725.727436     -1725.194785  -1.09   1.32
C       1.899874     1.921747     1.418302 
C       0.973569     2.800918     0.841327 
C       1.455604     3.868649     0.082911 
C       2.814599     4.013484    -0.100754 
C       3.725823     3.106619     0.474636 
C       3.282911     2.044639     1.248854 
C      -0.134870     1.225975     2.029177 
C      -0.359018     2.321498     1.187243 
H       0.774634     4.576984    -0.377651 
H       3.218042     4.829958    -0.689070 
H       3.965152     1.342291     1.708912 
H      -0.839602     0.753165     2.698749 
N       1.201730     0.970688     2.139854 
C       1.778345    -0.144466     2.857749 
H       0.968707    -0.740382     3.278617 
H       2.356033    -0.782162     2.181661 
H       2.428617     0.202575     3.666898 
O       5.036858     3.367049     0.209317 
C       6.011171     2.517453     0.783653 
H       6.978290     2.903414     0.460797 
H       5.961694     2.537321     1.879258 
H       5.899155     1.484619     0.431518 
N      -1.806406     2.501098    -1.123660 
C      -1.799228     2.777796    -2.479526 
O      -2.090691     3.879931    -2.891872 
C      -1.443282     1.628021    -3.407695 
H      -0.556422     1.952105    -3.961197 
H      -2.250871     1.567510    -4.142298 
C      -1.216609     0.279893    -2.725314 
H      -2.174263    -0.162306    -2.437425 
H      -0.741061    -0.424543    -3.405608 
C      -0.345347     0.465259    -1.448850 
C      -0.285988    -0.827590    -0.582536 
H       0.713877    -0.956455    -0.145282 
C      -1.625855     3.143397     1.231068 
H      -1.480996     4.042798     1.836888 
H      -2.395655     2.541742     1.722366 
C      -2.112457     3.568516    -0.162699 
H      -3.185938     3.775386    -0.161517 
H      -1.610236     4.473580    -0.510602 
C       1.034219     1.039386    -1.793654 
H       0.936734     2.078512    -2.122571 
H       1.630565     1.070458    -0.883388 
C       1.792631     0.227862    -2.846542 
H       2.825750     0.581163    -2.911895 
H       1.815975    -0.835568    -2.588907 
H       1.350660     0.318898    -3.842845 
O      -0.525400    -1.942048    -1.449400 
C      -0.171175    -3.223606    -0.973509 
H       0.321836    -3.739176    -1.807480 
H       0.557175    -3.144491    -0.157363 
C      -1.350943    -4.058954    -0.515556 
C      -2.663416    -3.632148    -0.673995 
C      -1.108945    -5.299723     0.071795 
C      -3.719097    -4.428404    -0.239711 
H      -2.858659    -2.668364    -1.128687 
C      -2.159916    -6.096683     0.504418 
H      -0.084710    -5.644350     0.196851 
C      -3.472703    -5.660975     0.350712 
H      -4.739652    -4.078891    -0.363251 
H      -1.955381    -7.060540     0.960884 
H      -4.297572    -6.281359     0.687149 
C      -1.262588     1.336419    -0.621515 
O      -2.035177     0.576018     0.123435 
C      -1.321728    -0.551461     0.463931 
C      -1.787729    -1.283658     1.584714 
O      -2.750360    -1.013090     2.283672 
O      -0.941822    -2.321242     1.876050 
C      -1.428500    -3.225317     2.868427 
H      -2.374481    -3.668525     2.547940 
H      -0.670460    -4.003568     2.960907 
H      -1.575017    -2.714749     3.823185 
72
     -1725.724250     -1725.193658   0.91   2.03
C       2.157313     1.556976     1.817895 
C       0.864931     2.088283     1.767779 
C       0.710056     3.436344     1.444343 
C       1.827129     4.197993     1.169259 
C       3.118565     3.638152     1.215118 
C       3.306549     2.302793     1.542956 
C       0.754219    -0.096206     2.367831 
C      -0.069726     1.004997     2.072717 
H      -0.274922     3.889085     1.389241 
H       1.741475     5.247794     0.912103 
H       4.289913     1.854709     1.593027 
H       0.470706    -1.005872     2.878825 
N       2.060030     0.216441     2.170446 
C       3.172412    -0.698275     2.316827 
H       3.776721    -0.709160     1.405579 
H       3.805646    -0.415663     3.163467 
H       2.778786    -1.701440     2.481568 
O       4.127898     4.503064     0.919978 
C       5.456317     4.018979     0.977042 
H       6.097331     4.862828     0.721320 
H       5.708883     3.665354     1.984125 
H       5.618748     3.210265     0.254018 
N      -2.024797     1.413732     0.369192 
C      -2.333766     2.230406    -0.708923 
O      -2.937386     3.269397    -0.551960 
C      -1.928805     1.714504    -2.076150 
H      -1.233519     2.447051    -2.497244 
H      -2.829375     1.757466    -2.694561 
C      -1.342894     0.306666    -2.060631 
H      -2.135313    -0.414525    -1.854641 
H      -0.926713     0.042433    -3.031112 
C      -0.250665     0.196867    -0.965651 
C       0.272240    -1.266625    -0.767775 
H       1.359825    -1.253748    -0.631598 
C      -1.424285     1.194090     2.718130 
H      -1.344030     1.843305     3.593845 
H      -1.773804     0.216775     3.058413 
C      -2.432943     1.798305     1.724376 
H      -3.449047     1.447803     1.925220 
H      -2.449541     2.887836     1.761010 
C       0.893526     1.187208    -1.218003 
H       0.560849     2.214753    -1.050093 
H       1.672501     0.998702    -0.480975 
C       1.508594     1.055685    -2.613642 
H       2.427082     1.646819    -2.670225 
H       1.760902     0.015613    -2.841849 
H       0.838485     1.415441    -3.399595 
O       0.079533    -2.042034    -1.965086 
C      -0.699323    -3.234677    -1.927415 
H      -0.309195    -3.837069    -2.753513 
H      -0.527286    -3.785592    -1.001984 
C      -2.177184    -2.995467    -2.137938 
C      -2.650083    -2.683436    -3.412476 
C      -3.080859    -3.050906    -1.080858 
C      -3.993980    -2.412142    -3.626324 
H      -1.949578    -2.642126    -4.242729 
C      -4.430185    -2.783774    -1.291253 
H      -2.730334    -3.293936    -0.082820 
C      -4.889069    -2.459851    -2.561522 
H      -4.345716    -2.165650    -4.623593 
H      -5.123435    -2.826659    -0.456647 
H      -5.941744    -2.249716    -2.723888 
C      -1.087650     0.400107     0.288333 
O      -1.451351    -0.779020     0.766134 
C      -0.425449    -1.675977     0.480668 
C      -0.264508    -2.750254     1.374467 
O      -0.896398    -2.956998     2.405440 
O       0.784308    -3.559923     1.000431 
C       0.987960    -4.693379     1.839142 
H       1.209276    -4.388059     2.865505 
H       0.101101    -5.332847     1.852818 
H       1.835048    -5.234017     1.414083 
72
     -1725.721667     -1725.192717   2.53   2.62
C       2.712533     0.111634     1.173804 
C       2.704560    -1.195145     0.646431 
C       2.849562    -2.258978     1.524560 
C       2.954744    -2.026488     2.890392 
C       2.921448    -0.715278     3.391358 
C       2.803495     0.373104     2.534799 
C       2.553321     0.293979    -1.049076 
C       2.530840    -1.080294    -0.798500 
H       2.871140    -3.280536     1.160224 
H       3.063774    -2.869136     3.560488 
H       2.798302     1.375568     2.945919 
H       2.673240     0.794324    -2.000090 
N       2.632270     1.000558     0.121097 
C       2.573008     2.439526     0.234811 
H       2.491921     2.865407    -0.765503 
H       1.696223     2.748974     0.813028 
H       3.473686     2.832067     0.717185 
O       3.007584    -0.409232     4.717618 
C       3.154578    -1.471832     5.641061 
H       4.076061    -2.037120     5.457113 
H       3.207698    -1.008634     6.626752 
H       2.295792    -2.153016     5.607858 
N       0.590672    -2.923773    -1.623842 
C      -0.423191    -3.844783    -1.486098 
O      -0.204393    -5.036117    -1.566659 
C      -1.825896    -3.292252    -1.263987 
H      -2.257205    -3.914657    -0.478555 
H      -2.384084    -3.540783    -2.171976 
C      -1.968193    -1.788419    -0.955983 
H      -2.192241    -1.248186    -1.878806 
H      -2.811526    -1.615222    -0.283388 
C      -0.685374    -1.155568    -0.339033 
C      -0.659674     0.382539    -0.570647 
H      -0.080851     0.855245     0.234455 
C       2.886076    -2.124025    -1.832110 
H       3.922628    -2.451200    -1.703203 
H       2.816010    -1.656580    -2.819187 
C       1.980576    -3.359931    -1.791219 
H       2.073900    -3.948249    -2.706851 
H       2.238667    -4.019907    -0.957070 
C      -0.529525    -1.469777     1.154682 
H       0.364047    -0.964125     1.521579 
H      -1.378137    -0.975381     1.646007 
C      -0.488363    -2.931724     1.599601 
H      -1.450971    -3.432395     1.476984 
H       0.268486    -3.507846     1.062807 
H      -0.230321    -2.975515     2.661400 
O      -1.973148     0.919770    -0.557322 
C      -2.133627     2.086170     0.233918 
H      -2.118448     1.826619     1.303141 
H      -1.304094     2.779004     0.042118 
C      -3.440026     2.748773    -0.119690 
C      -4.284158     3.228409     0.875807 
C      -3.798137     2.922975    -1.456520 
C      -5.468670     3.880037     0.546504 
H      -4.016978     3.089864     1.920232 
C      -4.980837     3.569051    -1.787086 
H      -3.144311     2.542643    -2.234105 
C      -5.818690     4.051889    -0.785894 
H      -6.118280     4.250803     1.333304 
H      -5.252603     3.697176    -2.830467 
H      -6.742859     4.558330    -1.046011 
C       0.369362    -1.590561    -1.323505 
O       0.374092    -0.746565    -2.346912 
C       0.040109     0.489355    -1.896524 
C       0.211486     1.580879    -2.799452 
O       0.726173     1.535140    -3.902158 
O      -0.225435     2.750048    -2.241963 
C      -0.140784     3.890320    -3.097263 
H      -0.561381     4.721585    -2.529933 
H       0.897942     4.098651    -3.366588 
H      -0.713597     3.728814    -4.013863 
72
     -1725.724372     -1725.192286   0.83   2.89
C       2.078036     0.140282    -2.338465 
C       1.808832     1.451374    -1.905086 
C       1.526651     2.418969    -2.857095 
C       1.495603     2.076091    -4.204316 
C       1.752976     0.756779    -4.607614 
C       2.050720    -0.231288    -3.674191 
C       2.276569     0.148649    -0.109043 
C       1.885941     1.453211    -0.445533 
H       1.309958     3.442178    -2.565857 
H       1.270514     2.840972    -4.936070 
H       2.256770    -1.239124    -4.014801 
H       2.693960    -0.189972     0.828836 
N       2.345181    -0.635440    -1.220574 
C       2.638584    -2.051944    -1.231690 
H       3.614614    -2.250658    -1.685856 
H       2.636410    -2.415776    -0.203774 
H       1.869905    -2.592068    -1.791619 
O       1.736145     0.344838    -5.907187 
C       1.468712     1.306581    -6.911048 
H       2.219191     2.106093    -6.908824 
H       1.515844     0.771577    -7.860019 
H       0.470056     1.743552    -6.791701 
N      -0.198771     2.942160     0.272437 
C      -1.279235     3.577327    -0.322031 
O      -1.208548     4.734554    -0.674078 
C      -2.554244     2.763126    -0.451577 
H      -2.767552     2.685700    -1.521885 
H      -3.351479     3.378395    -0.026169 
C      -2.495389     1.391830     0.215758 
H      -2.512441     1.522439     1.300573 
H      -3.365482     0.790080    -0.044383 
C      -1.194550     0.659318    -0.197534 
C      -0.950835    -0.671948     0.593788 
H      -0.672067    -1.473404    -0.095304 
C       2.226196     2.654194     0.404379 
H       3.116523     3.157023     0.017094 
H       2.459305     2.299051     1.410864 
C       1.064995     3.665273     0.460998 
H       1.051627     4.200246     1.414529 
H       1.127991     4.411483    -0.331288 
C      -1.143358     0.434751    -1.714544 
H      -0.989166     1.380183    -2.240938 
H      -0.268974    -0.176618    -1.930938 
C      -2.380367    -0.278451    -2.266036 
H      -2.199191    -0.585139    -3.300040 
H      -2.617504    -1.176024    -1.685932 
H      -3.267043     0.362179    -2.265602 
O      -2.154173    -1.173808     1.203335 
C      -2.406066    -0.840529     2.558667 
H      -1.888590     0.079960     2.847074 
H      -3.484701    -0.650409     2.627426 
C      -2.039107    -1.941766     3.530854 
C      -1.522357    -1.625929     4.783129 
C      -2.256441    -3.278437     3.206124 
C      -1.244787    -2.627160     5.708649 
H      -1.323496    -0.588166     5.036780 
C      -1.972896    -4.280577     4.123868 
H      -2.639284    -3.528065     2.222251 
C      -1.471150    -3.957871     5.381616 
H      -0.845886    -2.364565     6.683877 
H      -2.147584    -5.319354     3.859267 
H      -1.254801    -4.741737     6.100989 
C      -0.133545     1.570205     0.399592 
O       0.253226     1.093357     1.566971 
C       0.167332    -0.291272     1.495101 
C       0.961473    -1.038393     2.396353 
O       1.774003    -0.596293     3.196482 
O       0.780383    -2.377473     2.197587 
C       1.455168    -3.222958     3.127183 
H       1.149947    -2.989034     4.148932 
H       1.152170    -4.239684     2.875633 
H       2.539548    -3.112644     3.041635 
72
     -1725.724159     -1725.190989   0.97   3.70
C      -0.134808    -1.686018    -1.854008 
C       0.301181    -0.624586    -2.659522 
C      -0.546019    -0.166814    -3.669465 
C      -1.789317    -0.742032    -3.828580 
C      -2.213933    -1.793195    -2.993257 
C      -1.390804    -2.286032    -1.991624 
C       1.925472    -1.142762    -1.170256 
C       1.616721    -0.223240    -2.180445 
H      -0.245983     0.647152    -4.321427 
H      -2.470233    -0.403941    -4.601594 
H      -1.692406    -3.099188    -1.344978 
H       2.899680    -1.372002    -0.762174 
N       0.869825    -1.989517    -0.956062 
C       0.795312    -2.979753     0.094871 
H       1.719904    -2.941590     0.671432 
H      -0.038106    -2.767472     0.772478 
H       0.676005    -3.985896    -0.319609 
O      -3.465040    -2.265103    -3.257929 
C      -3.943220    -3.346562    -2.481731 
H      -4.011722    -3.078048    -1.420341 
H      -4.940462    -3.573353    -2.859392 
H      -3.304423    -4.231185    -2.594072 
N       1.579698     2.535700    -2.039849 
C       0.858291     3.709723    -2.133716 
O       0.841794     4.353387    -3.161538 
C       0.110306     4.156550    -0.885001 
H      -0.943661     4.207498    -1.176582 
H       0.420359     5.187670    -0.695152 
C       0.301671     3.284735     0.357857 
H       1.268685     3.491574     0.824345 
H      -0.459763     3.522525     1.102239 
C       0.247874     1.781744    -0.025096 
C       0.723579     0.846695     1.144296 
H       0.105063    -0.058586     1.167793 
C       2.659795     0.536549    -2.965447 
H       2.836778     0.058330    -3.933709 
H       3.598685     0.491396    -2.406336 
C       2.279844     2.004740    -3.217580 
H       3.164964     2.610191    -3.429457 
H       1.607320     2.108270    -4.072133 
C      -1.085960     1.397230    -0.683940 
H      -1.120487     1.840171    -1.684254 
H      -1.089807     0.320674    -0.841553 
C      -2.362224     1.766051     0.071299 
H      -2.449321     1.204832     1.003154 
H      -2.433936     2.833188     0.300697 
H      -3.229071     1.503241    -0.542034 
O       0.697144     1.450919     2.437893 
C      -0.532086     1.440965     3.138573 
H      -0.300985     1.922924     4.094359 
H      -1.279998     2.067757     2.637255 
C      -1.120258     0.068400     3.403475 
C      -2.501778    -0.098652     3.457016 
C      -0.297077    -1.029636     3.644832 
C      -3.056909    -1.341243     3.742138 
H      -3.154949     0.752124     3.280226 
C      -0.850364    -2.273417     3.923793 
H       0.778168    -0.903744     3.601570 
C      -2.231100    -2.433894     3.974391 
H      -4.135726    -1.454058     3.782945 
H      -0.198745    -3.121995     4.110496 
H      -2.660747    -3.405386     4.196877 
C       1.433128     1.689974    -0.959305 
O       2.511690     1.379207    -0.281843 
C       2.146757     0.568559     0.760776 
C       3.232696    -0.055898     1.442282 
O       4.394939    -0.056731     1.072731 
O       2.822466    -0.756160     2.539078 
C       3.872530    -1.391022     3.268089 
H       3.391056    -1.897607     4.106001 
H       4.402681    -2.112019     2.640680 
H       4.589367    -0.652301     3.635054 
72
     -1725.721441     -1725.188642   2.67   5.17
C       1.643632     1.801367    -1.687097 
C       2.321895     0.566845    -1.722027 
C       3.679182     0.554836    -1.436582 
C       4.328937     1.733105    -1.089450 
C       3.620014     2.943145    -1.029308 
C       2.264099     2.991680    -1.332761 
C       0.168986     0.253621    -2.341851 
C       1.345308    -0.455531    -2.085407 
H       4.245880    -0.369633    -1.470746 
H       5.387815     1.703790    -0.868045 
H       1.744458     3.941775    -1.296703 
H      -0.711210    -0.091742    -2.865839 
N       0.334550     1.583269    -2.069744 
C      -0.696568     2.593009    -2.156518 
H      -1.640437     2.106693    -2.402415 
H      -0.814210     3.104375    -1.196224 
H      -0.458164     3.333505    -2.926904 
O       4.185713     4.136108    -0.686938 
C       5.569314     4.159013    -0.389668 
H       5.808618     5.195571    -0.150310 
H       5.803891     3.525322     0.474081 
H       6.168819     3.839012    -1.250337 
N       1.730905    -2.618291    -0.387795 
C       2.268333    -3.268070     0.701296 
O       3.229916    -3.998767     0.582488 
C       1.574621    -3.051395     2.037352 
H       2.373956    -2.839576     2.748438 
H       1.181475    -4.031435     2.324818 
C       0.451815    -2.000955     2.093343 
H      -0.505714    -2.490129     1.902300 
H       0.385639    -1.567700     3.093215 
C       0.612745    -0.852418     1.048743 
C      -0.748740    -0.139791     0.789670 
H      -0.584109     0.923388     0.565499 
C       1.646358    -1.806809    -2.689930 
H       2.280132    -1.698374    -3.575543 
H       0.699500    -2.243992    -3.021160 
C       2.339328    -2.765501    -1.714393 
H       2.250559    -3.801950    -2.048880 
H       3.406998    -2.547109    -1.623147 
C       1.670819     0.179431     1.462903 
H       1.728348     0.939976     0.684606 
H       1.248899     0.681688     2.343427 
C       3.084156    -0.297742     1.797871 
H       3.740807     0.571509     1.893157 
H       3.125856    -0.842223     2.743533 
H       3.507811    -0.931932     1.015992 
O      -1.508512    -0.215549     1.995583 
C      -2.594512     0.674978     2.145620 
H      -2.522654     1.088957     3.159449 
H      -2.509281     1.510477     1.440495 
C      -3.948477     0.012644     1.982480 
C      -5.094448     0.805701     2.002091 
C      -4.081628    -1.361344     1.824868 
C      -6.352568     0.237719     1.854629 
H      -5.000915     1.882070     2.128911 
C      -5.341538    -1.933520     1.677155 
H      -3.195330    -1.984131     1.808152 
C      -6.480037    -1.138142     1.689815 
H      -7.235979     0.868937     1.870572 
H      -5.430413    -3.008218     1.549859 
H      -7.462132    -1.586325     1.575673 
C       0.766047    -1.641301    -0.228125 
O      -0.429881    -1.907401    -0.719785 
C      -1.274277    -0.882619    -0.403889 
C      -2.473386    -0.785350    -1.163909 
O      -2.838251    -1.546543    -2.042567 
O      -3.155875     0.357188    -0.852136 
C      -4.462371     0.449790    -1.422686 
H      -4.870480     1.400576    -1.079465 
H      -4.413771     0.420841    -2.513572 
H      -5.090261    -0.370402    -1.066225 
72
     -1725.718820     -1725.186933   4.32   6.25
C      -1.897203    -1.955378     1.199532 
C      -2.481971    -0.749746     1.612149 
C      -2.775669    -0.586462     2.966581 
C      -2.450951    -1.585271     3.860117 
C      -1.831719    -2.773602     3.426124 
C      -1.547938    -2.981058     2.084891 
C      -2.241657    -0.728712    -0.635769 
C      -2.648711     0.084191     0.427741 
H      -3.248253     0.320827     3.327531 
H      -2.665091    -1.484370     4.918162 
H      -1.088886    -3.892668     1.726603 
H      -2.423739    -0.580663    -1.691258 
N      -1.765967    -1.923294    -0.175147 
C      -1.170430    -2.953590    -0.996998 
H      -1.162333    -2.609758    -2.031325 
H      -0.136714    -3.143270    -0.692156 
H      -1.740693    -3.885739    -0.933488 
O      -1.556036    -3.669395     4.415523 
C      -0.956448    -4.897346     4.049544 
H       0.024637    -4.740363     3.584717 
H      -0.829364    -5.460259     4.974488 
H      -1.598166    -5.466370     3.365697 
N      -1.798159     2.663040     1.034020 
C      -1.195209     3.624621     1.815004 
O      -1.852467     4.359518     2.522289 
C       0.319433     3.740474     1.716905 
H       0.672496     3.805591     2.746522 
H       0.510439     4.725505     1.279803 
C       1.060761     2.656412     0.913951 
H       1.167020     3.005430    -0.115104 
H       2.069772     2.512331     1.308801 
C       0.322388     1.285985     0.885655 
C       0.800043     0.398932    -0.309771 
H       0.707697    -0.654116    -0.021225 
C      -3.620067     1.230703     0.266571 
H      -4.631491     0.917429     0.543233 
H      -3.645372     1.502960    -0.792955 
C      -3.250095     2.462129     1.100451 
H      -3.763454     3.355394     0.736884 
H      -3.527793     2.335888     2.150923 
C       0.479651     0.508333     2.200204 
H      -0.053388    -0.436795     2.099819 
H       1.544876     0.247156     2.250815 
C       0.069992     1.170015     3.516518 
H       0.083257     0.419152     4.311234 
H       0.753233     1.968651     3.812883 
H      -0.942607     1.578359     3.482413 
O       2.196352     0.530365    -0.577991 
C       2.645540     1.416959    -1.587675 
H       1.809871     1.983527    -2.011874 
H       3.329607     2.137559    -1.118343 
C       3.372109     0.694860    -2.701791 
C       3.976447    -0.540068    -2.491745 
C       3.460632     1.286698    -3.958992 
C       4.658574    -1.173332    -3.524282 
H       3.898047    -1.009797    -1.518118 
C       4.141538     0.655991    -4.993134 
H       2.982439     2.247173    -4.135546 
C       4.744312    -0.578251    -4.778086 
H       5.126067    -2.137662    -3.348112 
H       4.202235     1.129863    -5.968344 
H       5.278553    -1.073328    -5.582983 
C      -1.044833     1.693581     0.395482 
O      -1.038836     1.723162    -0.927479 
C      -0.177861     0.768265    -1.383231 
C      -0.281506     0.379202    -2.750603 
O      -1.095839     0.781225    -3.564143 
O       0.641291    -0.579690    -3.036446 
C       0.742949    -0.943232    -4.413385 
H      -0.142882    -1.499270    -4.733510 
H       0.849484    -0.054322    -5.038193 
H       1.638049    -1.560282    -4.490585 
