72
     -1725.720436     -1725.192678   0.00   0.00
C      -1.493832     3.304232     2.804250 
C      -0.369553     2.515793     2.500861 
C      -0.429474     1.137721     2.757276 
C      -1.583239     0.596500     3.273317 
C      -2.706053     1.406686     3.555748 
C      -2.680690     2.771365     3.330043 
C       0.087418     4.640327     1.972635 
C       0.634977     3.394118     1.959996 
H       0.421045     0.496774     2.548793 
H      -1.661605    -0.464861     3.481416 
H      -3.528585     3.408247     3.544383 
H       0.501868     5.578141     1.628596 
N      -1.196811     4.603380     2.481055 
C      -2.084377     5.734756     2.622178 
H      -1.569426     6.631739     2.275380 
H      -2.988884     5.601282     2.020021 
H      -2.370910     5.881789     3.668657 
O      -3.780088     0.732758     4.059205 
C      -4.936243     1.479308     4.383551 
H      -5.353865     1.975131     3.498436 
H      -5.662119     0.762983     4.769480 
H      -4.723977     2.229795     5.155068 
N       0.721125     1.821038    -0.509260 
C      -0.583088     2.322438    -0.752230 
O      -0.748274     3.485808    -1.012583 
C      -1.765152     1.357916    -0.601240 
H      -2.398116     1.552105    -1.471293 
H      -2.320216     1.732165     0.264354 
C      -1.462548    -0.150512    -0.448371 
H      -1.362789    -0.418363     0.603867 
H      -2.279542    -0.746685    -0.859051 
C      -0.139518    -0.406563    -1.161229 
C       0.707094    -1.695033    -1.013502 
H       0.763615    -2.262252    -1.945139 
C       1.939898     2.976762     1.352177 
H       2.308816     2.071967     1.842717 
H       2.701721     3.749360     1.496576 
C       1.829322     2.725410    -0.160612 
H       1.628759     3.657704    -0.689439 
H       2.746057     2.274168    -0.545814 
C      -0.205980    -0.067290    -2.668566 
H      -0.435782     0.991937    -2.820280 
H       0.791658    -0.222364    -3.092381 
C      -1.226999    -0.914429    -3.429966 
H      -2.253488    -0.674957    -3.137678 
H      -1.143126    -0.733539    -4.505472 
H      -1.073549    -1.984948    -3.262035 
O       0.223083    -2.502350     0.040966 
C       1.065760    -3.610089     0.326097 
H       2.078611    -3.254426     0.555966 
H       0.645897    -4.063477     1.228267 
C       1.113026    -4.618727    -0.800439 
C      -0.059197    -5.241141    -1.229298 
C       2.311134    -4.924328    -1.436002 
C      -0.030888    -6.158747    -2.269430 
H      -0.999522    -4.996868    -0.742956 
C       2.344493    -5.846572    -2.477817 
H       3.224375    -4.425591    -1.124526 
C       1.174431    -6.465885    -2.895297 
H      -0.949705    -6.637232    -2.594082 
H       3.286951    -6.076416    -2.965020 
H       1.197859    -7.184649    -3.708395 
C       0.870733     0.482982    -0.467458 
O       1.702072    -0.080146     0.382765 
C       2.006357    -0.985714    -0.736756 
C       3.197447    -0.746349    -1.470154 
O       3.992531     0.165530    -1.298086 
O       3.358908    -1.686292    -2.450294 
C       4.527090    -1.523381    -3.251879 
H       4.516587    -2.348193    -3.965473 
H       4.507642    -0.565739    -3.778592 
H       5.428858    -1.566007    -2.635998 
72
     -1725.719335     -1725.192051   0.70   0.40
C       2.631758    -2.872208     2.601349 
C       2.529876    -1.540682     2.142007 
C       2.679783    -1.294683     0.776876 
C       2.903927    -2.348445    -0.092622 
C       2.987726    -3.669167     0.391009 
C       2.853860    -3.946737     1.742939 
C       2.248246    -1.554665     4.361333 
C       2.275997    -0.711678     3.294007 
H       2.617722    -0.284667     0.385009 
H       3.015885    -2.142014    -1.149135 
H       2.927677    -4.971763     2.087049 
H       2.061568    -1.336601     5.404208 
N       2.462769    -2.860422     3.962457 
C       2.482692    -4.021133     4.822200 
H       3.450952    -4.529840     4.772033 
H       2.311141    -3.701757     5.851187 
H       1.695095    -4.728309     4.542826 
O       3.204062    -4.752349    -0.412391 
C       3.389053    -4.532873    -1.797573 
H       2.499880    -4.082972    -2.255847 
H       4.259499    -3.894006    -1.989718 
H       3.560717    -5.515866    -2.237635 
N      -0.220368     0.241756     2.109299 
C      -0.709999    -1.070479     2.331535 
O      -0.918821    -1.459998     3.451001 
C      -0.891843    -1.987131     1.116168 
H      -1.864753    -2.462561     1.266706 
H      -0.146801    -2.777399     1.250324 
C      -0.781153    -1.361785    -0.293417 
H       0.246215    -1.410058    -0.656277 
H      -1.402553    -1.910159    -1.003853 
C      -1.199445     0.098079    -0.159718 
C      -0.957954     1.186850    -1.234395 
H      -1.891120     1.563640    -1.658725 
C       1.940588     0.748857     3.274809 
H       2.435882     1.234603     2.429780 
H       2.301890     1.243996     4.181700 
C       0.426404     1.003061     3.190735 
H      -0.066195     0.687157     4.110816 
H       0.220967     2.059832     3.008004 
C      -2.656908     0.251083     0.334205 
H      -2.781804    -0.195307     1.325628 
H      -2.859404     1.320020     0.457903 
C      -3.682104    -0.360505    -0.622285 
H      -3.608436    -1.451379    -0.654923 
H      -4.697213    -0.111440    -0.299826 
H      -3.558983     0.012825    -1.643671 
O      -0.095286     0.715201    -2.250091 
C       0.288794     1.728615    -3.169000 
H       0.760381     2.558943    -2.627409 
H       1.041942     1.262246    -3.810098 
C      -0.868560     2.240352    -3.998021 
C      -1.586055     1.363132    -4.811098 
C      -1.247150     3.577137    -3.947982 
C      -2.657319     1.817674    -5.566392 
H      -1.300710     0.315342    -4.844713 
C      -2.319289     4.037922    -4.706405 
H      -0.709162     4.261604    -3.298492 
C      -3.025073     3.159751    -5.517313 
H      -3.207870     1.125545    -6.196007 
H      -2.603979     5.084372    -4.658364 
H      -3.862341     3.516664    -6.108830 
C      -0.239250     0.702173     0.843511 
O       0.732387     1.460220     0.382779 
C      -0.352113     2.192258    -0.291083 
C      -0.786929     3.408817     0.296168 
O      -0.381013     3.906035     1.336024 
O      -1.770435     3.985759    -0.458815 
C      -2.281894     5.212746     0.057586 
H      -2.731768     5.063404     1.042568 
H      -1.487158     5.957778     0.144935 
H      -3.036121     5.545592    -0.656555 
72
     -1725.719500     -1725.191575   0.59   0.69
C       1.823930    -2.245709    -2.017881 
C       0.433034    -2.054110    -2.067089 
C      -0.063648    -0.904046    -2.697823 
C       0.817285     0.008980    -3.226109 
C       2.213568    -0.201200    -3.157805 
C       2.740370    -1.331632    -2.559575 
C       0.847828    -3.960351    -0.969770 
C      -0.178292    -3.160905    -1.379114 
H      -1.133070    -0.738137    -2.767508 
H       0.467596     0.911690    -3.714664 
H       3.805903    -1.511393    -2.501766 
H       0.824997    -4.872379    -0.389972 
N       2.063540    -3.420387    -1.350321 
C       3.361784    -4.003191    -1.102235 
H       3.232323    -4.918723    -0.523591 
H       3.868209    -4.253015    -2.040499 
H       3.995615    -3.318863    -0.528920 
O       2.966100     0.786043    -3.725059 
C       4.371423     0.636685    -3.706816 
H       4.755861     0.593249    -2.680050 
H       4.684840    -0.263176    -4.250623 
H       4.777931     1.517308    -4.205146 
N      -1.202254    -2.675321     1.272948 
C      -0.250168    -3.148070     2.199435 
O       0.131527    -4.292007     2.161531 
C       0.215102    -2.201874     3.308390 
H       1.307159    -2.205222     3.246626 
H      -0.029756    -2.717669     4.241016 
C      -0.338361    -0.766023     3.295385 
H      -1.319090    -0.720380     3.775023 
H       0.322327    -0.095112     3.847289 
C      -0.485009    -0.364041     1.831511 
C      -1.265634     0.896540     1.390619 
H      -0.615966     1.640369     0.923266 
C      -1.644463    -3.319109    -1.085897 
H      -2.086651    -4.133586    -1.670286 
H      -2.174409    -2.408575    -1.380567 
C      -1.926244    -3.608297     0.393153 
H      -2.994497    -3.515442     0.601995 
H      -1.596771    -4.604834     0.682403 
C       0.846477    -0.411154     1.050689 
H       1.228460    -1.435225     0.992305 
H       0.639824    -0.119719     0.017442 
C       1.919233     0.504970     1.639405 
H       1.549747     1.527252     1.770639 
H       2.276294     0.152650     2.611964 
H       2.782056     0.549592     0.969180 
O      -1.959311     1.459882     2.492202 
C      -2.687887     2.628308     2.152423 
H      -3.350327     2.430037     1.299978 
H      -3.314107     2.841304     3.024223 
C      -1.793358     3.813267     1.851794 
C      -2.023764     4.617829     0.741537 
C      -0.726737     4.116333     2.697623 
C      -1.209868     5.716014     0.481226 
H      -2.841370     4.376408     0.068325 
C       0.090087     5.208152     2.438825 
H      -0.539718     3.486359     3.562272 
C      -0.151630     6.013516     1.329482 
H      -1.402571     6.337075    -0.388131 
H       0.916979     5.434327     3.105078 
H       0.485599     6.868743     1.127815 
C      -1.477604    -1.348886     1.252096 
O      -2.718409    -0.933974     1.103549 
C      -2.104389     0.188114     0.370906 
C      -2.628935     0.498797    -0.913805 
O      -3.331983    -0.212435    -1.613240 
O      -2.205343     1.733436    -1.317697 
C      -2.666063     2.139730    -2.604530 
H      -3.758178     2.143331    -2.645262 
H      -2.276485     3.147206    -2.756436 
H      -2.290690     1.470675    -3.383379 
72
     -1725.717589     -1725.190783   1.79   1.19
C       3.076681    -1.916673     0.107555 
C       3.575618    -0.606085     0.004717 
C       3.980048     0.049151     1.176538 
C       3.850038    -0.587885     2.388308 
C       3.324816    -1.897549     2.468781 
C       2.935840    -2.585136     1.333111 
C       3.077160    -1.340320    -2.047669 
C       3.555807    -0.249029    -1.389857 
H       4.399905     1.049727     1.132715 
H       4.156492    -0.111115     3.312943 
H       2.538254    -3.590615     1.375107 
H       2.867562    -1.472882    -3.100389 
N       2.784728    -2.356150    -1.157976 
C       2.215386    -3.639742    -1.496578 
H       2.853344    -4.456883    -1.145296 
H       1.216842    -3.753999    -1.061792 
H       2.129519    -3.712549    -2.581531 
O       3.249830    -2.401342     3.734783 
C       2.755618    -3.716321     3.894145 
H       2.784907    -3.924569     4.964103 
H       1.721350    -3.801119     3.538054 
H       3.382819    -4.445771     3.366768 
N       1.705376     1.945051    -0.817064 
C       2.173272     2.669745     0.297977 
O       3.084972     3.448867     0.162368 
C       1.552527     2.393906     1.671582 
H       1.212981     3.369032     2.032808 
H       2.390352     2.112530     2.312542 
C       0.422902     1.347203     1.742632 
H       0.839969     0.338260     1.797680 
H      -0.186760     1.498613     2.635394 
C      -0.375115     1.495014     0.450792 
C      -1.455228     0.498831    -0.037804 
H      -2.451114     0.946909    -0.057527 
C       3.791606     1.120708    -1.952636 
H       4.223908     1.062146    -2.956472 
H       4.501021     1.670932    -1.329052 
C       2.485472     1.921806    -2.068209 
H       2.693648     2.960041    -2.334402 
H       1.825939     1.485756    -2.820926 
C      -0.950057     2.918290     0.261092 
H      -0.148664     3.658527     0.178028 
H      -1.476358     2.939204    -0.698833 
C      -1.906115     3.330840     1.381554 
H      -1.386721     3.455916     2.336387 
H      -2.383684     4.285355     1.142198 
H      -2.699601     2.591511     1.529028 
O      -1.450066    -0.680736     0.742992 
C      -2.327051    -1.679758     0.244215 
H      -2.067792    -1.914849    -0.796412 
H      -2.131328    -2.564120     0.857039 
C      -3.784481    -1.284735     0.338577 
C      -4.579190    -1.209141    -0.799511 
C      -4.343067    -0.970821     1.577401 
C      -5.916956    -0.837080    -0.704863 
H      -4.144388    -1.427406    -1.770621 
C      -5.675301    -0.596354     1.675783 
H      -3.721946    -1.017053     2.467588 
C      -6.467260    -0.531409     0.532351 
H      -6.526647    -0.782471    -1.601331 
H      -6.099334    -0.354722     2.645495 
H      -7.510059    -0.239780     0.608401 
C       0.606520     1.170418    -0.655196 
O       0.511068    -0.008563    -1.223535 
C      -0.899369     0.354256    -1.427423 
C      -1.293357     0.745441    -2.731671 
O      -0.566551     0.871465    -3.706415 
O      -2.637540     0.995087    -2.780717 
C      -3.122751     1.411910    -4.055020 
H      -2.931193     0.647439    -4.812319 
H      -4.196090     1.562184    -3.931713 
H      -2.642965     2.342662    -4.368769 
72
     -1725.718668     -1725.190448   1.11   1.40
C       1.116785     1.137615     3.255695 
C       1.244493    -0.024265     2.476423 
C       2.265471    -0.079118     1.516048 
C       3.091999     1.006016     1.348630 
C       2.939613     2.167915     2.139204 
C       1.956005     2.252476     3.108036 
C      -0.494189    -0.286866     3.861698 
C       0.194262    -0.925357     2.872666 
H       2.401247    -0.969402     0.911816 
H       3.886895     0.999626     0.611117 
H       1.826882     3.132027     3.725053 
H      -1.374842    -0.600200     4.404896 
N       0.053485     0.960365     4.104861 
C      -0.406700     1.907352     5.093703 
H       0.364522     2.096978     5.847672 
H      -0.686396     2.857265     4.626502 
H      -1.285749     1.497150     5.592551 
O       3.831581     3.164044     1.864860 
C       3.748768     4.351458     2.626796 
H       2.778711     4.846356     2.492486 
H       3.911395     4.154044     3.693718 
H       4.539338     5.005823     2.258127 
N      -2.094907    -1.196883     1.139250 
C      -3.147866    -0.415120     1.656954 
O      -3.545538    -0.584244     2.783398 
C      -3.832058     0.586663     0.724236 
H      -3.799559     1.540667     1.258181 
H      -4.884399     0.289673     0.713135 
C      -3.270519     0.727885    -0.701867 
H      -3.679122    -0.042696    -1.360025 
H      -3.545057     1.694098    -1.128689 
C      -1.759447     0.544084    -0.600864 
C      -0.860337     0.338159    -1.845401 
H      -0.162399     1.169344    -1.985733 
C      -0.125989    -2.247312     2.232047 
H       0.127492    -3.085746     2.890214 
H       0.482187    -2.371551     1.331255 
C      -1.607732    -2.384065     1.862543 
H      -1.761899    -3.259300     1.227253 
H      -2.240304    -2.474232     2.744051 
C      -1.083810     1.576066     0.328747 
H      -1.410061     1.438175     1.364528 
H      -0.010284     1.369336     0.334624 
C      -1.327886     3.023747    -0.096163 
H      -2.371040     3.325419     0.039239 
H      -0.710601     3.698384     0.503456 
H      -1.068559     3.186068    -1.147396 
O      -1.653737     0.168144    -3.008863 
C      -0.902261    -0.079761    -4.186094 
H      -1.562616     0.198979    -5.014291 
H      -0.025444     0.581142    -4.223714 
C      -0.463964    -1.520951    -4.352367 
C      -1.331434    -2.567426    -4.047233 
C       0.797920    -1.815630    -4.858461 
C      -0.938200    -3.884512    -4.236995 
H      -2.312077    -2.344075    -3.640746 
C       1.193094    -3.134366    -5.054735 
H       1.484570    -1.005620    -5.089464 
C       0.325636    -4.172703    -4.742889 
H      -1.619644    -4.691900    -3.986717 
H       2.181635    -3.349742    -5.449362 
H       0.632489    -5.203578    -4.889847 
C      -1.569272    -0.856829    -0.061402 
O      -1.240210    -1.793486    -0.927213 
C      -0.157657    -0.870250    -1.311206 
C       1.154864    -1.408567    -1.410768 
O       1.548639    -2.469122    -0.955415 
O       1.978354    -0.538396    -2.065101 
C       3.312521    -1.004923    -2.255468 
H       3.316601    -1.943331    -2.815658 
H       3.825021    -0.224327    -2.819250 
H       3.811291    -1.166696    -1.296271 
72
     -1725.717857     -1725.190345   1.62   1.47
C       2.608392    -0.250345    -2.638799 
C       2.195173     0.680374    -1.662378 
C       2.647590     0.517999    -0.352989 
C       3.463186    -0.553589    -0.034863 
C       3.853976    -1.473907    -1.028287 
C       3.435901    -1.330895    -2.342269 
C       1.255576     1.235195    -3.617878 
C       1.316791     1.620508    -2.312074 
H       2.362214     1.226620     0.416862 
H       3.797463    -0.672921     0.987650 
H       3.756123    -2.052808    -3.084819 
H       0.680548     1.650783    -4.433869 
N       2.031630     0.109152    -3.831333 
C       2.218281    -0.568115    -5.093030 
H       1.610625    -0.074745    -5.852914 
H       3.266721    -0.533349    -5.407293 
H       1.905331    -1.615088    -5.024462 
O       4.657107    -2.552169    -0.782988 
C       5.144118    -2.736153     0.531938 
H       5.755995    -1.885281     0.855289 
H       4.325285    -2.887438     1.245906 
H       5.763676    -3.633216     0.501254 
N      -1.517517     1.349962    -1.863876 
C      -2.095058     0.695581    -2.971318 
O      -1.964400     1.137900    -4.086143 
C      -2.967186    -0.534536    -2.710512 
H      -2.558775    -1.315693    -3.357975 
H      -3.944549    -0.282586    -3.131325 
C      -3.088417    -1.024060    -1.256152 
H      -3.857723    -0.464165    -0.718885 
H      -3.377489    -2.076088    -1.228016 
C      -1.737477    -0.773465    -0.593042 
C      -1.530656    -0.870513     0.939468 
H      -0.853140    -1.687039     1.207704 
C       0.543982     2.719872    -1.638299 
H       0.933978     3.708681    -1.903931 
H       0.654172     2.629326    -0.553688 
C      -0.946850     2.701531    -1.996734 
H      -1.503806     3.374617    -1.340847 
H      -1.120275     2.995743    -3.030530 
C      -0.573093    -1.506452    -1.294680 
H      -0.418845    -1.113432    -2.304682 
H       0.346029    -1.272538    -0.751083 
C      -0.762438    -3.021731    -1.359075 
H      -1.577687    -3.309495    -2.030027 
H       0.150351    -3.497039    -1.728635 
H      -0.978844    -3.444719    -0.372622 
O      -2.775462    -1.035695     1.599280 
C      -2.673852    -1.112463     3.011553 
H      -3.587230    -1.620388     3.339667 
H      -1.822151    -1.745013     3.297421 
C      -2.567817     0.230734     3.705951 
C      -1.757948     0.374124     4.828182 
C      -3.312877     1.322200     3.265878 
C      -1.688795     1.588169     5.502546 
H      -1.164532    -0.469187     5.171754 
C      -3.241264     2.537040     3.933188 
H      -3.936014     1.220067     2.384029 
C      -2.430132     2.673893     5.055281 
H      -1.052497     1.685434     6.377244 
H      -3.819306     3.383383     3.574904 
H      -2.374847     3.624826     5.575974 
C      -1.538931     0.725010    -0.663087 
O      -1.778876     1.412415     0.434657 
C      -0.853903     0.457779     1.072430 
C       0.163944     1.000716     1.904835 
O       0.546476     2.158310     1.932905 
O       0.726504     0.022411     2.672997 
C       1.720377     0.479335     3.588113 
H       2.567538     0.921855     3.057419 
H       1.303484     1.226440     4.268056 
H       2.042117    -0.401665     4.145079 
72
     -1725.716596     -1725.190316   2.41   1.48
C       4.036427     1.284173    -0.584343 
C       4.032069     0.437176     0.537503 
C       5.024620    -0.550268     0.633027 
C       5.964612    -0.662030    -0.361422 
C       5.948352     0.201495    -1.480553 
C       4.986997     1.187077    -1.612333 
C       2.315228     1.865282     0.713419 
C       2.916330     0.828260     1.362310 
H       5.048588    -1.231033     1.477591 
H       6.741142    -1.417284    -0.319418 
H       4.959811     1.857436    -2.461215 
H       1.434515     2.425499     0.995699 
N       2.977967     2.151111    -0.466808 
C       2.649281     3.215517    -1.386576 
H       1.720748     3.688035    -1.062329 
H       3.437103     3.975848    -1.412118 
H       2.502498     2.825201    -2.398764 
O       6.940675    -0.026284    -2.387994 
C       6.989000     0.798469    -3.535126 
H       7.137870     1.851368    -3.264892 
H       7.841626     0.454552    -4.121471 
H       6.075693     0.702579    -4.135571 
N       1.033442    -1.269170     1.148946 
C       1.664675    -1.795742    -0.013391 
O       2.543125    -2.609072     0.090541 
C       1.245998    -1.230366    -1.373944 
H       1.144833    -2.099891    -2.028549 
H       2.129955    -0.690076    -1.727553 
C      -0.012671    -0.335692    -1.422332 
H       0.249809     0.711501    -1.254153 
H      -0.490874    -0.396944    -2.401710 
C      -0.922276    -0.807422    -0.291038 
C      -2.162604    -0.036515     0.225419 
H      -3.091557    -0.584092     0.052521 
C       2.436323     0.186079     2.630335 
H       1.713724     0.849112     3.109746 
H       3.265638     0.053888     3.333602 
C       1.779614    -1.197402     2.414001 
H       2.525854    -1.988625     2.355006 
H       1.080862    -1.417650     3.223271 
C      -1.328624    -2.292080    -0.432254 
H      -0.451318    -2.945604    -0.405659 
H      -1.928053    -2.559803     0.443981 
C      -2.124041    -2.574344    -1.708072 
H      -2.497150    -3.602527    -1.703135 
H      -2.988048    -1.909458    -1.803808 
H      -1.509780    -2.454204    -2.605386 
O      -2.226921     1.258167    -0.338853 
C      -3.257766     2.058884     0.223818 
H      -3.121058     2.124969     1.311000 
H      -3.112060     3.054314    -0.204577 
C      -4.643327     1.542436    -0.095228 
C      -5.503953     1.132966     0.917137 
C      -5.064975     1.449118    -1.421421 
C      -6.772429     0.646959     0.614193 
H      -5.174465     1.179558     1.951093 
C      -6.327532     0.962636    -1.727970 
H      -4.391996     1.757900    -2.216547 
C      -7.186549     0.562044    -0.708006 
H      -7.434485     0.331025     1.414354 
H      -6.644649     0.895278    -2.764044 
H      -8.175043     0.182274    -0.946630 
C      -0.112031    -0.589403     0.970047 
O      -0.403751     0.461396     1.705420 
C      -1.770340    -0.083986     1.679799 
C      -2.197549    -0.825076     2.812715 
O      -1.535309    -1.088428     3.805059 
O      -3.489474    -1.246450     2.657235 
C      -4.004748    -2.013019     3.743714 
H      -3.422078    -2.926766     3.886710 
H      -3.982384    -1.435008     4.670942 
H      -5.033132    -2.257871     3.475032 
72
     -1725.716596     -1725.190304   2.41   1.49
C       0.412675    -4.254750    -0.099947 
C       1.710437    -3.714749    -0.113004 
C       2.674528    -4.271800     0.741133 
C       2.328699    -5.319152     1.558727 
C       1.016580    -5.845193     1.554331 
C       0.037562    -5.324250     0.727843 
C       0.449617    -2.580745    -1.576680 
C       1.714307    -2.638118    -1.071638 
H       3.684340    -3.875803     0.768907 
H       3.048928    -5.768122     2.233166 
H      -0.971344    -5.714797     0.710406 
H       0.039558    -1.898116    -2.308150 
N      -0.350652    -3.549056    -0.997198 
C      -1.733505    -3.811257    -1.322677 
H      -2.359300    -3.775017    -0.425190 
H      -2.083862    -3.046090    -2.017192 
H      -1.851173    -4.791919    -1.795832 
O       0.817604    -6.882058     2.417671 
C      -0.471233    -7.460568     2.469517 
H      -0.417086    -8.258341     3.210920 
H      -1.226227    -6.728200     2.781734 
H      -0.757450    -7.887445     1.500165 
N       1.931859    -0.262633     0.444838 
C       1.557054    -0.926783     1.646997 
O       2.393518    -1.435637     2.343688 
C       0.063432    -1.039499     1.967045 
H      -0.021819    -0.804286     3.031105 
H      -0.153802    -2.108708     1.877975 
C      -0.917042    -0.197292     1.120647 
H      -1.235223    -0.749261     0.233018 
H      -1.814979     0.039775     1.694337 
C      -0.150745     1.048003     0.682735 
C      -0.627902     2.042222    -0.405055 
H      -0.826399     3.036225     0.001450 
C       2.836791    -1.698216    -1.399213 
H       2.583714    -1.150159    -2.308709 
H       3.757552    -2.254336    -1.605981 
C       3.144218    -0.683995    -0.272745 
H       3.794517    -1.116001     0.486775 
H       3.613045     0.211665    -0.684664 
C       0.361709     1.883819     1.877754 
H       1.055263     1.305180     2.495514 
H       0.944124     2.719557     1.476365 
C      -0.767756     2.418099     2.760321 
H      -1.515057     2.965167     2.177222 
H      -1.283691     1.613316     3.292354 
H      -0.369063     3.104040     3.513265 
O      -1.758927     1.541378    -1.089656 
C      -2.136964     2.344372    -2.199916 
H      -1.288517     2.442568    -2.889492 
H      -2.928453     1.781913    -2.702726 
C      -2.636435     3.712855    -1.792398 
C      -3.761387     3.830577    -0.976365 
C      -1.974960     4.865708    -2.200576 
C      -4.220331     5.079303    -0.582994 
H      -4.275357     2.932110    -0.646119 
C      -2.433640     6.120505    -1.810569 
H      -1.083973     4.781977    -2.816148 
C      -3.557066     6.229432    -1.002508 
H      -5.097423     5.158171     0.051859 
H      -1.907952     7.012501    -2.136739 
H      -3.915911     7.207038    -0.696234 
C       1.006581     0.518279    -0.138457 
O       0.910171     0.600285    -1.447667 
C       0.657308     2.027304    -1.192047 
C       1.748091     2.921437    -1.353096 
O       2.894967     2.627269    -1.654436 
O       1.359567     4.209409    -1.106153 
C       2.394773     5.182168    -1.231291 
H       1.927480     6.144455    -1.018319 
H       3.201430     4.986361    -0.520061 
H       2.810607     5.177910    -2.241941 
72
     -1725.718281     -1725.190283   1.36   1.50
C       1.839179     1.493961     2.473374 
C       0.450700     1.583163     2.678268 
C      -0.249872     0.418074     3.024007 
C       0.436909    -0.765714     3.151401 
C       1.831424    -0.831474     2.942118 
C       2.557267     0.295722     2.600188 
C       1.221015     3.608071     2.110057 
C       0.073933     2.954261     2.443706 
H      -1.324024     0.427012     3.176518 
H      -0.076807    -1.680366     3.420804 
H       3.626218     0.266697     2.434124 
H       1.358273     4.646738     1.842052 
N       2.297988     2.740357     2.124429 
C       3.674223     3.093217     1.865748 
H       4.296300     2.936426     2.753322 
H       4.082089     2.502341     1.039198 
H       3.722737     4.148033     1.591138 
O       2.373056    -2.074020     3.102933 
C       3.769672    -2.211516     2.935732 
H       4.321184    -1.593798     3.655408 
H       3.995960    -3.262702     3.117117 
H       4.079298    -1.946600     1.916929 
N      -1.617676     2.688967     0.173811 
C      -1.011493     3.696148    -0.596246 
O      -0.918625     4.815226    -0.153285 
C      -0.551804     3.361061    -2.015272 
H       0.530395     3.525513    -2.014593 
H      -0.971269     4.150807    -2.643623 
C      -0.897179     1.962935    -2.556337 
H      -1.931646     1.926938    -2.906690 
H      -0.260753     1.713494    -3.407358 
C      -0.732269     0.979555    -1.400242 
C      -1.265236    -0.472808    -1.469858 
H      -0.457447    -1.208220    -1.443930 
C      -1.294775     3.561482     2.505363 
H      -1.201953     4.640936     2.384554 
H      -1.747795     3.379296     3.486801 
C      -2.278158     3.021424     1.446618 
H      -2.750476     2.097165     1.780031 
H      -3.063028     3.757472     1.256406 
C       0.698783     0.950063    -0.824458 
H       0.954753     1.915275    -0.377908 
H       0.709080     0.233668     0.002286 
C       1.753026     0.563274    -1.861423 
H       2.723326     0.418270    -1.378031 
H       1.495687    -0.371072    -2.370849 
H       1.881111     1.334484    -2.627242 
O      -2.061925    -0.649220    -2.632030 
C      -2.560960    -1.969640    -2.768973 
H      -3.082095    -2.277780    -1.853556 
H      -3.298108    -1.917201    -3.576144 
C      -1.480142    -2.972922    -3.115286 
C      -0.558021    -2.686719    -4.121682 
C      -1.393282    -4.188803    -2.446607 
C       0.428791    -3.603698    -4.455482 
H      -0.618683    -1.735213    -4.641763 
C      -0.408019    -5.112670    -2.781351 
H      -2.096351    -4.409984    -1.648736 
C       0.504610    -4.822148    -3.786564 
H       1.140491    -3.369630    -5.241292 
H      -0.352950    -6.059040    -2.252233 
H       1.274966    -5.540525    -4.048527 
C      -1.717799     1.441453    -0.350929 
O      -2.849139     0.781650    -0.265658 
C      -1.996098    -0.421472    -0.165191 
C      -2.306018    -1.330036     0.884773 
O      -3.007278    -1.112742     1.858482 
O      -1.682635    -2.529309     0.679048 
C      -1.960617    -3.529662     1.655639 
H      -1.382171    -4.405603     1.358611 
H      -1.660200    -3.200153     2.652452 
H      -3.027663    -3.768162     1.675899 
72
     -1725.721789     -1725.190104  -0.84   1.62
C      -0.435098    -1.159811     2.926805 
C       0.953611    -0.962221     3.021615 
C       1.788196    -2.087426     3.095683 
C       1.231450    -3.343861     3.051120 
C      -0.166896    -3.517631     2.942555 
C      -1.023526    -2.432706     2.888850 
C      -0.044018     1.038135     2.876038 
C       1.184411     0.457682     2.984279 
H       2.865851    -1.974736     3.166780 
H       1.847195    -4.235267     3.098877 
H      -2.096621    -2.546871     2.807605 
H      -0.313575     2.079889     2.772091 
N      -1.031782     0.072561     2.842516 
C      -2.450876     0.324216     2.737894 
H      -2.866293    -0.156233     1.846196 
H      -2.982838    -0.038708     3.623884 
H      -2.605000     1.400241     2.649383 
O      -0.574848    -4.819809     2.892961 
C      -1.964369    -5.074371     2.841531 
H      -2.415064    -4.659031     1.931481 
H      -2.075174    -6.159178     2.833487 
H      -2.477684    -4.665170     3.720545 
N       2.713847     0.582422     0.507451 
C       3.725067    -0.384096     0.337333 
O       4.578486    -0.511478     1.180673 
C       3.768356    -1.170687    -0.973118 
H       3.758034    -2.225046    -0.682588 
H       4.766200    -0.984513    -1.379990 
C       2.669819    -0.865816    -2.007727 
H       2.916626     0.027107    -2.587702 
H       2.568525    -1.691236    -2.714578 
C       1.386383    -0.613323    -1.222503 
C       0.109527    -0.021161    -1.870984 
H      -0.714718    -0.739967    -1.873440 
C       2.521257     1.135416     2.937470 
H       3.297430     0.450015     3.283813 
H       2.543283     2.007319     3.599612 
C       2.879918     1.629494     1.530210 
H       2.226304     2.449680     1.232342 
H       3.916165     1.971956     1.495619 
C       0.976694    -1.812493    -0.344816 
H       1.726008    -2.000937     0.425830 
H       0.069176    -1.533026     0.197137 
C       0.733831    -3.099431    -1.131760 
H       0.008144    -2.956389    -1.939243 
H       1.653722    -3.489886    -1.578294 
H       0.341505    -3.870445    -0.462287 
O       0.379329     0.408281    -3.197706 
C      -0.763825     0.779187    -3.943728 
H      -0.470744     0.674791    -4.994484 
H      -1.583467     0.069831    -3.759984 
C      -1.258423     2.193514    -3.707193 
C      -0.402838     3.198703    -3.268140 
C      -2.587469     2.507204    -3.981197 
C      -0.873947     4.495294    -3.096119 
H       0.630064     2.959212    -3.043873 
C      -3.057760     3.804674    -3.820639 
H      -3.265151     1.726841    -4.319108 
C      -2.200471     4.803721    -3.373736 
H      -0.199713     5.268006    -2.740211 
H      -4.096006     4.034514    -4.041265 
H      -2.564635     5.817786    -3.241403 
C       1.680568     0.604793    -0.369369 
O       1.205942     1.753961    -0.805204 
C      -0.087992     1.037776    -0.829006 
C      -1.221774     1.773068    -0.364986 
O      -1.219420     2.765272     0.340423 
O      -2.373280     1.184613    -0.802129 
C      -3.560135     1.943114    -0.572968 
H      -3.766198     2.040471     0.495750 
H      -3.465792     2.939543    -1.010282 
H      -4.363507     1.392653    -1.064083 
72
     -1725.717447     -1725.190078   1.88   1.63
C       1.504807     1.426488     4.218153 
C       0.378959     1.028367     3.464511 
C      -0.050356     1.852896     2.423894 
C       0.637830     3.020436     2.141451 
C       1.766061     3.387584     2.901664 
C       2.212155     2.596267     3.949207 
C       0.772603    -0.517801     5.033225 
C      -0.070316    -0.230895     4.004606 
H      -0.916711     1.587688     1.827124 
H       0.294062     3.648619     1.329903 
H       3.080244     2.905645     4.519488 
H       0.794155    -1.381991     5.683351 
N       1.726818     0.471532     5.177469 
C       2.791442     0.492101     6.153770 
H       2.714731     1.373278     6.799083 
H       2.717878    -0.401204     6.775736 
H       3.770796     0.494297     5.664600 
O       2.489608     4.523311     2.673965 
C       2.063258     5.394134     1.643852 
H       2.762982     6.230647     1.648294 
H       2.094461     4.903157     0.663567 
H       1.049867     5.769759     1.830016 
N       0.270119    -1.528988     1.399638 
C       1.664009    -1.361273     1.607856 
O       2.237903    -2.014932     2.438992 
C       2.375513    -0.262942     0.808823 
H       3.345538    -0.688997     0.543611 
H       2.585045     0.519817     1.544645 
C       1.652330     0.333448    -0.425934 
H       1.140043     1.259202    -0.162051 
H       2.375564     0.568718    -1.211341 
C       0.630018    -0.697413    -0.900399 
C      -0.537929    -0.359426    -1.860179 
H      -0.448464    -0.876696    -2.818961 
C      -1.141868    -1.107092     3.430337 
H      -1.900231    -0.494255     2.936147 
H      -1.651982    -1.667599     4.220122 
C      -0.589097    -2.135342     2.429381 
H       0.033122    -2.871168     2.940062 
H      -1.406426    -2.641693     1.911138 
C       1.362712    -1.966405    -1.398473 
H       1.847140    -1.679112    -2.339952 
H       2.178485    -2.209293    -0.710817 
C       0.528486    -3.228204    -1.615177 
H       0.041092    -3.555054    -0.691598 
H      -0.244877    -3.095187    -2.374185 
H       1.181092    -4.041137    -1.947378 
O      -0.632543     1.040266    -2.056229 
C      -1.781954     1.423836    -2.796185 
H      -2.685260     1.034638    -2.308260 
H      -1.805879     2.515938    -2.740436 
C      -1.735658     0.971484    -4.239298 
C      -2.753735     0.191755    -4.775781 
C      -0.658078     1.329830    -5.049106 
C      -2.706514    -0.216858    -6.105284 
H      -3.583670    -0.111298    -4.144244 
C      -0.605478     0.921733    -6.374052 
H       0.144997     1.929976    -4.630637 
C      -1.633503     0.148313    -6.906716 
H      -3.508727    -0.824767    -6.511967 
H       0.238296     1.206843    -6.994794 
H      -1.593867    -0.170228    -7.943667 
C      -0.254570    -0.965104     0.295222 
O      -1.425897    -0.369422     0.324032 
C      -1.616816    -0.966725    -1.008906 
C      -2.535495    -2.041567    -1.108246 
O      -3.087756    -2.613559    -0.180335 
O      -2.734323    -2.397368    -2.413868 
C      -3.622760    -3.496277    -2.607124 
H      -3.678993    -3.649063    -3.685646 
H      -3.241692    -4.395559    -2.115986 
H      -4.612806    -3.270102    -2.203728 
72
     -1725.717518     -1725.189980   1.84   1.70
C       1.720848     1.600914     3.154783 
C       1.260958     1.705064     1.824493 
C       1.824108     0.873522     0.855683 
C       2.797188    -0.040867     1.219024 
C       3.227233    -0.137005     2.557506 
C       2.696224     0.683471     3.540768 
C       0.152313     3.187341     3.080524 
C       0.246560     2.728384     1.803284 
H       1.511112     0.931186    -0.180971 
H       3.223910    -0.679935     0.457714 
H       3.050431     0.592035     4.560938 
H      -0.508817     3.936354     3.494951 
N       1.035343     2.520216     3.908271 
C       1.200197     2.735322     5.327320 
H       0.970409     1.824899     5.890133 
H       2.223308     3.048087     5.560301 
H       0.515183     3.521718     5.647679 
O       4.179550    -1.020914     2.979974 
C       4.775395    -1.871401     2.019600 
H       5.292742    -1.297477     1.241288 
H       5.502399    -2.476221     2.562712 
H       4.034153    -2.531299     1.552458 
N      -1.760059     0.841028     0.856906 
C      -1.728595     0.291303     2.164774 
O      -2.196543     0.900390     3.091131 
C      -1.025095    -1.054970     2.359822 
H      -1.703558    -1.638260     2.988006 
H      -0.157049    -0.827312     2.986000 
C      -0.602344    -1.843761     1.100743 
H       0.406458    -1.565308     0.793434 
H      -0.593635    -2.915399     1.307699 
C      -1.584132    -1.474537    -0.006028 
C      -1.352618    -1.794844    -1.505956 
H      -2.093611    -2.500829    -1.891745 
C      -0.631073     3.069723     0.637288 
H      -0.101645     2.865412    -0.297097 
H      -0.884586     4.134525     0.634234 
C      -1.954153     2.285392     0.651242 
H      -2.591079     2.619125     1.470756 
H      -2.485421     2.411183    -0.294512 
C      -3.041259    -1.852836     0.340294 
H      -3.383771    -1.309220     1.226598 
H      -3.676533    -1.512964    -0.484185 
C      -3.238621    -3.352659     0.564821 
H      -2.737224    -3.697815     1.473651 
H      -4.302424    -3.583971     0.670751 
H      -2.854089    -3.943420    -0.272195 
O      -0.044556    -2.298994    -1.723921 
C       0.405160    -2.182261    -3.070702 
H       1.047595    -3.051150    -3.247325 
H      -0.441183    -2.238124    -3.764819 
C       1.188893    -0.908653    -3.296368 
C       0.767325     0.054853    -4.204199 
C       2.353349    -0.683116    -2.564038 
C       1.489917     1.231557    -4.373740 
H      -0.144164    -0.105696    -4.772423 
C       3.078206     0.488281    -2.728380 
H       2.684101    -1.438046    -1.856095 
C       2.644886     1.451803    -3.635315 
H       1.142434     1.980073    -5.078675 
H       3.981703     0.654603    -2.149249 
H       3.208674     2.370301    -3.765598 
C      -1.455183     0.025948    -0.170323 
O      -0.764997     0.465147    -1.200715 
C      -1.643787    -0.411358    -1.992512 
C      -2.439132     0.195482    -2.996123 
O      -2.641491     1.389252    -3.146610 
O      -2.994230    -0.755144    -3.810693 
C      -3.855778    -0.242469    -4.825120 
H      -4.695953     0.298747    -4.382374 
H      -3.314790     0.435931    -5.489928 
H      -4.215088    -1.110325    -5.379615 
72
     -1725.713919     -1725.189684   4.09   1.88
C       2.547255    -2.207194     4.426891 
C       2.002154    -1.622676     3.263840 
C       2.867244    -1.231899     2.240183 
C       4.229332    -1.434207     2.385083 
C       4.747075    -2.025955     3.553516 
C       3.915158    -2.418255     4.590317 
C       0.329920    -2.100558     4.676340 
C       0.571913    -1.564966     3.449231 
H       2.484720    -0.758506     1.341801 
H       4.891245    -1.124578     1.587112 
H       4.342905    -2.868509     5.478715 
H      -0.612986    -2.244132     5.187753 
N       1.511889    -2.493152     5.281743 
C       1.645048    -3.092436     6.587602 
H       2.254926    -2.466323     7.247764 
H       0.654237    -3.200504     7.032167 
H       2.104481    -4.084426     6.519973 
O       6.081842    -2.252880     3.754542 
C       6.981859    -1.874927     2.732773 
H       6.778287    -2.412147     1.798244 
H       6.945599    -0.794949     2.543706 
H       7.976394    -2.143244     3.091915 
N      -1.639497    -1.634058     0.360730 
C      -2.973717    -2.065387     0.514745 
O      -3.321338    -2.594998     1.540284 
C      -3.923353    -1.927967    -0.678216 
H      -4.816199    -1.439104    -0.278699 
H      -4.228688    -2.950763    -0.916785 
C      -3.393655    -1.193370    -1.925801 
H      -2.843815    -1.876059    -2.577897 
H      -4.219665    -0.784596    -2.510281 
C      -2.439934    -0.114182    -1.425727 
C      -1.486361     0.681715    -2.348372 
H      -1.744653     1.741893    -2.396362 
C      -0.439239    -1.075191     2.459196 
H      -0.125437    -0.109962     2.045210 
H      -1.407866    -0.933483     2.947984 
C      -0.607359    -2.076436     1.312597 
H       0.320517    -2.185129     0.751247 
H      -0.910995    -3.050875     1.694908 
C      -3.116100     0.891955    -0.467172 
H      -3.461887     0.392271     0.443245 
H      -2.352196     1.606799    -0.144427 
C      -4.285966     1.641018    -1.106701 
H      -4.647025     2.424839    -0.434953 
H      -3.995168     2.119266    -2.047015 
H      -5.129743     0.977394    -1.317334 
O      -1.454885     0.110621    -3.642457 
C      -0.488169     0.707218    -4.494305 
H       0.503039     0.660304    -4.024508 
H      -0.471362     0.080846    -5.390796 
C      -0.824993     2.137140    -4.856912 
C      -2.061802     2.439340    -5.426639 
C       0.079802     3.165948    -4.622175 
C      -2.383091     3.746759    -5.761818 
H      -2.775775     1.639510    -5.601782 
C      -0.237099     4.478234    -4.960413 
H       1.035428     2.941266    -4.157401 
C      -1.468110     4.770751    -5.531487 
H      -3.348698     3.969851    -6.205094 
H       0.479223     5.272058    -4.772654 
H      -1.718101     5.793682    -5.794928 
C      -1.334130    -0.860693    -0.707311 
O      -0.189852    -1.001486    -1.338014 
C      -0.261713     0.457717    -1.509857 
C       0.659788     1.271310    -0.807839 
O       1.476758     0.910103     0.025793 
O       0.515913     2.583284    -1.167187 
C       1.390468     3.490212    -0.500396 
H       1.160760     4.477218    -0.903764 
H       1.219549     3.473770     0.579320 
H       2.435886     3.235872    -0.692988 
72
     -1725.711103     -1725.188979   5.86   2.32
C       3.403474     3.585612    -2.389068 
C       2.925559     2.264434    -2.392033 
C       3.734839     1.254311    -2.935467 
C       4.968276     1.586225    -3.445860 
C       5.428537     2.921906    -3.432117 
C       4.658424     3.943395    -2.905996 
C       1.374305     3.579610    -1.455119 
C       1.617249     2.282726    -1.788960 
H       3.396187     0.222438    -2.953334 
H       5.621615     0.833946    -3.873439 
H       4.996034     4.971190    -2.887596 
H       0.507131     4.015870    -0.977220 
N       2.445084     4.381515    -1.812823 
C       2.538752     5.809078    -1.618690 
H       1.626502     6.161473    -1.134673 
H       3.389994     6.064780    -0.978661 
H       2.645932     6.331210    -2.575541 
O       6.670629     3.099914    -3.972600 
C       7.199394     4.409773    -3.992872 
H       6.571754     5.086308    -4.586586 
H       7.309231     4.813390    -2.978395 
H       8.183388     4.334184    -4.456961 
N       0.614315    -1.067462    -0.307883 
C       0.911823    -2.107815    -1.211730 
O       1.892472    -2.037527    -1.910265 
C      -0.072418    -3.275823    -1.335588 
H       0.530311    -4.174436    -1.175526 
H      -0.355723    -3.295293    -2.391673 
C      -1.314065    -3.268983    -0.420192 
H      -2.118860    -2.673019    -0.857189 
H      -1.698619    -4.282078    -0.289948 
C      -0.884932    -2.629516     0.896900 
C      -1.870498    -2.160969     1.995127 
H      -1.772406    -2.743034     2.916528 
C       0.747579     1.088009    -1.550841 
H       0.691953     0.484461    -2.464117 
H      -0.271186     1.395744    -1.298883 
C       1.309495     0.225641    -0.417025 
H       2.362019     0.001756    -0.589502 
H       1.203725     0.725844     0.546564 
C       0.265459    -3.395726     1.589086 
H       1.167897    -3.384110     0.970340 
H       0.523954    -2.855522     2.505396 
C      -0.093849    -4.842506     1.930470 
H       0.699559    -5.298437     2.529359 
H      -1.021139    -4.904565     2.508358 
H      -0.219073    -5.455573     1.033089 
O      -3.195928    -2.186446     1.515130 
C      -4.134621    -1.628495     2.421097 
H      -4.290760    -2.307498     3.271612 
H      -3.736326    -0.681509     2.812948 
C      -5.433407    -1.386328     1.697437 
C      -6.635580    -1.869927     2.200207 
C      -5.440230    -0.644681     0.516281 
C      -7.833154    -1.615564     1.538015 
H      -6.638356    -2.454426     3.116379 
C      -6.631523    -0.392653    -0.147873 
H      -4.501460    -0.269801     0.120231 
C      -7.832908    -0.876665     0.363154 
H      -8.765559    -1.998318     1.941334 
H      -6.625681     0.184150    -1.067665 
H      -8.765113    -0.678052    -0.156287 
C      -0.435193    -1.232451     0.527359 
O      -1.244333    -0.236614     0.791455 
C      -1.277479    -0.786695     2.160292 
C      -0.429395    -0.183794     3.125336 
O       0.334945     0.752336     2.948642 
O      -0.561339    -0.807347     4.336675 
C       0.257880    -0.274656     5.375654 
H       1.316969    -0.355933     5.117458 
H       0.020990     0.777116     5.554493 
H       0.037479    -0.868104     6.263796 
72
     -1725.716605     -1725.188968   2.41   2.33
C      -2.533000    -1.562502     2.811365 
C      -2.263812    -0.801847     1.653250 
C      -1.459006     0.332109     1.772592 
C      -0.928341     0.671682     3.004901 
C      -1.200189    -0.113916     4.142932 
C      -2.006823    -1.238330     4.060309 
C      -3.579649    -2.521159     1.088734 
C      -2.943100    -1.443514     0.555261 
H      -1.241567     0.949764     0.908146 
H      -0.303767     1.552260     3.083725 
H      -2.203537    -1.820391     4.953077 
H      -4.180020    -3.276457     0.599867 
N      -3.345491    -2.606733     2.448199 
C      -3.850510    -3.628043     3.336650 
H      -4.459520    -4.327144     2.761640 
H      -3.029350    -4.183854     3.800539 
H      -4.472469    -3.190125     4.124178 
O      -0.706005     0.164146     5.385578 
C       0.094505     1.319300     5.546168 
H      -0.458242     2.229950     5.285408 
H       0.364576     1.353598     6.602213 
H       1.008424     1.262535     4.942351 
N      -0.437764    -1.846184    -0.891035 
C      -0.138119    -2.844237     0.073609 
O      -0.716519    -3.899114     0.056351 
C       0.867966    -2.491491     1.173435 
H       1.457308    -3.399059     1.320248 
H       0.259464    -2.381956     2.076817 
C       1.767804    -1.246667     0.972639 
H       1.344066    -0.380541     1.482028 
H       2.759894    -1.424777     1.395818 
C       1.844684    -0.968808    -0.526462 
C       2.333929     0.379627    -1.109457 
H       3.263863     0.265982    -1.675324 
C      -2.824424    -1.072108    -0.892125 
H      -2.623721    -0.001637    -0.984423 
H      -3.760892    -1.267078    -1.424175 
C      -1.717956    -1.858698    -1.615656 
H      -1.993328    -2.909089    -1.713744 
H      -1.536809    -1.437424    -2.606945 
C       2.567819    -2.134006    -1.243722 
H       3.620130    -2.064132    -0.942090 
H       2.209931    -3.087877    -0.843312 
C       2.470968    -2.187713    -2.768372 
H       2.890207    -1.301541    -3.249815 
H       3.023424    -3.056758    -3.137712 
H       1.434239    -2.289977    -3.102515 
O       2.515663     1.343395    -0.083507 
C       2.723607     2.657813    -0.580167 
H       3.280827     3.182616     0.203034 
H       3.352368     2.632845    -1.479480 
C       1.433963     3.396393    -0.869691 
C       0.405197     3.389936     0.070363 
C       1.266503     4.113923    -2.048788 
C      -0.772935     4.081476    -0.167737 
H       0.534171     2.824207     0.987679 
C       0.087216     4.810843    -2.290518 
H       2.056653     4.111145    -2.794336 
C      -0.934975     4.796329    -1.351215 
H      -1.569285     4.065808     0.570542 
H      -0.033570     5.361038    -3.218549 
H      -1.857127     5.337363    -1.539381 
C       0.414327    -0.808023    -0.989396 
O      -0.022997     0.418543    -1.182448 
C       1.170486     0.576521    -2.027226 
C       0.971378     0.895178    -3.393241 
O      -0.079208     0.849100    -4.010723 
O       2.157885     1.251091    -3.978940 
C       2.066003     1.563442    -5.367157 
H       1.382714     2.400631    -5.531887 
H       3.075514     1.830412    -5.682635 
H       1.706345     0.701906    -5.935739 
72
     -1725.716881     -1725.188806   2.24   2.43
C      -0.244452    -3.417184     0.466141 
C       1.085203    -2.938268     0.507390 
C       2.028274    -3.553872    -0.317592 
C       1.647982    -4.589114    -1.154083 
C       0.313468    -5.037884    -1.178104 
C      -0.648072    -4.457943    -0.365638 
C      -0.160297    -1.740722     1.935607 
C       1.110053    -1.848248     1.456693 
H       3.061162    -3.227125    -0.328579 
H       2.393820    -5.048493    -1.789466 
H      -1.667092    -4.826060    -0.399556 
H      -0.546119    -1.043299     2.665716 
N      -0.990417    -2.675411     1.347502 
C      -2.395753    -2.858126     1.620697 
H      -2.986108    -2.769991     0.702889 
H      -2.588415    -3.837841     2.070550 
H      -2.722642    -2.084544     2.317023 
O      -0.127834    -6.051950    -1.979914 
C       0.809945    -6.689557    -2.825258 
H       0.255366    -7.457760    -3.365571 
H       1.245861    -5.985400    -3.544377 
H       1.613600    -7.162618    -2.247949 
N       2.332884    -0.069529    -0.483319 
C       2.773032    -0.457893    -1.769285 
O       3.672914    -1.250238    -1.895486 
C       2.142885     0.209306    -2.993070 
H       1.728702    -0.613071    -3.584079 
H       2.987958     0.592702    -3.570585 
C       1.087122     1.298344    -2.742656 
H       1.561687     2.258944    -2.527935 
H       0.462131     1.438957    -3.626392 
C       0.279829     0.860921    -1.524786 
C      -0.685019     1.825984    -0.790140 
H      -1.725559     1.496650    -0.866429 
C       2.254231    -0.963558     1.864390 
H       2.936827    -1.498984     2.535144 
H       1.847662    -0.123468     2.433477 
C       3.118161    -0.435017     0.707240 
H       3.676944     0.444022     1.040356 
H       3.835355    -1.176596     0.362840 
C      -0.420948    -0.500760    -1.716864 
H       0.313917    -1.301144    -1.842138 
H      -0.945624    -0.736186    -0.785772 
C      -1.400862    -0.521261    -2.889245 
H      -0.890439    -0.426883    -3.852651 
H      -1.950454    -1.466593    -2.902692 
H      -2.134969     0.288055    -2.821503 
O      -0.556450     3.143070    -1.305895 
C      -1.508357     4.064708    -0.807455 
H      -1.523652     4.883752    -1.534948 
H      -2.509562     3.610303    -0.803302 
C      -1.201983     4.624276     0.568365 
C       0.108799     4.783736     1.008567 
C      -2.246944     5.028505     1.394303 
C       0.367527     5.329390     2.259792 
H       0.926969     4.460015     0.375282 
C      -1.990575     5.584147     2.642184 
H      -3.274342     4.898628     1.063135 
C      -0.680210     5.733288     3.079868 
H       1.393634     5.435677     2.597672 
H      -2.816392     5.896607     3.274649 
H      -0.475498     6.160134     4.056748 
C       1.282049     0.778548    -0.395039 
O       1.319776     1.797108     0.439752 
C      -0.132937     1.567013     0.575107 
C      -0.663255     1.599338     1.896770 
O      -0.040397     1.518584     2.941602 
O      -2.023550     1.692632     1.859101 
C      -2.648252     1.852676     3.131397 
H      -2.261147     2.738979     3.639347 
H      -3.713093     1.970718     2.926920 
H      -2.478067     0.976882     3.763534 
72
     -1725.711711     -1725.188590   5.48   2.57
C      -3.753966    -1.722761     3.334864 
C      -2.748382    -1.237307     2.471841 
C      -3.099624    -0.302296     1.495497 
C      -4.412978     0.124543     1.399606 
C      -5.395579    -0.373449     2.276695 
C      -5.080528    -1.303477     3.254754 
C      -1.829330    -2.713896     3.885361 
C      -1.516597    -1.889308     2.849516 
H      -2.365674     0.086827     0.796524 
H      -4.673420     0.844987     0.635684 
H      -5.858174    -1.671116     3.914271 
H      -1.187945    -3.377968     4.450063 
N      -3.175935    -2.625233     4.193220 
C      -3.864017    -3.350394     5.233980 
H      -4.658063    -3.978598     4.816260 
H      -3.150225    -3.994121     5.750798 
H      -4.305357    -2.664812     5.965298 
O      -6.708292     0.010146     2.232354 
C      -7.092518     0.953913     1.252982 
H      -8.162297     1.115354     1.392693 
H      -6.563632     1.906183     1.382533 
H      -6.913727     0.576453     0.238617 
N       1.115475    -1.997205     0.098579 
C       2.225393    -2.837640     0.331925 
O       2.072127    -3.898326     0.883084 
C       3.618571    -2.335351    -0.061434 
H       4.032441    -3.117374    -0.704451 
H       4.203385    -2.373349     0.861761 
C       3.718805    -0.951383    -0.734453 
H       3.744952    -0.154455     0.012498 
H       4.638080    -0.875263    -1.317803 
C       2.466445    -0.785945    -1.589592 
C       2.022012     0.561323    -2.211430 
H       2.056535     0.543162    -3.305039 
C      -0.176148    -1.704477     2.208396 
H       0.593851    -2.219275     2.791555 
H       0.086467    -0.641009     2.184809 
C      -0.167026    -2.249000     0.777707 
H      -0.322479    -3.327913     0.775720 
H      -0.940465    -1.775881     0.171699 
C       2.328147    -1.878212    -2.673719 
H       2.216538    -2.866375    -2.217128 
H       1.395536    -1.691953    -3.216185 
C       3.499568    -1.905029    -3.656455 
H       4.428150    -2.228469    -3.176978 
H       3.293547    -2.602974    -4.472824 
H       3.679404    -0.921021    -4.100376 
O       2.795239     1.624243    -1.697174 
C       2.342150     2.902019    -2.115213 
H       2.573961     3.058008    -3.178629 
H       1.250099     2.954096    -1.996753 
C       3.005812     3.960347    -1.273424 
C       2.938174     3.883248     0.117498 
C       3.667600     5.032281    -1.860661 
C       3.523413     4.863980     0.904567 
H       2.425297     3.044495     0.577962 
C       4.252637     6.020030    -1.073635 
H       3.730832     5.096316    -2.943672 
C       4.181439     5.937360     0.309974 
H       3.466701     4.793550     1.986493 
H       4.766096     6.852600    -1.544500 
H       4.638136     6.705330     0.926344 
C       1.311990    -0.866576    -0.614786 
O       0.729226     0.257391    -0.267033 
C       0.606184     0.497104    -1.716154 
C      -0.678127     0.366903    -2.296748 
O      -1.704699     0.019188    -1.732004 
O      -0.641778     0.673834    -3.629328 
C      -1.891786     0.555305    -4.305785 
H      -1.695202     0.820470    -5.345247 
H      -2.274512    -0.466497    -4.240023 
H      -2.631938     1.234696    -3.875345 
72
     -1725.717302     -1725.188358   1.97   2.71
C       3.247999    -0.395306    -1.914346 
C       2.545066    -1.490605    -1.384877 
C       1.747343    -2.259066    -2.245757 
C       1.684523    -1.926743    -3.578101 
C       2.407816    -0.825734    -4.090780 
C       3.199406    -0.041068    -3.271464 
C       3.659339    -0.490306     0.282254 
C       2.819216    -1.533719     0.028551 
H       1.170783    -3.093092    -1.860233 
H       1.081909    -2.500545    -4.273643 
H       3.757098     0.807176    -3.645941 
H       4.095739    -0.162875     1.215844 
N       3.923374     0.209126    -0.884863 
C       4.790470     1.357843    -1.003109 
H       4.249976     2.215653    -1.416609 
H       5.157153     1.627056    -0.011669 
H       5.650838     1.139994    -1.644981 
O       2.250612    -0.617444    -5.430857 
C       2.942781     0.467963    -6.014090 
H       4.028682     0.355138    -5.904684 
H       2.685958     0.459233    -7.073913 
H       2.630780     1.423801    -5.574795 
N       1.501449    -0.790134     2.620125 
C       2.101588     0.260946     3.351704 
O       3.296131     0.291509     3.516168 
C       1.188128     1.289123     4.022029 
H       1.639472     2.260560     3.808062 
H       1.334094     1.128376     5.094649 
C      -0.310373     1.260223     3.657250 
H      -0.864079     0.600690     4.328460 
H      -0.744510     2.259010     3.748212 
C      -0.423620     0.727110     2.231139 
C      -1.773846     0.253234     1.648886 
H      -2.119663     0.884719     0.828373 
C       2.245466    -2.532864     0.989161 
H       2.824210    -3.464485     0.963854 
H       1.233658    -2.797866     0.668555 
C       2.216566    -2.069239     2.441499 
H       1.716505    -2.821388     3.057988 
H       3.217183    -1.905513     2.839081 
C       0.277485     1.684429     1.238512 
H      -0.263426     2.636522     1.310282 
H       1.293125     1.892954     1.588547 
C       0.364157     1.252077    -0.224483 
H       0.894912     2.018528    -0.796918 
H       0.918389     0.319607    -0.338578 
H      -0.617022     1.117155    -0.683712 
O      -2.755173     0.193688     2.672117 
C      -4.001941    -0.307940     2.217265 
H      -3.861632    -1.279685     1.725955 
H      -4.594053    -0.469125     3.123115 
C      -4.720014     0.646333     1.286802 
C      -4.875282     1.985572     1.643633 
C      -5.238304     0.206018     0.074290 
C      -5.544053     2.865543     0.804618 
H      -4.462993     2.335413     2.585662 
C      -5.913298     1.084417    -0.767819 
H      -5.101468    -0.830638    -0.219482 
C      -6.068353     2.415230    -0.403870 
H      -5.658515     3.905884     1.093150 
H      -6.314975     0.727009    -1.710959 
H      -6.593250     3.102630    -1.059766 
C       0.201529    -0.652441     2.270309 
O      -0.622705    -1.677702     2.341013 
C      -1.264411    -1.070178     1.162907 
C      -1.382031    -1.840415    -0.023019 
O      -0.862257    -2.920297    -0.256916 
O      -2.163125    -1.190626    -0.936052 
C      -2.247923    -1.818902    -2.214640 
H      -2.936364    -1.208141    -2.800316 
H      -1.265596    -1.843830    -2.694587 
H      -2.626654    -2.839574    -2.124186 
72
     -1725.712128     -1725.188330   5.22   2.73
C      -4.364914    -1.501904    -2.587397 
C      -3.224186    -1.111855    -1.866095 
C      -2.845340     0.240939    -1.884436 
C      -3.598947     1.136967    -2.604968 
C      -4.743712     0.721725    -3.320315 
C      -5.147898    -0.601014    -3.325941 
C      -3.508798    -3.320101    -1.613827 
C      -2.689234    -2.297713    -1.244608 
H      -1.965054     0.591112    -1.354180 
H      -3.330505     2.186275    -2.645247 
H      -6.020851    -0.937643    -3.869276 
H      -3.453376    -4.370848    -1.361331 
N      -4.528968    -2.855468    -2.424950 
C      -5.584798    -3.652123    -3.002886 
H      -5.559192    -3.606583    -4.096964 
H      -5.451860    -4.691622    -2.698667 
H      -6.567855    -3.314255    -2.657721 
O      -5.392780     1.722230    -3.987979 
C      -6.544825     1.378944    -4.728941 
H      -7.328319     0.963172    -4.082711 
H      -6.905441     2.304654    -5.178992 
H      -6.310821     0.659015    -5.523481 
N       1.008352    -2.037834    -0.382079 
C       1.641198    -3.228383     0.040194 
O       1.364963    -4.275475    -0.488074 
C       2.612420    -3.158495     1.221542 
H       3.545700    -3.593757     0.852867 
H       2.221920    -3.873176     1.951211 
C       2.856646    -1.777553     1.860130 
H       2.075374    -1.538245     2.585448 
H       3.807194    -1.766700     2.396280 
C       2.812409    -0.752964     0.730714 
C       2.736061     0.773679     0.978645 
H       3.634508     1.294024     0.632677 
C      -1.460300    -2.376186    -0.392693 
H      -1.378376    -3.367042     0.064829 
H      -1.518573    -1.643098     0.419388 
C      -0.201434    -2.100364    -1.219070 
H      -0.042319    -2.888072    -1.955471 
H      -0.277891    -1.143026    -1.735340 
C       3.870512    -1.011629    -0.363459 
H       3.684843    -1.967676    -0.862593 
H       3.742993    -0.242928    -1.131998 
C       5.305896    -0.986239     0.162808 
H       5.511839    -1.828180     0.830310 
H       6.015004    -1.046794    -0.667518 
H       5.519750    -0.064926     0.713292 
O       2.506746     1.044308     2.348476 
C       2.224583     2.409113     2.597981 
H       3.027546     3.036697     2.179158 
H       1.290429     2.698602     2.098295 
C       2.114671     2.641633     4.084318 
C       2.944593     1.967065     4.977463 
C       1.203601     3.570412     4.578475 
C       2.866022     2.222515     6.340227 
H       3.650295     1.235146     4.599863 
C       1.125595     3.830380     5.942252 
H       0.544784     4.094241     3.890908 
C       1.958153     3.157044     6.826926 
H       3.517121     1.689234     7.026177 
H       0.410884     4.558619     6.313104 
H       1.898689     3.356842     7.892146 
C       1.418583    -0.867161     0.152002 
O       0.548668     0.056273     0.489869 
C       1.587515     1.012426     0.051319 
C       1.219585     1.961777    -0.934903 
O       0.212064     1.951373    -1.622695 
O       2.181764     2.927343    -1.053424 
C       1.922242     3.911064    -2.053175 
H       0.997069     4.451565    -1.836970 
H       2.773280     4.592795    -2.029559 
H       1.834495     3.447831    -3.039359 
72
     -1725.716368     -1725.187805   2.56   3.06
C      -3.167455    -0.783887     1.407407 
C      -3.517520    -0.252637     0.154160 
C      -4.069943     1.036453     0.102855 
C      -4.260405     1.734627     1.271748 
C      -3.916729     1.172229     2.522068 
C      -3.365600    -0.093608     2.612353 
C      -2.613374    -2.278150    -0.159184 
C      -3.169290    -1.235713    -0.838349 
H      -4.337363     1.485046    -0.848889 
H      -4.686333     2.731830     1.268873 
H      -3.092230    -0.538840     3.559978 
H      -2.185329    -3.197564    -0.533102 
N      -2.606738    -2.019004     1.199074 
C      -2.065862    -2.886466     2.218020 
H      -1.271589    -2.381566     2.778173 
H      -2.842596    -3.210806     2.918342 
H      -1.640792    -3.767763     1.735812 
O      -4.171194     1.975785     3.596016 
C      -3.868462     1.473024     4.881690 
H      -4.150044     2.254285     5.588450 
H      -4.442202     0.563869     5.100813 
H      -2.797090     1.260829     4.986705 
N      -1.333426     0.287301    -2.628730 
C      -1.800309     1.597255    -2.860110 
O      -2.943902     1.773767    -3.202249 
C      -0.813914     2.762749    -2.771808 
H      -1.240520     3.450383    -2.036837 
H      -0.901662     3.272160    -3.735415 
C       0.655092     2.430456    -2.448184 
H       1.198858     2.152677    -3.353867 
H       1.157249     3.301361    -2.019154 
C       0.658015     1.247650    -1.482146 
C       1.942528     0.433644    -1.194694 
H       2.295284     0.552916    -0.169322 
C      -3.388190    -1.120881    -2.317995 
H      -4.108713    -0.327493    -2.519830 
H      -3.816890    -2.048873    -2.711475 
C      -2.112600    -0.862762    -3.124354 
H      -1.443256    -1.721103    -3.065196 
H      -2.362439    -0.681147    -4.173203 
C      -0.043253     1.628702    -0.156583 
H       0.496468     2.501075     0.233554 
H      -1.060402     1.970885    -0.367413 
C      -0.136159     0.556893     0.928220 
H      -0.663650    -0.328537     0.570194 
H       0.841091     0.240897     1.298596 
H      -0.704158     0.953685     1.773662 
O       2.964578     0.791721    -2.110898 
C       4.132490    -0.002689    -1.977827 
H       3.873634    -1.067129    -2.052943 
H       4.755828     0.257047    -2.838643 
C       4.883487     0.259645    -0.689933 
C       5.199660     1.566496    -0.319439 
C       5.270246    -0.788835     0.136896 
C       5.897026     1.817517     0.853589 
H       4.890145     2.389062    -0.957734 
C       5.973373    -0.541567     1.312024 
H       5.008137    -1.807240    -0.134917 
C       6.288932     0.761625     1.671951 
H       6.137208     2.839141     1.131499 
H       6.271184    -1.369814     1.947554 
H       6.836067     0.957149     2.588819 
C      -0.051151     0.128540    -2.216001 
O       0.706199    -0.796766    -2.762222 
C       1.314043    -0.908462    -1.428136 
C       1.195552    -2.135183    -0.730357 
O       0.480542    -3.083803    -1.016946 
O       2.001234    -2.134662     0.377072 
C       1.960954    -3.327083     1.153021 
H       2.667291    -3.177269     1.970825 
H       0.956984    -3.499649     1.550035 
H       2.253355    -4.193425     0.554039 
72
     -1725.715067     -1725.187710   3.37   3.12
C       3.540087     0.851737     1.347676 
C       3.662187     0.675489    -0.042253 
C       4.438345    -0.393510    -0.514687 
C       5.066688    -1.221660     0.385210 
C       4.945184    -1.011327     1.777661 
C       4.180004     0.024847     2.282361 
C       2.289578     2.403560     0.339785 
C       2.862702     1.692582    -0.672425 
H       4.539189    -0.575417    -1.580260 
H       5.675876    -2.055201     0.053506 
H       4.068424     0.197695     3.344720 
H       1.591469     3.227695     0.304161 
N       2.690166     1.906359     1.564472 
C       2.244837     2.391272     2.849775 
H       3.076323     2.806635     3.428917 
H       1.499092     3.169779     2.685016 
H       1.777618     1.584746     3.424720 
O       5.630231    -1.905380     2.549569 
C       5.564950    -1.749032     3.952623 
H       4.535484    -1.848748     4.318957 
H       6.175493    -2.546738     4.377005 
H       5.969704    -0.778611     4.266038 
N       0.735062     0.404012    -2.371029 
C       1.123590    -0.661707    -3.212328 
O       2.084760    -0.535682    -3.930069 
C       0.244756    -1.910146    -3.274962 
H       0.913132    -2.751437    -3.075143 
H      -0.034079    -2.000201    -4.328677 
C      -0.996001    -1.943043    -2.364753 
H      -1.840651    -1.439356    -2.839377 
H      -1.299022    -2.974615    -2.168787 
C      -0.638518    -1.209657    -1.074374 
C      -1.730642    -0.776755    -0.069408 
H      -1.679379    -1.319623     0.876989 
C       2.702344     1.925373    -2.146098 
H       3.354729     1.250626    -2.702357 
H       3.005567     2.944986    -2.409571 
C       1.268131     1.750426    -2.644715 
H       0.594258     2.451339    -2.151871 
H       1.221657     1.915871    -3.723612 
C       0.525240    -1.926543    -0.348960 
H       0.214520    -2.971431    -0.222863 
H       1.398651    -1.949698    -1.007531 
C       0.981061    -1.361447     0.994904 
H       1.870258    -1.902243     1.329812 
H       1.253692    -0.309593     0.912840 
H       0.220494    -1.453782     1.773469 
O      -3.009328    -0.932792    -0.658061 
C      -4.063133    -0.401415     0.127886 
H      -4.200034    -1.001242     1.039299 
H      -3.811653     0.623651     0.435620 
C      -5.327040    -0.394696    -0.691956 
C      -6.493018    -0.985073    -0.219496 
C      -5.339141     0.232097    -1.937938 
C      -7.660955    -0.949646    -0.976050 
H      -6.489809    -1.481091     0.747435 
C      -6.500214     0.265685    -2.695877 
H      -4.427966     0.690603    -2.310056 
C      -7.666226    -0.324501    -2.215138 
H      -8.565577    -1.413983    -0.595761 
H      -6.498675     0.754333    -3.665407 
H      -8.575053    -0.296834    -2.808038 
C      -0.278459     0.202980    -1.492938 
O      -1.210565     1.124225    -1.333164 
C      -1.239496     0.637190     0.055007 
C      -1.175376     1.593159     1.108277 
O      -0.821289     2.757859     1.042596 
O      -1.563701     1.011172     2.285602 
C      -1.632922     1.889975     3.405181 
H      -2.317106     2.719139     3.206767 
H      -2.001350     1.287563     4.236646 
H      -0.649157     2.299204     3.645483 
72
     -1725.713236     -1725.187657   4.52   3.15
C       2.097589     3.954514    -1.697695 
C       0.765756     3.517269    -1.816709 
C      -0.208342     4.443252    -2.219547 
C       0.159872     5.741999    -2.483044 
C       1.503942     6.156836    -2.355488 
C       2.493875     5.274309    -1.962608 
C       2.031014     1.787416    -1.158710 
C       0.747459     2.120384    -1.469041 
H      -1.246765     4.144556    -2.326621 
H      -0.568231     6.481807    -2.796203 
H       3.528295     5.574933    -1.859923 
H       2.421313     0.831255    -0.835978 
N       2.859292     2.887363    -1.294298 
C       4.283306     2.907080    -1.055991 
H       4.541280     3.622612    -0.267863 
H       4.598959     1.913143    -0.736244 
H       4.833034     3.169677    -1.966307 
O       1.723045     7.473545    -2.649251 
C       3.044620     7.960547    -2.542681 
H       3.424895     7.866993    -1.517573 
H       3.721493     7.436959    -3.229631 
H       3.003859     9.015861    -2.814833 
N      -2.232038     0.381806     0.097823 
C      -3.614505     0.600978    -0.074412 
O      -4.009637     1.597421    -0.625297 
C      -4.582642    -0.415496     0.537199 
H      -5.273772    -0.673986    -0.269720 
H      -5.172926     0.154424     1.260336 
C      -3.974708    -1.678687     1.179429 
H      -3.678314    -1.486935     2.213399 
H      -4.706571    -2.487852     1.199585 
C      -2.733147    -2.032825     0.366809 
C      -1.680721    -3.072675     0.827272 
H      -1.658162    -3.948407     0.171758 
C      -0.437751     1.210214    -1.387947 
H      -0.082526     0.175280    -1.380617 
H      -1.090919     1.328247    -2.260095 
C      -1.249761     1.458073    -0.112960 
H      -0.590787     1.474149     0.756161 
H      -1.802251     2.395417    -0.157233 
C      -3.044790    -2.295103    -1.123264 
H      -3.431156    -1.391225    -1.605158 
H      -2.096792    -2.518320    -1.622662 
C      -4.030123    -3.443496    -1.343168 
H      -4.115900    -3.671097    -2.409426 
H      -3.707463    -4.357434    -0.835148 
H      -5.032443    -3.197580    -0.980251 
O      -1.924578    -3.474250     2.164730 
C      -0.953330    -4.375556     2.673245 
H      -1.435121    -4.868448     3.524106 
H      -0.724829    -5.148100     1.926221 
C       0.329269    -3.711146     3.130093 
C       0.288916    -2.551947     3.902396 
C       1.562944    -4.273338     2.818991 
C       1.463195    -1.962256     4.346726 
H      -0.670327    -2.101657     4.135735 
C       2.741902    -3.687082     3.266952 
H       1.603257    -5.170147     2.207050 
C       2.694677    -2.529169     4.031373 
H       1.419850    -1.053851     4.939918 
H       3.698469    -4.134855     3.014538 
H       3.613180    -2.066039     4.378435 
C      -1.816432    -0.837306     0.508775 
O      -0.797484    -0.954133     1.331100 
C      -0.497829    -2.190208     0.585588 
C       0.806631    -2.341275     0.050457 
O       1.656123    -1.474343    -0.078006 
O       1.005140    -3.629866    -0.359479 
C       2.308303    -3.902026    -0.869332 
H       2.520012    -3.287326    -1.747983 
H       3.068744    -3.703806    -0.109083 
H       2.309564    -4.959063    -1.138718 
72
     -1725.714943     -1725.187170   3.45   3.46
C       3.525427     1.020551     1.306242 
C       3.680661     0.801990    -0.074332 
C       4.477028    -0.273569    -0.495335 
C       5.092744    -1.066619     0.444044 
C       4.938124    -0.813660     1.826106 
C       4.152060     0.230068     2.280629 
C       2.283613     2.527328     0.222115 
C       2.886548     1.790938    -0.754050 
H       4.603256    -0.487979    -1.552131 
H       5.716924    -1.904084     0.152528 
H       4.015060     0.435163     3.334242 
H       1.578390     3.342570     0.145105 
N       2.660900     2.072717     1.470555 
C       2.185221     2.595832     2.729815 
H       3.000633     3.040635     3.309975 
H       1.433856     3.359056     2.524194 
H       1.716448     1.803714     3.323171 
O       5.614111    -1.675956     2.640948 
C       5.515990    -1.476104     4.036551 
H       6.124365    -2.253817     4.499408 
H       5.904488    -0.492241     4.327844 
H       4.479571    -1.574621     4.383068 
N       0.801731     0.443620    -2.457635 
C       1.204450    -0.644845    -3.262044 
O       2.176720    -0.537985    -3.967838 
C       0.327069    -1.895249    -3.302865 
H       0.992493    -2.730462    -3.070246 
H       0.062960    -2.014551    -4.357470 
C      -0.926137    -1.903072    -2.409481 
H      -1.763747    -1.410624    -2.908109 
H      -1.232879    -2.928925    -2.190614 
C      -0.584920    -1.136583    -1.134179 
C      -1.689695    -0.678588    -0.155738 
H      -1.647910    -1.192740     0.806946 
C       2.759079     1.976496    -2.237661 
H       3.424308     1.285239    -2.757415 
H       3.067406     2.987572    -2.526935 
C       1.336696     1.782435    -2.761879 
H       0.650277     2.496383    -2.306346 
H       1.313257     1.913492    -3.846172 
C       0.571422    -1.831479    -0.376035 
H       0.266531    -2.876165    -0.234640 
H       1.455511    -1.860598    -1.019971 
C       1.001517    -1.237609     0.964073 
H       0.232272    -1.328773     1.734274 
H       1.893717    -1.760106     1.319357 
H       1.260031    -0.183384     0.868447 
O      -2.964049    -0.861968    -0.746783 
C      -4.013083    -0.278825     0.004478 
H      -3.965466    -0.633809     1.046320 
H      -3.902689     0.813732     0.025863 
C      -5.338902    -0.656495    -0.607236 
C      -5.566237    -1.953692    -1.063799 
C      -6.366091     0.278064    -0.689396 
C      -6.801440    -2.308331    -1.588644 
H      -4.766096    -2.684433    -1.010712 
C      -7.606041    -0.075710    -1.211395 
H      -6.195786     1.294822    -0.345700 
C      -7.826690    -1.370550    -1.661613 
H      -6.965695    -3.321522    -1.942611 
H      -8.398859     0.663811    -1.268117 
H      -8.792689    -1.649060    -2.070801 
C      -0.222253     0.265334    -1.586783 
O      -1.159266     1.186850    -1.466855 
C      -1.204298     0.739332    -0.065710 
C      -1.179945     1.728762     0.958748 
O      -0.841208     2.895965     0.865363 
O      -1.586297     1.177177     2.144513 
C      -1.694094     2.088453     3.234612 
H      -2.384564     2.901381     2.995061 
H      -2.073833     1.506376     4.075463 
H      -0.722007     2.518925     3.485219 
72
     -1725.710954     -1725.186870   5.95   3.65
C      -2.851599    -3.332079     3.649539 
C      -1.955825    -3.388496     2.568551 
C      -2.084203    -4.432246     1.638783 
C      -3.079556    -5.365563     1.811959 
C      -3.968815    -5.289343     2.907323 
C      -3.872567    -4.275618     3.843442 
C      -1.446920    -1.603792     3.821553 
C      -1.058123    -2.269460     2.699853 
H      -1.409493    -4.505159     0.790625 
H      -3.210115    -6.185759     1.114909 
H      -4.545691    -4.202487     4.687382 
H      -1.037238    -0.705557     4.264230 
N      -2.530132    -2.235044     4.409256 
C      -3.204345    -1.817151     5.615666 
H      -2.726843    -0.911397     5.992783 
H      -4.259231    -1.595917     5.421056 
H      -3.141565    -2.588974     6.390268 
O      -4.904172    -6.284170     2.949238 
C      -5.830546    -6.273900     4.015844 
H      -5.326062    -6.367292     4.985831 
H      -6.438837    -5.360638     4.009545 
H      -6.479102    -7.137513     3.864628 
N       0.489805    -1.137100    -0.579476 
C       0.980100    -2.236050    -1.313128 
O       0.375326    -3.279062    -1.317517 
C       2.340824    -2.095358    -2.005499 
H       2.196247    -2.504931    -3.007743 
H       2.987325    -2.811498    -1.489051 
C       2.997057    -0.694080    -2.049127 
H       3.661890    -0.547877    -1.195518 
H       3.599796    -0.586314    -2.954542 
C       1.877711     0.345612    -1.992281 
C       2.140153     1.834318    -1.655226 
H       1.890204     2.494468    -2.489859 
C       0.037753    -1.909136     1.746300 
H       0.627575    -2.800957     1.505066 
H       0.716336    -1.178519     2.195359 
C      -0.540936    -1.328639     0.453036 
H      -1.290663    -1.997726     0.030537 
H      -0.993245    -0.352527     0.635816 
C       0.980293     0.233602    -3.246488 
H       1.587589     0.598551    -4.083804 
H       0.784027    -0.820845    -3.462017 
C      -0.358114     0.971024    -3.222277 
H      -0.999641     0.618816    -2.408760 
H      -0.240429     2.050749    -3.113330 
H      -0.889400     0.788963    -4.161213 
O       3.487830     2.020186    -1.260996 
C       3.759217     3.334258    -0.795568 
H       3.073004     3.587183     0.023067 
H       4.774408     3.289556    -0.391191 
C       3.672532     4.377502    -1.887700 
C       2.805526     5.458280    -1.775395 
C       4.461125     4.257727    -3.031947 
C       2.732511     6.414934    -2.783563 
H       2.170375     5.544218    -0.898649 
C       4.389176     5.207423    -4.040723 
H       5.131914     3.408640    -3.128842 
C       3.524819     6.292036    -3.916767 
H       2.051753     7.254543    -2.682724 
H       5.008090     5.103609    -4.926592 
H       3.468797     7.036340    -4.704932 
C       1.134493     0.042125    -0.713738 
O       1.397282     0.787405     0.327608 
C       1.122658     1.939114    -0.557016 
C      -0.099867     2.622802    -0.349706 
O      -0.994234     2.301991     0.418921 
O      -0.181552     3.731508    -1.149374 
C      -1.395485     4.469407    -1.027861 
H      -2.255895     3.851845    -1.299378 
H      -1.531685     4.827164    -0.004293 
H      -1.303397     5.312278    -1.714165 
72
     -1725.712589     -1725.186696   4.93   3.76
C       2.787501    -3.573754     2.843779 
C       2.065715    -2.555707     2.198562 
C       1.818362    -1.359099     2.890355 
C       2.298425    -1.217342     4.171127 
C       3.028347    -2.251722     4.797860 
C       3.284367    -3.446828     4.150494 
C       2.245270    -4.298371     0.802223 
C       1.726116    -3.042416     0.885242 
H       1.243743    -0.561610     2.430496 
H       2.124714    -0.309255     4.737243 
H       3.838924    -4.250706     4.616255 
H       2.213561    -5.002848    -0.018491 
N       2.890109    -4.635511     1.979718 
C       3.551165    -5.888087     2.258080 
H       4.613534    -5.733387     2.475354 
H       3.086980    -6.398720     3.108726 
H       3.469751    -6.534247     1.382491 
O       3.442096    -1.967136     6.069274 
C       4.177147    -2.956390     6.758571 
H       4.408345    -2.537564     7.738721 
H       3.590306    -3.874640     6.888158 
H       5.113530    -3.195418     6.238565 
N       1.255133    -0.510734    -1.910294 
C       1.493621    -0.878687    -3.253146 
O       1.981387    -1.949819    -3.509239 
C       1.232890     0.169832    -4.338901 
H       0.758083    -0.373922    -5.158262 
H       2.228360     0.440064    -4.704782 
C       0.430599     1.432348    -3.944407 
H       1.097933     2.242918    -3.645309 
H      -0.157817     1.789516    -4.793338 
C      -0.460088     1.057950    -2.761883 
C      -1.153372     2.120171    -1.876218 
H      -2.242459     2.077565    -1.955329 
C       1.006053    -2.283141    -0.185660 
H       0.126999    -1.784846     0.238824 
H       0.662673    -2.963676    -0.971143 
C       1.921962    -1.228334    -0.811967 
H       2.217109    -0.483277    -0.072578 
H       2.816439    -1.693152    -1.226023 
C      -1.485591    -0.020280    -3.183946 
H      -2.186480     0.483570    -3.860758 
H      -0.988997    -0.783667    -3.790353 
C      -2.263336    -0.727215    -2.074421 
H      -1.597174    -1.278124    -1.404805 
H      -2.853501    -0.037718    -1.467770 
H      -2.952815    -1.450726    -2.519551 
O      -0.682245     3.416869    -2.199991 
C      -1.187253     4.425149    -1.338307 
H      -0.973294     4.166252    -0.292978 
H      -0.619656     5.326283    -1.588442 
C      -2.669512     4.672027    -1.519655 
C      -3.189208     4.899785    -2.793754 
C      -3.530249     4.679225    -0.428018 
C      -4.544861     5.137670    -2.969826 
H      -2.521486     4.884869    -3.650405 
C      -4.889768     4.921345    -0.600019 
H      -3.135729     4.480932     0.564327 
C      -5.399265     5.152037    -1.870688 
H      -4.937871     5.313512    -3.966458 
H      -5.550580     4.925890     0.261326 
H      -6.459584     5.339825    -2.007571 
C       0.489427     0.579777    -1.684352 
O       0.784675     1.430078    -0.727915 
C      -0.672919     1.561919    -0.570631 
C      -1.259933     1.118091     0.638133 
O      -0.717183     0.489540     1.533928 
O      -2.582174     1.467904     0.689070 
C      -3.274951     1.036239     1.857830 
H      -2.820094     1.457657     2.757783 
H      -4.298945     1.395399     1.747822 
H      -3.262955    -0.054135     1.937242 
72
     -1725.712368     -1725.186580   5.07   3.83
C       2.788057    -2.904413     3.602054 
C       2.811150    -2.661476     2.217478 
C       3.909323    -3.117578     1.472610 
C       4.927048    -3.785498     2.112753 
C       4.881447    -4.018914     3.505376 
C       3.815865    -3.584935     4.273200 
C       0.926634    -1.792498     3.063043 
C       1.603398    -1.949296     1.892462 
H       3.961188    -2.947417     0.400926 
H       5.790597    -4.151837     1.569031 
H       3.765860    -3.754933     5.340645 
H      -0.019367    -1.297485     3.238171 
N       1.630765    -2.367362     4.107350 
C       1.218519    -2.401564     5.490711 
H       1.095276    -3.432124     5.840790 
H       1.947695    -1.894692     6.131861 
H       0.260591    -1.888089     5.585706 
O       5.959952    -4.694055     4.003628 
C       5.985620    -4.963154     5.390150 
H       6.915651    -5.500354     5.579436 
H       5.978084    -4.036827     5.978388 
H       5.138293    -5.591580     5.692266 
N       1.569579     0.360260    -1.118147 
C       2.330114     0.174008    -2.291827 
O       3.186673    -0.672410    -2.332866 
C       2.109463     1.158929    -3.444476 
H       2.115774     0.550022    -4.350941 
H       3.030035     1.749671    -3.482016 
C       0.867901     2.080830    -3.379235 
H       1.113371     3.034853    -2.908628 
H       0.503030     2.297312    -4.386459 
C      -0.190538     1.368388    -2.539017 
C      -1.429062     2.097608    -1.964925 
H      -2.363102     1.728620    -2.395695 
C       1.195364    -1.427035     0.552027 
H       0.138063    -1.148858     0.586490 
H       1.320615    -2.193368    -0.221945 
C       2.013851    -0.192911     0.170249 
H       1.889134     0.589470     0.919983 
H       3.073162    -0.427466     0.073202 
C      -0.631040     0.058798    -3.234294 
H      -1.194351     0.369019    -4.122910 
H       0.248227    -0.470389    -3.613672 
C      -1.464199    -0.929519    -2.419139 
H      -1.714979    -1.792475    -3.043230 
H      -0.911791    -1.301493    -1.552369 
H      -2.400265    -0.497387    -2.060314 
O      -1.310878     3.496478    -2.160302 
C      -2.354706     4.235683    -1.545606 
H      -2.419427     3.977646    -0.480386 
H      -2.048503     5.283054    -1.623753 
C      -3.698111     4.031339    -2.212413 
C      -4.822729     3.701646    -1.464635 
C      -3.821980     4.177144    -3.593956 
C      -6.058078     3.530292    -2.081900 
H      -4.728843     3.565008    -0.391209 
C      -5.051275     4.003184    -4.213650 
H      -2.943502     4.424671    -4.182947 
C      -6.174858     3.681799    -3.456986 
H      -6.928681     3.274697    -1.485794 
H      -5.135349     4.119166    -5.289820 
H      -7.137134     3.547354    -3.940955 
C       0.465076     1.134557    -1.196249 
O       0.149236     1.958554    -0.223779 
C      -1.243984     1.621149    -0.555066 
C      -2.019042     0.937067     0.413073 
O      -1.626673     0.439666     1.458133 
O      -3.327493     0.867382     0.016001 
C      -4.193445     0.170962     0.908663 
H      -5.184897     0.212126     0.455803 
H      -3.875617    -0.868211     1.028572 
H      -4.205783     0.649194     1.891282 
72
     -1725.712804     -1725.186493   4.79   3.88
C      -1.465270    -4.291073     2.071624 
C      -0.933615    -3.129062     1.473252 
C      -1.283307    -2.832041     0.154361 
C      -2.145349    -3.674772    -0.526719 
C      -2.667500    -4.824929     0.095943 
C      -2.333848    -5.150373     1.401316 
C      -0.144605    -3.283009     3.565180 
C      -0.085917    -2.497435     2.455807 
H      -0.879678    -1.959554    -0.350726 
H      -2.407648    -3.437573    -1.549287 
H      -2.749218    -6.043754     1.853237 
H       0.345471    -3.156673     4.521807 
N      -0.972603    -4.371492     3.350850 
C      -1.267704    -5.419979     4.297416 
H      -0.737443    -5.217542     5.229545 
H      -2.340802    -5.465068     4.512031 
H      -0.943138    -6.395064     3.918479 
O      -3.523712    -5.693947    -0.524580 
C      -3.902661    -5.416115    -1.857360 
H      -3.035559    -5.409407    -2.529281 
H      -4.579288    -6.219346    -2.152464 
H      -4.426838    -4.455585    -1.934760 
N       0.393944     1.257944     2.159903 
C       0.804944     2.003393     3.285039 
O       0.789627     1.500496     4.380322 
C       1.171392     3.474730     3.080905 
H       2.141165     3.599942     3.570293 
H       0.457297     4.033320     3.692688 
C       1.202839     3.999118     1.632171 
H       0.205960     4.304110     1.305421 
H       1.848317     4.875586     1.555197 
C       1.678870     2.845185     0.755565 
C       1.602580     2.871226    -0.790637 
H       2.595973     2.875736    -1.249034 
C       0.649813    -1.203853     2.294441 
H       1.185367    -1.192943     1.337495 
H       1.391133    -1.084088     3.090339 
C      -0.317467    -0.017718     2.337896 
H      -1.057860    -0.089634     1.541283 
H      -0.831481     0.024884     3.297755 
C       3.073592     2.318133     1.158535 
H       3.052880     1.893330     2.167385 
H       3.315848     1.486857     0.489094 
C       4.168930     3.382285     1.082914 
H       4.193650     3.869760     0.103531 
H       4.034985     4.161656     1.838875 
H       5.150103     2.929516     1.251227 
O       0.858845     3.994080    -1.235176 
C       0.683502     4.039448    -2.642666 
H       0.445120     5.083758    -2.870143 
H       1.626289     3.794705    -3.150828 
C      -0.423057     3.141947    -3.157797 
C      -0.237925     2.388662    -4.312389 
C      -1.653817     3.090989    -2.506467 
C      -1.262984     1.591404    -4.810337 
H       0.722533     2.414136    -4.819645 
C      -2.676606     2.293042    -2.997901 
H      -1.798641     3.665834    -1.597703 
C      -2.484896     1.540978    -4.153260 
H      -1.104100     1.006377    -5.711297 
H      -3.628306     2.254073    -2.476624 
H      -3.285542     0.915786    -4.536223 
C       0.636975     1.759212     0.927246 
O      -0.230424     1.601802    -0.046999 
C       0.958377     1.529067    -0.920629 
C       1.052053     0.427456    -1.809802 
O       0.390547    -0.596186    -1.786600 
O       2.045122     0.640046    -2.724214 
C       2.200060    -0.397713    -3.689797 
H       1.278940    -0.531606    -4.263336 
H       3.011295    -0.077976    -4.345195 
H       2.454477    -1.344496    -3.206498 
72
     -1725.710051     -1725.186296   6.52   4.01
C       4.444668     0.168248     3.699414 
C       4.083818     0.307333     2.342422 
C       4.952918    -0.176337     1.363413 
C       6.141617    -0.778452     1.741696 
C       6.478381    -0.904307     3.103638 
C       5.636281    -0.433484     4.099273 
C       2.458404     1.188402     3.606952 
C       2.802780     0.969866     2.309462 
H       4.705406    -0.086762     0.309423 
H       6.809527    -1.150746     0.975959 
H       5.922920    -0.545656     5.138560 
H       1.568796     1.653558     4.011011 
N       3.439719     0.712073     4.460591 
C       3.421309     0.776113     5.902541 
H       4.267208     1.359719     6.281287 
H       2.496956     1.258027     6.225299 
H       3.460592    -0.226794     6.340884 
O       7.635515    -1.487750     3.541275 
C       8.536291    -1.991018     2.575160 
H       8.901635    -1.196354     1.913039 
H       9.376084    -2.406979     3.133322 
H       8.077067    -2.783142     1.970975 
N       0.829412     0.252750    -0.853639 
C       1.653764     0.389074    -1.988254 
O       2.804813     0.032183    -1.946477 
C       1.077361     1.093659    -3.221932 
H       1.363821     0.467434    -4.069841 
H       1.672693     2.006590    -3.320322 
C      -0.435792     1.419651    -3.236712 
H      -0.622687     2.422171    -2.846758 
H      -0.819322     1.390604    -4.259820 
C      -1.140370     0.398512    -2.343341 
C      -2.583855     0.604429    -1.821089 
H      -3.270790    -0.155484    -2.202608 
C       2.016357     1.288696     1.077091 
H       2.668256     1.764214     0.335166 
H       1.209606     1.991576     1.302838 
C       1.419879     0.014325     0.472731 
H       2.188153    -0.747992     0.343382 
H       0.625929    -0.381098     1.108374 
C      -0.983904    -1.023159    -2.931003 
H      -1.604915    -1.044479    -3.834878 
H       0.044531    -1.164258    -3.276296 
C      -1.348332    -2.201754    -2.028899 
H      -0.734692    -2.223149    -1.123131 
H      -2.396345    -2.188379    -1.723934 
H      -1.171954    -3.138054    -2.566726 
O      -3.046280     1.902230    -2.149585 
C      -4.306587     2.210841    -1.572015 
H      -4.259043     2.075852    -0.483659 
H      -4.462996     3.273134    -1.779818 
C      -5.437992     1.388867    -2.148942 
C      -6.234786     0.596987    -1.330125 
C      -5.687295     1.409978    -3.521143 
C      -7.274672    -0.155503    -1.868015 
H      -6.030317     0.556290    -0.264282 
C      -6.720896     0.658983    -4.061879 
H      -5.059986     2.018825    -4.166195 
C      -7.520341    -0.124754    -3.233922 
H      -7.889870    -0.768993    -1.217092 
H      -6.905442     0.683695    -5.131425 
H      -8.330143    -0.711679    -3.655905 
C      -0.481195     0.548012    -0.993481 
O      -1.113164     1.247707    -0.088119 
C      -2.271819     0.374726    -0.371061 
C      -2.584436    -0.602703     0.604663 
O      -1.939899    -0.862670     1.609955 
O      -3.738240    -1.265319     0.280615 
C      -4.116701    -2.291323     1.195477 
H      -5.044404    -2.712556     0.805791 
H      -3.345447    -3.063976     1.255480 
H      -4.277557    -1.880269     2.195164 
72
     -1725.711778     -1725.186286   5.44   4.01
C       1.039512     4.353377    -3.235578 
C       0.630737     3.393055    -2.286231 
C       1.595878     2.817974    -1.456968 
C       2.920363     3.198475    -1.585028 
C       3.301044     4.162023    -2.538771 
C       2.367408     4.752337    -3.376297 
C      -1.168753     4.076597    -3.433731 
C      -0.796475     3.233921    -2.432635 
H       1.334452     2.063396    -0.721902 
H       3.657696     2.736465    -0.942095 
H       2.690301     5.489445    -4.102450 
H      -2.151603     4.254404    -3.850452 
N      -0.073063     4.762693    -3.928948 
C      -0.085330     5.739059    -4.991476 
H       0.273514     6.711050    -4.636421 
H       0.542384     5.416513    -5.829105 
H      -1.108135     5.859349    -5.352611 
O       4.592313     4.580354    -2.712195 
C       5.590741     4.012784    -1.888444 
H       6.530129     4.479930    -2.187416 
H       5.404376     4.222402    -0.827971 
H       5.664128     2.928074    -2.034627 
N      -2.100219    -0.094804    -1.126347 
C      -3.449455    -0.390562    -1.418717 
O      -3.901139    -0.134551    -2.505949 
C      -4.332833    -0.939105    -0.292686 
H      -4.876511    -1.776181    -0.736308 
H      -5.083029    -0.159751    -0.128065 
C      -3.652887    -1.338998     1.037806 
H      -3.645206    -0.502241     1.739118 
H      -4.199921    -2.157621     1.512491 
C      -2.212184    -1.735982     0.721385 
C      -1.126540    -1.854711     1.818010 
H      -0.756966    -2.877811     1.923292 
C      -1.669077     2.302099    -1.650457 
H      -2.723218     2.491082    -1.876272 
H      -1.528475     2.467628    -0.576500 
C      -1.342049     0.841196    -1.972254 
H      -1.589202     0.610265    -3.008656 
H      -0.285179     0.631832    -1.802832 
C      -2.183596    -2.988044    -0.185463 
H      -2.522730    -3.821500     0.441771 
H      -2.935308    -2.886618    -0.973943 
C      -0.850307    -3.347405    -0.841376 
H      -0.063711    -3.550908    -0.112125 
H      -0.976627    -4.246240    -1.452091 
H      -0.497325    -2.549240    -1.501325 
O      -1.620550    -1.375647     3.056929 
C      -0.632709    -1.341062     4.075547 
H       0.233535    -0.757708     3.736768 
H      -1.098991    -0.806459     4.908235 
C      -0.190126    -2.718905     4.518243 
C       1.157335    -3.059035     4.551762 
C      -1.138239    -3.667957     4.899996 
C       1.557855    -4.324062     4.971188 
H       1.899517    -2.332449     4.234074 
C      -0.743175    -4.931592     5.315130 
H      -2.192729    -3.409456     4.864935 
C       0.608796    -5.261904     5.354640 
H       2.613564    -4.576129     4.994112 
H      -1.490310    -5.662052     5.609840 
H       0.918685    -6.249730     5.680927 
C      -1.605413    -0.523441     0.055740 
O      -0.854501     0.256400     0.798451 
C      -0.120436    -0.976940     1.136980 
C       1.215738    -1.085909     0.685781 
O       1.801118    -0.317775    -0.063357 
O       1.809091    -2.211563     1.188953 
C       3.151971    -2.426616     0.761363 
H       3.203762    -2.521600    -0.326494 
H       3.796083    -1.599832     1.071377 
H       3.472208    -3.354084     1.237721 
72
     -1725.709267     -1725.186236   7.01   4.04
C       0.939018    -4.869002     2.204468 
C       0.006438    -4.136109     1.451287 
C      -1.340992    -4.528699     1.477738 
C      -1.707913    -5.614848     2.237624 
C      -0.752482    -6.337603     2.986759 
C       0.583795    -5.980417     2.984723 
C       2.029495    -3.219795     1.164874 
C       0.729172    -3.081553     0.787286 
H      -2.088465    -3.983755     0.908312 
H      -2.738730    -5.947980     2.283247 
H       1.327808    -6.522709     3.553089 
H       2.890898    -2.623819     0.893842 
N       2.173802    -4.298206     2.021229 
C       3.409125    -4.750278     2.616455 
H       3.356330    -4.713287     3.709814 
H       3.644099    -5.774571     2.307812 
H       4.219876    -4.097552     2.288970 
O      -1.262611    -7.390791     3.691633 
C      -0.367335    -8.160943     4.467067 
H       0.116026    -7.553394     5.242534 
H      -0.966688    -8.938166     4.942476 
H       0.402340    -8.630942     3.841930 
N      -1.404511    -0.064999    -0.096464 
C      -2.613438    -0.459032    -0.705509 
O      -3.184017    -1.452410    -0.330119 
C      -3.111877     0.345674    -1.911348 
H      -4.178006     0.500623    -1.731163 
H      -3.057342    -0.354352    -2.750720 
C      -2.391161     1.672098    -2.253973 
H      -1.591699     1.506479    -2.978691 
H      -3.094129     2.380141    -2.700245 
C      -1.786535     2.220731    -0.961513 
C      -0.697044     3.321867    -0.954890 
H      -1.046063     4.242844    -0.476492 
C       0.130623    -2.028415    -0.091741 
H      -0.549444    -2.491666    -0.815804 
H       0.909007    -1.509399    -0.658001 
C      -0.648352    -1.008194     0.742645 
H      -1.371873    -1.507537     1.387186 
H       0.029402    -0.414056     1.357857 
C      -2.906140     2.571295     0.045950 
H      -3.414426     3.452850    -0.363323 
H      -3.655604     1.774292     0.048974 
C      -2.492677     2.840251     1.492483 
H      -3.383466     3.056251     2.089741 
H      -1.999734     1.972342     1.940684 
H      -1.818384     3.693739     1.585743 
O      -0.251536     3.580263    -2.271489 
C       0.838334     4.487069    -2.326675 
H       0.493675     5.508785    -2.111384 
H       1.576702     4.210856    -1.560086 
C       1.463816     4.422087    -3.695455 
C       1.878851     3.193772    -4.209587 
C       1.657235     5.572414    -4.451208 
C       2.476896     3.121160    -5.458890 
H       1.725397     2.293575    -3.622328 
C       2.260552     5.503390    -5.703683 
H       1.330786     6.532606    -4.060739 
C       2.671095     4.277862    -6.209345 
H       2.794615     2.159785    -5.850764 
H       2.406491     6.409240    -6.283924 
H       3.140382     4.220737    -7.186473 
C      -0.878105     1.123349    -0.460945 
O       0.404000     1.250818    -0.686074 
C       0.274450     2.591084    -0.077421 
C       0.836489     2.769452     1.209556 
O       1.319326     1.903282     1.922862 
O       0.764943     4.083553     1.590411 
C       1.288060     4.358391     2.888536 
H       1.160057     5.430602     3.042290 
H       0.745101     3.797445     3.653952 
H       2.346267     4.091423     2.944432 
72
     -1725.709919     -1725.186117   6.60   4.12
C       3.691859     3.601135    -1.355799 
C       3.559253     2.196902    -1.289341 
C       4.405094     1.407721    -2.069112 
C       5.348526     2.009882    -2.885154 
C       5.459927     3.413234    -2.931891 
C       4.635025     4.225768    -2.169405 
C       2.046915     3.124760     0.080776 
C       2.497432     1.917728    -0.355719 
H       4.331079     0.324040    -2.043300 
H       5.999513     1.388043    -3.485613 
H       4.744802     5.302598    -2.227832 
H       1.248672     3.335819     0.780328 
N       2.759726     4.153125    -0.512849 
C       2.566744     5.565794    -0.286759 
H       1.752648     5.701802     0.426867 
H       3.471121     6.025780     0.125836 
H       2.302563     6.080126    -1.216956 
O       6.369215     4.070001    -3.715247 
C       7.238176     3.297710    -4.518925 
H       7.868187     4.009954    -5.053391 
H       7.872425     2.641392    -3.910277 
H       6.682427     2.692008    -5.245397 
N       0.523328    -1.301113    -0.723639 
C       1.025359    -2.516951    -1.235354 
O       2.108199    -2.553363    -1.762261 
C       0.098241    -3.735969    -1.203668 
H       0.731970    -4.573879    -0.905799 
H      -0.153841    -3.917851    -2.253072 
C      -1.182455    -3.647752    -0.339022 
H      -2.031921    -3.302438    -0.931262 
H      -1.439892    -4.633020     0.057713 
C      -0.913969    -2.643871     0.780863 
C      -2.047125    -2.030492     1.639298 
H      -1.987222    -2.339353     2.687576 
C       1.952448     0.576621     0.017315 
H       1.321177     0.684985     0.904047 
H       2.762051    -0.121750     0.260375 
C       1.110710    -0.010922    -1.116120 
H       0.287705     0.661006    -1.363365 
H       1.706471    -0.187278    -2.010654 
C       0.219133    -3.159725     1.698889 
H      -0.198736    -4.022596     2.231723 
H       1.033517    -3.559151     1.087045 
C       0.819956    -2.178082     2.704295 
H       0.080656    -1.782132     3.403309 
H       1.590277    -2.687689     3.290726 
H       1.295869    -1.330862     2.204042 
O      -3.307774    -2.361263     1.090537 
C      -4.391309    -1.707041     1.731668 
H      -4.577802    -2.156988     2.717444 
H      -4.136525    -0.648786     1.886256 
C      -5.616428    -1.819705     0.862418 
C      -6.811694    -2.317962     1.367051 
C      -5.562677    -1.397429    -0.465851 
C      -7.943852    -2.392345     0.560686 
H      -6.859819    -2.655106     2.399052 
C      -6.688112    -1.473886    -1.272859 
H      -4.628574    -1.011376    -0.862556 
C      -7.883683    -1.970626    -0.760191 
H      -8.871851    -2.782931     0.966657 
H      -6.635536    -1.144477    -2.306055 
H      -8.764532    -2.029013    -1.391832 
C      -0.561606    -1.351298     0.078623 
O      -1.500269    -0.434596     0.000459 
C      -1.617152    -0.605712     1.457126 
C      -1.319865     0.498000     2.293850 
O      -0.795904     1.552890     1.970171 
O      -1.682063     0.224956     3.586268 
C      -1.400763     1.263000     4.522788 
H      -1.930776     2.180732     4.256134 
H      -1.745922     0.894888     5.489696 
H      -0.328749     1.474380     4.558619 
72
     -1725.711695     -1725.185827   5.49   4.30
C      -3.939420     2.615493    -0.458439 
C      -2.754759     1.861821    -0.415659 
C      -1.564830     2.492699    -0.017883 
C      -1.599287     3.823246     0.327575 
C      -2.803793     4.560008     0.285013 
C      -3.992904     3.974192    -0.109908 
C      -4.421500     0.533341    -1.106477 
C      -3.087022     0.524202    -0.836319 
H      -0.625344     1.948860     0.002281 
H      -0.700629     4.345058     0.636454 
H      -4.923782     4.524064    -0.151640 
H      -5.060451    -0.271258    -1.445976 
N      -4.952300     1.791815    -0.883670 
C      -6.330247     2.178392    -1.071880 
H      -6.898279     1.311598    -1.413663 
H      -6.771787     2.532580    -0.134161 
H      -6.418914     2.968595    -1.825203 
O      -2.683571     5.869811     0.657290 
C      -3.847840     6.668652     0.637814 
H      -4.610854     6.282371     1.325528 
H      -3.541359     7.663070     0.964566 
H      -4.271426     6.735721    -0.372353 
N      -0.954435    -2.327493     0.489873 
C      -1.462170    -3.637083     0.644586 
O      -2.637246    -3.852675     0.492004 
C      -0.497743    -4.722873     1.129489 
H      -0.731206    -5.605821     0.530961 
H      -0.835443    -4.958537     2.143490 
C       1.014783    -4.400860     1.114029 
H       1.338724    -3.998093     2.075732 
H       1.594323    -5.308654     0.928750 
C       1.251632    -3.353250     0.028309 
C       2.566855    -2.542946    -0.065145 
H       3.124960    -2.775566    -0.977302 
C      -2.153001    -0.644319    -0.890396 
H      -1.211532    -0.344355    -1.365279 
H      -2.584967    -1.455104    -1.485551 
C      -1.858934    -1.167128     0.517950 
H      -1.381898    -0.396571     1.124541 
H      -2.777299    -1.486714     1.009355 
C       0.895615    -3.930908    -1.361677 
H       1.660740    -4.686776    -1.576870 
H      -0.049880    -4.478620    -1.302148 
C       0.801359    -2.947678    -2.528160 
H       1.732196    -2.403299    -2.699728 
H       0.562411    -3.493946    -3.445514 
H       0.009436    -2.211085    -2.367913 
O       3.383681    -2.781383     1.070031 
C       4.575811    -2.011384     1.079685 
H       5.247872    -2.529985     1.771301 
H       5.044460    -2.025817     0.086059 
C       4.384810    -0.578905     1.533977 
C       5.008313     0.463847     0.856431 
C       3.617443    -0.291064     2.661227 
C       4.865490     1.776974     1.291687 
H       5.598505     0.248809    -0.030027 
C       3.469273     1.018061     3.094773 
H       3.118583    -1.099427     3.185929 
C       4.094587     2.057280     2.411704 
H       5.355475     2.581944     0.752060 
H       2.861288     1.231375     3.968742 
H       3.977336     3.081685     2.751541 
C       0.385145    -2.173532     0.412467 
O       0.984809    -1.156878     0.990239 
C       1.910557    -1.203930    -0.155168 
C       2.074263    -0.027259    -0.924171 
O       1.389916     0.981696    -0.884264 
O       3.126120    -0.168212    -1.788427 
C       3.414784     0.987100    -2.571881 
H       4.271262     0.721850    -3.193217 
H       2.561072     1.257234    -3.198630 
H       3.662170     1.835950    -1.928738 
72
     -1725.708019     -1725.185530   7.80   4.49
C       1.693284    -1.502436     5.168309 
C       2.086641    -1.293488     3.829424 
C       3.190123    -1.991752     3.336971 
C       3.869904    -2.868632     4.166196 
C       3.456747    -3.058704     5.499356 
C       2.365003    -2.379416     6.017774 
C       0.295637    -0.017105     4.254582 
C       1.173145    -0.330773     3.263900 
H       3.519338    -1.855492     2.310694 
H       4.724381    -3.405959     3.776051 
H       2.071065    -2.547484     7.047439 
H      -0.547034     0.661546     4.234406 
N       0.595902    -0.714383     5.413047 
C      -0.112769    -0.630420     6.667834 
H      -0.940983     0.072233     6.562123 
H      -0.520195    -1.605651     6.954930 
H       0.544698    -0.273679     7.467863 
O       4.084994    -3.908864     6.367307 
C       5.204348    -4.633982     5.898967 
H       4.936292    -5.292508     5.063579 
H       6.015430    -3.964688     5.586623 
H       5.543872    -5.240880     6.739330 
N       0.894944    -0.565829    -0.515482 
C       2.174038    -0.652540    -1.101640 
O       3.045855    -1.284884    -0.559833 
C       2.443590     0.159397    -2.373738 
H       2.959191    -0.527635    -3.048513 
H       3.196955     0.895154    -2.076046 
C       1.244651     0.849970    -3.067563 
H       1.119153     1.872381    -2.705517 
H       1.411693     0.903987    -4.146385 
C      -0.012013     0.046181    -2.733957 
C      -1.438644     0.612247    -2.938646 
H      -2.004129     0.041334    -3.682467 
C       1.186890     0.160361     1.850581 
H       2.206316     0.447859     1.568406 
H       0.554530     1.045852     1.741515 
C       0.694447    -0.930701     0.895778 
H       1.235738    -1.862275     1.060879 
H      -0.373759    -1.108952     1.030181 
C       0.087207    -1.377489    -3.329256 
H      -0.000664    -1.256631    -4.415870 
H       1.091897    -1.774893    -3.157281 
C      -0.924055    -2.415091    -2.842784 
H      -0.849313    -2.577955    -1.763469 
H      -1.955050    -2.136154    -3.068705 
H      -0.725628    -3.372429    -3.333708 
O      -1.384023     1.976122    -3.307311 
C      -2.659963     2.589882    -3.326322 
H      -3.338637     2.012192    -3.974488 
H      -3.091986     2.587301    -2.316793 
C      -2.534266     4.001157    -3.842754 
C      -3.309921     5.017813    -3.294424 
C      -1.673171     4.300625    -4.896824 
C      -3.236327     6.313601    -3.794306 
H      -3.976217     4.796113    -2.465008 
C      -1.595200     5.594132    -5.395247 
H      -1.058559     3.514378    -5.322093 
C      -2.378862     6.604478    -4.847247 
H      -3.848567     7.096538    -3.357454 
H      -0.919402     5.815263    -6.215746 
H      -2.318180     7.615077    -5.238624 
C      -0.079371     0.041713    -1.225183 
O      -0.901394     0.883121    -0.655139 
C      -1.933719     0.327134    -1.554202 
C      -2.928313    -0.489841    -0.965815 
O      -2.962928    -0.883003     0.190205 
O      -3.889509    -0.818856    -1.885891 
C      -4.924142    -1.666268    -1.390656 
H      -5.457374    -1.185936    -0.566530 
H      -5.599789    -1.836102    -2.229945 
H      -4.513846    -2.615379    -1.035391 
72
     -1725.711891     -1725.185296   5.37   4.63
C      -3.455512     2.002802     0.408074 
C      -3.137634     0.889998    -0.398742 
C      -3.219164    -0.384564     0.161412 
C      -3.581581    -0.531253     1.488686 
C      -3.885419     0.598375     2.275145 
C      -3.831266     1.877598     1.743481 
C      -2.862155     2.751246    -1.612836 
C      -2.748061     1.395458    -1.691051 
H      -2.999070    -1.260381    -0.439028 
H      -3.629981    -1.525780     1.913088 
H      -4.074062     2.726453     2.372444 
H      -2.632843     3.506864    -2.351455 
N      -3.290861     3.132912    -0.353255 
C      -3.535059     4.486137     0.087941 
H      -2.912030     4.733176     0.953743 
H      -3.288102     5.172812    -0.722953 
H      -4.586679     4.628339     0.358115 
O      -4.250119     0.525254     3.590043 
C      -4.354072    -0.754179     4.183811 
H      -5.107801    -1.370214     3.678515 
H      -3.391036    -1.279250     4.177226 
H      -4.662635    -0.583531     5.215862 
N       0.063688     1.434538    -2.317143 
C       0.556302     2.744437    -2.136693 
O       0.056996     3.675947    -2.717693 
C       1.797361     2.939338    -1.261118 
H       1.517538     3.711858    -0.539489 
H       2.537465     3.403296    -1.919104 
C       2.369183     1.698624    -0.550872 
H       3.042617     1.150638    -1.215753 
H       2.950762     1.989681     0.325389 
C       1.181550     0.813198    -0.192796 
C       1.343973    -0.657190     0.296016 
H       0.951534    -0.762442     1.307342 
C      -2.212397     0.578344    -2.833419 
H      -2.926116     0.527635    -3.663137 
H      -2.056849    -0.452095    -2.500790 
C      -0.895907     1.130632    -3.392456 
H      -0.435672     0.405610    -4.067777 
H      -1.043434     2.066021    -3.929708 
C       0.160825     1.517569     0.728091 
H      -0.313528     2.358906     0.212972 
H      -0.648504     0.811462     0.931655 
C       0.767274     1.999990     2.045525 
H      -0.024126     2.347660     2.715113 
H       1.307997     1.198911     2.559734 
H       1.464117     2.831279     1.900484 
O       2.685211    -1.126099     0.354469 
C       3.168799    -1.908493    -0.725600 
H       2.414110    -2.655265    -1.009927 
H       3.364515    -1.291287    -1.610839 
C       4.439911    -2.598785    -0.298177 
C       5.532521    -2.651984    -1.157272 
C       4.526061    -3.222457     0.945836 
C       6.694456    -3.322025    -0.787266 
H       5.477787    -2.161287    -2.125449 
C       5.685095    -3.888323     1.319050 
H       3.679914    -3.176615     1.623112 
C       6.772658    -3.942372     0.452190 
H       7.538985    -3.355969    -1.468679 
H       5.741486    -4.368444     2.291228 
H       7.677937    -4.464787     0.745080 
C       0.543526     0.455481    -1.514347 
O       0.829535    -0.729269    -2.017917 
C       0.391489    -1.233116    -0.699121 
C      -0.552379    -2.302444    -0.699691 
O      -1.251377    -2.658931    -1.632985 
O      -0.615043    -2.886231     0.530664 
C      -1.534623    -3.972081     0.636434 
H      -1.283077    -4.765226    -0.071988 
H      -1.448100    -4.337102     1.660415 
H      -2.556903    -3.639009     0.438130 
72
     -1725.709322     -1725.185161   6.98   4.72
C       3.278679    -3.871075     0.331265 
C       2.437599    -3.261734    -0.614885 
C       1.921341    -4.042115    -1.661325 
C       2.251854    -5.375496    -1.729124 
C       3.100049    -5.967104    -0.766343 
C       3.627838    -5.229598     0.277980 
C       3.055013    -1.718989     0.886340 
C       2.309163    -1.876241    -0.241292 
H       1.267461    -3.603658    -2.409737 
H       1.872619    -6.010140    -2.522254 
H       4.278328    -5.667257     1.023609 
H       3.216676    -0.832704     1.485622 
N       3.649882    -2.916501     1.245189 
C       4.515489    -3.127455     2.381457 
H       4.623939    -2.186824     2.923729 
H       4.094511    -3.873112     3.064351 
H       5.509608    -3.459649     2.063673 
O       3.339643    -7.297694    -0.962291 
C       4.178423    -7.959975    -0.038272 
H       5.186145    -7.525814    -0.028955 
H       3.760500    -7.929251     0.975873 
H       4.238200    -8.997154    -0.369922 
N      -0.872670    -0.231029    -1.505560 
C      -1.095921    -0.535001    -2.864301 
O      -0.836391    -1.633599    -3.287826 
C      -1.575121     0.588022    -3.789405 
H      -2.405747     0.159191    -4.354670 
H      -0.764671     0.713623    -4.513698 
C      -1.958765     1.943263    -3.150946 
H      -1.097346     2.613195    -3.113093 
H      -2.729309     2.437789    -3.747846 
C      -2.441276     1.671838    -1.726426 
C      -2.573886     2.796341    -0.669759 
H      -3.614862     2.948662    -0.367406 
C       1.472897    -0.853771    -0.944793 
H       1.657184    -0.901868    -2.024243 
H       1.733430     0.154899    -0.612058 
C      -0.015658    -1.098716    -0.682808 
H      -0.286750    -2.127686    -0.918188 
H      -0.260969    -0.894596     0.360744 
C      -3.727065     0.812664    -1.745887 
H      -4.516547     1.458317    -2.149411 
H      -3.611805    -0.000685    -2.468784 
C      -4.182893     0.207733    -0.417821 
H      -4.403692     0.964608     0.337631 
H      -5.094359    -0.375904    -0.577993 
H      -3.428411    -0.467092    -0.002724 
O      -2.035356     4.013016    -1.162152 
C      -2.034090     5.057487    -0.200853 
H      -1.955967     5.982981    -0.780760 
H      -2.992319     5.080369     0.335927 
C      -0.892572     4.981154     0.791680 
C       0.409146     4.747666     0.350918 
C      -1.120459     5.188795     2.148283 
C       1.461281     4.714264     1.253603 
H       0.589498     4.572227    -0.704784 
C      -0.066389     5.160416     3.054955 
H      -2.133920     5.355987     2.502205 
C       1.226971     4.923006     2.609888 
H       2.470095     4.523671     0.900086 
H      -0.258563     5.320052     4.111618 
H       2.051124     4.896225     3.316134 
C      -1.292067     0.967567    -1.046417 
O      -0.542352     1.677294    -0.240873 
C      -1.800311     2.104392     0.402851 
C      -1.993767     1.739414     1.754341 
O      -1.310555     0.970034     2.410855 
O      -3.106728     2.357873     2.262844 
C      -3.380015     2.061276     3.629685 
H      -4.280236     2.622074     3.885154 
H      -3.547415     0.990295     3.770900 
H      -2.547394     2.371807     4.266499 
72
     -1725.706617     -1725.184823   8.68   4.93
C       3.038592     3.914808     2.432735 
C       2.424752     2.817174     1.792598 
C       2.338360     1.603290     2.476677 
C       2.844816     1.508243     3.761821 
C       3.446625     2.621066     4.380660 
C       3.553990     3.837599     3.725308 
C       2.394075     4.569543     0.396516 
C       2.018227     3.264631     0.482003 
H       1.893997     0.731683     2.007131 
H       2.775845     0.561904     4.281844 
H       4.024939     4.675639     4.226139 
H       2.268291     5.267100    -0.421304 
N       3.012822     4.978864     1.565581 
C       3.548967     6.291375     1.834243 
H       3.382460     6.928678     0.964105 
H       3.054805     6.748569     2.698211 
H       4.625867     6.244389     2.028745 
O       3.963660     2.589659     5.647553 
C       3.884131     1.376771     6.368368 
H       4.344800     1.570996     7.337971 
H       2.842998     1.065761     6.519010 
H       4.432003     0.571744     5.863226 
N      -0.942615     1.545583    -1.162433 
C      -1.681856     2.244310    -2.141170 
O      -1.515948     3.428188    -2.291605 
C      -2.752204     1.478018    -2.924418 
H      -2.565482     1.719692    -3.974194 
H      -3.695872     1.969760    -2.671319 
C      -2.834733    -0.047073    -2.709445 
H      -3.470304    -0.282426    -1.851394 
H      -3.277449    -0.535036    -3.579186 
C      -1.415831    -0.526560    -2.429347 
C      -1.073027    -1.952559    -1.903013 
H      -0.472541    -2.490387    -2.636051 
C       1.273865     2.466865    -0.543365 
H       1.737625     1.480786    -0.663786 
H       1.306442     2.972812    -1.513134 
C      -0.190089     2.281999    -0.134005 
H      -0.266678     1.712364     0.792194 
H      -0.678071     3.247258    -0.001645 
C      -0.436697    -0.206737    -3.581761 
H      -0.336757     0.874441    -3.720545 
H       0.554439    -0.561339    -3.280622 
C      -0.835605    -0.849964    -4.910378 
H      -0.997448    -1.927179    -4.807406 
H      -1.752906    -0.413000    -5.315927 
H      -0.047504    -0.702931    -5.654190 
O      -2.196408    -2.779365    -1.635302 
C      -2.617982    -2.923501    -0.288252 
H      -1.740436    -3.051856     0.360868 
H      -3.152295    -2.031233     0.059793 
C      -3.519402    -4.127959    -0.184394 
C      -3.168019    -5.332063    -0.793330 
C      -4.698573    -4.062061     0.550301 
C      -3.982614    -6.448217    -0.665644 
H      -2.253514    -5.386480    -1.374448 
C      -5.515528    -5.180570     0.683242 
H      -4.985325    -3.125550     1.021312 
C      -5.158518    -6.376548     0.075614 
H      -3.699744    -7.379810    -1.146207 
H      -6.432595    -5.114327     1.260565 
H      -5.794026    -7.250809     0.175784 
C      -0.992063     0.194231    -1.170031 
O      -1.029838    -0.484309    -0.044315 
C      -0.218245    -1.478351    -0.775541 
C       1.098950    -1.731184    -0.311173 
O       1.705616    -1.104789     0.542656 
O       1.649029    -2.788235    -0.976256 
C       2.986534    -3.108110    -0.596549 
H       3.273682    -3.962953    -1.209682 
H       3.656109    -2.264493    -0.783848 
H       3.037434    -3.367824     0.463844 
72
     -1725.707268     -1725.184791   8.27   4.95
C      -1.031130     4.124325     3.330256 
C      -0.572861     3.120454     2.460483 
C       0.407948     2.225996     2.918340 
C       0.880576     2.353725     4.203359 
C       0.400044     3.366490     5.062761 
C      -0.559808     4.270085     4.644385 
C      -2.106243     4.350643     1.386485 
C      -1.277842     3.283885     1.213945 
H       0.801769     1.453241     2.266342 
H       1.639662     1.683289     4.590091 
H      -0.937261     5.053777     5.287841 
H      -2.805883     4.796997     0.692127 
N      -1.968447     4.871430     2.661470 
C      -2.680027     6.007184     3.197137 
H      -1.988612     6.807656     3.481766 
H      -3.357826     6.393026     2.433908 
H      -3.272646     5.723622     4.073598 
O       0.960725     3.369248     6.309518 
C       0.528404     4.355806     7.222595 
H       1.087992     4.186098     8.143265 
H       0.741924     5.366464     6.851981 
H      -0.545238     4.266084     7.431431 
N      -1.806021     0.225646    -0.976340 
C      -2.891685     0.210882    -1.878631 
O      -3.752819     1.049897    -1.800461 
C      -2.985608    -0.944506    -2.879972 
H      -3.162643    -0.469127    -3.848458 
H      -3.916409    -1.461798    -2.630159 
C      -1.796138    -1.923976    -2.948648 
H      -1.908252    -2.720428    -2.207913 
H      -1.747341    -2.402278    -3.928136 
C      -0.544854    -1.114996    -2.630134 
C       0.846395    -1.752723    -2.337409 
H       1.566727    -1.450197    -3.096867 
C      -1.165547     2.411697     0.001694 
H      -0.110896     2.234940    -0.239670 
H      -1.629189     2.901058    -0.860339 
C      -1.856172     1.064528     0.232092 
H      -1.367857     0.508256     1.032311 
H      -2.906251     1.207940     0.485225 
C      -0.322947     0.057249    -3.612892 
H      -1.140448     0.782186    -3.547047 
H       0.576350     0.592278    -3.290748 
C      -0.165461    -0.393073    -5.065652 
H      -1.096154    -0.803167    -5.468743 
H       0.117932     0.454244    -5.696305 
H       0.608932    -1.158765    -5.171584 
O       0.864852    -3.172815    -2.324480 
C       0.851194    -3.832890    -1.068628 
H       1.533485    -3.320784    -0.375703 
H      -0.148096    -3.810275    -0.617327 
C       1.288210    -5.262976    -1.263381 
C       0.600753    -6.299131    -0.640220 
C       2.405411    -5.563934    -2.041472 
C       1.021822    -7.617578    -0.783628 
H      -0.276385    -6.075355    -0.038820 
C       2.825536    -6.878187    -2.189397 
H       2.940189    -4.760190    -2.536442 
C       2.135980    -7.909601    -1.558479 
H       0.475713    -8.415886    -0.290505 
H       3.695592    -7.100536    -2.799628 
H       2.466574    -8.937031    -1.673953 
C      -0.755882    -0.587860    -1.229133 
O      -0.133772    -1.207652    -0.250588 
C       1.076872    -0.998637    -1.070539 
C       2.099390    -0.165962    -0.545193 
O       2.033079     0.530027     0.454914 
O       3.210789    -0.211879    -1.335976 
C       4.291081     0.613615    -0.903659 
H       4.626512     0.322488     0.094939 
H       5.090208     0.462850    -1.630168 
H       3.992031     1.664881    -0.880838 
72
     -1725.711453     -1725.184634   5.64   5.05
C       1.985773    -2.454999    -2.044872 
C       2.713062    -2.550421    -0.845121 
C       4.093046    -2.297917    -0.879652 
C       4.688715    -1.951004    -2.068329 
C       3.933618    -1.850766    -3.259637 
C       2.573570    -2.101298    -3.268925 
C       0.564957    -3.023785    -0.416566 
C       1.779917    -2.906120     0.191541 
H       4.692231    -2.367617     0.022942 
H       5.752378    -1.748839    -2.128029 
H       1.979279    -2.029824    -4.170349 
H      -0.403482    -3.267242    -0.000334 
N       0.676366    -2.755276    -1.768847 
C      -0.408775    -2.794251    -2.721625 
H      -0.685362    -1.789272    -3.059189 
H      -0.137584    -3.402624    -3.589742 
H      -1.274652    -3.247872    -2.238366 
O       4.655942    -1.495536    -4.361816 
C       3.969266    -1.386484    -5.592549 
H       3.515618    -2.342238    -5.883128 
H       3.192219    -0.613054    -5.549942 
H       4.716717    -1.103602    -6.334439 
N       1.184438    -0.797901     2.178204 
C       2.251394     0.009771     2.611213 
O       3.240451    -0.502444     3.074863 
C       2.072960     1.526385     2.600650 
H       3.014051     1.922290     2.217983 
H       2.055167     1.797184     3.660974 
C       0.846919     2.127163     1.873976 
H       0.058010     2.356015     2.591945 
H       1.120585     3.067293     1.386463 
C       0.297268     1.125671     0.861494 
C      -1.183026     1.205849     0.394790 
H      -1.270560     1.485136    -0.659666 
C       2.079561    -3.058633     1.655132 
H       3.112821    -2.765369     1.851404 
H       1.981733    -4.103253     1.972358 
C       1.158787    -2.222903     2.548481 
H       0.120120    -2.542880     2.458664 
H       1.464218    -2.308388     3.593337 
C       1.145387     0.986795    -0.429364 
H       0.774499     0.108898    -0.969351 
H       0.887281     1.857599    -1.044101 
C       2.669438     0.914212    -0.348645 
H       3.030578     0.089784     0.266613 
H       3.063482     0.737047    -1.353330 
H       3.109409     1.846508     0.015585 
O      -1.909495     2.113351     1.202671 
C      -3.304235     2.094144     0.953096 
H      -3.489730     2.221037    -0.125134 
H      -3.729418     1.125310     1.247247 
C      -3.965112     3.208805     1.724483 
C      -5.162828     2.987507     2.396139 
C      -3.402661     4.484174     1.745872 
C      -5.797177     4.023970     3.073736 
H      -5.604283     1.994563     2.394117 
C      -4.031156     5.518940     2.424371 
H      -2.463882     4.660570     1.231018 
C      -5.232802     5.292318     3.088660 
H      -6.732362     3.837150     3.592550 
H      -3.582329     6.507479     2.435353 
H      -5.724635     6.102405     3.617835 
C       0.118019    -0.190430     1.598238 
O      -1.101555    -0.482218     2.010289 
C      -1.472264    -0.248214     0.606526 
C      -2.354948    -1.191802     0.000752 
O      -2.590884    -2.328886     0.370157 
O      -2.920409    -0.655630    -1.124010 
C      -3.910778    -1.467829    -1.751642 
H      -4.277780    -0.889472    -2.600458 
H      -3.486230    -2.414033    -2.094744 
H      -4.728847    -1.685001    -1.059813 
72
     -1725.707295     -1725.184499   8.25   5.13
C       2.538069    -1.768524     4.634439 
C       1.479560    -2.201948     3.804814 
C       1.095263    -3.541721     3.863783 
C       1.749955    -4.411231     4.720487 
C       2.802417    -3.951429     5.535390 
C       3.208817    -2.626476     5.503287 
C       1.822181    -0.014292     3.448903 
C       1.035384    -1.053103     3.056108 
H       0.284026    -3.913010     3.244767 
H       1.441091    -5.447729     4.755901 
H       4.022038    -2.302153     6.142487 
H       1.805314     1.010751     3.102825 
N       2.733874    -0.430305     4.403238 
C       3.722292     0.398128     5.052137 
H       3.647112     1.411555     4.655577 
H       3.557472     0.434319     6.134380 
H       4.734121     0.024529     4.862007 
O       3.490304    -4.756135     6.402313 
C       3.124264    -6.118869     6.479408 
H       3.257761    -6.626566     5.516096 
H       3.789586    -6.569325     7.217193 
H       2.085234    -6.238486     6.810537 
N      -0.468287    -1.247524    -0.416860 
C      -1.303745    -2.235307    -0.973926 
O      -1.432660    -3.303862    -0.431600 
C      -1.960218    -1.935965    -2.323736 
H      -3.018329    -2.175649    -2.187206 
H      -1.570369    -2.697125    -3.005542 
C      -1.782577    -0.518476    -2.904658 
H      -0.848543    -0.439865    -3.467426 
H      -2.597118    -0.300283    -3.598196 
C      -1.731021     0.445884    -1.722207 
C      -1.276832     1.937216    -1.837342 
H      -2.101545     2.625281    -1.633807 
C      -0.026048    -0.998498     2.002609 
H      -0.314508     0.046353     1.852791 
H      -0.922661    -1.547652     2.312000 
C       0.475654    -1.560909     0.669126 
H       1.433150    -1.109530     0.406662 
H       0.587750    -2.643763     0.698968 
C      -3.004522     0.398074    -0.849830 
H      -3.126067    -0.591605    -0.397906 
H      -2.858552     1.091813    -0.016001 
C      -4.281918     0.762308    -1.607279 
H      -5.131094     0.799305    -0.919209 
H      -4.206496     1.743483    -2.086061 
H      -4.522464     0.029022    -2.382956 
O      -0.652287     2.260547    -3.068276 
C      -1.564862     2.694137    -4.053938 
H      -2.435071     2.020310    -4.096890 
H      -1.949385     3.693756    -3.798268 
C      -0.904154     2.730535    -5.411569 
C      -1.534526     3.406898    -6.455174 
C       0.298934     2.076360    -5.657254 
C      -0.975167     3.426787    -7.725441 
H      -2.473018     3.924456    -6.271124 
C       0.860814     2.097115    -6.929880 
H       0.799417     1.558608    -4.847566 
C       0.226660     2.769148    -7.966623 
H      -1.477108     3.956853    -8.528999 
H       1.801102     1.584758    -7.109298 
H       0.666792     2.783362    -8.958652 
C      -0.525207     0.007054    -0.917455 
O       0.559690     0.738739    -1.004706 
C      -0.324335     1.879656    -0.698587 
C       0.003754     2.693166     0.414643 
O       0.810622     2.443125     1.297056 
O      -0.751368     3.832275     0.413144 
C      -0.512894     4.712764     1.508741 
H      -1.180206     5.562416     1.359522 
H      -0.733283     4.220058     2.459578 
H       0.527971     5.046412     1.520534 
72
     -1725.710560     -1725.184185   6.20   5.33
C       2.029455     0.859343    -4.190810 
C       1.650246    -0.344053    -3.554790 
C       1.580479    -1.507313    -4.321827 
C       1.876933    -1.462046    -5.674127 
C       2.250535    -0.247880    -6.281815 
C       2.332113     0.926063    -5.549077 
C       1.657594     1.302663    -2.032249 
C       1.420079    -0.030643    -2.166532 
H       1.297520    -2.453168    -3.869627 
H       1.818853    -2.372106    -6.256705 
H       2.622914     1.845216    -6.044750 
H       1.582263     1.913467    -1.142098 
N       2.027963     1.854514    -3.245932 
C       2.363386     3.238546    -3.483273 
H       1.689462     3.685300    -4.222051 
H       2.265405     3.789879    -2.547017 
H       3.394077     3.338702    -3.840137 
O       2.555507    -0.133522    -7.610739 
C       2.488526    -1.295577    -8.412156 
H       2.763980    -0.983645    -9.420472 
H       3.192326    -2.063338    -8.067571 
H       1.474974    -1.715060    -8.428867 
N      -1.048776    -1.937547    -0.009181 
C      -1.535345    -3.262336    -0.065755 
O      -1.265515    -3.972462    -1.000459 
C      -2.503917    -3.711472     1.032795 
H      -2.186227    -4.720628     1.303143 
H      -3.462897    -3.834403     0.520074 
C      -2.658025    -2.805133     2.276562 
H      -3.478289    -2.096796     2.144429 
H      -2.886702    -3.408077     3.158893 
C      -1.352456    -2.031197     2.448528 
C      -1.241546    -0.789908     3.367253 
H      -0.571275    -0.967402     4.213947 
C       0.951436    -0.947391    -1.081339 
H       1.130670    -0.459526    -0.118881 
H       1.511522    -1.889971    -1.085918 
C      -0.543434    -1.250282    -1.209343 
H      -1.106807    -0.321857    -1.319096 
H      -0.756937    -1.895817    -2.060041 
C      -0.186817    -3.004434     2.741678 
H      -0.371124    -3.397016     3.749114 
H      -0.251148    -3.868310     2.073076 
C       1.233537    -2.445717     2.658981 
H       1.399628    -1.607943     3.339360 
H       1.948878    -3.231707     2.919011 
H       1.471523    -2.106191     1.647492 
O      -2.521648    -0.405192     3.842479 
C      -2.501708     0.772636     4.633866 
H      -3.430363     0.745968     5.213424 
H      -1.664490     0.738279     5.344427 
C      -2.439584     2.056556     3.832117 
C      -1.595920     3.091010     4.223495 
C      -3.257535     2.234826     2.717937 
C      -1.562531     4.285600     3.512162 
H      -0.946853     2.955406     5.084134 
C      -3.223087     3.423390     2.003808 
H      -3.908228     1.426409     2.400735 
C      -2.375672     4.454219     2.399666 
H      -0.897235     5.084098     3.826859 
H      -3.858147     3.547429     1.131864 
H      -2.348679     5.383677     1.839310 
C      -1.169921    -1.266908     1.156980 
O      -1.487702     0.009798     1.168858 
C      -0.605688     0.096247     2.344339 
C       0.444534     1.047002     2.321425 
O       0.855767     1.673753     1.357950 
O       1.001293     1.165546     3.565610 
C       2.034519     2.141966     3.669642 
H       1.654520     3.133543     3.409475 
H       2.360461     2.123626     4.710506 
H       2.869355     1.899295     3.007231 
72
     -1725.708467     -1725.183994   7.52   5.45
C       2.684925    -3.791665     2.293691 
C       2.479336    -3.172410     1.042774 
C       2.655044    -3.927902    -0.117558 
C       3.022742    -5.259544    -0.016757 
C       3.221224    -5.853977     1.244663 
C       3.055727    -5.129484     2.415018 
C       2.108828    -1.663008     2.656077 
C       2.111663    -1.801752     1.303065 
H       2.505316    -3.482849    -1.097161 
H       3.156598    -5.837873    -0.921549 
H       3.215499    -5.614921     3.370863 
H       1.881606    -0.791412     3.255968 
N       2.454340    -2.854909     3.270785 
C       2.560888    -3.082635     4.692305 
H       3.578038    -3.381160     4.967658 
H       2.317184    -2.158912     5.219732 
H       1.864160    -3.862119     5.018574 
O       3.584226    -7.162216     1.410719 
C       3.766125    -7.956389     0.255600 
H       4.567567    -7.562493    -0.381499 
H       4.046603    -8.948244     0.612477 
H       2.841816    -8.031986    -0.330328 
N       0.139154    -0.251546    -1.544823 
C       0.756165    -0.555439    -2.776274 
O       1.252782    -1.640229    -2.950645 
C       0.862528     0.552724    -3.827576 
H       0.521990     0.097907    -4.760631 
H       1.937793     0.709386    -3.955887 
C       0.139828     1.890034    -3.547204 
H       0.798599     2.585861    -3.023609 
H      -0.154284     2.365199    -4.486483 
C      -1.072885     1.593940    -2.665623 
C      -1.827795     2.709983    -1.902442 
H      -2.851705     2.832583    -2.269393 
C       1.764518    -0.780709     0.266015 
H       2.527664    -0.779115    -0.520918 
H       1.740304     0.222553     0.700569 
C       0.402944    -1.088257    -0.364134 
H       0.353524    -2.125748    -0.693412 
H      -0.401912    -0.902804     0.348724 
C      -2.081775     0.694425    -3.417029 
H      -2.504136     1.315468    -4.216307 
H      -1.544677    -0.113852    -3.922669 
C      -3.210626     0.073281    -2.594168 
H      -3.845643     0.821349    -2.115183 
H      -3.846386    -0.532278    -3.246947 
H      -2.822095    -0.583793    -1.810584 
O      -1.132825     3.944111    -2.004154 
C      -1.723057     4.986017    -1.241763 
H      -1.333509     5.914171    -1.672693 
H      -2.813026     4.986332    -1.379390 
C      -1.393952     4.933317     0.236057 
C      -0.082694     4.722467     0.659263 
C      -2.387301     5.137134     1.188565 
C       0.225014     4.704195     2.011368 
H       0.693608     4.551775    -0.079668 
C      -2.080767     5.123038     2.544886 
H      -3.413914     5.288788     0.867282 
C      -0.773838     4.905882     2.959657 
H       1.248450     4.530279     2.329742 
H      -2.866437     5.278357     3.278193 
H      -0.532430     4.889871     4.018019 
C      -0.514746     0.924493    -1.432575 
O      -0.399388     1.654974    -0.351589 
C      -1.810373     2.034221    -0.573219 
C      -2.727195     1.751967     0.465727 
O      -2.528248     1.066430     1.454456 
O      -3.935964     2.344648     0.205815 
C      -4.916667     2.164151     1.223988 
H      -5.132085     1.103415     1.375565 
H      -4.572104     2.590552     2.170135 
H      -5.809890     2.686354     0.877851 
72
     -1725.713536     -1725.183985   4.33   5.46
C       2.264016     1.110455     2.204550 
C       2.859698     1.503423     0.986466 
C       3.156779     2.854015     0.797680 
C       2.848085     3.772772     1.786001 
C       2.241447     3.353838     2.987343 
C       1.944629     2.018425     3.211540 
C       2.572022    -0.717157     0.958218 
C       3.042219     0.308595     0.197180 
H       3.617432     3.195444    -0.124130 
H       3.083489     4.816916     1.625615 
H       1.483861     1.725221     4.147774 
H       2.496586    -1.769475     0.721302 
N       2.092697    -0.250811     2.168557 
C       1.579746    -1.056592     3.252577 
H       2.214667    -0.972111     4.140774 
H       0.561073    -0.755773     3.516571 
H       1.559143    -2.100962     2.939422 
O       1.909499     4.207816     4.000112 
C       2.203702     5.582092     3.840135 
H       3.280527     5.750408     3.717477 
H       1.669160     6.010432     2.983495 
H       1.865792     6.070913     4.754624 
N       1.178609     0.803549    -1.931140 
C       1.247073     2.216402    -1.932811 
O       2.150945     2.764645    -2.512160 
C       0.220226     2.991102    -1.106002 
H      -0.134095     3.793871    -1.756563 
H       0.807779     3.477721    -0.323160 
C      -0.946042     2.189894    -0.488941 
H      -0.671287     1.816334     0.500350 
H      -1.825129     2.827984    -0.367015 
C      -1.231984     1.007134    -1.412979 
C      -2.117056    -0.188192    -0.981820 
H      -3.048408    -0.236985    -1.553665 
C       3.522248     0.252915    -1.225381 
H       4.253888    -0.549463    -1.364300 
H       4.026659     1.188801    -1.474422 
C       2.382974     0.011358    -2.230982 
H       2.705171     0.265315    -3.242835 
H       2.063055    -1.031440    -2.214618 
C      -1.679385     1.504771    -2.808015 
H      -2.670951     1.951455    -2.664259 
H      -1.031129     2.324083    -3.131846 
C      -1.735925     0.473641    -3.935289 
H      -0.748801     0.048753    -4.138690 
H      -2.414261    -0.354341    -3.719387 
H      -2.083343     0.957774    -4.852999 
O      -2.412150    -0.109359     0.408617 
C      -3.320182    -1.094409     0.863490 
H      -3.687126    -0.723467     1.826806 
H      -4.183453    -1.156829     0.185319 
C      -2.725184    -2.476547     1.051154 
C      -3.525424    -3.601522     0.880659 
C      -1.393869    -2.643120     1.422452 
C      -3.008681    -4.876660     1.079005 
H      -4.561793    -3.481744     0.575292 
C      -0.872695    -3.916375     1.609882 
H      -0.762502    -1.768386     1.526931 
C      -1.677898    -5.037477     1.442500 
H      -3.645920    -5.745197     0.942103 
H       0.172827    -4.040531     1.876130 
H      -1.266408    -6.031271     1.588259 
C       0.057786     0.220759    -1.458423 
O       0.111258    -0.869736    -0.726616 
C      -1.147546    -1.242767    -1.405002 
C      -1.213368    -2.563104    -1.928407 
O      -0.282029    -3.332052    -2.088219 
O      -2.497902    -2.869176    -2.277587 
C      -2.685651    -4.202937    -2.746687 
H      -3.749654    -4.294257    -2.969039 
H      -2.092481    -4.385790    -3.646141 
H      -2.397064    -4.923006    -1.976834 
72
     -1725.712912     -1725.183796   4.73   5.58
C      -0.120256    -4.131619     2.091327 
C      -0.247978    -3.003948     1.255273 
C       0.735398    -2.014532     1.307565 
C       1.805548    -2.159014     2.171204 
C       1.910633    -3.295844     2.995418 
C       0.952031    -4.297478     2.966803 
C      -1.999769    -4.354435     0.901022 
C      -1.464103    -3.170391     0.497786 
H       0.670189    -1.120200     0.699194 
H       2.544099    -1.369717     2.206389 
H       1.059877    -5.159832     3.614578 
H      -2.907711    -4.844637     0.574553 
N      -1.201026    -4.948942     1.863022 
C      -1.450537    -6.209602     2.519468 
H      -1.547339    -6.076286     3.602282 
H      -2.382336    -6.631408     2.138764 
H      -0.641888    -6.921830     2.323393 
O       2.942703    -3.493561     3.872281 
C       3.931062    -2.487361     3.965366 
H       3.499956    -1.528037     4.276478 
H       4.638879    -2.827960     4.722399 
H       4.457940    -2.353367     3.012298 
N      -2.650674     0.167177    -0.849962 
C      -3.727618     0.156738    -1.767327 
O      -4.700911    -0.514847    -1.538025 
C      -3.581003     0.941344    -3.072608 
H      -4.420291     1.642601    -3.089826 
H      -3.788132     0.213896    -3.862226 
C      -2.243619     1.667220    -3.310339 
H      -1.486443     0.974374    -3.685452 
H      -2.361817     2.450083    -4.061444 
C      -1.790516     2.216695    -1.961062 
C      -0.366304     2.776148    -1.709891 
H      -0.369884     3.854728    -1.528419 
C      -1.991494    -2.205303    -0.517404 
H      -2.786827    -2.660955    -1.114185 
H      -1.182472    -1.935306    -1.206085 
C      -2.519878    -0.920648     0.134979 
H      -3.501351    -1.080675     0.581137 
H      -1.834031    -0.567339     0.905082 
C      -2.809674     3.194683    -1.337258 
H      -3.747564     2.679581    -1.106392 
H      -2.402660     3.521163    -0.375635 
C      -3.101130     4.410242    -2.217677 
H      -3.638307     4.136506    -3.130632 
H      -3.722194     5.129964    -1.677037 
H      -2.182060     4.924967    -2.514402 
O       0.485722     2.466793    -2.804629 
C       1.844501     2.817917    -2.593750 
H       2.291939     2.843521    -3.592818 
H       1.914517     3.829955    -2.171718 
C       2.612481     1.847568    -1.716430 
C       3.497770     2.323826    -0.754493 
C       2.466151     0.470748    -1.875676 
C       4.216315     1.443499     0.046886 
H       3.611844     3.395400    -0.616589 
C       3.172505    -0.411131    -1.069815 
H       1.770514     0.092767    -2.616979 
C       4.050730     0.073623    -0.105522 
H       4.900988     1.830092     0.795791 
H       3.030669    -1.481277    -1.185516 
H       4.603181    -0.617145     0.524162 
C      -1.613995     1.001856    -1.075456 
O      -0.382553     0.602686    -0.849053 
C      -0.139908     2.007461    -0.448557 
C       0.558933     2.210039     0.772772 
O       0.780340     1.382156     1.637855 
O       0.940132     3.517239     0.887650 
C       1.643960     3.827400     2.088439 
H       1.021569     3.628628     2.964689 
H       2.558686     3.233641     2.165134 
H       1.884496     4.889703     2.028843 
72
     -1725.710958     -1725.183614   5.95   5.69
C       3.094976    -0.253191     1.998963 
C       3.293447    -0.124055     0.611906 
C       4.320090    -0.874036     0.017219 
C       5.090970    -1.705446     0.793653 
C       4.871578    -1.815663     2.184582 
C       3.871631    -1.093322     2.810465 
C       1.585283     1.192524     1.218138 
C       2.307215     0.811640     0.128395 
H       4.508215    -0.814805    -1.048928 
H       5.887804    -2.299021     0.360064 
H       3.690208    -1.161427     3.875076 
H       0.760997     1.889721     1.273747 
N       2.044421     0.553839     2.355830 
C       1.529241     0.731662     3.692562 
H       0.670098     1.402754     3.651625 
H       1.201751    -0.223076     4.116944 
H       2.283435     1.171902     4.353374 
O       5.713823    -2.675033     2.828044 
C       5.557790    -2.829691     4.224263 
H       5.715920    -1.880807     4.751928 
H       4.564923    -3.223870     4.474858 
H       6.317737    -3.545921     4.538272 
N       0.865188    -0.858386    -1.782644 
C       1.133016    -2.236665    -1.949076 
O       2.247602    -2.619486    -2.196851 
C      -0.047668    -3.207621    -1.940277 
H       0.298337    -4.075971    -1.379369 
H      -0.116066    -3.544637    -2.979598 
C      -1.425070    -2.704477    -1.449382 
H      -2.058082    -2.444655    -2.299444 
H      -1.939920    -3.494109    -0.894891 
C      -1.240437    -1.459258    -0.586856 
C      -2.403356    -0.445643    -0.385632 
H      -2.766156    -0.444222     0.646476 
C       2.074393     1.277719    -1.277568 
H       2.944366     1.833376    -1.647620 
H       1.229759     1.971642    -1.286165 
C       1.825991     0.141864    -2.277878 
H       1.445268     0.554260    -3.216801 
H       2.734527    -0.415764    -2.493884 
C      -0.692742    -1.749726     0.834032 
H      -0.549891    -0.780865     1.322607 
H      -1.516546    -2.243461     1.364596 
C       0.572097    -2.585382     1.035045 
H       1.448681    -2.167306     0.538451 
H       0.806824    -2.608180     2.103591 
H       0.446747    -3.622713     0.716617 
O      -3.475613    -0.728484    -1.270586 
C      -4.585476     0.143221    -1.133452 
H      -5.436741    -0.405837    -1.550242 
H      -4.797467     0.324168    -0.070581 
C      -4.438398     1.466952    -1.857053 
C      -4.957614     2.629260    -1.295547 
C      -3.831854     1.533144    -3.109176 
C      -4.872984     3.842082    -1.970354 
H      -5.422886     2.588785    -0.314003 
C      -3.739805     2.743629    -3.782106 
H      -3.413551     0.632919    -3.545979 
C      -4.261863     3.902254    -3.215892 
H      -5.283189     4.741125    -1.519912 
H      -3.255171     2.784566    -4.752723 
H      -4.188693     4.848233    -3.743341 
C      -0.376606    -0.499834    -1.385323 
O      -0.995740     0.488215    -2.003214 
C      -1.582289     0.768850    -0.682342 
C      -1.587926     2.125033    -0.244216 
O      -0.922331     3.043931    -0.688364 
O      -2.430317     2.275534     0.819245 
C      -2.554982     3.613602     1.299839 
H      -3.274948     3.570646     2.118132 
H      -1.593770     3.989134     1.660186 
H      -2.918202     4.273856     0.508539 
72
     -1725.713727     -1725.183577   4.21   5.71
C       2.105123     0.904568    -2.201582 
C       2.402659     1.721892    -1.092348 
C       1.726573     2.933999    -0.959979 
C       0.781469     3.303977    -1.899638 
C       0.497211     2.463505    -2.993136 
C       1.160951     1.257940    -3.163574 
C       3.580473    -0.174844    -0.919258 
C       3.345116     1.000629    -0.273481 
H       1.911498     3.585770    -0.111826 
H       0.253937     4.240104    -1.773245 
H       0.914323     0.627269    -4.010332 
H       4.222924    -0.997725    -0.634164 
N       2.846189    -0.246591    -2.089732 
C       2.831849    -1.346931    -3.024592 
H       3.081029    -1.002714    -4.033252 
H       3.576330    -2.084294    -2.719548 
H       1.850587    -1.833532    -3.049769 
O      -0.446550     2.753866    -3.939091 
C      -1.197921     3.942954    -3.787304 
H      -0.557751     4.832054    -3.837266 
H      -1.904328     3.961626    -4.618045 
H      -1.750891     3.948872    -2.839750 
N       2.168844    -0.143791     2.217516 
C       2.980862    -1.162788     2.761655 
O       3.943438    -0.869392     3.425681 
C       2.658901    -2.617592     2.414133 
H       2.549068    -3.129270     3.374630 
H       3.578957    -3.013257     1.974397 
C       1.441688    -2.870630     1.505064 
H       1.706818    -2.730639     0.453904 
H       1.087964    -3.897583     1.612480 
C       0.383798    -1.840834     1.888259 
C      -0.892863    -1.571379     1.040296 
H      -1.801718    -1.888531     1.553599 
C       3.805835     1.384424     1.100311 
H       4.135819     2.428995     1.120255 
H       4.661059     0.773447     1.402154 
C       2.689826     1.233960     2.146074 
H       3.058107     1.489267     3.140849 
H       1.836802     1.869970     1.905917 
C      -0.040991    -1.935695     3.369867 
H       0.799695    -1.700126     4.030585 
H      -0.788479    -1.156467     3.546990 
C      -0.616418    -3.301347     3.746590 
H      -1.428425    -3.596298     3.074785 
H       0.142445    -4.088999     3.716513 
H      -1.020747    -3.276511     4.762535 
O      -0.812909    -2.230203    -0.224922 
C      -1.129116    -1.460392    -1.375743 
H      -0.400568    -0.656574    -1.523549 
H      -1.016072    -2.165105    -2.206343 
C      -2.525419    -0.879686    -1.390829 
C      -2.739550     0.399914    -1.895761 
C      -3.612320    -1.618542    -0.931581 
C      -4.022651     0.931364    -1.946837 
H      -1.893723     0.988190    -2.241707 
C      -4.894061    -1.085486    -0.973025 
H      -3.448000    -2.616602    -0.536702 
C      -5.103610     0.191047    -1.484442 
H      -4.177392     1.929350    -2.346530 
H      -5.733726    -1.669987    -0.609357 
H      -6.106198     0.605853    -1.523443 
C       1.017320    -0.495106     1.600863 
O       0.613208     0.137773     0.525940 
C      -0.745276    -0.089338     1.050942 
C      -1.580544     1.046407     1.223696 
O      -1.241269     2.215696     1.146800 
O      -2.848094     0.660984     1.537431 
C      -3.784018     1.726844     1.676676 
H      -3.815180     2.332445     0.768112 
H      -4.751344     1.252227     1.843809 
H      -3.520581     2.367595     2.522376 
72
     -1725.706976     -1725.183450   8.45   5.79
C       0.795473    -3.093401     4.175024 
C       0.581517    -2.225070     3.091148 
C      -0.613321    -1.487601     3.045588 
C      -1.530364    -1.635308     4.059222 
C      -1.290960    -2.511360     5.140789 
C      -0.128097    -3.255842     5.219329 
C       2.566500    -3.229146     2.822279 
C       1.736087    -2.325369     2.233156 
H      -0.831521    -0.817763     2.219640 
H      -2.464630    -1.085688     4.053276 
H       0.071632    -3.933490     6.038785 
H       3.534414    -3.586817     2.496555 
N       2.013100    -3.702465     3.998779 
C       2.609589    -4.668430     4.890193 
H       3.575740    -4.974776     4.485881 
H       2.771650    -4.239795     5.885046 
H       1.977993    -5.558062     4.986951 
O      -2.290148    -2.553065     6.072333 
C      -2.120685    -3.411742     7.180612 
H      -2.028483    -4.459032     6.865964 
H      -1.240199    -3.132726     7.773237 
H      -3.015647    -3.299176     7.793704 
N       1.127951    -1.301836    -1.385741 
C       2.171120    -1.605430    -2.288032 
O       2.777892    -2.640630    -2.180245 
C       2.554584    -0.560784    -3.342963 
H       2.510492    -1.091232    -4.298250 
H       3.614770    -0.358434    -3.167083 
C       1.731648     0.743276    -3.394897 
H       2.124394     1.474008    -2.682443 
H       1.793236     1.197218    -4.385318 
C       0.303770     0.377497    -3.005892 
C      -0.801654     1.422793    -2.662706 
H      -1.623026     1.345206    -3.374224 
C       1.957629    -1.595307     0.944488 
H       2.981067    -1.757328     0.591998 
H       1.829359    -0.517658     1.095437 
C       0.978154    -2.064212    -0.134482 
H       1.147175    -3.113328    -0.377778 
H      -0.055297    -1.934909     0.189165 
C      -0.323567    -0.669853    -3.953979 
H       0.229040    -1.613412    -3.912185 
H      -1.327931    -0.895572    -3.580729 
C      -0.406224    -0.196283    -5.405725 
H      -0.905215     0.774032    -5.488288 
H       0.584095    -0.100973    -5.860877 
H      -0.973640    -0.912840    -6.006295 
O      -0.387331     2.779655    -2.697393 
C      -0.043131     3.407093    -1.472782 
H      -0.787916     3.150767    -0.706359 
H       0.931575     3.061906    -1.106967 
C      -0.006686     4.900039    -1.682273 
C       1.027679     5.659979    -1.146305 
C      -1.025119     5.543101    -2.384531 
C       1.046576     7.042615    -1.301276 
H       1.830678     5.167094    -0.604613 
C      -1.007030     6.921514    -2.543900 
H      -1.829669     4.953857    -2.811546 
C       0.028308     7.676342    -2.000295 
H       1.860017     7.622843    -0.876619 
H      -1.804468     7.410918    -3.094699 
H       0.040422     8.754601    -2.124554 
C       0.407941    -0.180302    -1.607105 
O       0.073541     0.609222    -0.612806 
C      -1.188842     0.805341    -1.358826 
C      -2.353534     0.198871    -0.821097 
O      -2.406586    -0.526807     0.159737 
O      -3.454039     0.513202    -1.563924 
C      -4.673441    -0.067656    -1.104924 
H      -4.904570     0.267303    -0.090544 
H      -5.443921     0.269528    -1.799074 
H      -4.609913    -1.158915    -1.107779 
72
     -1725.712357     -1725.183261   5.07   5.91
C       2.497318     0.641501    -1.547926 
C       2.668853     0.939994    -0.177643 
C       2.854290    -0.121795     0.708896 
C       2.860227    -1.424962     0.239912 
C       2.696617    -1.691335    -1.135453 
C       2.517229    -0.660170    -2.043387 
C       2.355447     2.851205    -1.298360 
C       2.572818     2.372339    -0.043094 
H       3.004793     0.064486     1.768873 
H       3.013376    -2.240188     0.936058 
H       2.392690    -0.892265    -3.094610 
H       2.200472     3.870407    -1.626701 
N       2.308253     1.822389    -2.217285 
C       2.050658     1.957482    -3.632328 
H       1.919095     3.014437    -3.867762 
H       2.886376     1.569786    -4.223700 
H       1.136621     1.425036    -3.913971 
O       2.715617    -2.946464    -1.664386 
C       2.568700    -4.048294    -0.785427 
H       2.451128    -4.925226    -1.421957 
H       3.452174    -4.177231    -0.148195 
H       1.672399    -3.939460    -0.165137 
N       0.410247     2.112105     2.089922 
C       0.786055     1.471060     3.289740 
O       1.474059     2.056564     4.088860 
C       0.371294     0.015084     3.514636 
H      -0.149409     0.012948     4.476433 
H       1.305891    -0.525358     3.687149 
C      -0.478907    -0.655853     2.419538 
H       0.168486    -1.057174     1.636675 
H      -1.044586    -1.492923     2.832536 
C      -1.384696     0.427294     1.842811 
C      -2.231873     0.245015     0.546468 
H      -3.294242     0.301485     0.777916 
C       2.515192     3.171984     1.224368 
H       2.940520     4.167964     1.063428 
H       3.105950     2.700954     2.015122 
C       1.075425     3.372269     1.713314 
H       1.053348     4.013772     2.596059 
H       0.463424     3.819375     0.927735 
C      -2.305111     1.058372     2.913607 
H      -1.717139     1.574880     3.678994 
H      -2.897470     1.834183     2.418337 
C      -3.233614     0.046654     3.586606 
H      -3.954622     0.561772     4.227717 
H      -3.799748    -0.535084     2.852799 
H      -2.683097    -0.658504     4.216709 
O      -2.077709    -0.998882    -0.121221 
C      -0.992573    -1.141867    -1.022204 
H      -1.107439    -0.456454    -1.872215 
H      -0.038541    -0.892377    -0.544533 
C      -0.932405    -2.572026    -1.499729 
C      -0.467025    -2.859989    -2.778819 
C      -1.280863    -3.625019    -0.655929 
C      -0.345760    -4.175279    -3.211717 
H      -0.193993    -2.046102    -3.444273 
C      -1.161663    -4.941025    -1.085573 
H      -1.655799    -3.407366     0.337983 
C      -0.690767    -5.220842    -2.364227 
H       0.019048    -4.382491    -4.213071 
H      -1.441419    -5.751792    -0.419579 
H      -0.601305    -6.249194    -2.700375 
C      -0.461696     1.479592     1.266324 
O      -0.296613     1.493988    -0.035903 
C      -1.773163     1.515465    -0.091192 
C      -2.352636     2.567330    -0.857967 
O      -1.775011     3.552254    -1.285986 
O      -3.686788     2.354555    -1.040061 
C      -4.359459     3.376741    -1.773821 
H      -4.275994     4.339281    -1.262672 
H      -3.937760     3.475275    -2.777333 
H      -5.403193     3.065719    -1.829806 
72
     -1725.705602     -1725.182263   9.31   6.54
C      -1.164589    -4.859776     1.628461 
C       0.010885    -4.278349     1.119523 
C       1.234628    -4.919181     1.365596 
C       1.253206    -6.086394     2.092888 
C       0.059055    -6.650035     2.594199 
C      -1.167173    -6.050048     2.371739 
C      -1.732754    -2.994633     0.538036 
C      -0.378979    -3.082364     0.419351 
H       2.163917    -4.504512     0.986902 
H       2.181718    -6.606234     2.300604 
H      -2.091610    -6.468042     2.748036 
H      -2.396069    -2.229731     0.157160 
N      -2.222111    -4.064376     1.266118 
C      -3.609392    -4.305441     1.586334 
H      -3.955536    -5.251654     1.156651 
H      -3.765018    -4.330887     2.670197 
H      -4.211182    -3.496297     1.170314 
O       0.228913    -7.809292     3.297691 
C      -0.922308    -8.430442     3.830756 
H      -1.435094    -7.776511     4.547422 
H      -1.624039    -8.721180     3.038778 
H      -0.574415    -9.325538     4.347647 
N       1.880139    -0.050500     0.098191 
C       3.289880     0.034679     0.052910 
O       3.965707    -0.939177     0.264269 
C       3.914382     1.420329    -0.147822 
H       4.741760     1.265755    -0.843297 
H       4.380754     1.652969     0.814622 
C       2.988974     2.573237    -0.605797 
H       2.613524     3.132999     0.254182 
H       3.540083     3.276590    -1.234729 
C       1.816612     1.949086    -1.356894 
C       0.511563     2.735602    -1.678552 
H       0.378165     2.822319    -2.756573 
C       0.505919    -2.081684    -0.254966 
H      -0.113282    -1.461903    -0.909454 
H       1.263289    -2.573624    -0.876312 
C       1.199687    -1.174193     0.762988 
H       0.464846    -0.749521     1.448657 
H       1.952723    -1.711244     1.338311 
C       2.320549     1.243281    -2.638464 
H       2.629387     2.045912    -3.318931 
H       3.231787     0.679866    -2.415594 
C       1.348282     0.306728    -3.355474 
H       1.828463    -0.096526    -4.251964 
H       1.068849    -0.540837    -2.724374 
H       0.430231     0.807368    -3.669611 
O       0.483670     4.066396    -1.177950 
C      -0.256320     4.320260     0.005682 
H      -1.215867     3.785882    -0.037407 
H       0.275998     3.959825     0.894364 
C      -0.495169     5.804407     0.123988 
C      -0.319939     6.449395     1.343774 
C      -0.926469     6.543846    -0.976621 
C      -0.575922     7.811286     1.469813 
H       0.024378     5.883102     2.205115 
C      -1.179058     7.902915    -0.854886 
H      -1.056624     6.047169    -1.932300 
C      -1.006764     8.540803     0.370173 
H      -0.435494     8.301081     2.428504 
H      -1.512406     8.468828    -1.719440 
H      -1.206023     9.603670     0.464213 
C       1.173680     0.998437    -0.376670 
O       0.095979     1.422847     0.248368 
C      -0.414611     1.715307    -1.104734 
C      -1.591964     1.043801    -1.529108 
O      -2.146480     0.109392    -0.972356 
O      -2.040862     1.567548    -2.707713 
C      -3.207544     0.943010    -3.240521 
H      -4.045082     1.026720    -2.543543 
H      -3.432327     1.472725    -4.166845 
H      -3.023108    -0.115240    -3.443626 
72
     -1725.710787     -1725.182007   6.06   6.70
C       1.282497     1.823360    -3.959723 
C       0.593042     1.259167    -2.867336 
C       1.087231     1.471823    -1.579199 
C       2.234072     2.223750    -1.402407 
C       2.904127     2.777124    -2.510394 
C       2.438396     2.586856    -3.802613 
C      -0.482477     0.702561    -4.751994 
C      -0.539584     0.543616    -3.401764 
H       0.603154     1.041596    -0.710445 
H       2.607810     2.357671    -0.396425 
H       2.977045     3.024352    -4.635289 
H      -1.148427     0.325573    -5.517264 
N       0.611576     1.473261    -5.106675 
C       0.991891     1.849740    -6.446860 
H       0.993416     2.938745    -6.563788 
H       1.988054     1.467717    -6.694565 
H       0.274650     1.427464    -7.152804 
O       4.044387     3.525910    -2.399869 
C       4.581281     3.723326    -1.107329 
H       5.484602     4.319742    -1.243021 
H       3.881782     4.268823    -0.461548 
H       4.843069     2.770663    -0.631038 
N      -1.790738    -2.014862    -0.902080 
C      -3.028295    -2.641418    -1.182708 
O      -3.230709    -3.102726    -2.276392 
C      -4.117579    -2.612496    -0.107310 
H      -4.475129    -3.641384    -0.024887 
H      -4.939658    -2.055505    -0.566717 
C      -3.753392    -2.020391     1.272268 
H      -3.933532    -0.943575     1.292776 
H      -4.374462    -2.468736     2.051997 
C      -2.268689    -2.283810     1.517824 
C      -1.473574    -1.545403     2.624037 
H      -1.159071    -2.217399     3.428131 
C      -1.547753    -0.210436    -2.592387 
H      -2.429618    -0.452520    -3.192458 
H      -1.883206     0.422680    -1.762694 
C      -0.962176    -1.502954    -2.007228 
H      -0.901276    -2.285493    -2.763626 
H       0.033078    -1.326001    -1.598905 
C      -1.997655    -3.804003     1.600618 
H      -2.478184    -4.145786     2.525497 
H      -2.524483    -4.312886     0.787839 
C      -0.538736    -4.259904     1.577996 
H       0.047374    -3.845486     2.400818 
H      -0.498046    -5.350447     1.657099 
H      -0.045285    -3.978227     0.643371 
O      -2.246349    -0.478135     3.159595 
C      -1.534406     0.340644     4.074589 
H      -2.305016     0.887105     4.628073 
H      -0.985908    -0.282338     4.794629 
C      -0.579846     1.323691     3.423615 
C       0.687514     1.528908     3.960367 
C      -0.962444     2.053202     2.299130 
C       1.567027     2.434433     3.377452 
H       0.998188     0.958299     4.831102 
C      -0.082973     2.948606     1.707174 
H      -1.945584     1.891980     1.870189 
C       1.185391     3.142235     2.245830 
H       2.554264     2.581138     3.805167 
H      -0.382489     3.491488     0.815916 
H       1.872301     3.844098     1.782737 
C      -1.545502    -1.624994     0.365780 
O      -0.975031    -0.465088     0.607612 
C      -0.331745    -1.154274     1.744513 
C       1.074135    -1.019802     1.871398 
O       1.848752    -0.564699     1.048286 
O       1.488849    -1.518449     3.076773 
C       2.891768    -1.420147     3.309840 
H       3.061791    -1.842817     4.301037 
H       3.450746    -1.982312     2.557382 
H       3.215767    -0.376440     3.281283 
72
     -1725.711928     -1725.181654   5.34   6.92
C      -1.143070     2.156458    -1.982105 
C      -2.275800     1.503644    -1.455200 
C      -2.725425     0.342780    -2.082584 
C      -2.056713    -0.147267    -3.189761 
C      -0.922311     0.520480    -3.689847 
C      -0.455915     1.685049    -3.098827 
C      -1.777620     3.245267    -0.138889 
C      -2.659402     2.214993    -0.261173 
H      -3.582344    -0.201888    -1.698740 
H      -2.409228    -1.057931    -3.655624 
H       0.425498     2.172244    -3.500446 
H      -1.716604     4.009259     0.625285 
N      -0.859056     3.229750    -1.173492 
C       0.223908     4.164028    -1.370580 
H       0.153240     4.640860    -2.353384 
H       0.168185     4.941137    -0.606379 
H       1.196245     3.666017    -1.289167 
O      -0.197608     0.073333    -4.759718 
C      -0.590684    -1.141051    -5.369806 
H      -1.595849    -1.066693    -5.802166 
H       0.130545    -1.325600    -6.166848 
H      -0.565167    -1.974117    -4.656376 
N      -1.944855     0.829615     2.271137 
C      -1.935944     1.744320     3.347173 
O      -2.968795     2.031255     3.898180 
C      -0.616291     2.432994     3.705949 
H      -0.532493     2.354975     4.792214 
H      -0.797014     3.493805     3.506243 
C       0.665946     1.945777     2.995251 
H       0.830789     2.500832     2.069112 
H       1.539482     2.109139     3.631756 
C       0.478398     0.467199     2.662193 
C       1.398735    -0.280251     1.655665 
H       2.015338    -1.035401     2.146025 
C      -3.683074     1.779304     0.743354 
H      -4.618163     1.497674     0.246907 
H      -3.919161     2.597527     1.429348 
C      -3.207868     0.565188     1.557517 
H      -3.950498     0.291283     2.308607 
H      -3.018628    -0.292457     0.910453 
C       0.338821    -0.363748     3.958866 
H       1.322309    -0.332064     4.443594 
H      -0.345425     0.143531     4.645945 
C      -0.119717    -1.815229     3.818717 
H      -1.117317    -1.880779     3.374503 
H       0.556699    -2.414576     3.206465 
H      -0.168877    -2.276973     4.809469 
O       2.252014     0.636006     0.965029 
C       2.310951     0.521587    -0.449511 
H       1.344105     0.760171    -0.905042 
H       3.018822     1.301405    -0.749779 
C       2.788196    -0.819242    -0.961398 
C       3.825533    -1.497779    -0.327584 
C       2.207660    -1.376172    -2.097746 
C       4.274512    -2.716208    -0.820006 
H       4.279118    -1.066101     0.559534 
C       2.661681    -2.590957    -2.597113 
H       1.386582    -0.860233    -2.588576 
C       3.695692    -3.265287    -1.959470 
H       5.082581    -3.237454    -0.315726 
H       2.203239    -3.013469    -3.486499 
H       4.050601    -4.214512    -2.349094 
C      -0.755237     0.403495     1.789327 
O      -0.563233     0.255106     0.500173 
C       0.284550    -0.887894     0.875844 
C      -0.039236    -2.154648     0.324770 
O      -1.047040    -2.439368    -0.301553 
O       0.930011    -3.065118     0.622558 
C       0.736432    -4.358915     0.057058 
H       0.638021    -4.292331    -1.028689 
H       1.626315    -4.932744     0.317266 
H      -0.159097    -4.833022     0.467408 
72
     -1725.704858     -1725.181318   9.78   7.13
C      -0.334133    -5.108817     1.266072 
C      -0.252622    -3.759114     0.863311 
C       0.818878    -2.987924     1.318324 
C       1.767564    -3.559338     2.148333 
C       1.664131    -4.910096     2.532739 
C       0.613459    -5.702821     2.097625 
C      -2.091266    -4.666639    -0.041355 
C      -1.395083    -3.499358     0.020104 
H       0.918470    -1.941169     1.049171 
H       2.586460    -2.946051     2.500139 
H       0.559021    -6.738786     2.411787 
H      -3.009320    -4.890614    -0.568864 
N      -1.463865    -5.650458     0.703455 
C      -1.911443    -7.012324     0.869315 
H      -2.108033    -7.235921     1.923368 
H      -2.836474    -7.153899     0.307809 
H      -1.165323    -7.720039     0.492436 
O       2.569542    -5.532017     3.348714 
C       3.662661    -4.774502     3.827145 
H       4.250773    -5.452097     4.447670 
H       4.286653    -4.404704     3.004253 
H       3.327985    -3.925681     4.436103 
N      -2.348546     0.180841    -0.168297 
C      -3.565652     0.470431    -0.824865 
O      -4.528670    -0.230258    -0.645410 
C      -3.588843     1.620096    -1.839426 
H      -4.500030     2.179540    -1.617074 
H      -3.774121     1.132987    -2.801674 
C      -2.354134     2.549531    -1.917941 
H      -1.657125     2.200488    -2.683591 
H      -2.657296     3.562434    -2.194230 
C      -1.667473     2.522751    -0.555462 
C      -0.215908     3.043358    -0.337807 
H      -0.217568     3.883797     0.355832 
C      -1.742653    -2.192921    -0.623247 
H      -2.579457    -2.322450    -1.316634 
H      -0.890394    -1.820967    -1.202871 
C      -2.120365    -1.145518     0.427671 
H      -3.039150    -1.429225     0.941465 
H      -1.323905    -1.026661     1.163218 
C      -2.598115     3.120751     0.526577 
H      -2.641724     4.197758     0.324730 
H      -3.617508     2.751112     0.379354 
C      -2.212773     2.884458     1.987313 
H      -2.198022     1.818294     2.232860 
H      -1.234793     3.299199     2.239575 
H      -2.951538     3.360204     2.638913 
O       0.432067     3.516365    -1.511667 
C       1.345296     2.649008    -2.163980 
H       1.986218     2.159784    -1.416913 
H       0.822029     1.855290    -2.711262 
C       2.186876     3.455063    -3.120833 
C       2.742813     4.671130    -2.725728 
C       2.447721     2.977758    -4.401012 
C       3.546359     5.392656    -3.597193 
H       2.535522     5.051737    -1.731240 
C       3.256006     3.697219    -5.275721 
H       2.011772     2.035100    -4.721218 
C       3.807604     4.906427    -4.874912 
H       3.971985     6.339491    -3.279140 
H       3.451529     3.311779    -6.271660 
H       4.437425     5.471251    -5.555004 
C      -1.343335     1.073707    -0.295855 
O      -0.113733     0.679511    -0.540274 
C       0.287779     1.807444     0.328897 
C       0.937792     1.483836     1.547007 
O       1.090405     0.367710     2.018000 
O       1.373529     2.614089     2.177456 
C       2.015898     2.393381     3.431825 
H       2.287285     3.381217     3.805632 
H       1.340898     1.893847     4.131732 
H       2.910000     1.777539     3.306418 
72
     -1725.708298     -1725.179371   7.62   8.35
C      -0.448015    -4.681632     0.227792 
C      -0.545835    -3.283826     0.070432 
C       0.629396    -2.532626     0.007023 
C       1.853850    -3.169608     0.099917 
C       1.924079    -4.567265     0.253987 
C       0.776004    -5.342211     0.319054 
C      -2.615077    -4.140188     0.143810 
C      -1.950847    -2.959483     0.017309 
H       0.608332    -1.452837    -0.089759 
H       2.750444    -2.564844     0.068183 
H       0.861715    -6.415877     0.440477 
H      -3.680259    -4.331482     0.151214 
N      -1.723214    -5.191130     0.270824 
C      -2.062764    -6.585176     0.425659 
H      -3.149140    -6.689363     0.425911 
H      -1.657366    -7.182286    -0.398168 
H      -1.676273    -6.981114     1.370918 
O       3.103280    -5.254045     0.354082 
C       4.306164    -4.512293     0.318640 
H       4.356609    -3.788785     1.141528 
H       5.112291    -5.239123     0.427826 
H       4.423597    -3.982975    -0.634970 
N      -2.533949     0.702144     0.825747 
C      -3.858921     1.188712     0.725004 
O      -4.767806     0.547789     1.187024 
C      -4.103920     2.486641    -0.049399 
H      -4.610936     3.154387     0.652801 
H      -4.852537     2.227281    -0.803023 
C      -2.878312     3.174047    -0.681570 
H      -2.637752     2.713811    -1.643984 
H      -3.086526     4.227506    -0.875317 
C      -1.712501     2.978810     0.282299 
C      -0.229535     3.296295    -0.088530 
H       0.148628     4.106180     0.533431 
C      -2.524431    -1.586475    -0.143177 
H      -3.596384    -1.635742    -0.355994 
H      -2.045932    -1.093959    -0.997462 
C      -2.295913    -0.724479     1.104574 
H      -2.966869    -1.017062     1.912165 
H      -1.266062    -0.809671     1.451869 
C      -1.989222     3.581118     1.678021 
H      -2.826466     3.068440     2.162251 
H      -1.113266     3.376211     2.301099 
C      -2.264615     5.084791     1.646134 
H      -2.317880     5.481830     2.663794 
H      -1.475971     5.630078     1.118964 
H      -3.214594     5.317015     1.155408 
O      -0.015236     3.732809    -1.429314 
C       0.308696     2.772005    -2.424758 
H      -0.457276     1.993555    -2.501737 
H       0.289389     3.342875    -3.358475 
C       1.672174     2.132858    -2.260473 
C       1.831261     0.756287    -2.390825 
C       2.793062     2.923674    -2.014234 
C       3.087756     0.174541    -2.270889 
H       0.960512     0.129132    -2.557892 
C       4.049060     2.345781    -1.895606 
H       2.671095     3.996490    -1.901465 
C       4.200511     0.968472    -2.024428 
H       3.192377    -0.902238    -2.361215 
H       4.914965     2.971653    -1.700640 
H       5.183503     0.517138    -1.930160 
C      -1.525084     1.483827     0.385945 
O      -0.527936     0.956902    -0.289165 
C       0.307164     1.989462     0.377488 
C       1.511704     1.525752     0.979511 
O       1.803665     0.367515     1.219587 
O       2.316058     2.574344     1.299517 
C       3.575537     2.212499     1.863624 
H       4.096800     3.151438     2.053292 
H       3.438862     1.658187     2.795566 
H       4.146078     1.597515     1.162927 
72
     -1725.703778     -1725.178683  10.46   8.78
C       2.023712    -3.953278     2.372477 
C       1.985224    -3.372476     1.093773 
C       2.190315    -4.192479    -0.026935 
C       2.421696    -5.535521     0.158567 
C       2.456844    -6.097905     1.454301 
C       2.259488    -5.321161     2.581586 
C       1.614892    -1.770551     2.614118 
C       1.724575    -1.966880     1.271681 
H       2.165784    -3.776558    -1.030115 
H       2.584345    -6.200483    -0.682277 
H       2.282539    -5.736142     3.580535 
H       1.413068    -0.859155     3.161295 
N       1.795345    -2.962641     3.294743 
C       1.755472    -3.136457     4.727573 
H       0.964144    -3.835893     5.017693 
H       2.713355    -3.508485     5.106634 
H       1.551039    -2.172341     5.195845 
O       2.696957    -7.442500     1.482931 
C       2.745016    -8.077242     2.744165 
H       3.549962    -7.668774     3.368110 
H       1.790052    -7.983783     3.276524 
H       2.943938    -9.131313     2.547507 
N       0.076554    -0.296300    -1.717113 
C       0.720333    -0.653313    -2.916895 
O       1.142029    -1.773418    -3.065648 
C       0.963311     0.436171    -3.960531 
H       0.717741    -0.023139    -4.918625 
H       2.051374     0.556769    -3.971211 
C       0.272945     1.809691    -3.777800 
H       0.963478     2.520643    -3.320895 
H      -0.011808     2.219957    -4.750631 
C      -0.942009     1.667249    -2.863128 
C      -1.519962     2.887488    -2.088422 
H      -2.504724     3.177578    -2.466490 
C       1.557524    -0.961616     0.175782 
H       2.362419    -1.074874    -0.559402 
H       1.614706     0.055704     0.572172 
C       0.210409    -1.150343    -0.527069 
H       0.089214    -2.181006    -0.859947 
H      -0.610099    -0.896233     0.145434 
C      -2.167519     0.993782    -3.533847 
H      -2.956839     0.955259    -2.776151 
H      -2.509494     1.706972    -4.294243 
C      -2.057862    -0.385434    -4.186259 
H      -1.381253    -0.401103    -5.043219 
H      -1.748741    -1.165020    -3.485805 
H      -3.046345    -0.670115    -4.559066 
O      -0.634369     3.995072    -2.157236 
C      -1.060554     5.109880    -1.388306 
H      -0.530737     5.970464    -1.809898 
H      -2.136713     5.279591    -1.529190 
C      -0.748891     4.994954     0.089797 
C      -1.697345     5.354796     1.041667 
C       0.507521     4.566694     0.514250 
C      -1.401620     5.282033     2.398636 
H      -2.683126     5.678034     0.719303 
C       0.804133     4.489922     1.866983 
H       1.246730     4.273933    -0.224234 
C      -0.150176     4.848458     2.814590 
H      -2.152855     5.561170     3.131335 
H       1.783886     4.147387     2.186038 
H       0.081983     4.785891     3.873237 
C      -0.465379     0.939729    -1.622952 
O      -0.271392     1.652226    -0.539385 
C      -1.627498     2.190255    -0.774724 
C      -2.536676     2.131899     0.312658 
O      -2.405538     1.490827     1.340282 
O      -3.644765     2.889205     0.045684 
C      -4.610200     2.917208     1.094499 
H      -4.984713     1.912378     1.305675 
H      -4.174562     3.328325     2.009261 
H      -5.420291     3.556345     0.740308 
72
     -1725.704377     -1725.173589  10.08  11.98
C      -0.367245    -3.398775     0.210394 
C      -1.214353    -2.565665    -0.557243 
C      -1.182522    -2.702643    -1.946896 
C      -0.328545    -3.618901    -2.535559 
C       0.504647    -4.432768    -1.744224 
C       0.491046    -4.335191    -0.361958 
C      -1.508298    -2.095699     1.612391 
C      -1.942436    -1.734722     0.374549 
H      -1.815228    -2.096645    -2.584898 
H      -0.316533    -3.704344    -3.614189 
H       1.137021    -4.978630     0.224601 
H      -1.800475    -1.697150     2.574708 
N      -0.561789    -3.100916     1.534557 
C       0.073716    -3.759232     2.653212 
H      -0.099962    -4.839457     2.617333 
H       1.152390    -3.572299     2.667680 
H      -0.354881    -3.372253     3.578985 
O       1.366375    -5.358054    -2.260350 
C       1.410054    -5.518688    -3.665082 
H       1.726504    -4.595310    -4.165228 
H       2.145674    -6.300931    -3.855989 
H       0.437369    -5.832066    -4.063157 
N      -1.380544     0.775957    -1.159815 
C      -0.649597     0.611988    -2.362157 
O      -1.206293     0.287618    -3.380016 
C       0.872103     0.732467    -2.275498 
H       1.189314     1.065547    -3.265034 
H       1.208161    -0.306822    -2.182912 
C       1.482085     1.602640    -1.142050 
H       1.957279     0.971898    -0.394969 
H       2.253268     2.261421    -1.549245 
C       0.349701     2.419294    -0.521310 
C       0.410737     3.094170     0.888531 
H       0.336087     4.175280     0.774351 
C      -3.003343    -0.703101     0.120620 
H      -3.154699    -0.124992     1.034249 
H      -3.959047    -1.193076    -0.104550 
C      -2.757850     0.263472    -1.045700 
H      -2.967784    -0.201518    -2.006964 
H      -3.427058     1.121062    -0.933747 
C      -0.119114     3.474173    -1.558335 
H       0.684265     4.219228    -1.603310 
H      -0.147865     3.017256    -2.553624 
C      -1.454426     4.175183    -1.310774 
H      -2.286729     3.465864    -1.268417 
H      -1.461186     4.752829    -0.384648 
H      -1.657160     4.868299    -2.132522 
O       1.590109     2.903174     1.656431 
C       1.679622     1.816709     2.574727 
H       2.174943     2.224801     3.461819 
H       0.685509     1.475869     2.875318 
C       2.503998     0.681822     2.010603 
C       3.863206     0.885582     1.773313 
C       1.932102    -0.534585     1.651549 
C       4.635804    -0.101490     1.179172 
H       4.311326     1.837516     2.044121 
C       2.700985    -1.522747     1.042417 
H       0.872605    -0.700512     1.814086 
C       4.052524    -1.308951     0.806758 
H       5.692088     0.071876     0.998355 
H       2.235816    -2.451869     0.730248 
H       4.652082    -2.079722     0.332195 
C      -0.751692     1.444635    -0.169341 
O      -0.865853     1.094167     1.088144 
C      -0.886951     2.541771     1.380605 
C      -2.134766     3.077627     1.795943 
O      -3.202054     2.483288     1.828406 
O      -2.011556     4.388561     2.152554 
C      -3.224649     5.013461     2.568923 
H      -3.966817     4.996111     1.766415 
H      -3.641138     4.505749     3.442265 
H      -2.960078     6.041354     2.819181 
