72
     -1725.726953     -1725.194618   0.00   0.00
C      -0.346837    -1.045449    -1.712967 
C      -1.026017    -1.813328    -0.757614 
C      -2.416288    -1.896936    -0.838630 
C      -3.083034    -1.197271    -1.826287 
C      -2.378453    -0.419988    -2.762184 
C      -0.995170    -0.333792    -2.721849 
C       1.205773    -1.968905    -0.399114 
C      -0.030267    -2.404737     0.131688 
H      -2.980199    -2.499415    -0.132139 
H      -4.162979    -1.241614    -1.914050 
H      -0.438018     0.269437    -3.425674 
H       2.178332    -2.409879    -0.224277 
N       1.010236    -1.178888    -1.490065 
C       2.056219    -0.505716    -2.225613 
H       2.278047    -1.021560    -3.166249 
H       1.754264     0.519761    -2.445973 
H       2.955989    -0.473502    -1.609232 
O      -3.153623     0.217705    -3.689273 
C      -2.507937     0.725176    -4.843991 
H      -3.301005     1.089552    -5.498024 
H      -1.831959     1.551943    -4.602391 
H      -1.948325    -0.065746    -5.358397 
N      -0.899660    -2.332714     2.652137 
C      -2.275791    -2.040147     2.575739 
O      -3.088944    -2.930360     2.654529 
C      -2.692236    -0.580390     2.431107 
H      -2.884133    -0.220940     3.448952 
H      -3.660347    -0.605457     1.928308 
C      -1.704629     0.342370     1.700853 
H      -1.728245     0.147942     0.630952 
H      -1.991362     1.386298     1.843988 
C      -0.307215     0.076206     2.237142 
C       0.933524     0.634526     1.488809 
H       1.362618     1.476622     2.045297 
C      -0.232870    -3.756985     0.793469 
H       0.620616    -4.411563     0.597305 
H      -1.105086    -4.230452     0.334297 
C      -0.457441    -3.686310     2.332348 
H      -1.216145    -4.387912     2.671521 
H       0.470898    -3.867243     2.875349 
C      -0.169815     0.457763     3.743328 
H      -0.784419    -0.212853     4.352051 
H       0.867488     0.268918     4.038662 
C      -0.535792     1.909358     4.055284 
H      -1.607930     2.093965     3.942411 
H      -0.269635     2.151958     5.088137 
H      -0.006753     2.612308     3.404688 
O       0.569305     1.113062     0.203369 
C       1.272126     2.271105    -0.209826 
H       1.260943     3.017346     0.600448 
H       2.322784     2.033619    -0.413780 
C       0.596001     2.854393    -1.426018 
C      -0.793686     2.858261    -1.531146 
C       1.350949     3.441331    -2.437330 
C      -1.415845     3.448466    -2.622114 
H      -1.386493     2.382604    -0.758318 
C       0.730831     4.033795    -3.532743 
H       2.435670     3.436826    -2.366894 
C      -0.655221     4.042118    -3.625114 
H      -2.499566     3.439285    -2.691825 
H       1.332128     4.491582    -4.312073 
H      -1.142161     4.508153    -4.476342 
C      -0.024594    -1.399707     2.168950 
O       1.266497    -1.593862     2.261187 
C       1.864397    -0.551457     1.522009 
C       3.278468    -0.476532     1.461107 
O       3.898399     0.498561     1.052854 
O       3.898947    -1.630589     1.829834 
C       5.323498    -1.598998     1.748844 
H       5.731489    -0.825100     2.403703 
H       5.659215    -2.584873     2.071959 
H       5.650469    -1.401151     0.724905 
72
     -1725.723074     -1725.190712   2.43   2.45
C      -0.887465     0.706452    -1.759861 
C      -0.965025    -0.692014    -1.906325 
C      -2.218671    -1.273604    -2.021884 
C      -3.362495    -0.487046    -1.913624 
C      -3.252381     0.894652    -1.704028 
C      -2.007958     1.511674    -1.643285 
C       1.209238    -0.053768    -1.832305 
C       0.400537    -1.215021    -1.914824 
H      -2.322274    -2.343976    -2.177238 
H      -4.333642    -0.958521    -1.990712 
H      -1.949102     2.584198    -1.504960 
H       2.254688     0.025056    -2.102664 
N       0.444112     1.069645    -1.773619 
C       0.951585     2.409066    -1.573132 
H       0.993344     2.962289    -2.517447 
H       0.313888     2.943309    -0.869093 
H       1.950953     2.347421    -1.140179 
O      -4.325007     1.729290    -1.554332 
C      -5.620747     1.172817    -1.661316 
H      -6.317499     2.001581    -1.529794 
H      -5.781287     0.719104    -2.646903 
H      -5.801459     0.421892    -0.882438 
N       0.564416    -3.476543    -0.508585 
C      -0.778801    -3.881841    -0.372328 
O      -1.232212    -4.728666    -1.105394 
C      -1.619427    -3.252930     0.733220 
H      -1.591040    -3.965193     1.564735 
H      -2.644124    -3.271453     0.358892 
C      -1.227252    -1.839998     1.197711 
H      -1.604694    -1.097101     0.497513 
H      -1.686251    -1.640416     2.171264 
C       0.289329    -1.737842     1.292763 
C       0.956747    -0.331869     1.355113 
H       1.296296    -0.113455     2.376612 
C       0.793903    -2.453831    -2.701506 
H       1.619168    -2.233357    -3.384078 
H      -0.058088    -2.746150    -3.321520 
C       1.195903    -3.665568    -1.812055 
H       0.858646    -4.611732    -2.228972 
H       2.274274    -3.702103    -1.655321 
C       0.780611    -2.598526     2.496605 
H       0.333438    -2.137346     3.386218 
H       0.339014    -3.596365     2.417171 
C       2.286508    -2.755194     2.712965 
H       2.802222    -1.794250     2.782751 
H       2.458087    -3.292298     3.650781 
H       2.755441    -3.328526     1.910527 
O       0.108471     0.725856     0.943827 
C      -0.667077     1.360089     1.945892 
H      -1.706990     1.015340     1.884932 
H      -0.278677     1.107989     2.941652 
C      -0.604028     2.851452     1.733020 
C       0.622473     3.508168     1.845307 
C      -1.737526     3.575366     1.383049 
C       0.705883     4.873590     1.614056 
H       1.516600     2.937095     2.081482 
C      -1.655381     4.946051     1.153056 
H      -2.689021     3.061887     1.271569 
C      -0.434223     5.596484     1.270055 
H       1.663813     5.377482     1.698092 
H      -2.546342     5.503080     0.880065 
H      -0.367641     6.665097     1.090874 
C       0.906922    -2.262731     0.026916 
O       2.140654    -1.828096    -0.061708 
C       2.113630    -0.501958     0.411302 
C       3.335046     0.216211     0.513743 
O       3.475537     1.246871     1.158289 
O       4.338068    -0.316109    -0.236691 
C       5.570513     0.401833    -0.188833 
H       6.256667    -0.145920    -0.835592 
H       5.438845     1.424394    -0.551756 
H       5.958341     0.438543     0.832276 
72
     -1725.711172     -1725.178832   9.90   9.91
C       0.133414     1.718297     1.040337 
C       1.305846     1.009311     1.336479 
C       2.529562     1.559473     0.953928 
C       2.550247     2.754237     0.259875 
C       1.357583     3.432684    -0.047115 
C       0.127077     2.925632     0.342507 
C      -0.479152    -0.088903     2.199362 
C       0.925295    -0.200297     2.060705 
H       3.464473     1.060716     1.192185 
H       3.485315     3.207501    -0.050213 
H      -0.800770     3.429630     0.108670 
H      -1.108708    -0.585519     2.926101 
N      -0.934325     1.043780     1.600441 
C      -2.328158     1.408569     1.468725 
H      -2.515451     1.786181     0.462187 
H      -2.942463     0.519583     1.619066 
H      -2.608078     2.177259     2.197108 
O       1.515425     4.602905    -0.733643 
C       0.412078     5.491148    -0.775650 
H       0.771280     6.395936    -1.267317 
H      -0.423111     5.076397    -1.349343 
H       0.071230     5.739353     0.237009 
N       2.402313    -2.226490     1.162809 
C       3.433239    -1.611105     0.419092 
O       4.527410    -1.471762     0.910539 
C       3.135681    -1.163689    -1.008169 
H       3.548865    -1.947151    -1.652095 
H       3.764453    -0.286215    -1.166375 
C       1.669660    -0.859667    -1.362032 
H       1.398684     0.133016    -1.010197 
H       1.541741    -0.868290    -2.448792 
C       0.765919    -1.901440    -0.715525 
C      -0.761179    -1.629325    -0.612912 
H      -1.300867    -2.261201    -1.329621 
C       1.827135    -0.850525     3.094604 
H       1.272091    -1.047536     4.016171 
H       2.616238    -0.138867     3.352035 
C       2.490006    -2.179894     2.619150 
H       3.538032    -2.241984     2.902650 
H       1.962310    -3.049555     3.013221 
C       0.997264    -3.278380    -1.412819 
H       0.660199    -3.139899    -2.447321 
H       2.072262    -3.472167    -1.465719 
C       0.315574    -4.511656    -0.818389 
H      -0.761585    -4.375921    -0.692107 
H       0.466881    -5.363113    -1.488638 
H       0.737591    -4.777732     0.153637 
O      -1.057771    -0.278410    -0.929030 
C      -2.194386    -0.099870    -1.760616 
H      -2.139075    -0.797048    -2.611365 
H      -3.111004    -0.328627    -1.206751 
C      -2.207081     1.315710    -2.281433 
C      -1.034749     1.908645    -2.747909 
C      -3.396836     2.034761    -2.344465 
C      -1.054656     3.191159    -3.276244 
H      -0.100416     1.362498    -2.682923 
C      -3.421413     3.321503    -2.873728 
H      -4.314318     1.583442    -1.975981 
C      -2.250270     3.901097    -3.344191 
H      -0.132171     3.639709    -3.633054 
H      -4.357665     3.869018    -2.920147 
H      -2.267490     4.902959    -3.762432 
C       1.118800    -2.029119     0.735943 
O       0.118526    -2.587946     1.376338 
C      -1.056929    -2.052498     0.808367 
C      -2.365220    -2.391401     1.251139 
O      -3.348279    -2.035537     0.615009 
O      -2.601527    -3.013825     2.443419 
C      -1.593482    -3.699853     3.177163 
H      -2.122771    -4.203111     3.987996 
H      -1.083184    -4.444996     2.560775 
H      -0.855168    -3.011586     3.599517 
72
     -1725.711220     -1725.177852   9.87  10.52
C       0.742173     1.509718    -2.015837 
C       1.120782     2.222074    -0.871571 
C       2.478913     2.449925    -0.648984 
C       3.408786     1.925820    -1.525602 
C       3.004471     1.177595    -2.646389 
C       1.659958     0.962112    -2.914172 
C      -1.137712     2.116867    -0.980241 
C      -0.095512     2.600040    -0.155444 
H       2.813060     3.023384     0.211102 
H       4.471610     2.079116    -1.375685 
H       1.324720     0.407741    -3.780674 
H      -2.175348     2.424996    -0.980081 
N      -0.637510     1.499324    -2.083702 
C      -1.426350     0.754333    -3.039005 
H      -1.236556    -0.316017    -2.932246 
H      -2.482532     0.932103    -2.834110 
H      -1.199813     1.076201    -4.059799 
O       4.024124     0.710743    -3.424111 
C       3.686507    -0.015231    -4.589239 
H       3.133916    -0.930947    -4.344610 
H       3.092200     0.593907    -5.281417 
H       4.630346    -0.282548    -5.065160 
N       0.258232     2.304211     2.478152 
C       1.647727     2.203068     2.678764 
O       2.286306     3.174214     3.008973 
C       2.290201     0.834877     2.505211 
H       2.301311     0.380028     3.502738 
H       3.331906     1.031637     2.247227 
C       1.633075    -0.110800     1.488051 
H       1.870328     0.202494     0.472485 
H       2.043479    -1.112137     1.627960 
C       0.124690    -0.092126     1.695241 
C      -0.851666    -0.682618     0.627461 
H      -1.236250    -1.653326     0.959307 
C      -0.191460     3.870626     0.671844 
H      -1.042325     4.478717     0.351544 
H       0.705974     4.465552     0.481068 
C      -0.301884     3.623444     2.203004 
H       0.251140     4.361761     2.779119 
H      -1.341430     3.618510     2.533350 
C      -0.281420    -0.692825     3.075948 
H       0.097373    -0.054983     3.880935 
H      -1.373470    -0.654589     3.145466 
C       0.190248    -2.130949     3.296899 
H       1.277520    -2.194214     3.397613 
H      -0.245195    -2.529208     4.218040 
H      -0.109592    -2.791871     2.478288 
O      -0.271395    -0.862372    -0.656961 
C       0.458865    -2.061325    -0.838476 
H       0.871189    -1.977397    -1.849624 
H       1.312533    -2.110258    -0.152784 
C      -0.344922    -3.340084    -0.717270 
C       0.271454    -4.490666    -0.230390 
C      -1.675952    -3.400667    -1.122905 
C      -0.424884    -5.691489    -0.155774 
H       1.309169    -4.449990     0.092652 
C      -2.374159    -4.599359    -1.040480 
H      -2.179665    -2.504217    -1.465134 
C      -1.752222    -5.747752    -0.563144 
H       0.069524    -6.581209     0.221835 
H      -3.414085    -4.634185    -1.349890 
H      -2.301660    -6.682080    -0.504054 
C      -0.344920     1.337679     1.717740 
O      -1.646810     1.353297     1.562837 
C      -1.943720     0.358886     0.611934 
C      -3.264028     0.134565     0.129880 
O      -3.527664    -0.825308    -0.576557 
O      -4.272417     1.041217     0.322627 
C      -4.255004     2.042888     1.332509 
H      -4.021951     1.623622     2.315004 
H      -3.545505     2.843719     1.102414 
H      -5.266819     2.451742     1.346302 
72
     -1725.708118     -1725.174815  11.82  12.43
C       0.651912    -0.435944     1.835777 
C      -0.689581    -0.037040     1.912457 
C      -1.641615    -0.981114     2.297768 
C      -1.246730    -2.281036     2.551648 
C       0.103234    -2.658910     2.449050 
C       1.076981    -1.738864     2.091435 
C       0.599236     1.749197     1.379627 
C      -0.752220     1.386201     1.590682 
H      -2.687289    -0.707431     2.404100 
H      -1.962885    -3.036266     2.856370 
H       2.118307    -2.015172     1.996109 
H       1.027304     2.741810     1.431339 
N       1.417764     0.673943     1.536261 
C       2.843673     0.674053     1.293259 
H       3.122305    -0.226863     0.743794 
H       3.099731     1.539956     0.681040 
H       3.407093     0.707285     2.232027 
O       0.363579    -3.969897     2.732696 
C       1.707047    -4.322455     3.015190 
H       2.109219    -3.705925     3.828424 
H       1.685509    -5.366346     3.330472 
H       2.347387    -4.225936     2.132663 
N      -2.898048     1.862656     0.089018 
C      -3.683509     0.698743     0.228475 
O      -4.620074     0.695499     0.990906 
C      -3.341884    -0.520927    -0.617219 
H      -4.091184    -0.538769    -1.411614 
H      -3.570595    -1.376016     0.021160 
C      -1.912333    -0.634869    -1.176914 
H      -1.262508    -1.071566    -0.420280 
H      -1.904668    -1.308061    -2.040347 
C      -1.363849     0.731033    -1.562302 
C       0.180092     0.922832    -1.683861 
H       0.460148     0.976690    -2.742309 
C      -1.786744     2.313350     2.203859 
H      -1.304793     3.186500     2.652960 
H      -2.281174     1.776706     3.018187 
C      -2.874206     2.803191     1.203514 
H      -3.864023     2.832034     1.653057 
H      -2.634337     3.788845     0.802767 
C      -1.933882     1.286582    -2.908574 
H      -1.450505     2.254489    -3.081358 
H      -1.551413     0.615207    -3.686517 
C      -3.440306     1.454595    -3.099728 
H      -3.903682     2.037471    -2.300778 
H      -3.614976     1.992437    -4.036270 
H      -3.961638     0.498810    -3.183456 
O       0.888017    -0.165908    -1.115385 
C       1.979153    -0.626854    -1.898613 
H       1.655553    -0.740445    -2.945076 
H       2.792907     0.106080    -1.885260 
C       2.438055    -1.965690    -1.377883 
C       1.510746    -2.951960    -1.045305 
C       3.795175    -2.253143    -1.269284 
C       1.932746    -4.204205    -0.623925 
H       0.451576    -2.728775    -1.107611 
C       4.223466    -3.508581    -0.848500 
H       4.525538    -1.488336    -1.520105 
C       3.292378    -4.488209    -0.529470 
H       1.197909    -4.959429    -0.361682 
H       5.285637    -3.720442    -0.774270 
H       3.623547    -5.470414    -0.205909 
C      -1.663132     1.723399    -0.476798 
O      -0.889097     2.771919    -0.636157 
C       0.374835     2.267067    -1.018840 
C       1.503667     3.092269    -1.283899 
O       2.514202     2.616898    -1.784220 
O       1.570372     4.399860    -0.898853 
C       0.434012     5.151388    -0.486856 
H      -0.350664     5.145313    -1.247946 
H       0.023851     4.786892     0.459833 
H       0.799686     6.170598    -0.352557 
72
     -1725.707511     -1725.173771  12.20  13.08
C      -0.701786     1.845349    -0.230319 
C      -0.074673     1.416727    -1.417752 
C      -0.855327     1.217110    -2.546742 
C      -2.235257     1.376537    -2.473280 
C      -2.837297     1.758088    -1.266556 
C      -2.073968     2.011632    -0.132925 
C       1.494667     1.780612     0.175210 
C       1.358662     1.326802    -1.155551 
H      -0.404386     0.931562    -3.492593 
H      -2.831511     1.208377    -3.360748 
H      -2.570155     2.318489     0.778525 
H       2.387416     2.174700     0.643258 
N       0.281736     2.095169     0.708288 
C       0.082295     2.466104     2.093399 
H      -0.972727     2.369725     2.344685 
H       0.654576     1.795170     2.738307 
H       0.396523     3.500138     2.269995 
O      -4.186147     1.922061    -1.112316 
C      -5.014768     1.722613    -2.239942 
H      -4.764376     2.419023    -3.049542 
H      -4.945668     0.693317    -2.612920 
H      -6.034485     1.915197    -1.904090 
N       2.243220    -0.894484    -2.306525 
C       1.194329    -1.273822    -3.170880 
O       1.268849    -1.021763    -4.349611 
C       0.000516    -2.023249    -2.592990 
H       0.138084    -3.061553    -2.902697 
H      -0.857497    -1.659397    -3.160564 
C      -0.267010    -1.909527    -1.081103 
H      -0.852810    -1.013605    -0.879958 
H      -0.860659    -2.765845    -0.744822 
C       1.036012    -1.828464    -0.300115 
C       1.019368    -1.233674     1.142876 
H       1.136611    -2.044264     1.871186 
C       2.404804     1.535154    -2.232802 
H       3.177481     2.228025    -1.887794 
H       1.921257     2.008923    -3.091498 
C       3.092100     0.220283    -2.711305 
H       3.211803     0.186589    -3.791583 
H       4.066306     0.085930    -2.239478 
C       1.769755    -3.201807    -0.149063 
H       2.677526    -3.013879     0.434963 
H       1.119877    -3.810485     0.490823 
C       2.146022    -4.017616    -1.384784 
H       1.275048    -4.446428    -1.884673 
H       2.718686    -3.439710    -2.113353 
H       2.774456    -4.856194    -1.070551 
O      -0.199319    -0.574008     1.439256 
C      -0.776589    -0.968874     2.679886 
H      -0.902016    -2.062911     2.691059 
H      -0.109432    -0.696570     3.504715 
C      -2.119072    -0.302179     2.829092 
C      -3.093055    -0.454826     1.843610 
C      -2.411118     0.466449     3.951234 
C      -4.332778     0.152573     1.974612 
H      -2.864276    -1.036286     0.955862 
C      -3.654238     1.076791     4.088786 
H      -1.655970     0.593845     4.722416 
C      -4.616385     0.922124     3.099190 
H      -5.073762     0.040199     1.189976 
H      -3.869039     1.674101     4.969615 
H      -5.585261     1.400770     3.201368 
C       1.975324    -0.866594    -0.968285 
O       2.908739    -0.520839    -0.113871 
C       2.254073    -0.358083     1.132303 
C       2.943053    -0.039373     2.340492 
O       2.367364    -0.131187     3.416144 
O       4.208755     0.465953     2.366446 
C       5.047312     0.530928     1.218398 
H       5.235023    -0.461316     0.800049 
H       4.629098     1.178589     0.442013 
H       5.986082     0.957086     1.575539 
72
     -1725.707534     -1725.172625  12.19  13.80
C       0.879218    -0.530977     1.811157 
C       1.341762     0.754828     1.502862 
C       0.985235     1.804787     2.349029 
C       0.147038     1.561521     3.420934 
C      -0.339119     0.267219     3.679528 
C       0.027751    -0.805431     2.880533 
C       2.135939    -0.720842    -0.019004 
C       2.150452     0.663002     0.288231 
H       1.350842     2.812126     2.169936 
H      -0.152393     2.358801     4.092242 
H      -0.334922    -1.809592     3.055405 
H       2.830746    -1.259199    -0.650762 
N       1.418171    -1.416315     0.900125 
C       1.120387    -2.829144     0.824539 
H       0.041851    -2.987920     0.860591 
H       1.490314    -3.214259    -0.126412 
H       1.599125    -3.373174     1.645387 
O      -1.172613     0.165202     4.756604 
C      -1.540229    -1.133706     5.180717 
H      -2.154691    -0.999642     6.071591 
H      -2.122077    -1.660626     4.416016 
H      -0.656146    -1.731020     5.435785 
N       1.773908     2.743176    -1.350414 
C       1.182230     3.723689    -0.526856 
O       1.861913     4.605799    -0.059077 
C      -0.317326     3.658104    -0.275027 
H      -0.755491     4.408085    -0.937261 
H      -0.450511     4.044350     0.737147 
C      -1.010140     2.292489    -0.426100 
H      -0.888836     1.728116     0.497915 
H      -2.083406     2.444716    -0.581590 
C      -0.409827     1.493088    -1.573078 
C      -0.581138    -0.060356    -1.591710 
H      -1.364586    -0.345692    -2.304725 
C       3.356117     1.556720     0.044826 
H       4.265475     0.962067    -0.081202 
H       3.505682     2.170953     0.937135 
C       3.202615     2.503214    -1.175596 
H       3.701555     3.457102    -1.020518 
H       3.578452     2.045617    -2.091385 
C      -0.887271     1.958376    -2.985603 
H      -0.417394     1.291582    -3.716524 
H      -1.960729     1.736654    -3.021762 
C      -0.665298     3.402495    -3.432497 
H      -0.920015     3.483881    -4.493314 
H      -1.304861     4.109583    -2.899918 
H       0.374093     3.720021    -3.323157 
O      -0.917511    -0.622530    -0.336450 
C      -2.297400    -0.689873    -0.023769 
H      -2.542226     0.070564     0.728057 
H      -2.899148    -0.487385    -0.920317 
C      -2.634328    -2.059203     0.511784 
C      -2.317552    -3.193772    -0.237018 
C      -3.261982    -2.205706     1.743143 
C      -2.630153    -4.455601     0.249263 
H      -1.801481    -3.082369    -1.187153 
C      -3.580321    -3.471025     2.228507 
H      -3.502722    -1.321586     2.328437 
C      -3.264163    -4.597956     1.481351 
H      -2.376133    -5.334671    -0.334933 
H      -4.077750    -3.575564     3.188179 
H      -3.509934    -5.586435     1.856601 
C       1.089155     1.570659    -1.520479 
O       1.582178     0.627255    -2.291012 
C       0.773891    -0.513329    -2.073342 
C       0.933818    -1.734615    -2.796093 
O       0.070450    -2.597817    -2.751954 
O       2.073746    -2.045159    -3.479389 
C       3.105022    -1.103086    -3.750760 
H       3.844729    -1.651662    -4.336087 
H       2.734328    -0.257746    -4.336491 
H       3.573642    -0.730857    -2.834816 
