72
     -1725.725998     -1725.193411   0.00   0.00
C      -1.598163    -0.449895     1.257907 
C      -2.288551    -0.154200     0.075690 
C      -3.061186     1.006019     0.030491 
C      -3.095113     1.843339     1.129871 
C      -2.379255     1.531241     2.298390 
C      -1.618404     0.374788     2.381844 
C      -1.221451    -2.142068    -0.152540 
C      -2.031905    -1.234480    -0.875000 
H      -3.631017     1.261713    -0.858243 
H      -3.686608     2.752222     1.124552 
H      -1.049266     0.125686     3.267342 
H      -1.047337    -3.185118    -0.384237 
N      -0.980842    -1.677241     1.103306 
C      -0.106626    -2.300748     2.068493 
H       0.435850    -3.109045     1.576662 
H       0.617794    -1.573585     2.442625 
H      -0.673169    -2.709558     2.912177 
O      -2.499731     2.437238     3.314613 
C      -2.118501     2.017362     4.613384 
H      -2.401397     2.826525     5.287719 
H      -2.651775     1.102839     4.900568 
H      -1.039033     1.849013     4.686220 
N      -1.700983    -0.228992    -3.312566 
C      -2.144989     1.104788    -3.251677 
O      -3.252406     1.394977    -3.639466 
C      -1.177928     2.160050    -2.723820 
H      -1.809274     2.949135    -2.312215 
H      -0.689199     2.587432    -3.607215 
C      -0.137800     1.682771    -1.698684 
H       0.628267     2.448630    -1.558398 
H      -0.611505     1.520400    -0.733039 
C       0.465705     0.378997    -2.195283 
C       1.328227    -0.496534    -1.244267 
H       2.388438    -0.400248    -1.504292 
C      -3.062926    -1.671433    -1.902556 
H      -4.016181    -1.200880    -1.646538 
H      -3.219162    -2.752029    -1.849658 
C      -2.695208    -1.295805    -3.368006 
H      -2.244148    -2.141158    -3.889080 
H      -3.554316    -0.940062    -3.932071 
C       1.261450     0.563514    -3.524032 
H       1.690342    -0.408137    -3.790300 
H       0.571809     0.820703    -4.333863 
C       2.371860     1.612199    -3.449224 
H       2.979135     1.583459    -4.358496 
H       1.971608     2.625782    -3.355983 
H       3.041923     1.440052    -2.601283 
O       1.181358    -0.080944     0.109133 
C       2.395502     0.059086     0.822399 
H       2.822141    -0.924827     1.053687 
H       3.130483     0.596989     0.203312 
C       2.148066     0.841048     2.088782 
C       2.746432     0.458674     3.285279 
C       1.353971     1.986458     2.065297 
C       2.567139     1.213785     4.440446 
H       3.362458    -0.436233     3.316110 
C       1.171992     2.741401     3.214519 
H       0.866681     2.277837     1.141969 
C       1.782968     2.359331     4.405613 
H       3.043902     0.907043     5.366186 
H       0.545463     3.627595     3.181942 
H       1.645520     2.953047     5.304239 
C      -0.643383    -0.585292    -2.519303 
O      -0.145184    -1.795444    -2.587427 
C       0.813231    -1.877244    -1.562319 
C       1.474363    -3.130037    -1.448492 
O       1.118907    -4.192872    -1.927832 
O       2.581145    -3.029546    -0.641969 
C       3.302376    -4.248957    -0.470392 
H       4.147416    -4.010293     0.177145 
H       2.671834    -5.012046    -0.006534 
H       3.658172    -4.628216    -1.431610 
72
     -1725.725998     -1725.193403   0.00   0.01
C      -1.327137     1.597651     0.159979 
C      -1.644712     0.893161     1.328113 
C      -2.886892     0.263973     1.407021 
C      -3.747657     0.321194     0.326884 
C      -3.397177     1.021388    -0.840244 
C      -2.177994     1.674477    -0.941788 
C       0.387711     1.870166     1.567012 
C      -0.522114     1.031842     2.253982 
H      -3.183155    -0.273830     2.303086 
H      -4.719926    -0.158026     0.358571 
H      -1.885064     2.205727    -1.837356 
H       1.200931     2.439424     1.998955 
N      -0.098993     2.205946     0.341671 
C       0.616031     2.961358    -0.659670 
H       0.165640     3.948549    -0.809641 
H       1.648698     3.085465    -0.331463 
H       0.615840     2.419972    -1.608583 
O      -4.336775     1.006261    -1.832706 
C      -4.214121     1.970709    -2.863832 
H      -4.168158     2.984377    -2.447205 
H      -3.331349     1.791117    -3.486211 
H      -5.110821     1.873220    -3.476961 
N      -0.096288    -1.273533     3.505669 
C      -1.227720    -2.071721     3.255460 
O      -2.103612    -2.161086     4.083580 
C      -1.287881    -2.839165     1.938337 
H      -2.350876    -2.968048     1.728336 
H      -0.894506    -3.839106     2.155768 
C      -0.553488    -2.208443     0.745265 
H      -0.472953    -2.931508    -0.069455 
H      -1.116303    -1.358063     0.366679 
C       0.816555    -1.744679     1.212784 
C       1.674450    -0.809520     0.315888 
H       2.492524    -1.376482    -0.142628 
C      -0.714642     1.066508     3.761157 
H      -1.783212     1.180625     3.963131 
H      -0.216674     1.940595     4.188826 
C      -0.198103    -0.205640     4.495058 
H       0.797553    -0.043241     4.909646 
H      -0.870818    -0.528885     5.286106 
C       1.721414    -2.932436     1.663677 
H       2.694122    -2.517728     1.947955 
H       1.310020    -3.385300     2.571006 
C       1.914819    -4.012620     0.598729 
H       0.993137    -4.570281     0.409628 
H       2.251086    -3.593095    -0.354446 
H       2.670726    -4.732581     0.925299 
O       0.895924    -0.255122    -0.738885 
C       1.497585    -0.319983    -2.018081 
H       2.319830     0.402326    -2.094134 
H       1.926499    -1.321800    -2.176834 
C       0.457361    -0.053070    -3.077828 
C       0.752759     0.753017    -4.172729 
C      -0.799218    -0.651117    -2.997476 
C      -0.185888     0.950851    -5.180975 
H       1.727315     1.229168    -4.242129 
C      -1.737900    -0.455876    -3.999730 
H      -1.044098    -1.262257    -2.136404 
C      -1.431549     0.342683    -5.098110 
H       0.059359     1.578067    -6.032352 
H      -2.714655    -0.923333    -3.919913 
H      -2.163904     0.491305    -5.885819 
C       0.653367    -0.876219     2.431006 
O       1.755126    -0.190172     2.611985 
C       2.197136     0.176928     1.329027 
C       3.388441     0.951037     1.296233 
O       3.895126     1.556611     2.224831 
O       3.903506     1.005741     0.024516 
C       5.102007     1.770808    -0.097308 
H       5.390511     1.713015    -1.147918 
H       4.931051     2.810739     0.193159 
H       5.892175     1.357967     0.534803 
72
     -1725.723607     -1725.192742   1.50   0.42
C      -1.121153    -0.393606    -1.705440 
C       0.102282    -1.015129    -2.024809 
C       0.841642    -0.512456    -3.084913 
C       0.402315     0.622703    -3.760934 
C      -0.796639     1.246219    -3.390780 
C      -1.584653     0.731023    -2.367264 
C      -0.911399    -2.153490    -0.341334 
C       0.277334    -2.138542    -1.107850 
H       1.769929    -0.986030    -3.390741 
H       0.998057     1.010070    -4.577315 
H      -2.518279     1.217228    -2.115431 
H      -1.316595    -2.994013     0.207390 
N      -1.729114    -1.123889    -0.703330 
C      -2.973695    -0.778928    -0.056386 
H      -3.001501     0.293378     0.145464 
H      -3.834111    -1.056021    -0.675580 
H      -3.028294    -1.306146     0.896710 
O      -1.283872     2.374025    -3.992822 
C      -0.558237     2.915463    -5.079142 
H       0.445883     3.233839    -4.773366 
H      -0.475760     2.196401    -5.903200 
H      -1.123481     3.784999    -5.416781 
N       2.816313    -2.114321    -0.360237 
C       3.441040    -1.190997    -1.220856 
O       4.099154    -1.583434    -2.155479 
C       3.291311     0.300558    -0.930245 
H       3.274381     0.777604    -1.911326 
H       4.236980     0.602902    -0.468394 
C       2.086079     0.746201    -0.083613 
H       2.278330     1.741348     0.330318 
H       1.195673     0.818147    -0.704895 
C       1.855881    -0.262068     1.034495 
C       0.508009    -0.248096     1.815829 
H       0.673856     0.136568     2.829920 
C       1.049759    -3.391157    -1.471451 
H       1.107553    -3.458931    -2.561215 
H       0.506376    -4.273766    -1.125278 
C       2.495435    -3.440818    -0.879631 
H       2.551713    -4.147315    -0.050630 
H       3.241419    -3.702422    -1.626194 
C       3.035997    -0.176657     2.051134 
H       3.980048    -0.206937     1.499920 
H       2.972682     0.826421     2.491778 
C       3.098142    -1.220110     3.167513 
H       3.298235    -2.220210     2.777317 
H       3.909050    -0.962390     3.855405 
H       2.174035    -1.269681     3.748836 
O      -0.481430     0.575511     1.210106 
C      -0.775688     1.744188     1.961581 
H      -1.227267     1.464931     2.922634 
H       0.152373     2.297969     2.173360 
C      -1.721609     2.613578     1.175516 
C      -2.987461     2.918492     1.665024 
C      -1.335465     3.122139    -0.063621 
C      -3.856604     3.719631     0.930663 
H      -3.298681     2.523926     2.628535 
C      -2.200235     3.915140    -0.803040 
H      -0.356277     2.874481    -0.460823 
C      -3.464601     4.217402    -0.305176 
H      -4.841436     3.951217     1.324028 
H      -1.891301     4.285379    -1.775223 
H      -4.142589     4.838260    -0.882284 
C       1.819313    -1.646380     0.451606 
O       1.207613    -2.452388     1.283897 
C       0.150647    -1.709087     1.834971 
C      -0.645793    -2.402669     2.790581 
O      -0.712742    -3.608582     2.950727 
O      -1.418279    -1.525637     3.505835 
C      -2.268829    -2.134883     4.475822 
H      -1.682902    -2.686380     5.215633 
H      -2.809798    -1.317781     4.955149 
H      -2.969062    -2.825994     3.999334 
72
     -1725.724305     -1725.191467   1.06   1.22
C      -0.622810    -2.053674     1.560891 
C       0.631655    -2.474361     1.102068 
C       0.700071    -3.624019     0.315467 
C      -0.464367    -4.281831    -0.031542 
C      -1.715957    -3.816336     0.409204 
C      -1.815532    -2.694432     1.220732 
C       0.886159    -0.639712     2.408288 
C       1.633787    -1.546176     1.620393 
H       1.656624    -3.999500    -0.037178 
H      -0.444079    -5.173549    -0.648026 
H      -2.765693    -2.330676     1.588952 
H       1.266899     0.017487     3.180218 
N      -0.437566    -0.967519     2.393386 
C      -1.488757    -0.161151     2.964484 
H      -1.032189     0.653400     3.528449 
H      -2.109030     0.269225     2.174419 
H      -2.112015    -0.754026     3.641520 
O      -2.784896    -4.553605    -0.012205 
C      -4.070421    -4.165317     0.428846 
H      -4.325625    -3.156301     0.081605 
H      -4.769669    -4.880758    -0.004810 
H      -4.146273    -4.203394     1.522590 
N       3.492144    -1.010865    -0.222364 
C       3.352555    -2.008868    -1.201486 
O       4.073023    -2.979639    -1.191615 
C       2.301081    -1.799728    -2.282577 
H       2.033374    -2.799918    -2.626777 
H       2.821709    -1.316888    -3.117944 
C       1.053406    -0.994761    -1.886520 
H       0.509276    -0.728021    -2.794325 
H       0.389684    -1.602981    -1.273593 
C       1.485846     0.240944    -1.107906 
C       0.457491     1.080363    -0.282664 
H       0.214665     2.011162    -0.807462 
C       3.049127    -1.984006     1.958894 
H       3.095532    -3.073155     1.872500 
H       3.290664    -1.739163     2.996679 
C       4.138513    -1.367856     1.037353 
H       4.551028    -0.454695     1.467357 
H       4.944986    -2.067237     0.829062 
C       2.295800     1.236091    -1.993542 
H       2.578472     2.086475    -1.364461 
H       3.234021     0.767056    -2.306292 
C       1.542587     1.742232    -3.224857 
H       2.126920     2.518756    -3.727214 
H       1.365477     0.946170    -3.953808 
H       0.574111     2.178904    -2.963246 
O      -0.768928     0.403553    -0.023301 
C      -1.728594     0.490534    -1.059622 
H      -1.321931     0.122718    -2.008370 
H      -2.521933    -0.203391    -0.762736 
C      -2.305270     1.875619    -1.270658 
C      -2.601740     2.698485    -0.186617 
C      -2.582206     2.327620    -2.557817 
C      -3.168081     3.949731    -0.389299 
H      -2.365382     2.363466     0.816366 
C      -3.152794     3.579270    -2.763578 
H      -2.351039     1.694818    -3.411196 
C      -3.448182     4.393371    -1.677750 
H      -3.395691     4.583699     0.462419 
H      -3.365496     3.916892    -3.773057 
H      -3.892875     5.371032    -1.833549 
C       2.422769    -0.180936    -0.005050 
O       2.521716     0.794514     0.860818 
C       1.234885     1.342612     0.980469 
C       1.145521     2.439946     1.886428 
O       1.954017     2.732966     2.750333 
O      -0.025481     3.125064     1.723706 
C      -0.191274     4.244758     2.591152 
H      -0.204157     3.928788     3.637682 
H       0.617706     4.966639     2.453999 
H      -1.147364     4.694093     2.318278 
72
     -1725.720853     -1725.188895   3.23   2.83
C      -2.351167     0.847298     0.743582 
C      -2.614394    -0.505293     0.452083 
C      -3.535630    -0.798530    -0.541585 
C      -4.124639     0.231923    -1.269824 
C      -3.802658     1.567379    -0.992837 
C      -2.914960     1.891992     0.029508 
C      -1.160102    -0.374287     2.191153 
C      -1.811756    -1.319694     1.363136 
H      -3.798369    -1.827551    -0.769617 
H      -4.835432    -0.014222    -2.047914 
H      -2.708553     2.934203     0.243414 
H      -0.732418    -0.558018     3.168992 
N      -1.508307     0.896920     1.835635 
C      -0.948731     2.102539     2.394553 
H      -0.213068     1.828237     3.151864 
H      -0.445755     2.680843     1.616059 
H      -1.726437     2.717923     2.859228 
O      -4.327570     2.631582    -1.669348 
C      -5.256722     2.370594    -2.703607 
H      -5.545715     3.343762    -3.102053 
H      -4.807331     1.771092    -3.504594 
H      -6.147634     1.857624    -2.321482 
N      -0.805229    -3.388983     0.029029 
C      -1.550974    -3.414927    -1.163321 
O      -2.474185    -4.185309    -1.287089 
C      -1.140771    -2.477354    -2.292209 
H      -2.064487    -2.251664    -2.827054 
H      -0.541443    -3.088621    -2.975419 
C      -0.398445    -1.184234    -1.911644 
H       0.107029    -0.799709    -2.802190 
H      -1.106940    -0.426531    -1.580573 
C       0.610202    -1.476006    -0.804392 
C       1.214621    -0.305719     0.037597 
H       2.252263    -0.113802    -0.264670 
C      -2.261798    -2.685811     1.849672 
H      -3.315558    -2.810927     1.585917 
H      -2.199093    -2.741675     2.939552 
C      -1.451173    -3.871706     1.246722 
H      -0.667800    -4.200630     1.929923 
H      -2.085983    -4.716412     0.989886 
C       1.774584    -2.327462    -1.397414 
H       1.347103    -3.162898    -1.959509 
H       2.263147    -1.680031    -2.136634 
C       2.828225    -2.881437    -0.437466 
H       3.290535    -2.101713     0.172820 
H       2.409599    -3.629305     0.239106 
H       3.621931    -3.362512    -1.017119 
O       0.500494     0.919152    -0.096693 
C       0.904605     1.719135    -1.190816 
H       0.951065     1.130901    -2.115393 
H       0.101141     2.452697    -1.317384 
C       2.227489     2.430615    -0.989294 
C       2.579699     2.945888     0.255745 
C       3.089271     2.618470    -2.066589 
C       3.769857     3.643109     0.416274 
H       1.927687     2.779684     1.104841 
C       4.280754     3.317936    -1.908963 
H       2.828266     2.214283    -3.041528 
C       4.622899     3.834438    -0.665646 
H       4.033520     4.043559     1.390673 
H       4.941168     3.458191    -2.758959 
H       5.551665     4.381434    -0.538491 
C      -0.068541    -2.261494     0.283333 
O       0.637792    -2.177071     1.380675 
C       1.122919    -0.860655     1.435780 
C       1.972899    -0.606640     2.555344 
O       2.041062    -1.270734     3.574771 
O       2.692135     0.539893     2.382664 
C       3.569768     0.869139     3.457703 
H       4.085038     1.780504     3.151376 
H       3.008181     1.040050     4.379913 
H       4.291148     0.066574     3.630797 
72
     -1725.719994     -1725.186288   3.77   4.47
C      -1.905515    -0.622859     0.657756 
C      -1.223789    -1.846041     0.618034 
C      -1.616530    -2.789772    -0.330224 
C      -2.615133    -2.474406    -1.233361 
C      -3.250947    -1.221167    -1.198571 
C      -2.910866    -0.274991    -0.242776 
C      -0.376420    -0.561431     2.282075 
C      -0.199183    -1.824091     1.661097 
H      -1.139364    -3.764920    -0.374250 
H      -2.936703    -3.185525    -1.986300 
H      -3.379258     0.699447    -0.200565 
H      -0.014119    -0.263271     3.258571 
N      -1.411702     0.115424     1.714676 
C      -1.771055     1.479194     2.022906 
H      -2.827188     1.547797     2.302178 
H      -1.163065     1.815244     2.863599 
H      -1.575384     2.128665     1.167458 
O      -4.205110    -1.026590    -2.157233 
C      -5.040202     0.109041    -2.030601 
H      -4.474868     1.042509    -2.128622 
H      -5.767303     0.042608    -2.840599 
H      -5.567064     0.105608    -1.068413 
N       2.095890    -2.979195     0.926850 
C       1.732507    -3.765221    -0.183458 
O       1.535304    -4.949719    -0.047503 
C       1.627705    -3.098321    -1.548405 
H       0.833150    -3.638958    -2.066068 
H       2.550622    -3.358963    -2.071031 
C       1.360543    -1.583277    -1.587766 
H       1.667996    -1.185650    -2.560765 
H       0.289489    -1.411850    -1.485382 
C       2.084675    -0.865483    -0.457760 
C       1.582670     0.542774     0.005877 
H       2.238604     1.323220    -0.401527 
C       0.205763    -3.072636     2.429537 
H      -0.414299    -3.902096     2.078109 
H       0.001961    -2.956787     3.497547 
C       1.695164    -3.464867     2.244528 
H       2.331915    -2.979613     2.984464 
H       1.844947    -4.541404     2.283622 
C       3.613230    -0.665826    -0.711549 
H       3.686263     0.026316    -1.559558 
H       4.010977    -0.126900     0.154909 
C       4.509553    -1.873289    -0.982458 
H       4.327586    -2.320505    -1.962098 
H       5.552513    -1.543061    -0.975007 
H       4.409206    -2.648048    -0.219314 
O       0.254923     0.863641    -0.380413 
C       0.088147     1.385236    -1.686591 
H       1.054224     1.727638    -2.083449 
H      -0.295242     0.605499    -2.355139 
C      -0.881128     2.541165    -1.657463 
C      -2.002934     2.549913    -2.478005 
C      -0.647889     3.624923    -0.810445 
C      -2.881630     3.629336    -2.462439 
H      -2.192963     1.703003    -3.132435 
C      -1.525799     4.699530    -0.788667 
H       0.219997     3.610386    -0.157275 
C      -2.644856     4.705472    -1.617495 
H      -3.750663     3.630279    -3.113563 
H      -1.338461     5.538151    -0.125079 
H      -3.328976     5.547865    -1.603127 
C       1.904421    -1.626031     0.827889 
O       2.230057    -0.840166     1.827032 
C       1.716717     0.427722     1.499748 
C       1.985301     1.460163     2.442979 
O       2.339240     1.319793     3.600034 
O       1.726028     2.694318     1.904865 
C       1.951907     3.789405     2.791029 
H       2.997132     3.824235     3.108630 
H       1.699352     4.688907     2.227417 
H       1.319921     3.708500     3.679332 
