72
     -1725.726632     -1725.197187   0.00   0.00
C       1.320861    -1.624776    -2.316321 
C       1.048867    -2.678824    -1.433996 
C       0.218248    -3.712226    -1.870283 
C      -0.331622    -3.656052    -3.133392 
C      -0.058260    -2.576827    -3.996473 
C       0.777608    -1.542780    -3.603348 
C       2.456143    -1.216196    -0.432757 
C       1.738481    -2.390867    -0.182607 
H      -0.013493    -4.551530    -1.222801 
H      -0.984652    -4.441186    -3.497454 
H       1.010931    -0.711333    -4.254850 
H       3.271919    -0.801251     0.142578 
N       2.180448    -0.744593    -1.686647 
C       2.705202     0.477245    -2.253085 
H       1.892001     1.104666    -2.629819 
H       3.228005     1.027166    -1.469888 
H       3.402457     0.269393    -3.071343 
O      -0.669636    -2.647833    -5.212256 
C      -0.416661    -1.613237    -6.143211 
H       0.648947    -1.557018    -6.397201 
H      -0.986260    -1.864649    -7.038118 
H      -0.753411    -0.641192    -5.762410 
N      -0.081499    -2.944514     1.802698 
C      -1.366471    -3.279316     2.185065 
O      -1.666158    -4.429950     2.424310 
C      -2.363691    -2.135612     2.311591 
H      -2.789017    -2.211351     3.316081 
H      -3.178311    -2.378249     1.621930 
C      -1.809740    -0.733685     2.050210 
H      -2.616741    -0.019548     1.889267 
H      -1.248064    -0.377558     2.918431 
C      -0.861785    -0.757477     0.817938 
C      -0.064820     0.571340     0.667769 
H       0.108709     0.777655    -0.397306 
C       2.135068    -3.395414     0.874250 
H       2.795408    -2.888931     1.584290 
H       2.706087    -4.216184     0.429889 
C       0.932804    -3.990097     1.622555 
H       0.470365    -4.807532     1.064445 
H       1.231928    -4.392170     2.593983 
C      -1.600407    -1.194428    -0.452944 
H      -0.922481    -1.089723    -1.299269 
H      -1.839631    -2.261126    -0.394865 
C      -2.873106    -0.395403    -0.742308 
H      -3.241822    -0.637278    -1.743276 
H      -3.676009    -0.616663    -0.033606 
H      -2.686620     0.681944    -0.706095 
O      -0.798627     1.659594     1.219880 
C      -0.781459     2.850057     0.447531 
H       0.234727     3.041217     0.083097 
H      -1.441042     2.747090    -0.427189 
C      -1.240372     3.999007     1.307617 
C      -0.681859     4.191275     2.571368 
C      -2.195654     4.897191     0.845598 
C      -1.073626     5.266805     3.355189 
H       0.058444     3.486771     2.935863 
C      -2.587630     5.979113     1.628305 
H      -2.641674     4.750475    -0.134636 
C      -2.026763     6.165737     2.884288 
H      -0.635227     5.406570     4.338642 
H      -3.333735     6.673952     1.255368 
H      -2.331513     7.007653     3.497931 
C       0.215422    -1.684341     1.322753 
O       1.123752    -0.987856     1.969333 
C       1.210877     0.252804     1.395992 
C       2.313643     1.051720     1.804168 
O       3.260920     0.685472     2.479851 
O       2.237175     2.314477     1.280192 
C       3.289492     3.192432     1.678912 
H       3.318964     3.292180     2.766909 
H       4.258483     2.820264     1.336454 
H       3.067166     4.155516     1.217222 
72
     -1725.725702     -1725.196879   0.58   0.19
C       1.999376    -0.670847     2.281651 
C       1.008502    -1.625496     2.546273 
C       1.344200    -2.976489     2.444782 
C       2.620110    -3.333657     2.063338 
C       3.595145    -2.355603     1.785647 
C       3.301785    -1.004749     1.893930 
C       0.145170     0.444906     2.848123 
C      -0.219769    -0.905923     2.860232 
H       0.610002    -3.749527     2.646618 
H       2.908338    -4.374738     1.971024 
H       4.038837    -0.237682     1.697451 
H      -0.400039     1.282661     3.259882 
N       1.452147     0.584286     2.471001 
C       2.140762     1.842981     2.295173 
H       2.605951     1.889599     1.306087 
H       1.412239     2.650916     2.369584 
H       2.912677     1.984596     3.058712 
O       4.811032    -2.848608     1.417693 
C       5.849308    -1.924668     1.154150 
H       5.595055    -1.265673     0.314894 
H       6.077469    -1.318033     2.039090 
H       6.724482    -2.519053     0.890948 
N      -2.199291    -2.202526     1.470675 
C      -2.570612    -3.158998     0.545119 
O      -2.924125    -4.264279     0.897679 
C      -2.536514    -2.743799    -0.918799 
H      -3.526439    -2.970966    -1.323826 
H      -1.845649    -3.438464    -1.407125 
C      -2.149707    -1.289013    -1.189516 
H      -1.890079    -1.147292    -2.237803 
H      -2.994407    -0.624924    -0.986586 
C      -0.957969    -0.874919    -0.280241 
C      -0.695660     0.660128    -0.321494 
H       0.380003     0.854148    -0.209757 
C      -1.393049    -1.439418     3.649008 
H      -2.057004    -0.598498     3.869168 
H      -1.058531    -1.847817     4.607364 
C      -2.172868    -2.530960     2.901180 
H      -1.702719    -3.511372     3.006436 
H      -3.193059    -2.620213     3.283469 
C       0.285127    -1.728512    -0.557161 
H       1.109774    -1.341617     0.039816 
H       0.119076    -2.752239    -0.206908 
C       0.714616    -1.748613    -2.025689 
H       1.683037    -2.248312    -2.120385 
H       0.004662    -2.283738    -2.662604 
H       0.823681    -0.735862    -2.424602 
O      -1.111760     1.189341    -1.576850 
C      -0.240501     2.150677    -2.149254 
H      -0.240123     3.071630    -1.558317 
H       0.789295     1.756649    -2.155062 
C      -0.683982     2.433764    -3.562080 
C      -0.957479     1.385828    -4.440740 
C      -0.798848     3.742320    -4.017691 
C      -1.335082     1.644363    -5.750346 
H      -0.877962     0.361922    -4.090094 
C      -1.173562     4.005785    -5.331646 
H      -0.597124     4.565826    -3.338171 
C      -1.441897     2.957232    -6.200692 
H      -1.547200     0.820052    -6.424307 
H      -1.258120     5.032643    -5.673603 
H      -1.736048     3.159564    -7.225710 
C      -1.592529    -1.024849     1.080192 
O      -2.184811     0.100784     1.411877 
C      -1.480932     1.141744     0.864770 
C      -1.803565     2.434831     1.357983 
O      -2.529486     2.685076     2.306145 
O      -1.126311     3.415282     0.682831 
C      -1.415161     4.743050     1.118856 
H      -0.822517     5.403205     0.483640 
H      -2.479416     4.964779     1.006424 
H      -1.139946     4.877373     2.168145 
72
     -1725.726994     -1725.195398  -0.23   1.12
C       1.361851     0.946996     1.856719 
C       0.196246     0.612826     2.570961 
C       0.288086    -0.335191     3.578679 
C       1.507109    -0.946629     3.846758 
C       2.650479    -0.606035     3.107296 
C       2.590742     0.350900     2.099617 
C      -0.293035     2.218171     1.047707 
C      -0.900852     1.395627     2.006142 
H      -0.586913    -0.624500     4.152288 
H       1.561247    -1.687912     4.633374 
H       3.490640     0.602329     1.550907 
H      -0.699246     3.114931     0.601309 
N       1.033567     1.922053     0.929857 
C       1.940716     2.492677    -0.041785 
H       2.736494     3.061785     0.448867 
H       2.387702     1.704731    -0.655416 
H       1.374966     3.157394    -0.695175 
O       3.877704    -1.164874     3.309720 
C       4.017797    -2.114653     4.350016 
H       5.066887    -2.411899     4.346320 
H       3.768516    -1.679155     5.325021 
H       3.391577    -2.997538     4.174276 
N      -2.933386    -0.359694     1.813749 
C      -3.298077    -1.688674     1.942716 
O      -3.770044    -2.107962     2.977500 
C      -3.114924    -2.563231     0.713505 
H      -4.083915    -3.035395     0.529657 
H      -2.438458    -3.369751     1.012478 
C      -2.609770    -1.838006    -0.533167 
H      -2.280897    -2.547885    -1.290080 
H      -3.415326    -1.252187    -0.984255 
C      -1.440544    -0.883520    -0.157186 
C      -1.034674     0.050042    -1.338862 
H       0.052256     0.192612    -1.352107 
C      -2.173273     1.774100     2.727462 
H      -2.685186     2.531584     2.128220 
H      -1.946924     2.221239     3.699609 
C      -3.098382     0.564380     2.942316 
H      -2.850391     0.014661     3.852087 
H      -4.143916     0.873370     3.025527 
C      -0.264240    -1.658384     0.450041 
H       0.559754    -0.964686     0.603321 
H      -0.533873    -2.028923     1.443562 
C       0.236216    -2.813044    -0.419269 
H       1.160843    -3.216263     0.003710 
H      -0.482921    -3.634643    -0.481498 
H       0.453340    -2.476204    -1.435458 
O      -1.409443    -0.600301    -2.556129 
C      -0.769870    -0.137539    -3.740678 
H      -1.245631    -0.706952    -4.543975 
H      -0.976835     0.922706    -3.900257 
C       0.723514    -0.382684    -3.751808 
C       1.620006     0.669740    -3.584638 
C       1.225460    -1.673048    -3.914701 
C       2.992249     0.439687    -3.576590 
H       1.231616     1.675300    -3.453138 
C       2.593346    -1.908984    -3.904988 
H       0.532744    -2.499502    -4.049855 
C       3.481305    -0.850712    -3.735026 
H       3.680135     1.270778    -3.451958 
H       2.969529    -2.919248    -4.032295 
H       4.551184    -1.033151    -3.729791 
C      -2.162432     0.081261     0.756715 
O      -2.629939     1.086634     0.052196 
C      -1.760800     1.321150    -0.997601 
C      -1.830058     2.627309    -1.534994 
O      -2.509667     3.549829    -1.107107 
O      -0.952006     2.815859    -2.577165 
C      -0.993351     4.119907    -3.154825 
H      -0.727406     4.882014    -2.417855 
H      -0.267876     4.111905    -3.970314 
H      -1.991344     4.342472    -3.540258 
72
     -1725.726895     -1725.195067  -0.16   1.33
C       1.851118    -0.385925     2.396767 
C       0.960548    -1.475585     2.450568 
C       1.488039    -2.752979     2.566970 
C       2.865311    -2.935684     2.600570 
C       3.730010    -1.832473     2.527152 
C       3.230079    -0.538594     2.427330 
C      -0.221655     0.450774     2.317506 
C      -0.391771    -0.937478     2.341308 
H       0.838356    -3.620890     2.615966 
H       3.260135    -3.939651     2.686048 
H       3.919949     0.296012     2.386173 
H      -0.969692     1.209423     2.500290 
N       1.104904     0.775476     2.311374 
C       1.639875     2.115468     2.212873 
H       2.370143     2.172481     1.400349 
H       0.822490     2.801278     1.989224 
H       2.124671     2.418527     3.146736 
O       5.089943    -1.933003     2.550569 
C       5.663608    -3.219438     2.690403 
H       5.355737    -3.694549     3.629537 
H       5.398667    -3.870430     1.848608 
H       6.743357    -3.067666     2.701125 
N      -1.661011    -2.589419     0.580072 
C      -1.539988    -3.655952    -0.293808 
O      -1.790666    -4.786511     0.064496 
C      -1.115333    -3.325910    -1.715319 
H      -1.855684    -3.792431    -2.370813 
H      -0.179494    -3.867853    -1.884067 
C      -0.965100    -1.837364    -2.025076 
H      -0.445506    -1.687950    -2.970008 
H      -1.949602    -1.374237    -2.133778 
C      -0.199413    -1.124886    -0.872625 
C      -0.227689     0.426579    -1.013399 
H       0.736224     0.861433    -0.715022 
C      -1.659155    -1.603786     2.821495 
H      -2.461061    -0.861355     2.784869 
H      -1.556605    -1.920496     3.863662 
C      -2.046709    -2.828060     1.976724 
H      -1.528950    -3.730993     2.306435 
H      -3.119348    -3.029712     2.040494 
C       1.212383    -1.698575    -0.701531 
H       1.730973    -1.112754     0.055376 
H       1.158962    -2.717713    -0.306840 
C       2.042869    -1.679231    -1.986975 
H       2.025126    -0.691282    -2.457608 
H       3.084092    -1.924140    -1.758413 
H       1.688684    -2.405129    -2.724485 
O      -0.429064     0.732741    -2.398221 
C      -0.140243     2.049270    -2.819799 
H       0.530181     2.544425    -2.106879 
H       0.398150     1.959270    -3.771837 
C      -1.368782     2.911368    -3.036494 
C      -2.656469     2.398686    -2.942626 
C      -1.197966     4.258425    -3.351721 
C      -3.758533     3.223515    -3.148204 
H      -2.796563     1.352947    -2.696550 
C      -2.295188     5.083023    -3.558917 
H      -0.193449     4.668456    -3.430994 
C      -3.583331     4.566317    -3.455875 
H      -4.759378     2.810932    -3.064281 
H      -2.145970     6.130577    -3.803036 
H      -4.444188     5.207595    -3.617642 
C      -1.168583    -1.339484     0.267519 
O      -2.000510    -0.324833     0.335203 
C      -1.326823     0.807234    -0.070367 
C      -1.886429     2.049176     0.320634 
O      -2.891025     2.216549     0.992867 
O      -1.086539     3.091083    -0.068654 
C      -1.662593     4.384682     0.114990 
H      -0.930269     5.094871    -0.270024 
H      -2.592836     4.470650    -0.451889 
H      -1.865417     4.575162     1.171486 
72
     -1725.727436     -1725.194783  -0.50   1.51
C       2.207263    -0.400692     2.069323 
C       1.268624    -1.367670     2.453755 
C       1.707286    -2.678418     2.646427 
C       3.032622    -2.990913     2.428693 
C       3.954292    -2.005206     2.025312 
C       3.556910    -0.689241     1.841721 
C       0.239054     0.639288     2.274386 
C      -0.029725    -0.709570     2.534384 
H       1.016185    -3.458223     2.949509 
H       3.401263    -4.001337     2.565290 
H       4.249599     0.086015     1.542455 
H      -0.392548     1.490720     2.485723 
N       1.557715     0.816023     1.968088 
C       2.155482     2.067610     1.558652 
H       1.376509     2.829233     1.528736 
H       2.936558     2.378355     2.259632 
H       2.586642     1.980437     0.556666 
O       5.228290    -2.453388     1.843402 
C       6.215931    -1.511424     1.471609 
H       5.986111    -1.052031     0.502365 
H       6.325128    -0.727322     2.230855 
H       7.150469    -2.067194     1.392357 
N      -1.777678    -2.424060     1.320896 
C      -1.945980    -3.597906     0.607618 
O      -2.219060    -4.635733     1.171549 
C      -1.804166    -3.503712    -0.902745 
H      -2.710844    -3.947619    -1.322727 
H      -0.986066    -4.179664    -1.170540 
C      -1.572680    -2.097515    -1.453655 
H      -1.247473    -2.135916    -2.491895 
H      -2.506644    -1.529144    -1.439980 
C      -0.517321    -1.349807    -0.587651 
C      -0.421024     0.161748    -0.950160 
H       0.620272     0.508545    -0.895734 
C      -1.219551    -1.166885     3.345247 
H      -1.949502    -0.352596     3.352800 
H      -0.929760    -1.352724     4.383712 
C      -1.871202    -2.440882     2.786322 
H      -1.364769    -3.343489     3.134493 
H      -2.917264    -2.518676     3.094319 
C       0.833923    -2.074733    -0.605838 
H       1.555089    -1.470771    -0.057814 
H       0.759929    -3.020250    -0.059944 
C       1.378045    -2.326519    -2.013982 
H       0.805139    -3.085699    -2.554048 
H       1.367007    -1.411693    -2.614625 
H       2.412429    -2.676941    -1.953314 
O      -0.855881     0.311187    -2.306387 
C      -0.523493     1.514421    -2.966756 
H       0.317810     2.009405    -2.466707 
H      -0.190433     1.233970    -3.974129 
C      -1.678649     2.488875    -3.090981 
C      -2.968846     2.158454    -2.695931 
C      -1.438416     3.751590    -3.630322 
C      -4.002252     3.081632    -2.825943 
H      -3.162407     1.179173    -2.274876 
C      -2.467456     4.673768    -3.762659 
H      -0.432132     4.018395    -3.946032 
C      -3.756693     4.340694    -3.357927 
H      -5.004357     2.812363    -2.506203 
H      -2.264473     5.653843    -4.183929 
H      -4.564453     5.058707    -3.460177 
C      -1.246527    -1.293083     0.735134 
O      -1.953544    -0.185771     0.798775 
C      -1.275567     0.792463     0.106270 
C      -1.624216     2.135035     0.398424 
O      -2.456709     2.513137     1.206142 
O      -0.816470     3.008194    -0.281394 
C      -1.215404     4.376692    -0.197265 
H      -0.505664     4.932895    -0.810256 
H      -2.225007     4.503679    -0.595511 
H      -1.189273     4.727875     0.836997 
72
     -1725.723902     -1725.193794   1.71   2.13
C       1.971272    -1.374127     2.261142 
C       0.934207    -2.251613     1.891037 
C       1.271188    -3.453658     1.286989 
C       2.604244    -3.754520     1.034795 
C       3.616771    -2.852090     1.396636 
C       3.310235    -1.647219     2.019878 
C       0.047593    -0.426309     2.896838 
C      -0.326919    -1.609411     2.248944 
H       0.503930    -4.161587     0.990527 
H       2.849533    -4.694279     0.557523 
H       4.112341    -0.975200     2.301156 
H      -0.567779     0.206524     3.521521 
N       1.403081    -0.269533     2.870471 
C       2.125572     0.879473     3.369195 
H       2.772793     1.289993     2.588642 
H       1.405210     1.646001     3.656575 
H       2.738160     0.615951     4.237415 
O       4.944189    -3.075549     1.178181 
C       5.327262    -4.300101     0.580316 
H       4.905781    -4.403775    -0.426754 
H       6.415326    -4.274707     0.513530 
H       5.022333    -5.156833     1.193103 
N      -1.967581    -1.997157     0.106028 
C      -2.092515    -2.457622    -1.193810 
O      -2.490671    -3.579589    -1.420721 
C      -1.742422    -1.476530    -2.302534 
H      -2.609910    -1.444761    -2.967360 
H      -0.937889    -1.945252    -2.877616 
C      -1.355446    -0.073330    -1.836370 
H      -0.892901     0.490796    -2.645250 
H      -2.256851     0.472747    -1.546221 
C      -0.392162    -0.164782    -0.619726 
C      -0.128706     1.215346     0.065039 
H       0.897874     1.226580     0.448825 
C      -1.640896    -2.308001     2.509211 
H      -2.323434    -1.579933     2.956439 
H      -1.509618    -3.118212     3.232492 
C      -2.267290    -2.889740     1.232476 
H      -1.857296    -3.872139     0.988826 
H      -3.348704    -3.008849     1.339760 
C       0.896110    -0.909217    -0.991695 
H       1.566756    -0.884805    -0.134575 
H       0.682566    -1.966870    -1.175472 
C       1.623449    -0.303118    -2.194536 
H       1.084906    -0.462044    -3.133125 
H       1.762582     0.774580    -2.068302 
H       2.610845    -0.761831    -2.299336 
O      -0.126677     2.314941    -0.846291 
C      -1.321875     3.047454    -1.067496 
H      -2.173901     2.569208    -0.574728 
H      -1.202427     4.037341    -0.608216 
C      -1.598469     3.199752    -2.546294 
C      -2.909182     3.248841    -3.013008 
C      -0.552354     3.316338    -3.459440 
C      -3.174597     3.418194    -4.367649 
H      -3.733264     3.150120    -2.310720 
C      -0.814706     3.482103    -4.813483 
H       0.471118     3.271815    -3.102853 
C      -2.126862     3.535921    -5.272209 
H      -4.202383     3.456085    -4.715520 
H       0.009594     3.571522    -5.514627 
H      -2.330609     3.667298    -6.330161 
C      -1.298686    -0.823750     0.391428 
O      -1.948204     0.097481     1.066947 
C      -1.139896     1.209459     1.169928 
C      -1.486657     2.157143     2.164729 
O      -2.340845     2.029175     3.029434 
O      -0.674986     3.258734     2.098010 
C      -0.958402     4.266450     3.066052 
H      -0.244771     5.070081     2.879180 
H      -1.981474     4.635757     2.955717 
H      -0.836607     3.878831     4.081173 
72
     -1725.724250     -1725.193667   1.49   2.21
C       1.915286    -1.125021     2.334263 
C       0.714709    -1.806417     2.112056 
C       0.757733    -3.186748     1.915342 
C       1.976270    -3.833737     1.929429 
C       3.173917    -3.124617     2.144206 
C       3.163656    -1.752584     2.352550 
C       0.277265     0.394779     2.440176 
C      -0.362986    -0.817252     2.124537 
H      -0.149354    -3.754857     1.734679 
H       2.044924    -4.905044     1.777322 
H       4.070578    -1.189717     2.528524 
H      -0.186384     1.306856     2.789650 
N       1.621173     0.220914     2.515072 
C       2.589874     1.268973     2.757375 
H       3.075093     1.139427     3.729717 
H       3.352507     1.268858     1.973747 
H       2.075360     2.229861     2.737665 
O       4.301198    -3.888160     2.130673 
C       5.540290    -3.248692     2.371542 
H       5.560846    -2.779673     3.362832 
H       6.298198    -4.031057     2.328490 
H       5.756602    -2.494125     1.605379 
N      -1.909169    -1.602550     0.153466 
C      -1.926378    -2.542458    -0.866847 
O      -2.443710    -3.626700    -0.707849 
C      -1.322280    -2.106633    -2.187679 
H      -2.080692    -2.309267    -2.948638 
H      -0.491307    -2.787635    -2.395255 
C      -0.891021    -0.644298    -2.221455 
H      -0.326249    -0.420887    -3.124771 
H      -1.775022    -0.005043    -2.240611 
C      -0.042517    -0.310582    -0.967379 
C       0.287066     1.215710    -0.840194 
H       1.324852     1.342007    -0.510641 
C      -1.790143    -1.105344     2.533612 
H      -2.292495    -0.149224     2.696666 
H      -1.814197    -1.659838     3.475291 
C      -2.527136    -1.909893     1.447557 
H      -2.442675    -2.986208     1.599605 
H      -3.592457    -1.664571     1.423786 
C       1.220320    -1.179194    -0.901224 
H       1.822884    -0.836335    -0.061642 
H       0.964244    -2.219483    -0.684557 
C       2.073217    -1.101561    -2.170063 
H       1.603084    -1.605539    -3.019284 
H       2.260964    -0.063625    -2.461484 
H       3.039230    -1.584198    -1.996447 
O       0.250372     1.853446    -2.130100 
C      -0.634787     2.945477    -2.363357 
H      -0.696984     3.592939    -1.487888 
H      -0.155714     3.513346    -3.166802 
C      -2.014794     2.517400    -2.808250 
C      -3.104061     2.560810    -1.942955 
C      -2.203571     2.039878    -4.105082 
C      -4.355804     2.120098    -2.361545 
H      -2.975414     2.931105    -0.930856 
C      -3.448947     1.595381    -4.525623 
H      -1.357301     2.006894    -4.786604 
C      -4.530537     1.632840    -3.650395 
H      -5.195965     2.155850    -1.674631 
H      -3.578569     1.221564    -5.536800 
H      -5.507247     1.287460    -3.975041 
C      -1.078162    -0.497517     0.131132 
O      -1.640087     0.668887     0.404251 
C      -0.671943     1.650563     0.210622 
C      -0.790058     2.811718     0.995899 
O      -1.623422     3.034297     1.868181 
O       0.225948     3.701789     0.729498 
C       0.154308     4.921466     1.462225 
H       1.009435     5.517274     1.139282 
H      -0.777442     5.451667     1.246925 
H       0.205580     4.736751     2.538735 
72
     -1725.722369     -1725.193050   2.68   2.60
C       0.810192     2.243295    -1.771384 
C       1.600292     1.234170    -2.340010 
C       1.391380     0.906769    -3.680466 
C       0.397226     1.544456    -4.391890 
C      -0.408683     2.529502    -3.787915 
C      -0.212356     2.899651    -2.466446 
C       2.259896     1.578373    -0.205023 
C       2.503542     0.747646    -1.303471 
H       1.994812     0.148711    -4.168070 
H       0.210537     1.307604    -5.433254 
H      -0.808210     3.664840    -1.987306 
H       2.862476     1.700061     0.684368 
N       1.236696     2.446729    -0.474429 
C       0.660200     3.371172     0.474774 
H       1.205714     3.288925     1.415033 
H       0.731173     4.401619     0.112682 
H      -0.390765     3.130947     0.666045 
O      -1.359717     3.067980    -4.601763 
C      -2.192407     4.080311    -4.069332 
H      -2.867607     4.371697    -4.874129 
H      -2.780566     3.708945    -3.221184 
H      -1.607539     4.953313    -3.754708 
N       2.511921    -2.048220    -1.350349 
C       2.090791    -3.313034    -1.693337 
O       2.666877    -3.956826    -2.546223 
C       0.896082    -3.869173    -0.928256 
H       1.292212    -4.695562    -0.329989 
H       0.263967    -4.335724    -1.685272 
C       0.103510    -2.901838    -0.026957 
H      -0.953724    -3.176696    -0.009875 
H       0.462185    -2.987349     1.001477 
C       0.235231    -1.408411    -0.449723 
C      -0.075424    -0.464957     0.747428 
H      -0.455527     0.490143     0.360260 
C       3.806050     0.011145    -1.519269 
H       4.328775    -0.034127    -0.558849 
H       4.448309     0.566285    -2.210121 
C       3.622454    -1.409620    -2.063561 
H       3.389420    -1.403743    -3.132960 
H       4.531204    -2.002204    -1.936108 
C      -0.652204    -1.052627    -1.649820 
H      -1.684120    -1.177458    -1.295409 
H      -0.535271     0.010551    -1.861432 
C      -0.481761    -1.836750    -2.951080 
H      -0.819382    -2.871384    -2.861800 
H      -1.079876    -1.363868    -3.734866 
H       0.553510    -1.842707    -3.299155 
O      -1.060359    -1.030964     1.597945 
C      -2.105534    -0.147922     1.972227 
H      -1.682314     0.822493     2.262366 
H      -2.785928     0.018867     1.123653 
C      -2.861647    -0.739191     3.133893 
C      -2.170114    -1.283861     4.215927 
C      -4.251721    -0.714753     3.161269 
C      -2.861994    -1.792184     5.306064 
H      -1.085903    -1.310559     4.192656 
C      -4.947378    -1.220358     4.255127 
H      -4.798940    -0.299619     2.318883 
C      -4.253346    -1.759543     5.329809 
H      -2.315009    -2.216976     6.142288 
H      -6.032614    -1.194164     4.264498 
H      -4.793172    -2.156267     6.183873 
C       1.731718    -1.247572    -0.533115 
O       2.203748    -1.012624     0.685686 
C       1.277245    -0.309117     1.384047 
C       1.683985     0.241828     2.636218 
O       2.810482     0.235876     3.098394 
O       0.638340     0.862692     3.260349 
C       0.941628     1.397782     4.549073 
H       1.705338     2.176541     4.477320 
H       0.007169     1.814134     4.927463 
H       1.304822     0.612906     5.217207 
72
     -1725.722369     -1725.193047   2.68   2.60
C       1.702636     2.182891     1.078065 
C       2.024338     1.188206     2.012424 
C       3.354370     0.776708     2.109133 
C       4.299885     1.319586     1.265101 
C       3.945483     2.291382     0.308749 
C       2.639425     2.743777     0.202070 
C      -0.174688     1.684533     2.184673 
C       0.790844     0.809028     2.691899 
H       3.652896     0.026699     2.833637 
H       5.339443     1.016027     1.315705 
H       2.348033     3.500877    -0.513489 
H      -1.161453     1.887374     2.577194 
N       0.360961     2.480138     1.208102 
C      -0.382502     3.422978     0.404210 
H      -1.420426     3.421237     0.737597 
H       0.022094     4.434485     0.509726 
H      -0.361505     3.137888    -0.652717 
O       4.975305     2.732055    -0.467168 
C       4.698117     3.725643    -1.435475 
H       3.970991     3.370267    -2.175877 
H       4.324722     4.644994    -0.967971 
H       5.644682     3.935335    -1.934016 
N       0.652457    -1.980701     2.824832 
C       0.993264    -3.283390     2.539225 
O       1.661341    -3.941115     3.310481 
C       0.463034    -3.860298     1.232313 
H      -0.258285    -4.629644     1.524839 
H       1.304226    -4.401585     0.796745 
C      -0.185133    -2.889011     0.225952 
H       0.003771    -3.219248    -0.798178 
H      -1.269488    -2.898232     0.359078 
C       0.296886    -1.416211     0.383783 
C      -0.743372    -0.426406    -0.214493 
H      -0.223138     0.484041    -0.541642 
C       0.678044     0.133110     4.039462 
H      -0.372018     0.168888     4.345712 
H       1.252215     0.683312     4.791501 
C       1.155126    -1.323224     4.035122 
H       2.247681    -1.388631     4.036385 
H       0.800328    -1.858011     4.919060 
C       1.678005    -1.175534    -0.239852 
H       1.542253    -1.336224    -1.317716 
H       1.929142    -0.120868    -0.124057 
C       2.859778    -2.019808     0.237412 
H       3.781423    -1.623966    -0.197975 
H       2.980192    -1.988834     1.322548 
H       2.776338    -3.064722    -0.068560 
O      -1.401665    -0.997028    -1.334702 
C      -1.488007    -0.152448    -2.471127 
H      -1.797126     0.853890    -2.160106 
H      -0.505700    -0.069559    -2.960039 
C      -2.499523    -0.718882    -3.433816 
C      -3.736409    -1.165384    -2.968601 
C      -2.230702    -0.767798    -4.797268 
C      -4.686313    -1.649619    -3.856685 
H      -3.944733    -1.134923    -1.904437 
C      -3.183252    -1.249325    -5.689946 
H      -1.266470    -0.429539    -5.167724 
C      -4.413143    -1.690626    -5.220935 
H      -5.645118    -1.997850    -3.484744 
H      -2.961212    -1.281077    -6.752114 
H      -5.157709    -2.068366    -5.914593 
C       0.072560    -1.179597     1.855512 
O      -1.200554    -0.852927     2.045456 
C      -1.639909    -0.163041     0.962880 
C      -2.911245     0.476845     1.068948 
O      -3.600633     0.556612     2.069445 
O      -3.258288     1.074135    -0.110520 
C      -4.544474     1.694498    -0.112639 
H      -4.688720     2.080331    -1.122620 
H      -5.323852     0.967969     0.130400 
H      -4.585518     2.507917     0.616423 
72
     -1725.724302     -1725.193025   1.46   2.61
C      -0.969687    -2.897767     0.428664 
C      -0.228549    -2.561174     1.577471 
C      -0.797107    -2.790339     2.821289 
C      -2.079030    -3.320140     2.910861 
C      -2.801157    -3.633052     1.748691 
C      -2.250765    -3.426850     0.487974 
C       1.001579    -2.103950    -0.268700 
C       1.037903    -1.991620     1.126593 
H      -0.261396    -2.542851     3.732519 
H      -2.510773    -3.488423     3.888845 
H      -2.825896    -3.688547    -0.392334 
H       1.834357    -2.040099    -0.955097 
N      -0.199051    -2.600728    -0.682456 
C      -0.607238    -2.766989    -2.060355 
H      -0.694934    -3.826379    -2.322365 
H      -1.570757    -2.278285    -2.231139 
H       0.136206    -2.294544    -2.702697 
O      -4.062361    -4.151742     1.757148 
C      -4.667515    -4.419770     3.008407 
H      -4.087269    -5.150160     3.584886 
H      -4.790211    -3.503907     3.598938 
H      -5.649713    -4.836938     2.784184 
N       1.413299     0.154948     2.725816 
C       0.804126     0.901667     3.722604 
O       1.001951     0.658558     4.892992 
C      -0.073858     2.056070     3.268212 
H       0.290287     2.941149     3.796905 
H      -1.073652     1.855922     3.664771 
C      -0.099588     2.284938     1.758426 
H      -0.894844     2.976094     1.480223 
H       0.843907     2.742005     1.449877 
C      -0.283671     0.931659     1.020920 
C      -0.112463     1.045012    -0.531124 
H      -0.871914     0.437573    -1.032469 
C       2.327021    -1.965691     1.912550 
H       3.131612    -1.688723     1.226456 
H       2.558933    -2.960427     2.303734 
C       2.279643    -0.974665     3.087892 
H       1.858872    -1.426593     3.987371 
H       3.279671    -0.613817     3.343280 
C      -1.605715     0.264164     1.420339 
H      -1.729239    -0.631439     0.814829 
H      -1.563220    -0.078274     2.458169 
C      -2.827613     1.162744     1.212875 
H      -2.829991     1.607277     0.212657 
H      -3.742337     0.573220     1.321405 
H      -2.875562     1.978495     1.940173 
O      -0.389368     2.368012    -1.019307 
C       0.690936     3.269099    -1.192550 
H       0.357073     4.234015    -0.789167 
H       1.567745     2.955287    -0.617324 
C       1.089331     3.452920    -2.641890 
C       0.144199     3.369805    -3.660447 
C       2.409027     3.751878    -2.966630 
C       0.513340     3.587440    -4.981376 
H      -0.881116     3.119056    -3.411606 
C       2.780787     3.976959    -4.287892 
H       3.158130     3.803146    -2.180666 
C       1.832526     3.895185    -5.299932 
H      -0.233087     3.519807    -5.767452 
H       3.813784     4.213186    -4.525240 
H       2.118784     4.070046    -6.332490 
C       0.993426     0.219165     1.413868 
O       1.910189     0.409431     0.489306 
C       1.262856     0.507974    -0.730573 
C       2.026281     0.249213    -1.895066 
O       3.199952    -0.087869    -1.942365 
O       1.239752     0.331336    -3.009082 
C       1.937266     0.230013    -4.249791 
H       2.419178    -0.746041    -4.350032 
H       1.183482     0.368951    -5.025046 
H       2.693235     1.014369    -4.327466 
72
     -1725.723532     -1725.191100   1.95   3.82
C      -1.676915    -1.627698    -0.594460 
C      -2.186486    -0.969467     0.534557 
C      -3.234667    -0.066402     0.352511 
C      -3.702274     0.192573    -0.919367 
C      -3.148004    -0.454477    -2.040903 
C      -2.129401    -1.382233    -1.896523 
C      -0.583562    -2.425179     1.182661 
C      -1.431295    -1.435740     1.695047 
H      -3.680688     0.444862     1.198832 
H      -4.511674     0.893719    -1.088762 
H      -1.703035    -1.906809    -2.741229 
H      -0.014834    -3.162385     1.732485 
N      -0.715564    -2.523780    -0.176182 
C       0.084049    -3.375727    -1.025896 
H       0.718061    -2.784225    -1.694871 
H       0.732894    -3.983405    -0.394625 
H      -0.549600    -4.038309    -1.623521 
O      -3.694168    -0.098606    -3.239467 
C      -3.315949    -0.837598    -4.384730 
H      -2.250104    -0.714658    -4.613133 
H      -3.538577    -1.904395    -4.260512 
H      -3.905464    -0.440260    -5.211248 
N      -0.686098     0.700122     3.365540 
C      -0.476764     2.006655     3.745457 
O      -1.242521     2.573368     4.498118 
C       0.774579     2.687298     3.200947 
H       1.443881     2.798695     4.059828 
H       0.458659     3.699932     2.945218 
C       1.522287     2.003415     2.036513 
H       1.925308     2.752408     1.350306 
H       2.377961     1.449753     2.430178 
C       0.638256     1.004647     1.233904 
C       1.516884    -0.058178     0.516074 
H       0.960639    -0.447337    -0.345129 
C      -1.882689    -1.406518     3.139522 
H      -1.193415    -2.031689     3.716222 
H      -2.878344    -1.851022     3.235717 
C      -1.914569    -0.002080     3.748391 
H      -2.774601     0.571709     3.386025 
H      -1.991560    -0.043376     4.837066 
C      -0.298033     1.711926     0.243785 
H       0.352299     2.248816    -0.454899 
H      -0.805264     0.953739    -0.353770 
C      -1.340610     2.687359     0.789594 
H      -1.989694     3.007658    -0.030256 
H      -1.982122     2.233099     1.547625 
H      -0.891385     3.585993     1.218000 
O       2.746633     0.484779     0.055704 
C       3.017092     0.256707    -1.322085 
H       4.082960     0.465164    -1.442690 
H       2.848710    -0.798089    -1.568655 
C       2.194271     1.156214    -2.216927 
C       2.497330     2.514810    -2.300591 
C       1.086283     0.672965    -2.906034 
C       1.706413     3.372954    -3.051229 
H       3.358474     2.900931    -1.762142 
C       0.282056     1.530315    -3.649439 
H       0.835728    -0.382731    -2.847242 
C       0.590821     2.881787    -3.724060 
H       1.955156     4.428044    -3.108654 
H      -0.590711     1.143234    -4.165781 
H      -0.032824     3.552212    -4.306827 
C       0.058853     0.150642     2.331975 
O       0.969068    -0.760755     2.684759 
C       1.675226    -1.106108     1.582319 
C       2.536051    -2.242734     1.675183 
O       2.642838    -2.992224     2.628656 
O       3.204717    -2.447993     0.501892 
C       4.113207    -3.549035     0.520255 
H       4.574108    -3.573246    -0.467998 
H       4.875529    -3.407832     1.290490 
H       3.586180    -4.486202     0.718479 
72
     -1725.724160     -1725.190987   1.55   3.89
C      -1.227369    -2.109693    -0.584160 
C      -0.665889    -2.597205     0.604392 
C      -1.523926    -2.961461     1.642840 
C      -2.885440    -2.805560     1.488049 
C      -3.425105    -2.293639     0.292346 
C      -2.603529    -1.939137    -0.767391 
C       0.991233    -2.153661    -0.872749 
C       0.781862    -2.570242     0.447834 
H      -1.133065    -3.350857     2.577301 
H      -3.575641    -3.075808     2.279308 
H      -2.996899    -1.553369    -1.698402 
H       1.885810    -2.271675    -1.467704 
N      -0.202411    -1.849186    -1.472583 
C      -0.350028    -1.270908    -2.789542 
H      -0.933264    -1.926149    -3.444404 
H      -0.836248    -0.291506    -2.733282 
H       0.642452    -1.133114    -3.219360 
O      -4.784038    -2.188424     0.276478 
C      -5.398264    -1.716097    -0.906875 
H      -5.180116    -2.372055    -1.758560 
H      -6.471384    -1.721880    -0.714692 
H      -5.079378    -0.693324    -1.142646 
N       1.790609    -1.475545     2.775191 
C       1.549641    -0.861433     3.988593 
O       1.496559    -1.504462     5.015573 
C       1.376313     0.651182     3.969039 
H       2.078660     1.049224     4.706361 
H       0.376400     0.837344     4.373990 
C       1.560253     1.328533     2.609355 
H       1.165158     2.345045     2.641518 
H       2.622769     1.414830     2.366199 
C       0.863166     0.501031     1.496762 
C       1.258318     0.981465     0.054143 
H       0.382861     0.930734    -0.604377 
C       1.780833    -3.385273     1.234783 
H       2.751059    -3.296951     0.737775 
H       1.507123    -4.444757     1.223629 
C       1.909461    -2.938201     2.700098 
H       1.119920    -3.362972     3.324167 
H       2.863820    -3.257086     3.127200 
C      -0.642617     0.334312     1.753442 
H      -1.079956    -0.172628     0.895780 
H      -0.778193    -0.348437     2.598119 
C      -1.446635     1.609091     2.005979 
H      -2.479153     1.338808     2.245825 
H      -1.061038     2.203664     2.839251 
H      -1.480959     2.240563     1.116613 
O       1.798707     2.301875    -0.006340 
C       0.884120     3.379802    -0.066943 
H       0.311232     3.467333     0.864556 
H       1.519954     4.268784    -0.135074 
C      -0.069935     3.359561    -1.245679 
C       0.329663     2.857487    -2.482532 
C      -1.349873     3.892474    -1.114805 
C      -0.542636     2.880231    -3.563969 
H       1.323920     2.439912    -2.587214 
C      -2.221757     3.921588    -2.197612 
H      -1.670495     4.296211    -0.157777 
C      -1.820263     3.412634    -3.426252 
H      -0.219983     2.486277    -4.523262 
H      -3.215099     4.343030    -2.079729 
H      -2.498134     3.433320    -4.273576 
C       1.639286    -0.793494     1.585162 
O       2.669007    -0.752165     0.774729 
C       2.325341    -0.003938    -0.320481 
C       3.248785    -0.070995    -1.405123 
O       4.187851    -0.844536    -1.489700 
O       2.919298     0.779564    -2.419814 
C       3.819556     0.763411    -3.527255 
H       3.428207     1.489575    -4.241449 
H       4.825822     1.049359    -3.211201 
H       3.863696    -0.230435    -3.979866 
72
     -1725.722120     -1725.189416   2.83   4.88
C       0.777776    -2.846127    -0.411492 
C       0.698187    -2.371339    -1.728114 
C       1.771969    -2.616100    -2.585356 
C       2.885541    -3.277548    -2.112240 
C       2.955190    -3.716623    -0.775812 
C       1.898311    -3.511674     0.097986 
C      -1.233808    -1.901561    -0.650934 
C      -0.586488    -1.696745    -1.873736 
H       1.746080    -2.284748    -3.617935 
H       3.734817    -3.479232    -2.755341 
H       1.922973    -3.854947     1.123520 
H      -2.284229    -1.778386    -0.427642 
N      -0.411170    -2.550920     0.226583 
C      -0.735293    -2.859899     1.601543 
H      -0.765303    -3.941904     1.765822 
H      -0.000388    -2.415722     2.279875 
H      -1.711493    -2.433787     1.832087 
O       4.116646    -4.345475    -0.439980 
C       4.247121    -4.836214     0.880451 
H       5.231694    -5.301147     0.935144 
H       4.189751    -4.024580     1.616106 
H       3.479955    -5.587583     1.104318 
N      -0.135724     0.686492    -3.220440 
C       0.638234     1.686457    -3.765896 
O       0.888699     1.707146    -4.953227 
C       1.123961     2.770411    -2.815976 
H       0.643820     3.693326    -3.155649 
H       2.184346     2.896468    -3.037703 
C       0.863376     2.568102    -1.313110 
H       1.636633     3.063615    -0.722871 
H      -0.083305     3.043155    -1.047094 
C       0.776852     1.069418    -0.885909 
C       0.018307     0.920064     0.466853 
H       0.415663     0.065754     1.032596 
C      -1.324280    -1.444727    -3.168284 
H      -2.333338    -1.103695    -2.917709 
H      -1.428795    -2.373748    -3.737170 
C      -0.640080    -0.403892    -4.061866 
H       0.206377    -0.832189    -4.606024 
H      -1.333083    -0.005664    -4.806914 
C       2.155831     0.402641    -0.787723 
H       2.647579     0.890529     0.064223 
H       2.011979    -0.637021    -0.494431 
C       3.094094     0.453754    -1.993834 
H       3.942896    -0.211792    -1.814453 
H       2.612058     0.113347    -2.913035 
H       3.495610     1.454694    -2.165610 
O       0.267261     2.099503     1.230469 
C       0.024458     2.047429     2.620902 
H      -0.035087     1.007662     2.964100 
H       0.893173     2.507739     3.108614 
C      -1.226345     2.791793     3.044975 
C      -1.974045     3.545059     2.148311 
C      -1.631816     2.726548     4.376841 
C      -3.117440     4.214295     2.574138 
H      -1.665184     3.600095     1.111366 
C      -2.772292     3.392722     4.804367 
H      -1.050850     2.142654     5.087433 
C      -3.521676     4.139984     3.900814 
H      -3.694893     4.795440     1.861470 
H      -3.076287     3.331129     5.844985 
H      -4.413219     4.663620     4.231498 
C      -0.261924     0.551048    -1.849921 
O      -1.464563     0.766204    -1.344751 
C      -1.392485     0.677210     0.014422 
C      -2.620125     0.484002     0.709091 
O      -3.731859     0.430137     0.214070 
O      -2.396978     0.263039     2.039169 
C      -3.573303     0.246250     2.849955 
H      -4.257029    -0.542251     2.527473 
H      -3.230060     0.066931     3.868938 
H      -4.082977     1.211373     2.797678 
72
     -1725.717709     -1725.187302   5.60   6.20
C       1.412250    -2.634961     1.245205 
C       0.857928    -2.899853    -0.022955 
C       1.710300    -3.293685    -1.043465 
C       3.078265    -3.380045    -0.814309 
C       3.606724    -3.074459     0.449678 
C       2.775107    -2.700491     1.499498 
C      -0.802647    -2.396443     1.428880 
C      -0.581480    -2.677636     0.076611 
H       1.324203    -3.527593    -2.030029 
H       3.728333    -3.686733    -1.623274 
H       3.206641    -2.487579     2.470277 
H      -1.744911    -2.405212     1.959545 
N       0.378045    -2.339064     2.112695 
C       0.522938    -1.957767     3.499709 
H       1.109143    -1.037933     3.590696 
H      -0.468488    -1.775373     3.914685 
H       1.010438    -2.751631     4.074033 
O       4.936830    -3.125193     0.747005 
C       5.835021    -3.522122    -0.272329 
H       5.805060    -2.831508    -1.123680 
H       6.828814    -3.497173     0.175720 
H       5.620791    -4.539723    -0.620404 
N      -1.393316    -1.212924    -2.135589 
C      -1.190422    -0.460462    -3.272794 
O      -1.254384    -0.964122    -4.374577 
C      -0.924999     1.024425    -3.073760 
H      -1.781198     1.538169    -3.521820 
H      -0.076271     1.257527    -3.717626 
C      -0.716634     1.519025    -1.631387 
H      -0.066409     2.396278    -1.619746 
H      -1.682529     1.839753    -1.237510 
C      -0.135949     0.433339    -0.677353 
C      -0.403886     0.768736     0.827400 
H       0.407175     0.334314     1.423209 
C      -1.645099    -3.257413    -0.826349 
H      -2.617189    -3.072238    -0.358934 
H      -1.527723    -4.342121    -0.911291 
C      -1.633481    -2.656524    -2.236460 
H      -0.840407    -3.089583    -2.852841 
H      -2.578796    -2.839112    -2.753076 
C       1.368393     0.211359    -0.891194 
H       1.840435     1.146355    -0.562197 
H       1.701921    -0.552094    -0.188844 
C       1.886654    -0.138986    -2.286460 
H       2.937202    -0.433326    -2.210967 
H       1.352309    -0.980523    -2.733182 
H       1.835219     0.706468    -2.975479 
O      -0.296671     2.157648     1.127780 
C      -1.457608     2.973909     1.150509 
H      -2.339613     2.410696     0.829727 
H      -1.633824     3.277625     2.190245 
C      -1.283323     4.201952     0.285331 
C      -0.030759     4.789873     0.123292 
C      -2.385242     4.778645    -0.340635 
C       0.114384     5.936138    -0.648335 
H       0.832476     4.339865     0.601795 
C      -2.243104     5.927503    -1.111062 
H      -3.366342     4.323849    -0.227801 
C      -0.991482     6.510262    -1.266359 
H       1.096275     6.384336    -0.766824 
H      -3.112438     6.366113    -1.591363 
H      -0.877068     7.406672    -1.867500 
C      -1.117539    -0.692692    -0.883914 
O      -2.143333    -0.531827    -0.070428 
C      -1.707350     0.071277     1.076946 
C      -2.560679    -0.002983     2.210953 
O      -3.604629    -0.629003     2.298410 
O      -2.024615     0.678716     3.269759 
C      -2.824459     0.668297     4.451177 
H      -2.273580     1.250711     5.190831 
H      -3.801293     1.121457     4.263036 
H      -2.978112    -0.353187     4.809458 
72
     -1725.718820     -1725.186961   4.90   6.42
C      -1.834717    -1.105135     2.067362 
C      -0.709444    -0.820534     2.853822 
C      -0.885148    -0.055658     4.007730 
C      -2.137609     0.429058     4.320551 
C      -3.246831     0.158799     3.495615 
C      -3.114646    -0.618408     2.355024 
C      -0.097757    -2.158139     1.136856 
C       0.441202    -1.449165     2.215941 
H      -0.046663     0.170628     4.657755 
H      -2.302750     1.027941     5.209125 
H      -3.955482    -0.853326     1.716322 
H       0.373335    -2.936967     0.553222 
N      -1.439691    -1.927266     1.030036 
C      -2.286140    -2.420848    -0.033691 
H      -1.671499    -2.994865    -0.727111 
H      -3.078203    -3.065026     0.361027 
H      -2.739070    -1.591281    -0.585194 
O      -4.420453     0.709019     3.916600 
C      -5.582635     0.458118     3.149991 
H      -6.397470     0.976069     3.656267 
H      -5.482262     0.851945     2.131138 
H      -5.808066    -0.614519     3.106782 
N       2.543095     0.373755     2.187894 
C       3.117734     1.615125     2.351936 
O       3.729578     1.893400     3.362145 
C       2.978350     2.596065     1.196287 
H       3.994729     2.755782     0.823069 
H       2.683973     3.541659     1.652574 
C       2.049518     2.194475     0.036337 
H       1.618185     3.082917    -0.432058 
H       2.649912     1.691626    -0.724406 
C       0.901660     1.231811     0.460335 
C       0.317388     0.457030    -0.765392 
H      -0.739034     0.241276    -0.570151 
C       1.743582    -1.825408     2.883953 
H       2.304214    -2.461574     2.192329 
H       1.554790    -2.416925     3.785134 
C       2.599921    -0.614729     3.270745 
H       2.234654    -0.138218     4.185108 
H       3.637533    -0.905137     3.451486 
C      -0.231143     1.959724     1.198178 
H      -0.685664     2.616528     0.444854 
H      -0.995525     1.225823     1.452304 
C       0.094295     2.786372     2.442795 
H       0.673174     2.224230     3.179111 
H       0.637853     3.703121     2.204917 
H      -0.839987     3.079290     2.929478 
O       0.262511     1.250440    -1.951309 
C       1.301088     1.166117    -2.911275 
H       1.722028     2.173424    -3.036270 
H       2.107058     0.513007    -2.560358 
C       0.803823     0.665509    -4.250194 
C       1.700558     0.077699    -5.138451 
C      -0.528598     0.801172    -4.625221 
C       1.275026    -0.369623    -6.383322 
H       2.742070    -0.042090    -4.849913 
C      -0.957210     0.354909    -5.870045 
H      -1.231997     1.246085    -3.930939 
C      -0.057874    -0.231422    -6.753739 
H       1.985994    -0.826030    -7.065591 
H      -2.000298     0.466041    -6.151354 
H      -0.393789    -0.578111    -7.726025 
C       1.673452     0.128051     1.139843 
O       2.074374    -0.743663     0.228551 
C       1.147086    -0.790601    -0.770818 
C       1.186394    -1.903131    -1.661072 
O       1.943757    -2.856960    -1.604315 
O       0.195804    -1.796666    -2.588503 
C       0.224391    -2.770470    -3.632223 
H      -0.046924    -3.757963    -3.248033 
H      -0.498210    -2.429931    -4.373703 
H       1.218692    -2.824254    -4.079851 
72
     -1725.716656     -1725.184303   6.26   8.08
C       1.660747    -1.947723     1.932166 
C       0.744373    -2.545958     1.046300 
C       1.189462    -3.585322     0.244364 
C       2.519351    -3.986675     0.299376 
C       3.419199    -3.345935     1.164539 
C       2.996309    -2.315601     1.998334 
C      -0.328697    -0.999062     2.304193 
C      -0.544207    -1.880170     1.234733 
H       0.513162    -4.088998    -0.438402 
H       2.849456    -4.798961    -0.334961 
H       3.706292    -1.851083     2.672323 
H      -1.078752    -0.523481     2.920740 
N       0.978644    -1.005110     2.683311 
C       1.564878    -0.147139     3.689692 
H       2.004336    -0.738981     4.498372 
H       2.338473     0.488911     3.249168 
H       0.783506     0.494354     4.096922 
O       4.738605    -3.674283     1.264886 
C       5.227639    -4.731617     0.460585 
H       6.287400    -4.825892     0.699306 
H       4.719818    -5.676138     0.689689 
H       5.116071    -4.507039    -0.606965 
N      -1.586775    -1.441116    -1.231062 
C      -1.478849    -1.426458    -2.608294 
O      -1.869665    -2.363916    -3.270891 
C      -0.900652    -0.170945    -3.233145 
H      -1.701933     0.243165    -3.853045 
H      -0.135343    -0.509926    -3.931776 
C      -0.389827     0.906474    -2.267254 
H       0.367783     1.526252    -2.750550 
H      -1.219590     1.566433    -2.019079 
C       0.193126     0.342536    -0.938013 
C       0.266840     1.450650     0.169212 
H       1.152014     1.276815     0.792962 
C      -1.899163    -2.485943     0.947849 
H      -2.656186    -1.850496     1.415631 
H      -1.980430    -3.479268     1.398735 
C      -2.176743    -2.601618    -0.556163 
H      -1.725514    -3.499471    -0.985352 
H      -3.249186    -2.649858    -0.762440 
C       1.584353    -0.281682    -1.122810 
H       2.245037     0.569066    -1.334636 
H       1.910426    -0.676300    -0.161418 
C       1.799066    -1.345037    -2.200459 
H       2.773742    -1.816300    -2.046117 
H       1.052912    -2.141502    -2.162375 
H       1.799558    -0.919696    -3.206219 
O       0.505822     2.733555    -0.429405 
C      -0.383410     3.824875    -0.198713 
H      -0.748173     3.823704     0.828015 
H       0.243706     4.712144    -0.328785 
C      -1.536976     3.884045    -1.174674 
C      -1.312681     4.316064    -2.481560 
C      -2.820053     3.485021    -0.809822 
C      -2.341507     4.331169    -3.412663 
H      -0.313636     4.631094    -2.771796 
C      -3.855741     3.502225    -1.738999 
H      -3.013816     3.147595     0.203565 
C      -3.618650     3.920474    -3.042019 
H      -2.149483     4.665164    -4.427824 
H      -4.850067     3.183250    -1.441624 
H      -4.427001     3.931696    -3.766624 
C      -0.971116    -0.487358    -0.441662 
O      -1.764604     0.267037     0.294843 
C      -0.990778     1.213351     0.937019 
C      -1.501052     1.724201     2.150783 
O      -2.565540     1.438615     2.682403 
O      -0.596490     2.565159     2.756759 
C      -1.061853     3.169370     3.961444 
H      -1.963475     3.759684     3.777315 
H      -1.291763     2.412654     4.716438 
H      -0.252731     3.815257     4.305622 
