72
     -1725.718990     -1725.191507   0.00   0.00
C       0.383630    -4.150355     1.600710 
C       0.683527    -2.795762     1.829090 
C      -0.374861    -1.908084     2.075916 
C      -1.666406    -2.378808     2.066326 
C      -1.944453    -3.742370     1.819930 
C      -0.927449    -4.650646     1.586539 
C       2.597337    -3.900370     1.479766 
C       2.113758    -2.654644     1.740217 
H      -0.185765    -0.857328     2.268676 
H      -2.505968    -1.718049     2.251878 
H      -1.120499    -5.698738     1.400431 
H       3.616541    -4.224035     1.318364 
N       1.565696    -4.815088     1.394701 
C       1.705726    -6.225805     1.114091 
H       2.764832    -6.457419     0.992966 
H       1.309860    -6.831213     1.935961 
H       1.185255    -6.495327     0.189483 
O      -3.269950    -4.063357     1.837453 
C      -3.626479    -5.413622     1.615434 
H      -3.197195    -6.071409     2.381268 
H      -4.714406    -5.454375     1.675929 
H      -3.307145    -5.753710     0.622473 
N       1.837637    -0.659535    -0.398872 
C       1.386142    -1.736751    -1.210525 
O       2.160213    -2.578799    -1.582457 
C      -0.113555    -1.826113    -1.504968 
H      -0.459614    -2.678676    -0.912231 
H      -0.179116    -2.142866    -2.548182 
C      -0.989180    -0.579930    -1.225598 
H      -1.784496    -0.502071    -1.971538 
H      -1.463022    -0.653286    -0.246766 
C      -0.077247     0.643844    -1.260329 
C      -0.491591     2.018292    -0.685336 
H      -0.582570     2.780362    -1.463695 
C       2.879298    -1.366417     1.771637 
H       3.871516    -1.513731     2.209954 
H       2.359017    -0.638656     2.399810 
C       3.086168    -0.771225     0.369243 
H       3.516028     0.230156     0.439506 
H       3.745505    -1.405807    -0.223709 
C       0.497142     0.834334    -2.685354 
H       0.808892    -0.135338    -3.086433 
H      -0.349161     1.152386    -3.306284 
C       1.654866     1.817978    -2.852862 
H       1.949687     1.854672    -3.905802 
H       1.397193     2.833660    -2.545718 
H       2.532539     1.507668    -2.277648 
O      -1.693416     1.910995     0.055567 
C      -2.087400     3.142488     0.652664 
H      -2.877543     2.876429     1.359591 
H      -1.245967     3.565298     1.216544 
C      -2.598653     4.146088    -0.356458 
C      -1.818616     5.231548    -0.745615 
C      -3.856982     3.974770    -0.932225 
C      -2.291429     6.134003    -1.693306 
H      -0.826566     5.360120    -0.322176 
C      -4.331656     4.874011    -1.876642 
H      -4.467516     3.125775    -0.635755 
C      -3.547506     5.958675    -2.258618 
H      -1.671637     6.973945    -1.991044 
H      -5.313605     4.729809    -2.316738 
H      -3.916087     6.663099    -2.997913 
C       1.003244     0.384174    -0.235926 
O       0.893032     0.992768     0.928190 
C       0.752652     2.219803     0.122617 
C       1.675636     3.284647     0.238264 
O       1.527632     4.382446    -0.282256 
O       2.783348     2.964959     0.968668 
C       3.724881     4.026108     1.118105 
H       3.267956     4.882370     1.620675 
H       4.535392     3.620581     1.724829 
H       4.102939     4.351456     0.145510 
72
     -1725.718989     -1725.191501   0.00   0.00
C      -0.400598    -2.420823    -3.730153 
C       0.446699    -2.088916    -2.658267 
C       0.081045    -2.494058    -1.365504 
C      -1.096129    -3.179600    -1.180972 
C      -1.939101    -3.489387    -2.272189 
C      -1.606098    -3.119562    -3.562953 
C       1.341737    -1.292120    -4.547414 
C       1.559357    -1.356509    -3.205024 
H       0.712668    -2.268641    -0.512719 
H      -1.407401    -3.504981    -0.194496 
H      -2.236349    -3.351602    -4.411094 
H       1.928248    -0.811077    -5.318251 
N       0.163668    -1.931815    -4.880833 
C      -0.390645    -2.046648    -6.210503 
H       0.280880    -1.554999    -6.915738 
H      -0.494096    -3.096360    -6.503943 
H      -1.370023    -1.561199    -6.270363 
O      -3.073569    -4.168704    -1.937836 
C      -3.959806    -4.529150    -2.979126 
H      -3.473832    -5.191521    -3.706150 
H      -4.785377    -5.060651    -2.504950 
H      -4.350111    -3.644057    -3.496694 
N       0.973934     0.936837    -1.464321 
C      -0.189885     1.119001    -2.261416 
O      -0.092053     1.521962    -3.390405 
C      -1.535135     0.699134    -1.663257 
H      -1.809938    -0.206196    -2.213544 
H      -2.240665     1.468394    -1.984803 
C      -1.610971     0.450265    -0.136803 
H      -2.582845     0.767901     0.249958 
H      -1.499305    -0.610646     0.086848 
C      -0.473956     1.231671     0.516684 
C       0.006865     0.966535     1.962343 
H      -0.185521     1.815804     2.623101 
C       2.640900    -0.675643    -2.421920 
H       3.580836    -0.666325    -2.982949 
H       2.829778    -1.221862    -1.494072 
C       2.295552     0.785327    -2.090163 
H       3.032054     1.204395    -1.401380 
H       2.266715     1.388673    -2.997993 
C      -0.695128     2.751136     0.318638 
H      -1.016898     2.942661    -0.710002 
H      -1.553761     3.010708     0.949757 
C       0.475379     3.681027     0.636695 
H       1.337509     3.476276    -0.005396 
H       0.173462     4.717443     0.458828 
H       0.807435     3.606441     1.674249 
O      -0.580038    -0.214282     2.478136 
C      -0.124557    -0.531480     3.789720 
H      -0.468646    -1.552950     3.971550 
H       0.972838    -0.526653     3.810714 
C      -0.672697     0.404967     4.843064 
C      -2.006438     0.304777     5.237200 
C       0.128392     1.391746     5.411092 
C      -2.531179     1.171042     6.185939 
H      -2.637426    -0.460471     4.792580 
C      -0.395420     2.262552     6.361572 
H       1.161782     1.494841     5.092546 
C      -1.723497     2.153231     6.751839 
H      -3.571084     1.081906     6.484862 
H       0.238753     3.030196     6.793819 
H      -2.131767     2.832783     7.493558 
C       0.795572     0.745556    -0.143832 
O       1.534658    -0.116736     0.525419 
C       1.460688     0.871119     1.617628 
C       2.625476     1.482464     2.135956 
O       2.645291     2.185913     3.137345 
O       3.742246     1.241425     1.389328 
C       4.937481     1.830832     1.898118 
H       5.728935     1.542300     1.205410 
H       4.847265     2.919265     1.941663 
H       5.157846     1.457121     2.901273 
72
     -1725.717892     -1725.190955   0.69   0.35
C       4.033563    -1.967287     0.869896 
C       3.346470    -0.743861     0.712606 
C       2.359055    -0.411442     1.640840 
C       2.062546    -1.284421     2.673273 
C       2.754957    -2.505176     2.799372 
C       3.749049    -2.860593     1.900505 
C       4.846009    -0.939793    -0.937130 
C       3.883480    -0.103478    -0.462504 
H       1.814019     0.523149     1.561677 
H       1.292060    -1.013664     3.383488 
H       4.268210    -3.803752     2.024564 
H       5.472090    -0.840011    -1.813496 
N       4.951715    -2.066920    -0.144763 
C       5.856621    -3.173652    -0.354172 
H       5.304564    -4.105474    -0.513287 
H       6.460297    -2.973836    -1.240683 
H       6.526616    -3.299491     0.502530 
O       2.509519    -3.410223     3.791966 
C       1.532775    -3.090341     4.764187 
H       0.540206    -2.971257     4.312983 
H       1.512617    -3.931339     5.458205 
H       1.795409    -2.176761     5.311055 
N       1.227599    -0.013693    -1.707004 
C       1.340416    -1.426053    -1.831378 
O       2.099979    -1.903559    -2.632374 
C       0.539163    -2.292478    -0.856187 
H       1.290338    -2.709444    -0.177888 
H       0.178947    -3.132778    -1.453648 
C      -0.604579    -1.623966    -0.054473 
H      -1.431242    -2.326122     0.081910 
H      -0.258774    -1.327345     0.935931 
C      -1.052118    -0.387140    -0.829151 
C      -1.910099     0.734850    -0.199618 
H      -2.902317     0.799225    -0.653663 
C       3.366314     1.149913    -1.101099 
H       4.177480     1.704454    -1.583640 
H       2.941400     1.807901    -0.338607 
C       2.305270     0.868399    -2.177736 
H       1.842526     1.800065    -2.509889 
H       2.751783     0.362390    -3.034205 
C      -1.670205    -0.808579    -2.184588 
H      -1.053392    -1.589680    -2.640422 
H      -2.623726    -1.291424    -1.938416 
C      -1.903208     0.287354    -3.224116 
H      -0.964579     0.763454    -3.523756 
H      -2.348003    -0.153054    -4.121407 
H      -2.576695     1.071149    -2.871395 
O      -2.009344     0.563948     1.202630 
C      -2.745748     1.605528     1.836259 
H      -2.557521     1.477815     2.905431 
H      -2.346181     2.580233     1.528027 
C      -4.228783     1.533024     1.549550 
C      -5.009239     0.553883     2.163058 
C      -4.829362     2.415091     0.655438 
C      -6.367224     0.459224     1.893212 
H      -4.543955    -0.140579     2.857806 
C      -6.190436     2.321626     0.381940 
H      -4.225682     3.165337     0.152734 
C      -6.961466     1.346426     1.000458 
H      -6.963991    -0.307143     2.378233 
H      -6.645713     3.012911    -0.320295 
H      -8.023421     1.273936     0.786872 
C       0.185066     0.463804    -1.001948 
O       0.321744     1.503106    -0.202583 
C      -1.035171     1.860997    -0.655231 
C      -1.286490     3.073577    -1.337614 
O      -2.404893     3.496621    -1.598761 
O      -0.150233     3.728316    -1.715575 
C      -0.372170     4.964987    -2.391025 
H       0.618316     5.362891    -2.614872 
H      -0.937638     4.809214    -3.313359 
H      -0.924589     5.661006    -1.754680 
72
     -1725.720032     -1725.190482  -0.65   0.64
C       1.896173     2.237621     1.781460 
C       1.428576     1.574757     2.929508 
C       0.829141     2.338243     3.942295 
C       0.721147     3.700534     3.790565 
C       1.207920     4.343643     2.630402 
C       1.801441     3.625772     1.608529 
C       2.327907     0.063032     1.545818 
C       1.717757     0.173926     2.759718 
H       0.450379     1.866409     4.843950 
H       0.265564     4.318272     4.556712 
H       2.174042     4.099213     0.709642 
H       2.720465    -0.816048     1.055033 
N       2.438367     1.299607     0.940072 
C       2.920218     1.549128    -0.400445 
H       2.107423     1.891826    -1.049492 
H       3.719555     2.296515    -0.394087 
H       3.323971     0.620774    -0.807674 
O       1.027845     5.696505     2.611363 
C       1.515771     6.410052     1.492542 
H       2.600799     6.289505     1.384697 
H       1.020889     6.090457     0.566725 
H       1.287073     7.460128     1.677428 
N      -0.138544    -2.250382     2.238937 
C       0.218414    -3.616869     2.229535 
O       0.846598    -4.077169     3.150028 
C      -0.299423    -4.496384     1.091378 
H      -0.874731    -5.285004     1.584269 
H       0.584131    -4.990062     0.676681 
C      -1.121192    -3.800236    -0.007559 
H      -1.123069    -4.393012    -0.923650 
H      -2.162754    -3.680289     0.299852 
C      -0.503214    -2.420038    -0.210331 
C      -1.194699    -1.322146    -1.050537 
H      -0.614936    -1.057118    -1.937768 
C       1.373918    -0.930504     3.713063 
H       1.426732    -0.556942     4.741374 
H       2.091513    -1.752258     3.639032 
C      -0.035319    -1.494958     3.500288 
H      -0.298981    -2.178944     4.308732 
H      -0.774577    -0.694889     3.449130 
C       0.979409    -2.480078    -0.626871 
H       1.318169    -1.447086    -0.749231 
H       1.594482    -2.913871     0.168951 
C       1.206870    -3.254190    -1.926337 
H       2.244630    -3.148627    -2.255898 
H       1.010230    -4.323453    -1.804559 
H       0.563053    -2.886410    -2.731445 
O      -2.501431    -1.730579    -1.416835 
C      -3.124994    -0.830197    -2.325369 
H      -4.162734    -1.168169    -2.395926 
H      -3.119464     0.188075    -1.919086 
C      -2.468966    -0.849345    -3.688947 
C      -1.853094     0.286959    -4.202876 
C      -2.447354    -2.029208    -4.432389 
C      -1.236223     0.249996    -5.450260 
H      -1.835471     1.196537    -3.609897 
C      -1.832303    -2.069445    -5.675458 
H      -2.916522    -2.921539    -4.026564 
C      -1.226700    -0.925514    -6.188981 
H      -0.757575     1.142888    -5.840272 
H      -1.824068    -2.992890    -6.246504 
H      -0.745312    -0.954545    -7.161579 
C      -0.688205    -1.718424     1.120637 
O      -1.698400    -0.884036     1.202072 
C      -1.094205    -0.255285    -0.004427 
C      -1.161877     1.165388    -0.117280 
O      -0.958242     1.767010    -1.163755 
O      -1.458895     1.790187     1.044367 
C      -1.641033     3.202197     0.946862 
H      -2.552175     3.429005     0.385341 
H      -1.724753     3.560657     1.972344 
H      -0.789132     3.671319     0.452958 
72
     -1725.717208     -1725.190457   1.12   0.66
C      -2.255166    -3.041321    -1.572086 
C      -2.858556    -2.724248    -0.342614 
C      -3.230244    -3.775428     0.509832 
C      -2.994814    -5.072419     0.125788 
C      -2.384405    -5.366366    -1.114947 
C      -2.004924    -4.359476    -1.983915 
C      -2.397031    -0.818245    -1.426232 
C      -2.941223    -1.286858    -0.268016 
H      -3.691351    -3.573227     1.471027 
H      -3.265731    -5.906028     0.763647 
H      -1.538441    -4.565908    -2.938093 
H      -2.252753     0.204620    -1.745041 
N      -1.974863    -1.865685    -2.224189 
C      -1.391532    -1.746117    -3.540681 
H      -2.050133    -2.169408    -4.306385 
H      -1.235053    -0.689394    -3.762425 
H      -0.423500    -2.255169    -3.586367 
O      -2.212182    -6.696285    -1.361844 
C      -1.609911    -7.069102    -2.585460 
H      -1.566894    -8.158656    -2.583687 
H      -2.205511    -6.732747    -3.443267 
H      -0.592182    -6.667822    -2.669076 
N      -1.073714    -0.560926     1.731072 
C      -0.426216    -1.832352     1.711243 
O      -0.804209    -2.711543     2.437263 
C       0.690742    -2.046935     0.689931 
H       0.298521    -2.808610     0.008642 
H       1.500969    -2.529234     1.243110 
C       1.189566    -0.807571    -0.080047 
H       2.219837    -0.948548    -0.411419 
H       0.582954    -0.636945    -0.972304 
C       1.038189     0.386142     0.859718 
C       1.177639     1.857366     0.399138 
H       2.036747     2.353086     0.856981 
C      -3.429245    -0.449914     0.877084 
H      -4.419676    -0.782869     1.206120 
H      -3.533438     0.583179     0.540506 
C      -2.492184    -0.483887     2.106469 
H      -2.631441     0.413918     2.712241 
H      -2.676666    -1.359821     2.726723 
C       1.836428     0.222992     2.171714 
H       1.634193     1.103106     2.789986 
H       1.476624    -0.636741     2.746022 
C       3.342403     0.081477     1.944792 
H       3.592672    -0.860859     1.448376 
H       3.738838     0.896946     1.332193 
H       3.873260     0.097967     2.901005 
O       1.244520     1.934383    -1.014448 
C       1.392701     3.269811    -1.487700 
H       1.220991     3.211475    -2.565779 
H       0.617734     3.909455    -1.046968 
C       2.764679     3.837721    -1.200261 
C       3.872503     3.375658    -1.909870 
C       2.947706     4.794995    -0.206376 
C       5.142118     3.864370    -1.635761 
H       3.734817     2.623616    -2.682445 
C       4.219871     5.285918     0.071177 
H       2.092830     5.139164     0.368835 
C       5.317645     4.823733    -0.642525 
H       5.996780     3.497318    -2.195712 
H       4.350229     6.029322     0.851360 
H       6.309924     5.207050    -0.425620 
C      -0.447373     0.471267     1.141190 
O      -1.126635     1.396949     0.494609 
C      -0.100194     2.319903     1.024723 
C      -0.486086     3.493243     1.721358 
O       0.264141     4.426397     1.967791 
O      -1.787298     3.471312     2.127447 
C      -2.212482     4.637412     2.830057 
H      -2.112131     5.527294     2.203330 
H      -3.260345     4.467132     3.079840 
H      -1.623045     4.780968     3.739217 
72
     -1725.718635     -1725.189544   0.22   1.23
C       3.075588     0.838278     1.828894 
C       2.482359    -0.255333     1.177177 
C       1.590987    -1.061103     1.900539 
C       1.305260    -0.751993     3.208126 
C       1.912869     0.355901     3.841767 
C       2.809883     1.165046     3.167569 
C       3.792516     0.817615    -0.287051 
C       2.948020    -0.248097    -0.184809 
H       1.117462    -1.917499     1.434429 
H       0.606431    -1.348435     3.783546 
H       3.285293     2.016207     3.637153 
H       4.325795     1.197985    -1.147151 
N       3.882166     1.481202     0.922910 
C       4.694155     2.645899     1.189792 
H       5.198780     2.942157     0.269231 
H       4.077488     3.483803     1.530866 
H       5.453179     2.431801     1.949485 
O       1.541024     0.542741     5.141594 
C       2.118199     1.624830     5.843977 
H       3.209079     1.525186     5.905759 
H       1.866701     2.585134     5.376468 
H       1.697354     1.594337     6.849491 
N       1.028779     0.644748    -2.145849 
C       1.305859     1.994747    -2.448697 
O       2.401829     2.328539    -2.826175 
C       0.156165     3.001320    -2.377402 
H       0.091797     3.428481    -3.382029 
H       0.521671     3.807892    -1.735610 
C      -1.210090     2.482140    -1.895759 
H      -1.820340     3.302632    -1.514613 
H      -1.765035     2.022962    -2.717421 
C      -0.930161     1.424112    -0.832796 
C      -2.028803     0.474051    -0.298049 
H      -2.226924     0.631496     0.766956 
C       2.491024    -1.169202    -1.281153 
H       1.696135    -1.815862    -0.900105 
H       3.296224    -1.834606    -1.612076 
C       1.977816    -0.417572    -2.515168 
H       2.785883     0.079128    -3.049787 
H       1.474283    -1.105552    -3.198397 
C      -0.123929     1.969025     0.366107 
H       0.017088     1.147779     1.072890 
H       0.884282     2.263298     0.056952 
C      -0.807106     3.141535     1.069219 
H      -0.820322     4.045064     0.451885 
H      -1.842443     2.905119     1.335084 
H      -0.276097     3.383369     1.994021 
O      -3.225731     0.623069    -1.044065 
C      -4.219169    -0.340431    -0.721557 
H      -4.211407    -0.552231     0.354927 
H      -5.176385     0.133510    -0.964543 
C      -4.085592    -1.634257    -1.499127 
C      -4.281920    -2.859696    -0.870135 
C      -3.809307    -1.611184    -2.864697 
C      -4.208561    -4.045227    -1.594051 
H      -4.468402    -2.888174     0.199119 
C      -3.729415    -2.792832    -3.587933 
H      -3.641651    -0.658416    -3.356481 
C      -3.932358    -4.015245    -2.954683 
H      -4.365656    -4.994848    -1.090843 
H      -3.507991    -2.761550    -4.650534 
H      -3.872019    -4.939799    -3.520701 
C      -0.151017     0.344395    -1.552256 
O      -0.817469    -0.733133    -1.918393 
C      -1.244202    -0.779942    -0.502810 
C      -1.283784    -2.019811     0.193988 
O      -1.892671    -2.187330     1.238632 
O      -0.537456    -2.997319    -0.387676 
C      -0.637523    -4.277770     0.234644 
H      -0.315785    -4.233741     1.278404 
H      -1.667567    -4.640741     0.197158 
H       0.014861    -4.937597    -0.338178 
72
     -1725.718750     -1725.189516   0.15   1.25
C       2.737423     0.655936     2.669116 
C       2.193190     0.002448     1.550063 
C       1.951591     0.750297     0.387480 
C       2.227125     2.096860     0.384249 
C       2.757559     2.736924     1.527402 
C       3.025443     2.029630     2.685367 
C       2.447217    -1.493413     3.193607 
C       2.006861    -1.378755     1.910415 
H       1.549297     0.277468    -0.501535 
H       2.051000     2.706231    -0.495413 
H       3.437097     2.501048     3.567813 
H       2.460589    -2.357869     3.843308 
N       2.894014    -0.274191     3.665365 
C       3.417283    -0.018548     4.988091 
H       4.447066     0.350129     4.939125 
H       2.800861     0.714162     5.518749 
H       3.410016    -0.950002     5.555896 
O       2.975584     4.075144     1.378185 
C       3.521231     4.782554     2.474301 
H       4.510521     4.395094     2.747492 
H       3.618777     5.818639     2.148832 
H       2.859112     4.739443     3.347988 
N      -0.866802    -1.221611     1.364722 
C      -0.966146    -0.435041     2.544928 
O      -0.847629    -0.947918     3.626533 
C      -1.133684     1.076883     2.378086 
H      -0.167119     1.494727     2.677152 
H      -1.839510     1.372202     3.157264 
C      -1.549677     1.616144     0.987985 
H      -2.202510     2.485738     1.099903 
H      -0.674103     1.934376     0.421808 
C      -2.256730     0.487089     0.242412 
C      -2.494046     0.519209    -1.285623 
H      -3.558160     0.566897    -1.537568 
C       1.319656    -2.420248     1.079778 
H       1.754589    -3.409468     1.254183 
H       1.454349    -2.195716     0.018528 
C      -0.183234    -2.522707     1.389617 
H      -0.679515    -3.168391     0.661815 
H      -0.342947    -2.923445     2.390924 
C      -3.575335     0.118387     0.963571 
H      -3.405122     0.086021     2.044681 
H      -4.252849     0.964396     0.796472 
C      -4.261099    -1.182169     0.545757 
H      -5.187325    -1.304647     1.114985 
H      -4.518140    -1.203626    -0.515338 
H      -3.630090    -2.051885     0.751810 
O      -1.811329     1.612977    -1.883268 
C      -1.776080     1.540096    -3.302621 
H      -2.719019     1.135479    -3.690298 
H      -1.685348     2.575399    -3.648318 
C      -0.610901     0.725659    -3.825973 
C       0.666148     0.928880    -3.306130 
C      -0.785874    -0.207462    -4.842382 
C       1.747966     0.205270    -3.785640 
H       0.800563     1.653769    -2.509580 
C       0.297896    -0.931785    -5.328506 
H      -1.781750    -0.390734    -5.234600 
C       1.566348    -0.728779    -4.801542 
H       2.737446     0.369498    -3.369037 
H       0.148000    -1.660659    -6.119449 
H       2.412018    -1.295476    -5.178879 
C      -1.277036    -0.664271     0.209866 
O      -0.618310    -0.862978    -0.914661 
C      -1.953796    -0.845586    -1.547022 
C      -2.320806    -1.847794    -2.480307 
O      -3.288897    -1.757251    -3.221951 
O      -1.510395    -2.939231    -2.453099 
C      -1.818917    -3.935047    -3.426315 
H      -2.832543    -4.318559    -3.285402 
H      -1.733817    -3.525740    -4.436404 
H      -1.087251    -4.730099    -3.278761 
72
     -1725.719112     -1725.189464  -0.08   1.28
C       2.777712    -1.948319    -0.964347 
C       2.806410    -0.715225    -0.280642 
C       2.530657     0.448535    -0.996853 
C       2.209218     0.375942    -2.339673 
C       2.179887    -0.870584    -2.996731 
C       2.469752    -2.045674    -2.319569 
C       3.244079    -2.350428     1.184923 
C       3.097269    -0.998143     1.102017 
H       2.552236     1.414678    -0.506382 
H       1.974618     1.289724    -2.869532 
H       2.440529    -2.988577    -2.853630 
H       3.431844    -2.972668     2.049071 
N       3.059035    -2.937445    -0.054166 
C       3.148975    -4.348718    -0.348076 
H       2.208265    -4.721322    -0.766313 
H       3.956372    -4.551402    -1.059396 
H       3.355090    -4.890186     0.576241 
O       1.870058    -1.016014    -4.319231 
C       1.583466     0.150090    -5.067629 
H       1.367281    -0.188460    -6.081612 
H       0.709384     0.678558    -4.668035 
H       2.441616     0.832718    -5.089043 
N       0.854082    -0.817738     2.900844 
C       0.384645    -2.122064     3.167809 
O       1.130559    -2.968813     3.594278 
C      -1.109246    -2.401850     2.995690 
H      -1.450202    -2.730675     3.981439 
H      -1.163500    -3.285584     2.353707 
C      -1.982271    -1.259612     2.447756 
H      -2.896642    -1.653399     2.000774 
H      -2.281758    -0.577018     3.246802 
C      -1.127285    -0.497369     1.440688 
C      -1.553097     0.874437     0.869515 
H      -1.724259     0.833355    -0.208776 
C       3.101741     0.004394     2.221649 
H       2.790176     0.976811     1.831359 
H       4.106261     0.146353     2.635716 
C       2.177100    -0.388394     3.380446 
H       2.574431    -1.230543     3.944692 
H       2.038613     0.456219     4.059689 
C      -0.629478    -1.379251     0.275499 
H      -0.026929    -0.750239    -0.384624 
H       0.049909    -2.158437     0.635958 
C      -1.768605    -2.017116    -0.520130 
H      -1.373352    -2.498856    -1.418707 
H      -2.298313    -2.781668     0.056623 
H      -2.504540    -1.271936    -0.839932 
O      -2.698408     1.363299     1.542768 
C      -3.207689     2.557411     0.960215 
H      -3.965129     2.918013     1.661952 
H      -2.416258     3.312978     0.886739 
C      -3.821291     2.312370    -0.401194 
C      -3.320288     2.940232    -1.536372 
C      -4.885943     1.420680    -0.531459 
C      -3.885865     2.694120    -2.784396 
H      -2.466769     3.605262    -1.444640 
C      -5.450558     1.172117    -1.774140 
H      -5.269385     0.918468     0.352641 
C      -4.951937     1.813129    -2.905393 
H      -3.485646     3.189809    -3.663325 
H      -6.280853     0.478149    -1.863129 
H      -5.392794     1.620693    -3.878604 
C       0.034490     0.040831     2.247127 
O      -0.030446     1.304382     2.617646 
C      -0.258127     1.559526     1.176819 
C       0.396041     2.652815     0.542699 
O       0.035471     3.143870    -0.516197 
O       1.502187     3.088398     1.208771 
C       2.144706     4.221966     0.627119 
H       3.000118     4.439339     1.267409 
H       2.476217     4.005615    -0.392024 
H       1.466362     5.078444     0.598812 
72
     -1725.717490     -1725.188622   0.94   1.81
C       1.209244    -3.750984     0.729129 
C       0.285538    -2.684323     0.759238 
C      -0.161061    -2.154574    -0.452153 
C       0.322178    -2.664048    -1.644708 
C       1.256420    -3.719222    -1.646661 
C       1.709257    -4.276296    -0.460784 
C       0.761695    -3.276823     2.863820 
C       0.018210    -2.392325     2.145395 
H      -0.881839    -1.344660    -0.469652 
H      -0.029945    -2.242976    -2.577631 
H       2.423404    -5.090839    -0.492660 
H       0.863215    -3.378645     3.935854 
N       1.483786    -4.105304     2.026041 
C       2.388310    -5.154074     2.438033 
H       3.404307    -4.956710     2.081388 
H       2.406843    -5.196987     3.528028 
H       2.060535    -6.126559     2.056501 
O       1.774175    -4.264463    -2.786894 
C       1.326169    -3.765843    -4.032610 
H       0.245368    -3.905660    -4.155545 
H       1.572021    -2.703682    -4.152695 
H       1.851484    -4.343330    -4.794106 
N       0.955411     0.362597     1.847612 
C       2.267812    -0.177887     1.763666 
O       2.806501    -0.616077     2.745846 
C       2.913817    -0.260985     0.378940 
H       2.904565    -1.328177     0.135202 
H       3.962456    -0.001519     0.538675 
C       2.284530     0.563226    -0.770405 
H       3.064013     0.930088    -1.443223 
H       1.606967    -0.054821    -1.360182 
C       1.506643     1.718072    -0.144619 
C       0.457342     2.538585    -0.930558 
H       0.762768     3.581321    -1.062602 
C      -0.792358    -1.242496     2.662554 
H      -1.306067    -1.511772     3.590870 
H      -1.565305    -0.978557     1.936140 
C       0.067632    -0.002790     2.960657 
H      -0.567339     0.860421     3.171624 
H       0.720686    -0.183792     3.814731 
C       2.477622     2.680016     0.581246 
H       3.214302     2.099613     1.146261 
H       3.043910     3.184994    -0.210594 
C       1.862786     3.719038     1.518677 
H       2.656180     4.342023     1.942133 
H       1.155660     4.380059     1.013247 
H       1.335969     3.244707     2.352057 
O       0.198061     1.951704    -2.198842 
C      -0.930869     2.516393    -2.852773 
H      -0.978266     3.597364    -2.672532 
H      -0.759550     2.359865    -3.923150 
C      -2.238688     1.868108    -2.447549 
C      -3.359461     2.636377    -2.150880 
C      -2.338152     0.478982    -2.397578 
C      -4.560540     2.026131    -1.803855 
H      -3.283368     3.719508    -2.160723 
C      -3.532839    -0.132655    -2.047703 
H      -1.460755    -0.118462    -2.623829 
C      -4.650631     0.641609    -1.750282 
H      -5.427584     2.636809    -1.570208 
H      -3.596360    -1.216162    -2.007887 
H      -5.587056     0.164991    -1.477149 
C       0.511699     1.083148     0.800681 
O      -0.736310     0.987688     0.386781 
C      -0.614806     2.432168     0.099658 
C      -1.622488     3.337697     0.516610 
O      -1.710473     4.485661     0.104300 
O      -2.469041     2.819439     1.445915 
C      -3.530659     3.688519     1.835346 
H      -4.153724     3.944974     0.974500 
H      -4.113642     3.132917     2.570648 
H      -3.140316     4.609676     2.275216 
72
     -1725.717963     -1725.188430   0.64   1.93
C       3.579382     0.289115     0.035301 
C       2.419018     0.205288    -0.761570 
C       1.417064     1.160860    -0.577887 
C       1.557919     2.133993     0.392981 
C       2.717188     2.178350     1.193568 
C       3.744153     1.262882     1.019916 
C       3.799858    -1.461499    -1.335120 
C       2.578649    -0.936407    -1.629688 
H       0.516620     1.146257    -1.178531 
H       0.761126     2.853998     0.525615 
H       4.627991     1.328443     1.643987 
H       4.289012    -2.335837    -1.742504 
N       4.417602    -0.734665    -0.335087 
C       5.721120    -1.000013     0.228287 
H       6.399305    -0.156761     0.061522 
H       5.651347    -1.190494     1.304038 
H       6.141022    -1.884728    -0.252700 
O       2.911546     3.106035     2.176459 
C       1.893291     4.066988     2.389374 
H       2.239137     4.693719     3.212292 
H       1.736355     4.687688     1.499840 
H       0.944269     3.592985     2.665789 
N       0.327228    -2.406873    -0.557794 
C       1.202780    -2.782942     0.500772 
O       1.995989    -3.672980     0.338412 
C       1.160909    -1.965070     1.791246 
H       2.104461    -1.410429     1.793124 
H       1.245374    -2.696577     2.597849 
C      -0.030824    -1.003521     2.002653 
H      -0.287868    -0.948847     3.063807 
H       0.223769     0.003903     1.673670 
C      -1.202061    -1.530593     1.177654 
C      -2.440580    -0.667773     0.843532 
H      -3.350664    -1.005994     1.348068 
C       1.535345    -1.488349    -2.557656 
H       1.989747    -1.856580    -3.482952 
H       0.847012    -0.688312    -2.840226 
C       0.730495    -2.655261    -1.949022 
H      -0.176282    -2.835476    -2.529992 
H       1.327461    -3.566757    -1.924930 
C      -1.655668    -2.906081     1.724628 
H      -0.775259    -3.525167     1.924383 
H      -2.101100    -2.702670     2.706175 
C      -2.631175    -3.721782     0.877308 
H      -2.861257    -4.658806     1.393085 
H      -3.574933    -3.203268     0.696593 
H      -2.200666    -3.979170    -0.094999 
O      -2.153075     0.689326     1.140729 
C      -3.097322     1.625603     0.637303 
H      -3.593640     1.217406    -0.250844 
H      -3.863805     1.822702     1.398742 
C      -2.356316     2.888590     0.279229 
C      -2.149824     3.892684     1.221168 
C      -1.818463     3.038815    -0.997194 
C      -1.419966     5.030175     0.894455 
H      -2.564888     3.781721     2.219245 
C      -1.087042     4.172564    -1.328540 
H      -1.971969     2.254497    -1.733059 
C      -0.885737     5.171391    -0.381714 
H      -1.270842     5.808940     1.636465 
H      -0.672193     4.276765    -2.326235 
H      -0.318431     6.060118    -0.640443 
C      -0.716711    -1.611336    -0.254935 
O      -1.107110    -0.660575    -1.088757 
C      -2.453087    -1.012022    -0.614770 
C      -3.475438    -1.427462    -1.504771 
O      -4.649438    -1.546596    -1.187712 
O      -3.016835    -1.718600    -2.754999 
C      -4.023472    -2.141269    -3.673889 
H      -4.780294    -1.363803    -3.804748 
H      -3.505602    -2.328355    -4.615215 
H      -4.513707    -3.052106    -3.320784 
72
     -1725.709480     -1725.187574   5.97   2.47
C      -2.755862     4.975853    -0.293859 
C      -1.775056     4.115345    -0.829998 
C      -0.699077     4.672236    -1.523076 
C      -0.616500     6.047713    -1.664818 
C      -1.608236     6.884896    -1.117894 
C      -2.690000     6.361502    -0.426700 
C      -3.331285     2.872948     0.196334 
C      -2.168842     2.766538    -0.501741 
H       0.072960     4.038930    -1.950629 
H       0.221379     6.470848    -2.203174 
H      -3.437462     7.031415    -0.017658 
H      -3.949396     2.094359     0.623641 
N      -3.701391     4.200284     0.330627 
C      -4.877025     4.694313     1.007209 
H      -4.604088     5.352204     1.839152 
H      -5.523881     5.247305     0.317876 
H      -5.439824     3.848684     1.405875 
O      -1.583276     8.248442    -1.223165 
C      -0.503864     8.844856    -1.913991 
H      -0.468545     8.521332    -2.961576 
H      -0.679424     9.920776    -1.876736 
H       0.455722     8.619093    -1.432752 
N       0.773850     0.387941    -0.567554 
C       1.769168     0.728453    -1.506242 
O       1.758901     1.815274    -2.028885 
C       2.891352    -0.277656    -1.760747 
H       3.809770     0.237119    -1.464116 
H       2.946568    -0.378439    -2.848205 
C       2.769870    -1.652535    -1.075932 
H       3.349436    -2.401945    -1.617379 
H       3.160646    -1.618580    -0.056395 
C       1.283463    -1.994377    -1.023718 
C       0.720666    -3.165089    -0.183677 
H       0.297265    -3.961290    -0.804298 
C      -1.403246     1.528849    -0.847846 
H      -1.139918     1.541620    -1.911633 
H      -2.011106     0.635456    -0.671061 
C      -0.112192     1.429846    -0.028789 
H       0.438045     2.369349    -0.053204 
H      -0.327825     1.172453     1.008349 
C       0.623648    -2.036979    -2.419447 
H      -0.434549    -2.272852    -2.272878 
H       0.649090    -1.049436    -2.891838 
C       1.258947    -3.060936    -3.360302 
H       2.279563    -2.782657    -3.639233 
H       1.296470    -4.056676    -2.908335 
H       0.677602    -3.138678    -4.283291 
O       1.726030    -3.683078     0.668797 
C       1.224469    -4.624931     1.600484 
H       0.515443    -4.140394     2.284624 
H       0.673111    -5.416673     1.069615 
C       2.369586    -5.226648     2.376781 
C       3.584844    -5.508791     1.756024 
C       2.208605    -5.546231     3.721668 
C       4.617249    -6.104510     2.468556 
H       3.720137    -5.253932     0.710450 
C       3.239706    -6.146047     4.436496 
H       1.268155    -5.320851     4.217625 
C       4.447217    -6.427700     3.810706 
H       5.559772    -6.317922     1.973530 
H       3.098726    -6.390816     5.484824 
H       5.254383    -6.894631     4.366285 
C       0.658387    -0.902121    -0.180515 
O       0.338435    -1.202327     1.054823 
C      -0.363933    -2.368784     0.460910 
C      -1.681625    -2.701309     0.871102 
O      -2.207233    -3.781890     0.656400 
O      -2.329556    -1.678669     1.499287 
C      -3.646825    -1.996396     1.943075 
H      -4.288531    -2.265189     1.100003 
H      -3.628711    -2.831393     2.648029 
H      -4.020345    -1.096878     2.434119 
72
     -1725.709306     -1725.187383   6.08   2.59
C       2.369437    -1.729415     4.611139 
C       2.190123    -1.910749     3.223603 
C       3.173092    -2.589950     2.502102 
C       4.296513    -3.064830     3.158681 
C       4.452085    -2.869101     4.544776 
C       3.492208    -2.200485     5.288891 
C       0.424683    -0.793105     4.031438 
C       0.930048    -1.300287     2.875053 
H       3.065832    -2.748772     1.432845 
H       5.053770    -3.590013     2.591489 
H       3.640188    -2.065761     6.354140 
H      -0.500323    -0.257216     4.199586 
N       1.280525    -1.044044     5.090909 
C       1.071390    -0.659750     6.466587 
H       1.031184    -1.538758     7.118695 
H       1.871350     0.001861     6.815597 
H       0.122681    -0.126462     6.546650 
O       5.536896    -3.312933     5.249745 
C       6.553337    -4.000321     4.547965 
H       7.310524    -4.258223     5.289556 
H       6.172572    -4.919822     4.086573 
H       7.006530    -3.367936     3.774620 
N       0.777236    -0.340631    -0.793379 
C       1.257731    -1.415618    -1.571000 
O       2.160096    -2.100131    -1.156506 
C       0.560800    -1.729294    -2.897156 
H       0.249902    -2.774409    -2.813035 
H       1.355842    -1.717453    -3.648311 
C      -0.613619    -0.823490    -3.316772 
H      -0.765297    -0.870064    -4.396513 
H      -1.545195    -1.148279    -2.846928 
C      -0.281523     0.585381    -2.833691 
C      -1.304643     1.745145    -2.800498 
H      -1.042708     2.551998    -3.492316 
C       0.351586    -1.224666     1.497110 
H      -0.694835    -0.908438     1.531369 
H       0.378829    -2.216364     1.031253 
C       1.147508    -0.247410     0.626859 
H       0.969556     0.782473     0.936340 
H       2.215193    -0.456459     0.689979 
C       1.036304     1.132681    -3.429073 
H       1.200048     2.131161    -3.011654 
H       1.889198     0.527424    -3.106135 
C       1.021823     1.210497    -4.956343 
H       0.156631     1.770138    -5.324581 
H       1.920884     1.717919    -5.317214 
H       0.998751     0.218604    -5.417612 
O      -2.608591     1.261842    -3.045430 
C      -3.606715     2.261477    -2.913215 
H      -3.425273     2.832956    -1.991416 
H      -3.556315     2.962185    -3.758828 
C      -4.960382     1.602732    -2.857696 
C      -5.197901     0.580970    -1.938580 
C      -5.992273     2.014308    -3.693127 
C      -6.447447    -0.015895    -1.858621 
H      -4.392050     0.254979    -1.288274 
C      -7.248367     1.419993    -3.612848 
H      -5.813989     2.804876    -4.417177 
C      -7.477948     0.404095    -2.695496 
H      -6.620963    -0.811695    -1.140696 
H      -8.045973     1.751301    -4.270624 
H      -8.456027    -0.062353    -2.631636 
C      -0.161355     0.471241    -1.329668 
O      -1.152201     0.919601    -0.595791 
C      -1.029641     2.161672    -1.387749 
C      -0.410965     3.323725    -0.868267 
O      -0.248399     4.355939    -1.502174 
O       0.012875     3.182682     0.424840 
C       0.610528     4.351214     0.982844 
H       1.499562     4.643507     0.418128 
H      -0.094989     5.185815     0.980029 
H       0.880054     4.088181     2.006644 
72
     -1725.711165     -1725.186644   4.91   3.05
C       0.857296     5.575319     0.407620 
C       1.491697     4.343427     0.176201 
C       2.560403     4.294346    -0.732823 
C       2.951144     5.448805    -1.370342 
C       2.297109     6.676586    -1.123289 
C       1.242356     6.763542    -0.232817 
C      -0.144226     4.031394     1.673600 
C       0.832938     3.363220     1.001895 
H       3.075470     3.359352    -0.933724 
H       3.771820     5.450476    -2.078934 
H       0.731135     7.695670    -0.031828 
H      -0.863340     3.659563     2.391436 
N      -0.142341     5.371281     1.326178 
C      -1.033803     6.383299     1.842149 
H      -1.721447     5.921207     2.552249 
H      -0.477709     7.170678     2.362104 
H      -1.621975     6.837404     1.037557 
O       2.793823     7.735997    -1.828227 
C       2.189578     8.998429    -1.635169 
H       1.130376     8.983705    -1.921429 
H       2.279545     9.330734    -0.593274 
H       2.725649     9.694796    -2.280910 
N       1.208995    -0.182291    -0.307740 
C       2.563745    -0.426447    -0.623536 
O       3.228893     0.442118    -1.129603 
C       3.174590    -1.768031    -0.211123 
H       3.950262    -1.506281     0.515034 
H       3.711013    -2.124276    -1.093530 
C       2.227806    -2.849013     0.357828 
H       2.611753    -3.846579     0.130367 
H       2.152298    -2.769182     1.444243 
C       0.844872    -2.629103    -0.253524 
C      -0.426420    -3.291713     0.325975 
H      -0.876840    -3.998125    -0.376162 
C       1.157642     1.903105     1.052820 
H       0.669717     1.426382     1.907705 
H       2.238444     1.768867     1.175679 
C       0.715893     1.201112    -0.234498 
H      -0.371914     1.157832    -0.295645 
H       1.098928     1.723106    -1.111169 
C       0.890013    -2.833194    -1.786297 
H       1.772046    -2.332558    -2.197287 
H       1.058495    -3.905746    -1.940785 
C      -0.330648    -2.383769    -2.589422 
H      -0.500164    -1.306917    -2.495045 
H      -0.164865    -2.597054    -3.649596 
H      -1.248534    -2.892555    -2.288535 
O      -0.138039    -3.925530     1.559040 
C      -1.289112    -4.501051     2.170003 
H      -0.980029    -4.741300     3.190471 
H      -2.092564    -3.754931     2.217479 
C      -1.770100    -5.745269     1.457773 
C      -1.072209    -6.943822     1.601531 
C      -2.889780    -5.709618     0.630899 
C      -1.486275    -8.088768     0.935386 
H      -0.194833    -6.976035     2.242315 
C      -3.306197    -6.855547    -0.039471 
H      -3.426703    -4.775478     0.492178 
C      -2.607758    -8.046103     0.112275 
H      -0.934338    -9.015789     1.056696 
H      -4.178218    -6.813158    -0.684552 
H      -2.933246    -8.939980    -0.410869 
C       0.461863    -1.218948     0.128421 
O      -0.373790    -1.068713     1.127768 
C      -1.233481    -2.036541     0.411762 
C      -2.511977    -1.672376    -0.062999 
O      -3.312628    -2.458973    -0.552848 
O      -2.773771    -0.336386     0.046343 
C      -4.067332     0.055516    -0.408205 
H      -4.849635    -0.450236     0.163567 
H      -4.123489     1.133628    -0.252527 
H      -4.197878    -0.183510    -1.466817 
72
     -1725.713690     -1725.186393   3.33   3.21
C       2.702521     3.463438    -1.009006 
C       1.910743     2.342897    -0.707213 
C       1.230472     2.311252     0.520340 
C       1.356770     3.372297     1.385943 
C       2.158591     4.489019     1.060353 
C       2.844249     4.555739    -0.138763 
C       2.825888     2.045522    -2.729672 
C       2.002012     1.442242    -1.829678 
H       0.598953     1.468280     0.781080 
H       0.843627     3.382153     2.341156 
H       3.462041     5.402976    -0.405222 
H       3.151160     1.701532    -3.702675 
N       3.258716     3.268692    -2.248849 
C       4.134570     4.189102    -2.934769 
H       3.635403     5.146687    -3.117841 
H       5.046544     4.370175    -2.356022 
H       4.417579     3.758958    -3.896828 
O       2.187907     5.465307     2.015122 
C       2.966499     6.615845     1.757287 
H       2.611320     7.148389     0.866085 
H       2.854434     7.261384     2.629075 
H       4.026452     6.362221     1.630182 
N       1.186477    -2.167435    -0.974070 
C       1.789195    -3.379861    -1.383462 
O       2.812346    -3.366255    -2.018950 
C       1.153780    -4.691815    -0.918082 
H       1.932611    -5.191588    -0.335199 
H       1.033077    -5.291014    -1.824634 
C      -0.166119    -4.596895    -0.129692 
H      -0.721992    -5.533373    -0.198175 
H       0.024494    -4.413311     0.930304 
C      -0.940851    -3.416242    -0.706044 
C      -2.198072    -2.820935    -0.028162 
H      -3.100411    -2.963239    -0.630595 
C       1.332329     0.108379    -1.948796 
H       1.418401    -0.276007    -2.970215 
H       0.265103     0.218093    -1.729151 
C       1.945706    -0.906648    -0.981270 
H       2.967025    -1.153800    -1.265980 
H       1.951433    -0.512075     0.036383 
C      -1.234454    -3.568299    -2.214765 
H      -1.772703    -2.670757    -2.534219 
H      -0.305007    -3.582995    -2.793346 
C      -2.056397    -4.813397    -2.548753 
H      -2.973701    -4.863772    -1.954438 
H      -2.345905    -4.804873    -3.603314 
H      -1.494070    -5.735064    -2.371942 
O      -2.383756    -3.376128     1.264490 
C      -3.406074    -2.730768     2.011793 
H      -4.245434    -2.461913     1.358473 
H      -3.762531    -3.479583     2.727230 
C      -2.928234    -1.503565     2.761799 
C      -3.697779    -0.344581     2.786533 
C      -1.729806    -1.535360     3.472264 
C      -3.278778     0.766158     3.511490 
H      -4.617062    -0.300812     2.210680 
C      -1.307755    -0.427587     4.193412 
H      -1.119538    -2.432227     3.443333 
C      -2.083635     0.727600     4.217524 
H      -3.888496     1.664835     3.521122 
H      -0.370355    -0.464573     4.740339 
H      -1.755250     1.593865     4.783662 
C      -0.063093    -2.207293    -0.459593 
O      -0.400395    -1.410327     0.532337 
C      -1.740420    -1.404047    -0.105181 
C      -2.470958    -0.192652    -0.243117 
O      -3.668710    -0.151253    -0.476756 
O      -1.700845     0.920448    -0.130216 
C      -2.404900     2.159291    -0.219870 
H      -1.643133     2.935887    -0.141145 
H      -2.936617     2.235830    -1.171435 
H      -3.125196     2.247825     0.597312 
72
     -1725.713361     -1725.186259   3.53   3.29
C      -1.143610    -0.130306     3.728819 
C      -1.683573    -1.225317     3.032364 
C      -1.228001    -2.514542     3.349364 
C      -0.280368    -2.671349     4.332102 
C       0.236556    -1.556038     5.030594 
C      -0.182978    -0.270403     4.741727 
C      -2.588528     0.652520     2.216899 
C      -2.621959    -0.702587     2.074141 
H      -1.609991    -3.381461     2.818817 
H       0.093049    -3.652408     4.603862 
H       0.210874     0.593947     5.259453 
H      -3.133153     1.416196     1.679133 
N      -1.705185     1.013643     3.217669 
C      -1.314788     2.367972     3.539035 
H      -2.086919     3.052453     3.184034 
H      -1.225312     2.490994     4.621404 
H      -0.364059     2.635693     3.064190 
O       1.163915    -1.863200     5.983613 
C       1.710913    -0.800113     6.737839 
H       2.253394    -0.092867     6.098099 
H       0.932744    -0.263468     7.294674 
H       2.408537    -1.253982     7.442424 
N      -1.613900    -1.701077    -0.542485 
C      -1.169812    -3.040217    -0.499317 
O      -1.884707    -3.890358    -0.029053 
C       0.166407    -3.392502    -1.150668 
H      -0.074050    -4.179541    -1.870835 
H       0.755127    -3.878661    -0.368461 
C       0.949372    -2.245964    -1.815767 
H       2.009560    -2.500743    -1.888187 
H       0.586930    -2.063585    -2.829944 
C       0.732265    -0.990253    -0.973162 
C       1.108716     0.411943    -1.503588 
H       1.939718     0.867603    -0.961107 
C      -3.467710    -1.507827     1.131619 
H      -4.511244    -1.177554     1.176541 
H      -3.454344    -2.555303     1.435816 
C      -3.043164    -1.409171    -0.335935 
H      -3.624228    -2.108622    -0.942093 
H      -3.201495    -0.400729    -0.717664 
C       1.282478    -1.196747     0.458532 
H       0.752658    -2.026922     0.935013 
H       2.322601    -1.526638     0.342123 
C       1.228846    -0.008417     1.416283 
H       1.577757    -0.328436     2.400961 
H       1.854036     0.826760     1.095020 
H       0.210553     0.362036     1.533013 
O       1.412875     0.340777    -2.886180 
C       1.578898     1.616997    -3.476991 
H       0.632146     2.172944    -3.451561 
H       2.315189     2.200301    -2.901696 
C       2.050924     1.454492    -4.900203 
C       3.006508     0.493974    -5.227350 
C       1.564406     2.290304    -5.900379 
C       3.468808     0.376834    -6.531100 
H       3.383210    -0.166662    -4.453635 
C       2.028596     2.177576    -7.206787 
H       0.811650     3.035654    -5.657787 
C       2.983042     1.220529    -7.525032 
H       4.212244    -0.376485    -6.773387 
H       1.640647     2.837746    -7.976468 
H       3.346130     1.129205    -8.543869 
C      -0.764430    -0.749908    -0.998058 
O      -1.200428     0.184959    -1.816034 
C      -0.199527     1.049095    -1.158408 
C      -0.547294     2.332669    -0.669467 
O       0.266250     3.163026    -0.291267 
O      -1.893604     2.558286    -0.631543 
C      -2.263281     3.870735    -0.218251 
H      -3.353840     3.894628    -0.236997 
H      -1.893057     4.085726     0.787847 
H      -1.859995     4.622138    -0.902313 
72
     -1725.711325     -1725.186132   4.81   3.37
C       4.161911     3.237204     1.689339 
C       3.595522     1.951933     1.676527 
C       4.086898     0.987853     2.571158 
C       5.102289     1.330929     3.433403 
C       5.655472     2.630866     3.430185 
C       5.198523     3.605187     2.561366 
C       2.569343     3.198138     0.123974 
C       2.572797     1.947474     0.661245 
H       3.673553    -0.016373     2.586675 
H       5.507325     0.614148     4.138848 
H       5.611419     4.605115     2.545415 
H       1.951839     3.607215    -0.664635 
N       3.525466     3.990664     0.734350 
C       3.809138     5.371775     0.422620 
H       3.144602     5.698299    -0.378826 
H       3.641779     6.014446     1.293521 
H       4.843750     5.494833     0.085176 
O       6.655086     2.824768     4.340935 
C       7.256854     4.101693     4.397869 
H       8.016943     4.045922     5.177912 
H       7.735979     4.361880     3.445585 
H       6.526687     4.877491     4.660737 
N       0.020610    -0.787384     1.255879 
C       0.538462    -1.930275     1.900837 
O       1.650243    -1.908687     2.366207 
C      -0.393525    -3.128526     2.089033 
H      -0.574639    -3.172181     3.167530 
H       0.213447    -4.006636     1.858465 
C      -1.726660    -3.129452     1.305960 
H      -2.024087    -4.152845     1.064591 
H      -2.529595    -2.687918     1.899468 
C      -1.524550    -2.293611     0.043256 
C      -2.711663    -1.795927    -0.812911 
H      -2.715130    -2.243168    -1.810247 
C       1.688937     0.789692     0.318303 
H       2.296453    -0.110836     0.172818 
H       1.152401     0.980376    -0.616438 
C       0.674761     0.516982     1.433796 
H       1.163835     0.505483     2.407285 
H      -0.109026     1.274785     1.440219 
C      -0.458365    -2.943468    -0.870091 
H       0.396443    -3.266427    -0.267641 
H      -0.914644    -3.864328    -1.252689 
C       0.069429    -2.109461    -2.037105 
H       0.579472    -1.207715    -1.687327 
H       0.796181    -2.698821    -2.604077 
H      -0.717504    -1.799378    -2.727420 
O      -3.937629    -2.043680    -0.148319 
C      -5.068118    -1.565779    -0.871142 
H      -5.898246    -1.605985    -0.161158 
H      -4.908055    -0.518634    -1.157869 
C      -5.377620    -2.402270    -2.092344 
C      -5.948224    -3.665971    -1.944174 
C      -5.075214    -1.942287    -3.371015 
C      -6.217313    -4.455639    -3.053145 
H      -6.181596    -4.031779    -0.947610 
C      -5.342769    -2.732429    -4.484732 
H      -4.607570    -0.969731    -3.495126 
C      -5.915004    -3.987925    -4.328783 
H      -6.662593    -5.437380    -2.924144 
H      -5.098537    -2.363589    -5.476021 
H      -6.123677    -4.604073    -5.197948 
C      -1.113814    -0.923708     0.534722 
O      -2.033671     0.011558     0.542903 
C      -2.274563    -0.367595    -0.864234 
C      -2.136857     0.565713    -1.914911 
O      -2.470165     0.348616    -3.073050 
O      -1.561793     1.743248    -1.529955 
C      -1.455886     2.717766    -2.564485 
H      -0.836189     2.350968    -3.387059 
H      -2.442441     2.975320    -2.958598 
H      -0.996917     3.593528    -2.102890 
72
     -1725.711325     -1725.186125   4.81   3.38
C      -1.011006    -2.662984     4.747858 
C      -0.317273    -2.647838     3.526635 
C       0.310286    -3.825885     3.091158 
C       0.223845    -4.957066     3.869067 
C      -0.481401    -4.949727     5.093170 
C      -1.109464    -3.807247     5.554937 
C      -1.170133    -0.608376     3.886795 
C      -0.431157    -1.315720     2.988791 
H       0.857054    -3.849029     2.153035 
H       0.694627    -5.885461     3.565865 
H      -1.653018    -3.784311     6.490146 
H      -1.482130     0.427193     3.858274 
N      -1.528320    -1.408680     4.957328 
C      -2.309891    -0.998859     6.100266 
H      -1.739915    -1.112946     7.028461 
H      -2.577951     0.052853     5.988072 
H      -3.232396    -1.584202     6.176844 
O      -0.481755    -6.144616     5.755386 
C      -1.168678    -6.215392     6.987876 
H      -2.237321    -5.999088     6.864098 
H      -1.049253    -7.238861     7.345033 
H      -0.741427    -5.524091     7.725212 
N       0.108192    -1.267986    -0.760008 
C       0.985148    -2.268190    -1.229989 
O       1.351115    -3.146250    -0.489605 
C       1.345627    -2.261644    -2.716540 
H       0.855597    -3.151167    -3.124562 
H       2.416274    -2.473347    -2.755928 
C       0.977650    -1.004335    -3.537648 
H       1.700915    -0.851785    -4.342428 
H      -0.005822    -1.112222    -3.999222 
C       0.949064     0.184849    -2.579043 
C       0.305425     1.536728    -2.963879 
H       1.042334     2.342176    -3.018060 
C       0.135138    -0.850198     1.684229 
H       1.189133    -1.141826     1.611846 
H       0.089083     0.241074     1.613639 
C      -0.621238    -1.463160     0.501254 
H      -0.751369    -2.536045     0.639063 
H      -1.601138    -0.999741     0.384350 
C       2.353367     0.427728    -1.977207 
H       2.795503    -0.526767    -1.674882 
H       2.973805     0.791447    -2.805048 
C       2.454412     1.394285    -0.797540 
H       1.889122     1.033543     0.066142 
H       3.500855     1.483697    -0.491054 
H       2.091840     2.395846    -1.037055 
O      -0.398027     1.417939    -4.187442 
C      -1.050922     2.623895    -4.572494 
H      -1.728147     2.335888    -5.380718 
H      -1.651594     3.002631    -3.735775 
C      -0.084782     3.685979    -5.047245 
C       0.526171     3.563774    -6.294757 
C       0.230354     4.778296    -4.243773 
C       1.432514     4.517707    -6.735615 
H       0.287308     2.710137    -6.923778 
C       1.139737     5.735710    -4.682697 
H      -0.221248     4.869284    -3.260037 
C       1.740506     5.608784    -5.928093 
H       1.900584     4.411269    -7.709428 
H       1.379737     6.580639    -4.044854 
H       2.449897     6.356002    -6.270232 
C      -0.079895    -0.174206    -1.530617 
O      -1.265154     0.377373    -1.639462 
C      -0.537777     1.659339    -1.735958 
C      -0.758174     2.705199    -0.813164 
O      -0.300748     3.834591    -0.934602 
O      -1.514297     2.336315     0.262790 
C      -1.788670     3.388762     1.183782 
H      -2.331142     4.202023     0.694622 
H      -2.405332     2.945635     1.967395 
H      -0.864251     3.790657     1.607014 
72
     -1725.715589     -1725.186079   2.13   3.40
C       0.820576     0.831119     2.292632 
C       1.900617    -0.020807     1.974726 
C       1.899154    -1.314873     2.494691 
C       0.836345    -1.746334     3.271037 
C      -0.240892    -0.881229     3.549133 
C      -0.255116     0.419678     3.074059 
C       2.251318     1.971467     1.019750 
C       2.803192     0.732742     1.140110 
H       2.728400    -1.989220     2.300756 
H       0.847822    -2.753480     3.667675 
H      -1.092949     1.066248     3.302699 
H       2.590559     2.820590     0.441815 
N       1.054357     2.046574     1.702649 
C       0.164023     3.184502     1.749135 
H      -0.844340     2.894185     1.436856 
H       0.116576     3.611846     2.756344 
H       0.531922     3.949139     1.063353 
O      -1.329244    -1.249677     4.291843 
C      -1.352008    -2.549628     4.848253 
H      -0.509065    -2.707667     5.531895 
H      -2.285632    -2.622456     5.407384 
H      -1.337303    -3.321498     4.069115 
N       2.379191    -1.120213    -1.102282 
C       2.487636    -2.444675    -0.619371 
O       3.580893    -2.922369    -0.443454 
C       1.210579    -3.200988    -0.249835 
H       1.329744    -3.452739     0.805882 
H       1.268809    -4.150533    -0.787021 
C      -0.134055    -2.486426    -0.491379 
H      -0.936688    -3.217684    -0.618128 
H      -0.389657    -1.860781     0.366493 
C       0.028630    -1.608997    -1.730915 
C      -0.990814    -0.509689    -2.112206 
H      -1.556375    -0.744011    -3.018937 
C       3.961895     0.175044     0.367171 
H       4.382727    -0.690927     0.884443 
H       4.765050     0.913082     0.274510 
C       3.557147    -0.234647    -1.059020 
H       3.290890     0.645724    -1.646375 
H       4.374720    -0.760696    -1.555239 
C       0.335954    -2.480718    -2.972855 
H       1.109563    -3.211973    -2.722450 
H      -0.574256    -3.063367    -3.160898 
C       0.762545    -1.765934    -4.254999 
H       0.927712    -2.507344    -5.042526 
H       0.015590    -1.057807    -4.618750 
H       1.699555    -1.218718    -4.116667 
O      -1.867745    -0.270536    -1.020601 
C      -2.581633     0.941244    -1.122749 
H      -1.884250     1.769259    -1.317393 
H      -3.281795     0.904585    -1.971475 
C      -3.335936     1.215025     0.157257 
C      -4.164180     2.335442     0.228789 
C      -3.213674     0.395743     1.273883 
C      -4.856760     2.631603     1.394457 
H      -4.268134     2.982013    -0.639481 
C      -3.905935     0.691424     2.444740 
H      -2.567771    -0.472252     1.230623 
C      -4.728112     1.808265     2.509293 
H      -5.498177     3.506572     1.434473 
H      -3.791390     0.042315     3.307475 
H      -5.268422     2.037903     3.422296 
C       1.149876    -0.644189    -1.406358 
O       0.809813     0.590877    -1.101586 
C       0.035785     0.547833    -2.352801 
C       0.189422     1.541725    -3.350251 
O      -0.568972     1.681401    -4.298265 
O       1.298319     2.317396    -3.173382 
C       1.485194     3.321206    -4.169645 
H       2.399589     3.847418    -3.892975 
H       1.590131     2.870757    -5.159900 
H       0.639450     4.013143    -4.187533 
72
     -1725.712101     -1725.185986   4.32   3.46
C       1.403474    -5.083214    -0.389338 
C       1.178588    -3.698300    -0.238298 
C       2.027781    -2.808838    -0.898376 
C       3.061213    -3.297886    -1.679673 
C       3.262728    -4.685571    -1.813409 
C       2.437332    -5.595145    -1.171004 
C      -0.364377    -4.808212     0.948122 
C       0.031816    -3.547302     0.626504 
H       1.878362    -1.737174    -0.815325 
H       3.712550    -2.598231    -2.187260 
H       2.615704    -6.657268    -1.292700 
H      -1.185468    -5.129257     1.575768 
N       0.451798    -5.748204     0.343753 
C       0.326556    -7.182569     0.449756 
H       1.231718    -7.624770     0.879231 
H      -0.516105    -7.418849     1.101620 
H       0.144203    -7.634884    -0.530898 
O       4.262972    -5.230855    -2.569060 
C       5.135756    -4.354334    -3.253738 
H       4.594550    -3.731842    -3.976887 
H       5.684006    -3.707731    -2.557632 
H       5.844217    -4.989646    -3.786757 
N      -0.164102    -0.200686     2.417486 
C      -0.576943     0.049210     3.748589 
O      -0.821967    -0.868282     4.488774 
C      -0.578350     1.499917     4.235588 
H       0.231607     1.543936     4.970296 
H      -1.500248     1.612394     4.809891 
C      -0.421417     2.612519     3.174945 
H      -0.952402     3.514649     3.488542 
H       0.628226     2.881721     3.041406 
C      -0.968012     2.072150     1.855929 
C      -0.688697     2.767766     0.505166 
H      -1.598240     3.168858     0.051217 
C      -0.568913    -2.256142     1.087328 
H      -1.519457    -2.437582     1.599297 
H      -0.776814    -1.618607     0.221279 
C       0.373464    -1.515764     2.037853 
H       0.518420    -2.078561     2.958828 
H       1.345351    -1.353448     1.569164 
C      -2.480027     1.767994     1.980132 
H      -2.675678     1.243691     2.920593 
H      -2.972752     2.742918     2.077227 
C      -3.132733     0.974796     0.848138 
H      -2.703621    -0.027394     0.760979 
H      -4.200238     0.857493     1.057008 
H      -3.036407     1.463309    -0.123538 
O       0.283241     3.784872     0.664180 
C       0.598955     4.448846    -0.555636 
H       1.501993     5.025973    -0.340523 
H       0.837711     3.709000    -1.330123 
C      -0.510594     5.361696    -1.027274 
C      -0.750251     6.565465    -0.365514 
C      -1.322179     5.006522    -2.101005 
C      -1.779045     7.403574    -0.771562 
H      -0.122697     6.844616     0.476887 
C      -2.355293     5.844376    -2.509660 
H      -1.158750     4.058799    -2.605865 
C      -2.584532     7.043501    -1.848182 
H      -1.954726     8.338617    -0.248525 
H      -2.983378     5.554002    -3.346043 
H      -3.390581     7.697048    -2.167227 
C      -0.147090     0.838077     1.553173 
O       0.819236     0.961425     0.665634 
C      -0.228878     1.531630    -0.201766 
C      -0.515674     1.001187    -1.482225 
O      -1.256859     1.542912    -2.291675 
O       0.082875    -0.196825    -1.731528 
C      -0.211180    -0.764542    -3.008845 
H       0.321486    -1.715684    -3.039036 
H      -1.286460    -0.924167    -3.122678 
H       0.133250    -0.107702    -3.811503 
72
     -1725.709490     -1725.185737   5.96   3.62
C      -4.922238    -1.647969     0.627633 
C      -3.589997    -1.220898     0.443484 
C      -2.744011    -1.176469     1.552579 
C      -3.223937    -1.548591     2.797086 
C      -4.558679    -1.971085     2.952704 
C      -5.424067    -2.026571     1.871336 
C      -4.638353    -1.170555    -1.536135 
C      -3.431470    -0.921186    -0.960261 
H      -1.709823    -0.865146     1.446686 
H      -2.558296    -1.510880     3.649676 
H      -6.445598    -2.356542     2.020778 
H      -4.937469    -1.070998    -2.571428 
N      -5.550453    -1.610158    -0.592766 
C      -6.924110    -1.979285    -0.839937 
H      -7.609379    -1.351433    -0.260700 
H      -7.143736    -1.843364    -1.900188 
H      -7.102210    -3.028288    -0.580309 
O      -5.092170    -2.350998     4.152727 
C      -4.257722    -2.320794     5.293570 
H      -4.874510    -2.658292     6.127431 
H      -3.400373    -2.996067     5.182590 
H      -3.895560    -1.306220     5.500265 
N      -0.604623     1.491275    -1.756722 
C      -0.581223     2.528805    -2.720481 
O      -1.576311     2.801989    -3.340376 
C       0.701256     3.353676    -2.849149 
H       0.431689     4.342593    -2.465549 
H       0.853456     3.487819    -3.922062 
C       1.971535     2.819237    -2.150276 
H       2.863975     3.113599    -2.708037 
H       2.067062     3.228279    -1.142520 
C       1.844588     1.300323    -2.061156 
C       2.754353     0.454326    -1.143313 
H       3.410266    -0.216507    -1.707178 
C      -2.189563    -0.413320    -1.623574 
H      -2.297792    -0.442143    -2.712660 
H      -1.344065    -1.057494    -1.358930 
C      -1.879713     1.021698    -1.193452 
H      -2.651816     1.707646    -1.538709 
H      -1.808278     1.091855    -0.106814 
C       1.805827     0.675795    -3.476230 
H       1.134788     1.256288    -4.116848 
H       2.809822     0.820116    -3.893240 
C       1.411907    -0.797049    -3.584912 
H       1.453015    -1.105870    -4.633624 
H       2.071574    -1.457221    -3.018469 
H       0.390417    -0.966082    -3.232896 
O       3.519077     1.293675    -0.297512 
C       4.242000     0.568783     0.681460 
H       3.547999     0.058761     1.362787 
H       4.850093    -0.209161     0.193499 
C       5.133284     1.511313     1.450698 
C       5.320014     1.338422     2.818638 
C       5.811707     2.540647     0.800578 
C       6.176906     2.172961     3.528429 
H       4.787491     0.545262     3.336736 
C       6.664850     3.377392     1.507442 
H       5.663316     2.686376    -0.264121 
C       6.852427     3.194485     2.873710 
H       6.313714     2.025017     4.595265 
H       7.186531     4.176543     0.989641 
H       7.520760     3.848262     3.425174 
C       0.576066     1.046002    -1.275811 
O       0.707439     0.723962    -0.005152 
C       1.646025    -0.305790    -0.493743 
C       1.499736    -1.678438    -0.177271 
O       2.348122    -2.522687    -0.425567 
O       0.304175    -1.987810     0.399488 
C       0.122537    -3.371314     0.703828 
H      -0.877915    -3.450624     1.130792 
H       0.202379    -3.979711    -0.200629 
H       0.873288    -3.710172     1.421994 
72
     -1725.713251     -1725.185735   3.60   3.62
C       0.226469    -0.388073     2.471214 
C       1.599816    -0.317817     2.159345 
C       2.245948     0.910877     2.291324 
C       1.538051     2.020518     2.719887 
C       0.166479     1.918223     3.025426 
C      -0.503410     0.711474     2.912984 
C       0.864084    -2.386769     1.717681 
C       1.986338    -1.615978     1.663759 
H       3.297741     1.017550     2.043128 
H       2.051213     2.969428     2.807848 
H      -1.561614     0.658244     3.136904 
H       0.732761    -3.421311     1.426808 
N      -0.207554    -1.662783     2.205063 
C      -1.559513    -2.141084     2.385949 
H      -1.836760    -2.149335     3.445202 
H      -2.269681    -1.514519     1.837728 
H      -1.628993    -3.160758     2.002888 
O      -0.595605     2.979529     3.433473 
C       0.041307     4.229945     3.607554 
H       0.835706     4.173369     4.361617 
H       0.462343     4.601676     2.665192 
H      -0.731784     4.918350     3.951304 
N       2.217864    -1.806629    -1.247933 
C       2.026722    -3.171207    -1.564420 
O       2.958364    -3.932890    -1.502418 
C       0.609857    -3.659743    -1.872448 
H       0.402874    -4.409610    -1.102989 
H       0.689617    -4.221632    -2.805906 
C      -0.512150    -2.603029    -1.934268 
H      -1.324096    -2.948104    -2.579918 
H      -0.935580    -2.428623    -0.943104 
C       0.101039    -1.301438    -2.447639 
C      -0.636164     0.054829    -2.319321 
H      -0.974066     0.458384    -3.277853 
C       3.283630    -1.982138     1.007930 
H       3.397193    -3.068691     0.971476 
H       4.133888    -1.588524     1.575030 
C       3.378170    -1.423256    -0.422541 
H       3.398325    -0.332969    -0.415370 
H       4.272848    -1.795265    -0.924485 
C       0.629565    -1.481735    -3.889417 
H       1.205817    -2.409914    -3.952174 
H      -0.256706    -1.639182    -4.516245 
C       1.480510    -0.354922    -4.474693 
H       2.402225    -0.211141    -3.903626 
H       1.763447    -0.610960    -5.500142 
H       0.956083     0.602130    -4.503886 
O      -1.731608    -0.089223    -1.422093 
C      -2.129940     1.117771    -0.800088 
H      -1.287661     1.556146    -0.249448 
H      -2.444577     1.850719    -1.558702 
C      -3.262531     0.838472     0.158620 
C      -4.143199    -0.220559    -0.048081 
C      -3.446997     1.665006     1.265204 
C      -5.190052    -0.449636     0.837823 
H      -4.000696    -0.869634    -0.904717 
C      -4.493216     1.437630     2.151299 
H      -2.754322     2.482356     1.447217 
C      -5.368856     0.378490     1.939959 
H      -5.869757    -1.278500     0.664341 
H      -4.623736     2.089223     3.009970 
H      -6.187311     0.200660     2.630397 
C       1.194266    -0.949392    -1.459110 
O       0.929436     0.002737    -0.595341 
C       0.541575     0.793987    -1.776637 
C       1.018040     2.118797    -1.938580 
O       0.552448     2.920770    -2.734183 
O       2.085961     2.406620    -1.140055 
C       2.594626     3.730480    -1.281276 
H       2.936896     3.909352    -2.303822 
H       1.828372     4.470034    -1.034667 
H       3.430215     3.803196    -0.583954 
72
     -1725.708131     -1725.185343   6.81   3.87
C       5.344097    -1.195975     0.384335 
C       4.036947    -1.401931     0.872877 
C       3.867260    -1.740288     2.216388 
C       4.977815    -1.861574     3.035344 
C       6.272307    -1.648439     2.523038 
C       6.473089    -1.313943     1.192739 
C       3.913336    -0.886774    -1.303978 
C       3.133563    -1.197716    -0.233654 
H       2.874826    -1.907732     2.624977 
H       4.836840    -2.123549     4.075718 
H       7.481453    -1.156679     0.827657 
H       3.624338    -0.661331    -2.322093 
N       5.251353    -0.881862    -0.949294 
C       6.365370    -0.598676    -1.822747 
H       7.043473    -1.456383    -1.885074 
H       5.987336    -0.383598    -2.823545 
H       6.929055     0.271739    -1.470539 
O       7.407067    -1.752412     3.279581 
C       7.269760    -2.088120     4.645808 
H       8.281335    -2.114927     5.053023 
H       6.682540    -1.336529     5.187689 
H       6.803447    -3.072819     4.773322 
N      -0.353840    -0.358381     0.976961 
C      -0.678320    -0.934603     2.223240 
O       0.177646    -1.470788     2.881264 
C      -2.102666    -0.747145     2.748210 
H      -1.995847    -0.076781     3.606754 
H      -2.386490    -1.715198     3.166386 
C      -3.166621    -0.213314     1.761511 
H      -4.150225    -0.620420     2.008386 
H      -3.241284     0.874327     1.816358 
C      -2.735212    -0.612472     0.351103 
C      -3.360644     0.024148    -0.911500 
H      -3.928493    -0.698816    -1.505903 
C       1.641625    -1.286618    -0.166718 
H       1.348039    -2.220874     0.325489 
H       1.211367    -1.294444    -1.173067 
C       1.052309    -0.114038     0.624260 
H       1.598349     0.038996     1.554446 
H       1.085380     0.805248     0.039151 
C      -2.717402    -2.152959     0.209013 
H      -2.244546    -2.597708     1.090236 
H      -3.767055    -2.468251     0.247353 
C      -2.050650    -2.738015    -1.035451 
H      -0.987283    -2.486538    -1.076516 
H      -2.128835    -3.828918    -1.008088 
H      -2.508767    -2.395593    -1.965296 
O      -4.171931     1.126292    -0.547730 
C      -4.687680     1.833337    -1.664598 
H      -3.890218     1.970826    -2.408868 
H      -5.494470     1.257169    -2.139787 
C      -5.199964     3.173052    -1.203627 
C      -4.366752     4.018168    -0.470778 
C      -6.486412     3.596043    -1.516709 
C      -4.816010     5.264585    -0.060293 
H      -3.362870     3.687961    -0.221644 
C      -6.938891     4.847867    -1.109538 
H      -7.144388     2.940832    -2.081325 
C      -6.104550     5.683936    -0.380798 
H      -4.159965     5.913980     0.511314 
H      -7.945698     5.166723    -1.361137 
H      -6.455224     6.660031    -0.060520 
C      -1.367300     0.004589     0.160893 
O      -1.295380     1.102859    -0.554615 
C      -2.066786     0.363393    -1.574449 
C      -1.559811     0.121944    -2.871026 
O      -2.213911    -0.375761    -3.776627 
O      -0.246546     0.469851    -3.019580 
C       0.270492     0.274778    -4.333564 
H       1.307946     0.611242    -4.298776 
H       0.220178    -0.778564    -4.621909 
H      -0.291007     0.863541    -5.063457 
72
     -1725.710864     -1725.185286   5.10   3.90
C       3.400309     2.245049    -0.650521 
C       3.187665     0.905121    -1.042468 
C       3.488758    -0.108057    -0.132181 
C       3.981448     0.214594     1.120302 
C       4.186807     1.560084     1.482933 
C       3.905335     2.591193     0.599957 
C       2.549591     2.251685    -2.715708 
C       2.647379     0.936891    -2.379332 
H       3.325947    -1.150035    -0.387512 
H       4.209626    -0.580607     1.817126 
H       4.071028     3.617086     0.908065 
H       2.179613     2.690911    -3.632224 
N       3.000097     3.055788    -1.683654 
C       3.068800     4.498087    -1.693561 
H       2.480815     4.923319    -0.873669 
H       4.103781     4.843899    -1.601333 
H       2.662747     4.865690    -2.637216 
O       4.666012     1.945392     2.702353 
C       4.930628     0.941371     3.663100 
H       5.715075     0.255292     3.321265 
H       5.275490     1.462897     4.556716 
H       4.025752     0.370398     3.904266 
N      -0.079664    -0.091617    -2.302332 
C      -0.688064     0.807969    -3.201548 
O      -0.178358     1.022892    -4.273773 
C      -2.034781     1.428037    -2.831842 
H      -2.677675     1.229558    -3.693448 
H      -1.867661     2.508623    -2.833039 
C      -2.695419     0.963280    -1.522524 
H      -3.413324     1.709199    -1.172267 
H      -3.242599     0.030430    -1.674035 
C      -1.587805     0.729409    -0.496232 
C      -1.863069    -0.057557     0.806862 
H      -1.796553     0.564329     1.702530 
C       2.258652    -0.225099    -3.238934 
H       3.072342    -0.959539    -3.269981 
H       2.096845     0.123531    -4.257982 
C       1.008037    -0.978434    -2.758044 
H       0.628680    -1.617378    -3.560439 
H       1.241130    -1.611381    -1.902104 
C      -0.835262     2.047631    -0.194393 
H      -0.400275     2.431589    -1.122627 
H      -1.600111     2.774110     0.107655 
C       0.274244     2.008559     0.855989 
H       0.726692     3.001104     0.936567 
H      -0.086731     1.732221     1.848116 
H       1.067580     1.311199     0.585075 
O      -3.132909    -0.682976     0.729030 
C      -3.423971    -1.502133     1.850446 
H      -2.538952    -2.099815     2.110178 
H      -3.673930    -0.879226     2.721338 
C      -4.575482    -2.410912     1.506385 
C      -5.698678    -2.487982     2.321199 
C      -4.508579    -3.208621     0.364068 
C      -6.743442    -3.352361     2.006534 
H      -5.761420    -1.864591     3.209160 
C      -5.549719    -4.068014     0.045769 
H      -3.633547    -3.146305    -0.275824 
C      -6.670599    -4.143506     0.868558 
H      -7.615203    -3.403837     2.651525 
H      -5.488724    -4.683327    -0.846715 
H      -7.484542    -4.817245     0.619788 
C      -0.687343    -0.319547    -1.110964 
O      -0.829730    -1.552862    -0.677007 
C      -0.687633    -0.971161     0.675480 
C       0.227110    -1.518442     1.608554 
O       0.241571    -1.234132     2.796949 
O       1.119086    -2.387873     1.049730 
C       2.010158    -2.999547     1.979195 
H       1.460020    -3.609954     2.700319 
H       2.675506    -3.628759     1.386265 
H       2.581399    -2.245591     2.526082 
72
     -1725.707823     -1725.185237   7.01   3.93
C      -1.828248    -4.482233     2.420968 
C      -1.161987    -3.940175     1.301770 
C      -0.299678    -4.759566     0.571590 
C      -0.115571    -6.076131     0.960719 
C      -0.791657    -6.592302     2.083353 
C      -1.656219    -5.804085     2.827181 
C      -2.448453    -2.345746     2.208309 
C      -1.579207    -2.563797     1.185181 
H       0.227601    -4.375535    -0.297067 
H       0.554942    -6.704235     0.388973 
H      -2.162382    -6.229913     3.685819 
H      -2.983762    -1.443493     2.473729 
N      -2.611771    -3.494138     2.964563 
C      -3.460005    -3.639400     4.123664 
H      -4.226159    -4.404040     3.956878 
H      -2.874075    -3.914133     5.007209 
H      -3.957922    -2.688714     4.321442 
O      -0.652139    -7.881578     2.517968 
C       0.218013    -8.736502     1.803705 
H       1.248978    -8.361895     1.815123 
H       0.180754    -9.699726     2.314190 
H      -0.108701    -8.866262     0.764590 
N       0.945822    -0.451994    -0.704509 
C       1.327524    -1.136392    -1.879064 
O       1.461928    -2.334240    -1.860241 
C       1.457573    -0.334416    -3.176330 
H       0.680655    -0.740794    -3.831153 
H       2.404916    -0.652316    -3.617553 
C       1.355742     1.205416    -3.088891 
H       1.952804     1.669578    -3.877861 
H       0.324380     1.537118    -3.224010 
C       1.836949     1.629292    -1.701678 
C       1.557029     3.038359    -1.129127 
H       2.475336     3.614650    -0.975878 
C      -1.095835    -1.591798     0.155396 
H      -1.715376    -0.690589     0.149372 
H      -1.166492    -2.044195    -0.840401 
C       0.361550    -1.201001     0.417918 
H       0.437952    -0.566823     1.301633 
H       0.978865    -2.087042     0.564545 
C       3.329657     1.269139    -1.513432 
H       3.512251     0.259074    -1.892841 
H       3.886393     1.940362    -2.178412 
C       3.900117     1.356923    -0.098078 
H       4.958403     1.080379    -0.117232 
H       3.826816     2.358519     0.329945 
H       3.393993     0.666211     0.583218 
O       0.658326     3.738656    -1.969679 
C       0.277674     5.000721    -1.444740 
H       0.022486     4.889825    -0.380894 
H       1.114444     5.710282    -1.516754 
C      -0.912527     5.514530    -2.212228 
C      -0.910972     6.788144    -2.769008 
C      -2.047172     4.715193    -2.350107 
C      -2.026717     7.264159    -3.451680 
H      -0.028546     7.415054    -2.672423 
C      -3.159239     5.185041    -3.033087 
H      -2.049470     3.718517    -1.919684 
C      -3.152477     6.463457    -3.584811 
H      -2.012752     8.261122    -3.881201 
H      -4.036538     4.553706    -3.136013 
H      -4.023482     6.831318    -4.118037 
C       0.942508     0.897925    -0.728498 
O      -0.033587     1.575651    -0.173103 
C       0.998486     2.577166     0.176255 
C       1.331872     2.864269     1.518773 
O       2.108041     3.746967     1.856407 
O       0.723068     2.036299     2.419606 
C       1.027675     2.319228     3.783854 
H       0.468105     1.590082     4.371172 
H       2.099561     2.218663     3.972976 
H       0.719926     3.334203     4.047706 
72
     -1725.715527     -1725.185127   2.17   4.00
C      -0.624429    -1.459233     2.818657 
C       0.645294    -0.885739     3.046124 
C       0.772179     0.083566     4.042038 
C      -0.338769     0.470773     4.770270 
C      -1.597802    -0.110341     4.514834 
C      -1.754747    -1.084040     3.541137 
C       0.804909    -2.328659     1.341359 
C       1.548592    -1.459008     2.081271 
H       1.730489     0.555505     4.236058 
H      -0.228874     1.228567     5.535117 
H      -2.736488    -1.508354     3.365558 
H       1.099050    -2.944064     0.502061 
N      -0.505976    -2.348397     1.780136 
C      -1.589887    -3.097209     1.182360 
H      -2.151561    -3.632728     1.953233 
H      -2.266164    -2.445613     0.620182 
H      -1.173527    -3.827740     0.487595 
O      -2.736365     0.238628     5.184936 
C      -2.634771     1.189602     6.227011 
H      -1.958074     0.845691     7.018615 
H      -2.291116     2.161624     5.852569 
H      -3.640224     1.297717     6.635577 
N       2.204535     0.859652     0.494046 
C       2.333414     2.026307     1.272387 
O       3.127198     2.054677     2.180470 
C       1.526025     3.262415     0.871743 
H       2.269400     4.051120     0.726663 
H       0.964735     3.544012     1.767112 
C       0.593989     3.128951    -0.347562 
H      -0.183145     3.894560    -0.323100 
H       1.155996     3.271954    -1.274983 
C       0.016032     1.717271    -0.309347 
C      -0.778843     1.088940    -1.494271 
H      -1.798516     0.858694    -1.187004 
C       2.983108    -1.070186     1.877506 
H       3.621637    -1.954730     1.782157 
H       3.336244    -0.513126     2.747164 
C       3.199241    -0.218054     0.617660 
H       4.193565     0.233133     0.626362 
H       3.096295    -0.825247    -0.282050 
C      -0.766255     1.433911     0.988931 
H      -1.118782     0.400627     0.939057 
H      -0.109048     1.474454     1.859387 
C      -1.951262     2.373435     1.209313 
H      -1.630895     3.401646     1.405163 
H      -2.624324     2.394193     0.346234 
H      -2.528086     2.038669     2.076240 
O      -0.919493     1.928782    -2.638484 
C       0.018873     1.821188    -3.697466 
H      -0.192594     2.689906    -4.329787 
H       1.049130     1.918559    -3.341160 
C      -0.117697     0.561763    -4.528433 
C      -1.376787     0.104956    -4.913106 
C       1.012103    -0.125990    -4.961689 
C      -1.501979    -1.017907    -5.718896 
H      -2.260465     0.630196    -4.565682 
C       0.889698    -1.249617    -5.771355 
H       1.997168     0.211047    -4.651274 
C      -0.368417    -1.697198    -6.154155 
H      -2.488643    -1.367086    -6.007167 
H       1.780141    -1.776695    -6.101010 
H      -0.467188    -2.573757    -6.787476 
C       1.212454     0.800160    -0.426171 
O       1.445017     0.279839    -1.615926 
C       0.028601    -0.159439    -1.559343 
C      -0.307931    -1.482343    -1.963986 
O      -1.452376    -1.878855    -2.103668 
O       0.776173    -2.284082    -2.153054 
C       0.479979    -3.559108    -2.720406 
H      -0.024873    -3.440521    -3.682157 
H       1.442541    -4.053058    -2.858709 
H      -0.157426    -4.148564    -2.055422 
72
     -1725.713761     -1725.184995   3.28   4.09
C       1.945273    -0.099942     2.528131 
C       2.151815     0.884148     1.538353 
C       1.324358     2.008628     1.538770 
C       0.342134     2.142497     2.502186 
C       0.171504     1.152584     3.490971 
C       0.964324     0.016523     3.511917 
C       3.633972    -0.768349     1.231230 
C       3.249433     0.432676     0.717423 
H       1.427523     2.773159     0.775398 
H      -0.294991     3.017275     2.488168 
H       0.804952    -0.734303     4.277333 
H       4.424603    -1.427034     0.895611 
N       2.854522    -1.108238     2.321584 
C       3.016852    -2.275547     3.157437 
H       3.837000    -2.880578     2.767677 
H       3.255918    -1.989848     4.187090 
H       2.107146    -2.884565     3.162496 
O      -0.765136     1.236649     4.481476 
C      -1.744619     2.256129     4.391316 
H      -1.299827     3.252662     4.496797 
H      -2.293840     2.195369     3.444571 
H      -2.434457     2.082583     5.218096 
N       2.146819    -0.078823    -1.884096 
C       2.811470    -1.319003    -1.979749 
O       3.983096    -1.349011    -2.262811 
C       2.035251    -2.582160    -1.602657 
H       2.509050    -2.927211    -0.678736 
H       2.296034    -3.322268    -2.362188 
C       0.505256    -2.457992    -1.417593 
H       0.010942    -3.392350    -1.695190 
H       0.254683    -2.253046    -0.374888 
C       0.028890    -1.290713    -2.280457 
C      -1.367571    -0.648337    -2.099261 
H      -2.011432    -0.788894    -2.973412 
C       3.853233     1.106519    -0.478207 
H       4.767585     0.580554    -0.757694 
H       4.133183     2.138083    -0.236476 
C       2.916671     1.160415    -1.696342 
H       2.175057     1.952778    -1.594793 
H       3.493855     1.339323    -2.606551 
C       0.281639    -1.579474    -3.778234 
H       1.279176    -2.011336    -3.907085 
H      -0.422091    -2.374547    -4.053109 
C       0.138694    -0.406393    -4.747957 
H       0.329480    -0.752769    -5.767910 
H      -0.857080     0.040972    -4.730248 
H       0.861912     0.385043    -4.529031 
O      -1.984880    -1.158287    -0.930112 
C      -3.178244    -0.476637    -0.580571 
H      -3.016793     0.607614    -0.664235 
H      -3.989700    -0.748998    -1.270451 
C      -3.549746    -0.834457     0.834898 
C      -2.614647    -0.679510     1.858660 
C      -4.822777    -1.298574     1.144379 
C      -2.951210    -0.988232     3.168930 
H      -1.617250    -0.320204     1.623314 
C      -5.165203    -1.603437     2.458599 
H      -5.554033    -1.427542     0.350915 
C      -4.229548    -1.449009     3.472110 
H      -2.214316    -0.861544     3.955184 
H      -6.163143    -1.964443     2.687578 
H      -4.492273    -1.688635     4.497855 
C       0.801197    -0.092352    -1.778385 
O       0.171511     0.730971    -0.972732 
C      -0.878547     0.759124    -2.010138 
C      -1.259890     1.968271    -2.632947 
O      -2.203690     2.079880    -3.402519 
O      -0.442813     3.018486    -2.314201 
C      -0.807650     4.255868    -2.921552 
H      -1.814822     4.554869    -2.620141 
H      -0.076327     4.985968    -2.572283 
H      -0.777466     4.178975    -4.011508 
72
     -1725.716420     -1725.184983   1.61   4.09
C      -0.256895     2.594015     1.886388 
C      -0.641207     1.572716     2.772846 
C       0.151047     1.333672     3.906223 
C       1.283613     2.085440     4.107891 
C       1.656008     3.100553     3.196711 
C       0.892693     3.375879     2.077107 
C      -2.091161     1.623657     1.068539 
C      -1.821251     0.956508     2.226920 
H      -0.110245     0.548696     4.609483 
H       1.921967     1.923084     4.969264 
H       1.165481     4.145614     1.367267 
H      -2.878658     1.460080     0.345995 
N      -1.159250     2.620870     0.853710 
C      -1.100903     3.488517    -0.303323 
H      -0.964454     4.528036     0.008654 
H      -0.296578     3.196435    -0.985654 
H      -2.045542     3.416245    -0.844014 
O       2.808526     3.757137     3.518792 
C       3.214500     4.824914     2.685834 
H       2.453310     5.614068     2.649751 
H       4.127286     5.225739     3.127714 
H       3.428689     4.479893     1.666592 
N      -0.832845    -1.737214     1.730158 
C      -0.005100    -2.257258     2.744633 
O      -0.416325    -2.323584     3.876779 
C       1.362712    -2.819629     2.352290 
H       1.355633    -3.853672     2.707900 
H       2.083929    -2.293215     2.983584 
C       1.759396    -2.733335     0.865966 
H       2.842989    -2.794266     0.753035 
H       1.331152    -3.570824     0.307902 
C       1.195909    -1.418381     0.334448 
C       1.156877    -1.058025    -1.181690 
H       1.757757    -0.170126    -1.375609 
C      -2.532282    -0.240943     2.786030 
H      -3.616381    -0.085969     2.791965 
H      -2.226756    -0.396945     3.822472 
C      -2.266072    -1.526600     1.990239 
H      -2.645320    -2.396050     2.531054 
H      -2.746325    -1.482422     1.012321 
C       1.735149    -0.194432     1.101409 
H       1.258229     0.693980     0.679766 
H       1.424820    -0.221344     2.147169 
C       3.254798    -0.048449     1.033423 
H       3.622123    -0.053441     0.002245 
H       3.552391     0.899227     1.491535 
H       3.770128    -0.849120     1.573419 
O       1.685252    -2.055519    -2.053640 
C       0.808186    -3.016246    -2.619927 
H       1.478096    -3.766270    -3.053537 
H       0.204905    -3.518259    -1.857134 
C      -0.094478    -2.474106    -3.709284 
C      -1.423782    -2.878124    -3.791828 
C       0.409661    -1.604818    -4.674686 
C      -2.237487    -2.428651    -4.825744 
H      -1.831423    -3.539865    -3.032722 
C      -0.401085    -1.152329    -5.706154 
H       1.441028    -1.275082    -4.604688 
C      -1.726917    -1.566351    -5.787759 
H      -3.272950    -2.751971    -4.876979 
H       0.002007    -0.471186    -6.449179 
H      -2.359489    -1.214772    -6.597375 
C      -0.301927    -1.540054     0.500093 
O      -0.992225    -1.856710    -0.578175 
C      -0.290111    -0.709552    -1.207718 
C      -1.027134     0.185619    -2.034259 
O      -0.513611     1.054195    -2.719027 
O      -2.374102     0.002245    -1.968506 
C      -3.124080     0.771043    -2.907269 
H      -3.005714     1.842630    -2.723690 
H      -2.801320     0.548852    -3.927167 
H      -4.164856     0.475556    -2.768775 
72
     -1725.707506     -1725.184923   7.21   4.13
C       5.205886    -0.272775    -1.870371 
C       4.361593    -0.056643    -0.760947 
C       4.863241    -0.290435     0.520391 
C       6.168030    -0.729441     0.673597 
C       6.989748    -0.939150    -0.450960 
C       6.521035    -0.713493    -1.736034 
C       3.222140     0.422109    -2.629505 
C       3.090513     0.391757    -1.276117 
H       4.241532    -0.131982     1.397003 
H       6.548681    -0.908350     1.670643 
H       7.177417    -0.883522    -2.581633 
H       2.497793     0.701245    -3.383473 
N       4.493966     0.024859    -3.006301 
C       4.996265    -0.061019    -4.357031 
H       5.303654    -1.084325    -4.597439 
H       4.206323     0.233996    -5.049704 
H       5.851750     0.607350    -4.501631 
O       8.284499    -1.371538    -0.366022 
C       8.821746    -1.622845     0.917121 
H       8.829188    -0.716383     1.534866 
H       8.265952    -2.411909     1.438486 
H       9.848114    -1.954493     0.754764 
N       0.238503    -0.278846     1.137103 
C       0.620567     0.145876     2.428651 
O       1.753669    -0.019623     2.805079 
C      -0.403989     0.904661     3.275531 
H       0.028344     1.901645     3.404390 
H      -0.362533     0.440036     4.263287 
C      -1.853257     0.995566     2.746893 
H      -2.556816     1.061742     3.580573 
H      -1.990396     1.888501     2.133553 
C      -2.117985    -0.241316     1.889571 
C      -3.323582    -0.329382     0.926045 
H      -4.032943    -1.110625     1.218328 
C       1.880773     0.708571    -0.454502 
H       1.126599     1.225539    -1.054564 
H       2.158727     1.377001     0.368454 
C       1.271184    -0.568547     0.131122 
H       0.799860    -1.164565    -0.650993 
H       2.034264    -1.171357     0.622953 
C      -2.033849    -1.525780     2.747507 
H      -1.160151    -1.470293     3.404100 
H      -2.905980    -1.500524     3.411942 
C      -1.989329    -2.862161     2.006734 
H      -2.865536    -3.030280     1.377654 
H      -1.102983    -2.939444     1.369880 
H      -1.941357    -3.677527     2.734545 
O      -3.978691     0.923030     0.838256 
C      -4.989852     0.938813    -0.153409 
H      -4.547803     0.769970    -1.144359 
H      -5.702014     0.118519     0.030281 
C      -5.711013     2.262599    -0.117288 
C      -6.116714     2.871377    -1.300792 
C      -6.015724     2.875169     1.096998 
C      -6.823899     4.068835    -1.276159 
H      -5.874417     2.407042    -2.253034 
C      -6.718316     4.072317     1.124307 
H      -5.693994     2.410291     2.022903 
C      -7.127288     4.671864    -0.062598 
H      -7.135166     4.531393    -2.207766 
H      -6.948334     4.540230     2.076699 
H      -7.677822     5.607073    -0.040145 
C      -1.067578    -0.205058     0.803871 
O      -1.433324     0.221949    -0.380456 
C      -2.544053    -0.750572    -0.273394 
C      -2.680232    -1.828200    -1.176528 
O      -3.636734    -2.590284    -1.190007 
O      -1.618614    -1.964905    -2.025737 
C      -1.740387    -3.036433    -2.958724 
H      -0.831881    -3.010571    -3.561738 
H      -1.827045    -3.995571    -2.441633 
H      -2.619976    -2.900759    -3.593085 
72
     -1725.711877     -1725.184675   4.46   4.29
C      -1.880994    -4.016744     0.210913 
C      -2.084106    -2.652797    -0.093053 
C      -1.339285    -2.084865    -1.128074 
C      -0.413293    -2.853148    -1.812188 
C      -0.220684    -4.208379    -1.478444 
C      -0.953305    -4.806735    -0.464816 
C      -3.434117    -3.218704     1.600237 
C      -3.084008    -2.159152     0.821950 
H      -1.469544    -1.043780    -1.401982 
H       0.158863    -2.396235    -2.609177 
H      -0.787703    -5.852201    -0.232359 
H      -4.136270    -3.265322     2.421679 
N      -2.720620    -4.346935     1.244396 
C      -2.819972    -5.648291     1.863873 
H      -1.862424    -5.946987     2.302369 
H      -3.565777    -5.605256     2.658967 
H      -3.129372    -6.405934     1.136574 
O       0.677783    -5.019004    -2.111544 
C       1.433627    -4.476532    -3.177295 
H       2.067634    -5.286709    -3.539256 
H       0.786727    -4.131888    -3.993041 
H       2.066210    -3.646506    -2.839828 
N      -1.233428    -0.097574     1.807613 
C      -0.518178    -1.179223     2.385841 
O      -0.977898    -1.772541     3.326235 
C       0.781434    -1.617015     1.714438 
H       0.519810    -2.556573     1.217162 
H       1.446962    -1.896298     2.531946 
C       1.460470    -0.655786     0.707817 
H       2.546223    -0.680737     0.837579 
H       1.249018    -0.974745    -0.312998 
C       0.921872     0.758323     0.902782 
C       0.983522     1.829164    -0.221441 
H       1.705060     2.619277    -0.002216 
C      -3.518470    -0.733171     0.977143 
H      -4.563132    -0.679564     1.300198 
H      -3.455924    -0.218003     0.015613 
C      -2.682916     0.030275     2.019622 
H      -2.923437     1.095150     1.994310 
H      -2.874038    -0.357766     3.020395 
C       1.492778     1.473343     2.157408 
H       2.560031     1.611748     1.943683 
H       1.054696     2.476396     2.176624 
C       1.358638     0.864307     3.553839 
H       0.318942     0.746728     3.868447 
H       1.859867    -0.100693     3.652722 
H       1.831715     1.542215     4.270906 
O       1.256952     1.227828    -1.474467 
C       1.279535     2.164004    -2.547776 
H       1.276368     1.555809    -3.456136 
H       0.363732     2.768481    -2.533134 
C       2.497452     3.059728    -2.517129 
C       3.747877     2.546000    -2.858668 
C       2.396307     4.391410    -2.124590 
C       4.878533     3.349410    -2.815126 
H       3.832388     1.505179    -3.160236 
C       3.528618     5.198966    -2.079270 
H       1.430071     4.792773    -1.832372 
C       4.769634     4.681253    -2.425446 
H       5.846478     2.938013    -3.084423 
H       3.437238     6.234872    -1.768113 
H       5.652753     5.311682    -2.389872 
C      -0.593057     0.672014     0.902843 
O      -1.229060     1.071617    -0.183739 
C      -0.425771     2.297176    -0.027542 
C      -1.044376     3.573893     0.000129 
O      -0.445353     4.630704    -0.133623 
O      -2.386936     3.514846     0.225873 
C      -3.043308     4.781263     0.257089 
H      -2.923996     5.303999    -0.695315 
H      -4.096191     4.564618     0.440604 
H      -2.638878     5.409332     1.054871 
72
     -1725.710811     -1725.184379   5.13   4.47
C      -0.133179    -3.427474     1.352810 
C       0.567835    -2.831744     2.416536 
C       1.896191    -3.223960     2.644254 
C       2.476656    -4.156414     1.817554 
C       1.755427    -4.731212     0.745896 
C       0.441412    -4.379148     0.496447 
C      -1.508813    -1.998412     2.374910 
C      -0.333415    -1.906886     3.056957 
H       2.470367    -2.788979     3.456323 
H       3.500575    -4.480872     1.966560 
H      -0.128247    -4.813270    -0.314640 
H      -2.429411    -1.448401     2.509936 
N      -1.402615    -2.907270     1.340843 
C      -2.438610    -3.223132     0.384284 
H      -3.319430    -2.620332     0.608492 
H      -2.112824    -2.989974    -0.634125 
H      -2.717237    -4.280594     0.437151 
O       2.460080    -5.638067     0.009657 
C       1.800992    -6.265797    -1.072378 
H       1.481668    -5.534426    -1.825272 
H       2.527903    -6.945383    -1.518126 
H       0.931042    -6.840720    -0.731392 
N       0.843713     0.590881     2.307495 
C       2.186296     0.152155     2.225237 
O       2.846795     0.076942     3.230561 
C       2.713402    -0.309682     0.867646 
H       2.915555    -1.375999     0.996951 
H       3.689384     0.167778     0.754694 
C       1.812920    -0.071607    -0.362880 
H       2.433719     0.036661    -1.256527 
H       1.147147    -0.924854    -0.521350 
C       0.977848     1.179931    -0.093263 
C      -0.265085     1.569042    -0.948435 
H      -0.099091     2.490427    -1.511110 
C       0.021604    -0.921004     4.133581 
H       0.969626    -1.207793     4.592827 
H      -0.729727    -0.913212     4.929679 
C       0.135700     0.517430     3.596457 
H      -0.851806     0.943311     3.415104 
H       0.669102     1.151999     4.307010 
C       1.893342     2.417416     0.066334 
H       2.751138     2.161930     0.695492 
H       2.305848     2.616735    -0.930732 
C       1.259750     3.692111     0.623858 
H       2.013938     4.483945     0.663041 
H       0.428294     4.054621     0.016223 
H       0.886604     3.540921     1.640938 
O      -0.729747     0.539519    -1.816005 
C      -0.169717     0.595200    -3.113595 
H       0.929207     0.586674    -3.068972 
H      -0.482543    -0.333402    -3.602708 
C      -0.626947     1.785697    -3.934899 
C       0.207861     2.311797    -4.917543 
C      -1.887455     2.346663    -3.744141 
C      -0.210607     3.376479    -5.707031 
H       1.197123     1.886227    -5.068309 
C      -2.304137     3.415847    -4.527653 
H      -2.536721     1.956387    -2.968484 
C      -1.469934     3.931185    -5.513357 
H       0.449781     3.774422    -6.471343 
H      -3.285559     3.849708    -4.364200 
H      -1.798816     4.764888    -6.125774 
C       0.189746     0.866503     1.159201 
O      -1.075775     0.546310     1.003009 
C      -1.165624     1.791230     0.207783 
C      -2.209455     2.720250     0.446022 
O      -2.492452     3.636693    -0.310039 
O      -2.849152     2.520858     1.633848 
C      -3.904515     3.441905     1.901645 
H      -4.312916     3.151840     2.870429 
H      -3.526564     4.466900     1.939508 
H      -4.677466     3.382598     1.131104 
72
     -1725.713998     -1725.184149   3.13   4.62
C       1.336853    -1.007685     2.658170 
C       1.397739     0.394764     2.514039 
C       0.426080     1.170980     3.146074 
C      -0.553456     0.561999     3.910603 
C      -0.580779    -0.839561     4.049359 
C       0.354561    -1.642238     3.415867 
C       3.120118    -0.514113     1.409037 
C       2.556758     0.688707     1.708204 
H       0.429584     2.252038     3.047214 
H      -1.301260     1.175463     4.396215 
H       0.301258    -2.718410     3.533999 
H       4.011850    -0.726700     0.833316 
N       2.389093    -1.550635     1.962521 
C       2.724814    -2.955015     1.915401 
H       3.604730    -3.089309     1.284230 
H       2.951883    -3.340507     2.914982 
H       1.901202    -3.537660     1.490857 
O      -1.524165    -1.502200     4.783819 
C      -2.444025    -0.738138     5.539501 
H      -3.094048    -0.134030     4.894363 
H      -3.054123    -1.456949     6.087802 
H      -1.929549    -0.081688     6.251557 
N       2.236755     1.525844    -1.077180 
C       3.464015     1.110341    -1.636350 
O       4.451500     1.784361    -1.477172 
C       3.521080    -0.237806    -2.355120 
H       4.295712    -0.807908    -1.834234 
H       3.933124    -0.023731    -3.345363 
C       2.203990    -1.025682    -2.455255 
H       2.252176    -1.757733    -3.263301 
H       2.008123    -1.575787    -1.531403 
C       1.095887     0.002047    -2.662991 
C      -0.406471    -0.355993    -2.573464 
H      -0.913037    -0.286456    -3.540561 
C       3.014689     2.036481     1.237919 
H       4.080398     2.010098     1.002067 
H       2.879353     2.781665     2.029051 
C       2.244914     2.526559     0.003267 
H       1.199002     2.720759     0.242025 
H       2.695947     3.438885    -0.392319 
C       1.307810     0.872027    -3.921849 
H       0.469544     1.572795    -3.975634 
H       2.207784     1.487879    -3.824521 
C       1.388267     0.057596    -5.213315 
H       1.408191     0.722952    -6.081125 
H       2.290722    -0.559835    -5.254578 
H       0.525859    -0.606454    -5.326681 
O      -0.558907    -1.659909    -2.028344 
C      -1.899994    -2.114264    -1.977642 
H      -2.392563    -1.946002    -2.945571 
H      -1.827844    -3.196724    -1.827064 
C      -2.739643    -1.503179    -0.874423 
C      -4.059848    -1.148302    -1.128325 
C      -2.221939    -1.317943     0.406056 
C      -4.860771    -0.623917    -0.120500 
H      -4.460658    -1.259535    -2.131503 
C      -3.016845    -0.786059     1.410810 
H      -1.186170    -1.568470     0.612591 
C      -4.339652    -0.441344     1.152837 
H      -5.888949    -0.349385    -0.335662 
H      -2.596209    -0.638964     2.398339 
H      -4.960007    -0.026618     1.942106 
C       1.108808     0.860168    -1.413514 
O       0.154484     0.658268    -0.537227 
C      -0.769120     0.791835    -1.694308 
C      -1.951545     1.569185    -1.575614 
O      -2.855256     1.553407    -2.395793 
O      -1.965242     2.366183    -0.472603 
C      -3.174993     3.099368    -0.289841 
H      -3.041670     3.664997     0.633193 
H      -3.350947     3.776945    -1.129160 
H      -4.024975     2.418241    -0.197878 
72
     -1725.710333     -1725.184015   5.43   4.70
C       4.705965    -1.451950     0.925499 
C       3.579087    -1.758587     0.145096 
C       3.438311    -3.062745    -0.355466 
C       4.403338    -3.998958    -0.064851 
C       5.527919    -3.668410     0.723754 
C       5.700810    -2.393680     1.231824 
C       3.460728     0.394225     0.752469 
C       2.790976    -0.556238     0.044765 
H       2.580318    -3.334679    -0.963353 
H       4.329125    -5.016110    -0.432817 
H       6.556146    -2.123767     1.836915 
H       3.205665     1.431284     0.925476 
N       4.621947    -0.131291     1.291063 
C       5.582950     0.583683     2.097590 
H       5.678660     0.130572     3.090071 
H       6.567439     0.597283     1.617937 
H       5.245714     1.614055     2.220791 
O       6.400468    -4.699422     0.928550 
C       7.549826    -4.445573     1.709899 
H       7.282033    -4.140023     2.729222 
H       8.103747    -5.384073     1.751027 
H       8.182167    -3.673466     1.253733 
N      -0.830094    -1.308399    -0.771706 
C      -1.048192    -2.487499    -1.513921 
O      -0.146902    -3.269663    -1.685322 
C      -2.475124    -2.783777    -1.977541 
H      -2.785282    -3.650526    -1.385613 
H      -2.376992    -3.148753    -3.002047 
C      -3.513067    -1.643163    -1.870653 
H      -4.260057    -1.735172    -2.662887 
H      -4.043341    -1.685746    -0.917351 
C      -2.760632    -0.316788    -1.964248 
C      -3.415026     1.027720    -1.571134 
H      -3.533731     1.696029    -2.429690 
C       1.484837    -0.427372    -0.673399 
H       1.573520    -0.844431    -1.683123 
H       1.204543     0.626104    -0.776044 
C       0.370664    -1.175332     0.065202 
H       0.690549    -2.181242     0.333859 
H       0.080727    -0.642975     0.971568 
C      -2.078021    -0.181122    -3.345836 
H      -1.586361    -1.123125    -3.608716 
H      -2.891924    -0.060425    -4.070794 
C      -1.063686     0.949184    -3.517759 
H      -0.208014     0.823355    -2.849049 
H      -0.684432     0.943763    -4.544055 
H      -1.490617     1.935468    -3.325682 
O      -4.676424     0.807643    -0.955664 
C      -5.257193     1.992595    -0.428888 
H      -5.094692     2.834276    -1.114154 
H      -6.333776     1.795612    -0.388816 
C      -4.757228     2.355492     0.954760 
C      -4.669821     1.382220     1.948625 
C      -4.419253     3.669410     1.263686 
C      -4.246571     1.716187     3.226783 
H      -4.919668     0.353692     1.708332 
C      -3.999228     4.007538     2.545779 
H      -4.455741     4.428094     0.487886 
C      -3.911887     3.032582     3.530559 
H      -4.176226     0.947562     3.990596 
H      -3.736176     5.036479     2.772949 
H      -3.581238     3.294452     4.531044 
C      -1.767291    -0.336294    -0.823883 
O      -2.067142     0.366782     0.243711 
C      -2.303927     1.488092    -0.693484 
C      -1.748531     2.768724    -0.459440 
O      -2.083024     3.769974    -1.076956 
O      -0.779373     2.779771     0.496490 
C      -0.279480     4.075363     0.819704 
H       0.171321     4.551599    -0.054771 
H      -1.083418     4.714269     1.194459 
H       0.469303     3.919645     1.597435 
72
     -1725.711136     -1725.183765   4.93   4.86
C       3.625092     1.929236    -1.967606 
C       2.549910     1.322701    -1.284420 
C       1.289783     1.918204    -1.358981 
C       1.123244     3.079580    -2.094650 
C       2.214220     3.664739    -2.766726 
C       3.477814     3.097750    -2.712494 
C       4.394985     0.096383    -0.948556 
C       3.071657     0.142136    -0.636967 
H       0.436583     1.472026    -0.858278 
H       0.141255     3.531408    -2.147062 
H       4.298350     3.569346    -3.240682 
H       5.142822    -0.631098    -0.660906 
N       4.746905     1.167653    -1.750885 
C       6.060489     1.440143    -2.284097 
H       6.049641     1.433241    -3.379269 
H       6.429080     2.412734    -1.941273 
H       6.751196     0.668379    -1.940321 
O       2.115128     4.809269    -3.508069 
C       0.850688     5.433912    -3.605768 
H       0.996876     6.314271    -4.232897 
H       0.111731     4.774177    -4.077017 
H       0.480629     5.749014    -2.622401 
N       1.012367    -1.034114     2.331006 
C       1.397701    -1.510666     3.607059 
O       2.557387    -1.513507     3.930650 
C       0.289236    -1.903074     4.587082 
H       0.342961    -1.149185     5.378481 
H       0.626607    -2.833934     5.047429 
C      -1.149716    -2.022874     4.036790 
H      -1.708930    -2.776034     4.597375 
H      -1.686696    -1.077584     4.137225 
C      -1.051109    -2.386592     2.557133 
C      -2.259670    -2.267818     1.600688 
H      -2.585070    -3.241866     1.222555 
C       2.297142    -0.810405     0.218999 
H       2.885707    -1.711239     0.421172 
H       1.392106    -1.121675    -0.313601 
C       1.904168    -0.163564     1.548900 
H       2.780651     0.027383     2.166116 
H       1.384747     0.781187     1.377070 
C      -0.385604    -3.772541     2.384571 
H       0.486441    -3.847970     3.041645 
H      -1.109261    -4.501409     2.768863 
C       0.045852    -4.170403     0.973083 
H      -0.780940    -4.169529     0.259999 
H       0.817704    -3.498786     0.586883 
H       0.467600    -5.179766     0.993478 
O      -3.345331    -1.613561     2.240675 
C      -4.424409    -1.331153     1.360571 
H      -4.584736    -2.170515     0.672046 
H      -5.308766    -1.248646     2.001233 
C      -4.249721    -0.048903     0.572066 
C      -4.540132    -0.008340    -0.788147 
C      -3.834747     1.118338     1.210928 
C      -4.418892     1.179853    -1.500915 
H      -4.833550    -0.919722    -1.299906 
C      -3.709588     2.303932     0.501521 
H      -3.593493     1.087676     2.268652 
C      -4.004620     2.338977    -0.858315 
H      -4.646640     1.197221    -2.562638 
H      -3.382230     3.205684     1.010326 
H      -3.910462     3.267339    -1.413333 
C      -0.251389    -1.272994     1.918775 
O      -0.924247    -0.358870     1.249201 
C      -1.539545    -1.503429     0.543653 
C      -1.637890    -1.537654    -0.869286 
O      -2.324020    -2.347517    -1.476140 
O      -0.868150    -0.607591    -1.494450 
C      -0.983347    -0.580858    -2.916816 
H      -0.727085    -1.552408    -3.346334 
H      -2.003353    -0.320684    -3.210995 
H      -0.283115     0.184579    -3.253694 
72
     -1725.712657     -1725.183463   3.97   5.05
C       0.699104    -0.980970    -3.006086 
C       1.637861    -1.164210    -1.969904 
C       1.547050    -2.314535    -1.186402 
C       0.571339    -3.257156    -1.455252 
C      -0.327968    -3.065839    -2.520882 
C      -0.287253    -1.920269    -3.299503 
C       2.070362     0.781126    -2.991633 
C       2.517475    -0.021229    -1.987171 
H       2.227762    -2.477686    -0.357025 
H       0.507018    -4.141308    -0.834927 
H      -1.004809    -1.793246    -4.102089 
H       2.458676     1.730173    -3.337396 
N       0.968437     0.220991    -3.613108 
C       0.269799     0.755934    -4.758339 
H       0.686330     1.734072    -5.004330 
H       0.379731     0.101972    -5.630095 
H      -0.796188     0.878652    -4.541804 
O      -1.307111    -3.964031    -2.847108 
C      -1.396077    -5.155981    -2.090228 
H      -2.228612    -5.720105    -2.512310 
H      -0.478158    -5.750567    -2.170148 
H      -1.600554    -4.945216    -1.033473 
N       2.362893     1.672953     0.467149 
C       2.825420     2.958346     0.116072 
O       4.009646     3.166337     0.023589 
C       1.787127     4.018924    -0.253608 
H       1.924113     4.178400    -1.327835 
H       2.130170     4.939517     0.223250 
C       0.307944     3.714936     0.076337 
H      -0.229562     4.638958     0.303581 
H      -0.193672     3.246282    -0.772778 
C       0.287592     2.748441     1.259112 
C      -0.987564     1.972323     1.658254 
H      -1.366544     2.274335     2.639637 
C       3.683288     0.226983    -1.078855 
H       4.280683     1.062119    -1.452375 
H       4.339810    -0.650615    -1.058665 
C       3.270346     0.520122     0.366022 
H       2.737252    -0.323974     0.804708 
H       4.149183     0.740622     0.975581 
C       0.907422     3.409520     2.512961 
H       1.821153     3.945628     2.237282 
H       0.195420     4.182430     2.827054 
C       1.228518     2.493390     3.694110 
H       1.982529     1.746693     3.427434 
H       1.632408     3.089449     4.517870 
H       0.352813     1.958842     4.067485 
O      -1.995906     2.149981     0.673563 
C      -3.231844     1.543135     1.008868 
H      -3.510699     1.801256     2.039978 
H      -3.966971     2.004563     0.341295 
C      -3.268280     0.038819     0.839284 
C      -3.792735    -0.762168     1.847395 
C      -2.825768    -0.557948    -0.340467 
C      -3.889630    -2.139003     1.680011 
H      -4.106059    -0.309382     2.782828 
C      -2.924619    -1.930531    -0.512609 
H      -2.390073     0.056060    -1.123107 
C      -3.460205    -2.724522     0.497571 
H      -4.300249    -2.752111     2.476633 
H      -2.590800    -2.381125    -1.439537 
H      -3.542879    -3.799043     0.361588 
C       1.059914     1.533309     0.797180 
O       0.362640     0.484224     0.428409 
C      -0.340305     0.632152     1.722890 
C      -0.502120    -0.472851     2.589111 
O      -1.178395    -0.444220     3.607990 
O       0.195752    -1.577879     2.199065 
C      -0.047931    -2.738783     2.988390 
H      -1.106345    -3.010724     2.952671 
H       0.559513    -3.530596     2.547386 
H       0.241398    -2.574149     4.029456 
72
     -1725.709464     -1725.183420   5.98   5.07
C      -3.942557     3.130732    -0.686243 
C      -2.708812     2.970762    -0.021419 
C      -2.480724     3.688698     1.153677 
C      -3.465050     4.533744     1.639321 
C      -4.689122     4.674259     0.957128 
C      -4.944165     3.976380    -0.213284 
C      -2.708088     1.676658    -1.850570 
C      -1.931135     2.030369    -0.791590 
H      -1.541825     3.590370     1.690996 
H      -3.279970     5.085905     2.551334 
H      -5.895736     4.105645    -0.715870 
H      -2.494154     0.992791    -2.661379 
N      -3.926185     2.332452    -1.803557 
C      -5.000391     2.207178    -2.759912 
H      -4.703479     1.502248    -3.538186 
H      -5.910724     1.831491    -2.280791 
H      -5.221583     3.170885    -3.230798 
O      -5.699221     5.491135     1.385210 
C      -5.502539     6.228351     2.575169 
H      -6.417623     6.801559     2.729646 
H      -5.341233     5.567548     3.435792 
H      -4.655179     6.919163     2.485176 
N       0.746243     0.395165     1.326200 
C       1.216435     1.178269     2.400236 
O       0.645256     2.196325     2.702196 
C       2.382815     0.630817     3.224034 
H       1.946031     0.389554     4.198118 
H       3.038977     1.485582     3.400948 
C       3.156640    -0.579005     2.651902 
H       4.201880    -0.544310     2.968707 
H       2.737396    -1.518652     3.016739 
C       3.032920    -0.535228     1.129718 
C       3.393683    -1.748139     0.241277 
H       4.258288    -1.548335    -0.399331 
C      -0.561825     1.541662    -0.440389 
H       0.088903     2.394082    -0.213756 
H      -0.116431     1.002959    -1.283168 
C      -0.600628     0.620914     0.783417 
H      -1.200496     1.059160     1.579850 
H      -1.016542    -0.352935     0.523459 
C       3.707033     0.740139     0.570941 
H       3.423468     1.604442     1.179865 
H       4.783162     0.604986     0.732982 
C       3.446563     1.084900    -0.895132 
H       3.754986     0.291723    -1.578992 
H       2.387092     1.284375    -1.076650 
H       4.003026     1.988972    -1.159977 
O       3.643056    -2.895761     1.040702 
C       3.824637    -4.080865     0.278115 
H       4.420530    -3.869598    -0.618946 
H       4.407794    -4.751629     0.917979 
C       2.528022    -4.758297    -0.116823 
C       2.344438    -5.237399    -1.410191 
C       1.517951    -4.946856     0.824930 
C       1.169412    -5.894541    -1.759440 
H       3.113359    -5.068416    -2.157852 
C       0.343199    -5.597765     0.477657 
H       1.651559    -4.562885     1.831295 
C       0.166038    -6.076737    -0.817107 
H       1.037923    -6.261436    -2.773154 
H      -0.439079    -5.732504     1.218623 
H      -0.753041    -6.586831    -1.089092 
C       1.548194    -0.580447     0.845259 
O       1.048109    -1.729295     0.452925 
C       2.134346    -1.736466    -0.552787 
C       1.869602    -2.007632    -1.916277 
O       2.745201    -2.233160    -2.739840 
O       0.547464    -1.961146    -2.237757 
C       0.250288    -2.331228    -3.582215 
H       0.573141    -3.357114    -3.777986 
H      -0.833426    -2.253995    -3.679240 
H       0.745903    -1.663739    -4.291817 
72
     -1725.707652     -1725.183155   7.11   5.24
C      -2.648462    -3.296902     3.716231 
C      -2.008898    -3.244427     2.459551 
C      -2.118250    -4.342635     1.605420 
C      -2.847548    -5.450481     2.004031 
C      -3.477200    -5.476712     3.263864 
C      -3.385999    -4.402598     4.135389 
C      -1.616093    -1.322976     3.542507 
C      -1.349385    -1.964677     2.373494 
H      -1.638035    -4.337481     0.630916 
H      -2.926721    -6.297226     1.334870 
H      -3.881827    -4.452544     5.097923 
H      -1.307097    -0.337283     3.866022 
N      -2.398227    -2.113922     4.366807 
C      -2.873278    -1.766548     5.685100 
H      -2.500185    -2.471644     6.435381 
H      -2.514487    -0.768302     5.940835 
H      -3.967891    -1.761015     5.719620 
O      -4.210875    -6.538805     3.715793 
C      -4.344983    -7.665109     2.872243 
H      -3.371843    -8.120842     2.651619 
H      -4.959930    -8.380584     3.419690 
H      -4.845253    -7.405599     1.931091 
N      -0.726996    -0.672627    -1.135196 
C      -0.493555    -1.565575    -2.198727 
O      -0.731301    -2.740691    -2.071062 
C      -0.025025    -0.975151    -3.528433 
H      -0.817786    -1.214132    -4.243199 
H       0.835116    -1.580694    -3.826462 
C       0.317595     0.528150    -3.552499 
H       1.010807     0.730834    -4.370791 
H      -0.577672     1.131777    -3.725972 
C       0.898283     0.883406    -2.184651 
C       1.118817     2.349570    -1.692961 
H       2.180015     2.572856    -1.565579 
C      -0.575260    -1.448071     1.203460 
H       0.144275    -2.200715     0.860295 
H      -0.006309    -0.558354     1.491662 
C      -1.503784    -1.090646     0.040306 
H      -2.111746    -1.942747    -0.259180 
H      -2.159812    -0.263521     0.313659 
C       2.163979     0.067943    -1.842952 
H       2.472690     0.351308    -0.832529 
H       1.935794    -1.002270    -1.799136 
C       3.317471     0.296885    -2.820624 
H       4.214517    -0.223787    -2.473736 
H       3.087926    -0.080984    -3.821618 
H       3.568040     1.358146    -2.912049 
O       0.495680     3.347916    -2.490566 
C       1.291289     3.805237    -3.567963 
H       1.551985     2.978780    -4.244221 
H       0.646719     4.491120    -4.127566 
C       2.560196     4.521559    -3.148053 
C       3.699629     4.437882    -3.943882 
C       2.599653     5.288248    -1.985259 
C       4.861821     5.115522    -3.592398 
H       3.680292     3.836584    -4.849866 
C       3.762439     5.958880    -1.628600 
H       1.725011     5.341119    -1.346093 
C       4.895012     5.878570    -2.431986 
H       5.741428     5.043951    -4.224733 
H       3.783930     6.545808    -0.715810 
H       5.801259     6.406361    -2.151951 
C      -0.216948     0.576484    -1.208142 
O      -0.879023     1.589820    -0.714018 
C       0.458747     2.156984    -0.380263 
C       0.625583     2.820025     0.866746 
O       1.526686     3.604703     1.109094 
O      -0.302000     2.455326     1.798944 
C      -0.177870     3.128274     3.049040 
H       0.783026     2.905168     3.520254 
H      -0.259412     4.210461     2.918821 
H      -0.998745     2.762626     3.668045 
72
     -1725.707056     -1725.183137   7.49   5.25
C       3.767037    -0.204245     4.122664 
C       2.471872    -0.425555     3.625640 
C       1.754441    -1.542387     4.082624 
C       2.340024    -2.385790     4.997842 
C       3.644878    -2.144373     5.482940 
C       4.380482    -1.053234     5.057095 
C       3.289521     1.432345     2.679397 
C       2.183138     0.639944     2.699572 
H       0.749886    -1.742482     3.721154 
H       1.817716    -3.258365     5.373870 
H       5.380462    -0.853753     5.418807 
H       3.479438     2.334399     2.112909 
N       4.256976     0.936132     3.535932 
C       5.556846     1.517362     3.776250 
H       5.674751     1.798198     4.828273 
H       6.356437     0.820198     3.504012 
H       5.661495     2.416001     3.166250 
O       4.094016    -3.065809     6.385774 
C       5.392342    -2.892280     6.915286 
H       5.478152    -1.946085     7.464294 
H       5.553900    -3.722126     7.604145 
H       6.154469    -2.924852     6.126512 
N      -0.469279    -0.301172     0.150904 
C      -1.562533    -0.902086     0.809179 
O      -1.370863    -1.637856     1.744980 
C      -2.974632    -0.511666     0.369913 
H      -3.410757    -0.022700     1.246586 
H      -3.514567    -1.455956     0.267236 
C      -3.128083     0.370944    -0.889287 
H      -4.071165     0.144870    -1.391025 
H      -3.146320     1.430820    -0.624502 
C      -1.934040     0.106035    -1.805341 
C      -1.548798     1.054173    -2.981264 
H      -1.655094     0.555239    -3.946524 
C       0.923872     0.788101     1.904702 
H       0.864269     1.781779     1.451749 
H       0.055580     0.675541     2.563893 
C       0.848117    -0.272562     0.802683 
H       1.586515    -0.072846     0.025460 
H       1.023841    -1.267784     1.210508 
C      -1.959378    -1.360387    -2.300512 
H      -2.178762    -2.023523    -1.457637 
H      -2.825825    -1.434324    -2.968518 
C      -0.710843    -1.887450    -3.007295 
H      -0.874732    -2.928046    -3.303336 
H      -0.457379    -1.322139    -3.906164 
H       0.161769    -1.867556    -2.347527 
O      -2.244621     2.295193    -2.984825 
C      -3.182429     2.449411    -4.039907 
H      -3.413152     3.517781    -4.066821 
H      -2.718770     2.180540    -4.998819 
C      -4.447829     1.648077    -3.828903 
C      -4.640865     0.426817    -4.468368 
C      -5.426658     2.107049    -2.948480 
C      -5.781216    -0.331915    -4.223808 
H      -3.892291     0.063260    -5.167421 
C      -6.566715     1.355248    -2.700558 
H      -5.285452     3.060477    -2.446570 
C      -6.744649     0.129403    -3.335788 
H      -5.917442    -1.282424    -4.730277 
H      -7.319068     1.723932    -2.010315 
H      -7.635339    -0.460071    -3.142977 
C      -0.709914     0.407722    -0.973001 
O      -0.088852     1.540136    -1.188904 
C      -0.113958     1.172420    -2.625033 
C       1.075357     1.020219    -3.368619 
O       1.107327     0.812115    -4.573650 
O       2.207921     1.086231    -2.604729 
C       3.422580     0.950534    -3.337656 
H       3.514779     1.740582    -4.087380 
H       4.224921     1.031817    -2.603069 
H       3.467139    -0.017244    -3.844233 
72
     -1725.709145     -1725.182729   6.18   5.51
C       2.128225     3.482559    -0.562019 
C       2.885497     2.641394     0.271125 
C       3.549611     3.209817     1.368844 
C       3.448348     4.560218     1.594457 
C       2.684834     5.387387     0.738994 
C       2.012376     4.865410    -0.350792 
C       1.966941     1.400774    -1.352756 
C       2.772573     1.305144    -0.257077 
H       4.131595     2.591541     2.044455 
H       3.945927     5.029266     2.435645 
H       1.423519     5.483117    -1.015862 
H       1.627530     0.619222    -2.018206 
N       1.563343     2.709165    -1.546904 
C       0.767608     3.194170    -2.651411 
H      -0.088550     3.771819    -2.289588 
H       1.360736     3.824397    -3.322686 
H       0.391502     2.340338    -3.217009 
O       2.675979     6.706695     1.084494 
C       1.928280     7.595424     0.278487 
H       0.863608     7.330356     0.272357 
H       2.049395     8.583977     0.722489 
H       2.304617     7.614037    -0.751957 
N       1.209185    -0.234198     1.563716 
C       0.683036     0.963379     2.128976 
O       1.263559     1.511284     3.026394 
C      -0.552138     1.569942     1.472099 
H      -0.147674     2.413226     0.901296 
H      -1.128444     2.016750     2.282790 
C      -1.417607     0.668228     0.558037 
H      -2.479513     0.876503     0.716386 
H      -1.202503     0.877191    -0.491257 
C      -1.098713    -0.799709     0.832821 
C      -1.394142    -1.908944    -0.215709 
H      -2.195439    -2.577181     0.107311 
C       3.358873     0.041588     0.299862 
H       4.420616     0.180936     0.531176 
H       3.295884    -0.742384    -0.456531 
C       2.662167    -0.450136     1.588125 
H       2.840112    -1.518316     1.728319 
H       3.021854     0.086976     2.464714 
C      -1.694810    -1.340278     2.159238 
H      -2.781353    -1.325548     2.007683 
H      -1.412086    -2.396084     2.222789 
C      -1.388269    -0.681685     3.504988 
H      -1.926215    -1.229388     4.284738 
H      -0.327886    -0.721284     3.764949 
H      -1.719306     0.357371     3.562677 
O      -1.692891    -1.341816    -1.479792 
C      -1.958540    -2.322125    -2.478857 
H      -1.956118    -1.773239    -3.424314 
H      -1.144997    -3.058000    -2.503757 
C      -3.285808    -3.018041    -2.276753 
C      -4.475299    -2.337089    -2.532623 
C      -3.341960    -4.328071    -1.809461 
C      -5.701394    -2.955076    -2.331303 
H      -4.436100    -1.312137    -2.892211 
C      -4.570136    -4.949777    -1.605925 
H      -2.419878    -4.856055    -1.583430 
C      -5.750326    -4.266605    -1.867553 
H      -6.620712    -2.414697    -2.535142 
H      -4.600882    -5.970510    -1.237862 
H      -6.708264    -4.752085    -1.708556 
C       0.409802    -0.938749     0.740660 
O       0.898070    -1.465408    -0.366046 
C      -0.052980    -2.561882    -0.099762 
C       0.392552    -3.908875    -0.087054 
O      -0.347890    -4.879818    -0.138879 
O       1.746206    -4.023035     0.023027 
C       2.232593    -5.363906     0.040007 
H       3.316612    -5.284575     0.129117 
H       1.820401    -5.916714     0.887996 
H       1.965245    -5.886179    -0.882191 
72
     -1725.712304     -1725.182665   4.20   5.55
C       1.245589    -2.511458     2.029479 
C       0.347511    -1.675236     2.732159 
C      -0.840315    -2.241567     3.201206 
C      -1.116118    -3.575760     2.959180 
C      -0.204435    -4.379977     2.248166 
C       0.989020    -3.856698     1.777644 
C       2.129237    -0.467415     2.107799 
C       0.940859    -0.357023     2.764864 
H      -1.567123    -1.652702     3.747253 
H      -2.044554    -3.991969     3.327633 
H       1.676769    -4.497487     1.237902 
H       2.867731     0.295919     1.909045 
N       2.332816    -1.758688     1.665125 
C       3.442589    -2.218997     0.863521 
H       4.151947    -1.399863     0.738290 
H       3.956594    -3.053463     1.350571 
H       3.104345    -2.539549    -0.127639 
O      -0.416647    -5.701065     1.975277 
C      -1.612714    -6.295024     2.441924 
H      -1.680403    -6.253817     3.535793 
H      -2.496435    -5.814286     2.005086 
H      -1.575879    -7.337358     2.122937 
N      -1.630714     0.866638     1.953864 
C      -2.923392     0.290838     1.876521 
O      -3.423786    -0.218237     2.848086 
C      -3.703872     0.411844     0.568518 
H      -4.648217     0.885567     0.849910 
H      -3.958960    -0.613533     0.287931 
C      -3.023468     1.158136    -0.590014 
H      -3.460808     0.863448    -1.546942 
H      -3.153405     2.237905    -0.489076 
C      -1.534024     0.825306    -0.530214 
C      -0.512971     1.641139    -1.355195 
H      -0.010055     1.047178    -2.117564 
C       0.437292     0.909528     3.398067 
H       0.991377     1.747328     2.970151 
H       0.652366     0.908889     4.473967 
C      -1.067341     1.176064     3.278704 
H      -1.640220     0.576853     3.982514 
H      -1.263569     2.229124     3.502838 
C      -1.317072    -0.702715    -0.676313 
H      -1.684524    -1.203346     0.224855 
H      -1.965346    -1.037007    -1.495819 
C       0.106475    -1.200616    -0.929620 
H       0.459607    -0.958503    -1.935248 
H       0.812117    -0.783524    -0.211264 
H       0.128592    -2.288721    -0.824285 
O      -1.152129     2.761680    -1.944477 
C      -0.284551     3.531964    -2.770083 
H      -0.833972     4.454482    -2.976003 
H       0.629086     3.790232    -2.221065 
C       0.065099     2.828482    -4.062508 
C       1.334879     2.295240    -4.264212 
C      -0.899073     2.680559    -5.058894 
C       1.637988     1.628023    -5.447255 
H       2.080578     2.385925    -3.479787 
C      -0.599290     2.016815    -6.240086 
H      -1.893824     3.089659    -4.902548 
C       0.673834     1.489249    -6.436807 
H       2.631116     1.214091    -5.591594 
H      -1.358311     1.909005    -7.008852 
H       0.910580     0.968895    -7.359723 
C      -1.079498     1.353059     0.815954 
O      -0.503640     2.539124     0.817660 
C       0.393959     1.945040    -0.200610 
C       1.788953     2.216094    -0.148654 
O       2.563487     1.977100    -1.063574 
O       2.205254     2.755440     1.031515 
C       3.588148     3.101306     1.078605 
H       3.827594     3.846140     0.315345 
H       3.758177     3.513489     2.073834 
H       4.219092     2.222810     0.916233 
72
     -1725.710649     -1725.182586   5.23   5.60
C       2.792840     1.057443     2.470571 
C       1.469251     1.469115     2.717943 
C       0.872231     1.068993     3.925387 
C       1.578811     0.287214     4.807544 
C       2.903519    -0.116220     4.530108 
C       3.533235     0.264385     3.359640 
C       2.110564     2.252551     0.719103 
C       1.046146     2.237561     1.570768 
H      -0.142187     1.355643     4.173916 
H       1.138119    -0.037241     5.743464 
H       4.548869    -0.028194     3.127836 
H       2.197050     2.716084    -0.252898 
N       3.174138     1.551739     1.249654 
C       4.430862     1.290516     0.586853 
H       4.558196     0.220029     0.393495 
H       4.441147     1.816301    -0.368682 
H       5.272883     1.647232     1.188209 
O       3.480422    -0.887465     5.496054 
C       4.811856    -1.315091     5.289680 
H       4.896440    -1.941268     4.392715 
H       5.496656    -0.462250     5.203712 
H       5.081512    -1.905333     6.166008 
N      -1.523763     0.762664     1.469741 
C      -2.096418    -0.126884     2.414037 
O      -2.304620     0.235504     3.544470 
C      -2.527958    -1.515683     1.946093 
H      -3.582778    -1.588760     2.224181 
H      -2.000537    -2.216936     2.598159 
C      -2.312310    -1.857841     0.463394 
H      -2.279891    -2.940569     0.320283 
H      -3.129192    -1.471211    -0.149649 
C      -1.004124    -1.197738     0.031200 
C      -0.641323    -1.078132    -1.466970 
H       0.242678    -1.654274    -1.745826 
C      -0.257382     2.938703     1.308198 
H      -0.319110     3.152804     0.239328 
H      -0.277947     3.907600     1.822535 
C      -1.526164     2.206869     1.759184 
H      -1.676569     2.285028     2.833330 
H      -2.393921     2.658545     1.268692 
C       0.175781    -1.737015     0.879801 
H       0.074827    -1.367729     1.905092 
H       0.052623    -2.825694     0.935060 
C       1.596657    -1.416621     0.414983 
H       2.300785    -1.697020     1.203205 
H       1.875131    -1.966375    -0.487368 
H       1.725499    -0.352532     0.218640 
O      -1.752621    -1.466792    -2.256575 
C      -1.524635    -1.340434    -3.651226 
H      -1.108661    -0.347710    -3.871910 
H      -0.792947    -2.089690    -3.986226 
C      -2.832891    -1.523070    -4.376195 
C      -3.931910    -0.737737    -4.028611 
C      -2.960893    -2.448382    -5.405186 
C      -5.136772    -0.878112    -4.701285 
H      -3.835279    -0.017180    -3.222158 
C      -4.167492    -2.589018    -6.084983 
H      -2.111371    -3.068983    -5.677592 
C      -5.257120    -1.804301    -5.734095 
H      -5.986659    -0.263110    -4.421428 
H      -4.254246    -3.315074    -6.887456 
H      -6.199772    -1.912952    -6.261280 
C      -1.237229     0.286476     0.235504 
O      -1.570350     0.984532    -0.833086 
C      -0.351147     0.390756    -1.429902 
C       0.511545     1.190105    -2.231333 
O       1.393160     0.730918    -2.939980 
O       0.281634     2.529809    -2.127322 
C       1.088294     3.341951    -2.978740 
H       0.915503     3.092986    -4.028833 
H       0.788099     4.371448    -2.780456 
H       2.151229     3.205119    -2.760519 
72
     -1725.712002     -1725.182522   4.38   5.64
C       2.383692     2.399398     0.460340 
C       1.361038     2.371585     1.436623 
C       1.736948     2.318613     2.779854 
C       3.077119     2.281471     3.123296 
C       4.072938     2.303916     2.127284 
C       3.737138     2.364987     0.784029 
C       0.421627     2.432254    -0.595488 
C       0.102343     2.382951     0.727565 
H       0.993898     2.290511     3.568306 
H       3.347843     2.234985     4.169963 
H       4.523696     2.387065     0.038529 
H      -0.234356     2.450313    -1.453835 
N       1.789099     2.437172    -0.776064 
C       2.470958     2.442567    -2.049919 
H       1.737048     2.278779    -2.840647 
H       2.981742     3.394997    -2.226830 
H       3.207088     1.634098    -2.092728 
O       5.411186     2.268542     2.397533 
C       5.817371     2.220005     3.751668 
H       6.907862     2.204773     3.738844 
H       5.474603     3.102821     4.304847 
H       5.449131     1.314423     4.248909 
N      -0.803322    -0.018451     2.071545 
C      -0.111012    -0.661155     3.125188 
O       0.052661    -0.102649     4.180623 
C       0.347796    -2.107758     2.928112 
H      -0.091163    -2.658875     3.763894 
H       1.425003    -2.091124     3.116987 
C       0.033880    -2.775062     1.578616 
H       0.709607    -3.611829     1.394399 
H      -0.982551    -3.178384     1.579506 
C       0.151929    -1.691726     0.512234 
C      -0.347605    -1.903937    -0.947250 
H       0.479683    -1.812022    -1.650935 
C      -1.295740     2.317864     1.271935 
H      -1.979831     2.167395     0.433530 
H      -1.575610     3.269657     1.739540 
C      -1.538711     1.229064     2.332590 
H      -1.216377     1.549228     3.320931 
H      -2.607195     1.001751     2.385567 
C       1.555602    -1.051185     0.461865 
H       1.533789    -0.276340    -0.309806 
H       1.780401    -0.524491     1.393615 
C       2.669978    -2.053076     0.162167 
H       2.815636    -2.762906     0.982433 
H       2.466139    -2.630503    -0.744971 
H       3.616873    -1.525825     0.015778 
O      -0.914331    -3.187125    -1.206603 
C      -2.319928    -3.351923    -1.101822 
H      -2.465354    -4.436602    -1.140778 
H      -2.699792    -3.005026    -0.135550 
C      -3.110312    -2.706689    -2.221763 
C      -2.672951    -2.805053    -3.541157 
C      -4.308699    -2.051269    -1.953864 
C      -3.422522    -2.258308    -4.573203 
H      -1.732158    -3.302625    -3.752378 
C      -5.062682    -1.504780    -2.986170 
H      -4.648605    -1.953285    -0.926568 
C      -4.622249    -1.609069    -4.299544 
H      -3.068213    -2.336302    -5.596409 
H      -5.994798    -0.994660    -2.761972 
H      -5.209758    -1.184487    -5.108128 
C      -0.884658    -0.656937     0.880923 
O      -2.031300    -0.700916     0.225336 
C      -1.189269    -0.679623    -0.995245 
C      -1.537219     0.170885    -2.083235 
O      -0.968088     0.155562    -3.161383 
O      -2.547451     1.037344    -1.799005 
C      -3.015903     1.792355    -2.916658 
H      -2.226821     2.435387    -3.315930 
H      -3.363490     1.123903    -3.707865 
H      -3.843318     2.395353    -2.541202 
72
     -1725.711542     -1725.182023   4.67   5.95
C      -2.233312    -2.154859     2.392813 
C      -1.770695    -1.709495     1.136012 
C      -0.421622    -1.881158     0.823148 
C       0.431302    -2.455053     1.749629 
C      -0.053006    -2.876200     3.004298 
C      -1.390481    -2.733880     3.339562 
C      -3.960891    -1.278438     1.285030 
C      -2.900212    -1.140603     0.444374 
H      -0.032873    -1.565642    -0.138347 
H       1.476384    -2.579322     1.496622 
H      -1.736017    -3.071514     4.309659 
H      -4.986649    -0.960737     1.155416 
N      -3.577499    -1.890300     2.463040 
C      -4.434428    -2.182348     3.588965 
H      -5.448634    -1.854972     3.355580 
H      -4.454533    -3.256974     3.797561 
H      -4.096715    -1.652705     4.485550 
O       0.735615    -3.445525     3.963466 
C       2.104907    -3.648303     3.672265 
H       2.620109    -2.699250     3.480087 
H       2.534772    -4.116151     4.558643 
H       2.237773    -4.315413     2.811955 
N      -1.502643     1.433713     0.207731 
C      -1.679109     1.532727     1.612179 
O      -2.775926     1.711989     2.073351 
C      -0.458845     1.302271     2.500723 
H      -0.624613     0.307737     2.927408 
H      -0.573300     1.998564     3.332024 
C       0.950839     1.376978     1.863343 
H       1.645049     1.880858     2.541771 
H       1.336966     0.371029     1.695430 
C       0.874230     2.104048     0.523667 
C       1.950098     1.909318    -0.581640 
H       2.554559     2.808895    -0.729263 
C      -2.854352    -0.399157    -0.856900 
H      -3.789873    -0.525980    -1.411026 
H      -2.054623    -0.799114    -1.485247 
C      -2.642037     1.112441    -0.664613 
H      -2.463764     1.597765    -1.626481 
H      -3.515697     1.562952    -0.192874 
C       0.717906     3.642549     0.657354 
H       1.659579     3.986258     1.103477 
H       0.698080     4.046432    -0.359919 
C      -0.438921     4.263072     1.441589 
H      -1.416852     4.019941     1.019541 
H      -0.441099     3.986779     2.497920 
H      -0.337633     5.351794     1.398846 
O       2.793896     0.804788    -0.291033 
C       3.645367     0.450518    -1.374396 
H       3.965586     1.346590    -1.919488 
H       4.532199    -0.001519    -0.917337 
C       3.009057    -0.536171    -2.331028 
C       2.373811    -1.671782    -1.832506 
C       3.071228    -0.347227    -3.707260 
C       1.799150    -2.596768    -2.691476 
H       2.326220    -1.818126    -0.758241 
C       2.500804    -1.275812    -4.572476 
H       3.542557     0.546961    -4.103684 
C       1.862133    -2.400668    -4.068100 
H       1.302305    -3.474567    -2.288927 
H       2.552890    -1.115548    -5.645277 
H       1.414560    -3.123765    -4.742958 
C      -0.241848     1.454627    -0.273536 
O       0.105659     0.627664    -1.241759 
C       0.969909     1.737560    -1.693236 
C       1.027346     2.081770    -3.071622 
O       1.920846     2.753682    -3.563301 
O      -0.029371     1.617238    -3.787772 
C       0.022303     1.907812    -5.183552 
H      -0.882360     1.473420    -5.610105 
H       0.045788     2.986549    -5.356511 
H       0.908654     1.457762    -5.638138 
72
     -1725.705319     -1725.181416   8.58   6.33
C       5.102795    -2.067017    -1.208483 
C       4.288426    -1.560395    -0.182002 
C       4.443688    -2.069613     1.117008 
C       5.382663    -3.048550     1.344916 
C       6.189629    -3.544531     0.296575 
C       6.066454    -3.065056    -0.994906 
C       3.760594    -0.514726    -2.090736 
C       3.432848    -0.561393    -0.770550 
H       3.832643    -1.698547     1.934826 
H       5.531501    -3.466553     2.334229 
H       6.676709    -3.433543    -1.808794 
H       3.351311     0.102170    -2.879772 
N       4.770335    -1.418905    -2.372072 
C       5.374430    -1.641725    -3.664511 
H       5.233395    -2.677289    -3.992038 
H       4.902205    -0.982671    -4.394771 
H       6.446838    -1.420356    -3.641989 
O       7.075915    -4.513700     0.672609 
C       7.917238    -5.060154    -0.322169 
H       8.563751    -4.292753    -0.766234 
H       8.536980    -5.804958     0.178305 
H       7.336097    -5.548322    -1.114662 
N       0.223083    -0.006314     1.185162 
C       0.531067     0.159373     2.550243 
O       1.415596    -0.490097     3.050279 
C      -0.197812     1.251533     3.330142 
H       0.581799     1.989127     3.546896 
H      -0.443102     0.804111     4.293906 
C      -1.420273     1.938536     2.675980 
H      -2.172563     2.170236     3.434899 
H      -1.123478     2.884554     2.219899 
C      -1.999320     1.042254     1.583786 
C      -2.872991     1.626237     0.438586 
H      -3.914336     1.304047     0.513820 
C       2.376009     0.217264    -0.051758 
H       2.027754     1.054841    -0.662372 
H       2.789353     0.634680     0.873338 
C       1.185087    -0.679154     0.299454 
H       0.644014    -0.969243    -0.601745 
H       1.518797    -1.579586     0.814923 
C      -2.794115    -0.179033     2.116194 
H      -3.685328     0.244718     2.595227 
H      -3.152903    -0.725013     1.237897 
C      -2.162260    -1.182863     3.082326 
H      -1.893799    -0.741719     4.044488 
H      -2.894826    -1.968847     3.289074 
H      -1.279479    -1.676332     2.668438 
O      -2.784907     3.039589     0.413186 
C      -3.548416     3.627186    -0.636256 
H      -3.215789     4.667437    -0.682729 
H      -3.304088     3.142727    -1.589960 
C      -5.037704     3.560498    -0.382398 
C      -5.842932     2.665862    -1.081669 
C      -5.617078     4.382868     0.583187 
C      -7.208501     2.598319    -0.822508 
H      -5.394669     2.003753    -1.817060 
C      -6.978729     4.318160     0.842958 
H      -4.991265     5.079097     1.135455 
C      -7.778741     3.423940     0.137291 
H      -7.825123     1.893932    -1.372035 
H      -7.418067     4.964571     1.596535 
H      -8.844147     3.370838     0.339110 
C      -0.843761     0.656107     0.682623 
O      -0.739226     1.270683    -0.472363 
C      -2.162734     0.908058    -0.661833 
C      -2.586524     0.236743    -1.834425 
O      -3.755389     0.119653    -2.174395 
O      -1.558005    -0.305547    -2.547688 
C      -1.952001    -0.984877    -3.738196 
H      -2.459614    -0.302819    -4.425120 
H      -1.030122    -1.356502    -4.186975 
H      -2.624890    -1.814999    -3.508591 
72
     -1725.712197     -1725.181413   4.26   6.33
C       2.377133     1.107374     0.390744 
C       2.646458     0.166253    -0.618600 
C       2.946028    -1.149800    -0.238622 
C       2.938740    -1.490006     1.093947 
C       2.644876    -0.529706     2.090587 
C       2.372320     0.784294     1.755564 
C       2.188842     2.132856    -1.580520 
C       2.511700     0.844370    -1.881004 
H       3.190597    -1.897689    -0.987369 
H       3.168360    -2.498652     1.420579 
H       2.138909     1.530021     2.504065 
H       1.952467     2.955895    -2.241350 
N       2.107249     2.308389    -0.213471 
C       1.754018     3.533796     0.464902 
H       1.573172     4.310021    -0.279706 
H       0.841757     3.403886     1.056166 
H       2.561645     3.866881     1.124748 
O       2.654547    -1.008694     3.364311 
C       2.393948    -0.093199     4.415319 
H       1.405145     0.364967     4.310924 
H       2.420433    -0.675498     5.336432 
H       3.163201     0.688035     4.456370 
N       0.373653    -1.064876    -2.706260 
C       0.775988    -2.416257    -2.627330 
O       1.484532    -2.876966    -3.487685 
C       0.373562    -3.236654    -1.398340 
H       1.317899    -3.513287    -0.923236 
H      -0.034774    -4.167469    -1.798271 
C      -0.585089    -2.583126    -0.379536 
H      -1.182205    -3.346071     0.126745 
H      -0.012372    -2.052101     0.384457 
C      -1.466514    -1.598697    -1.143388 
C      -2.338831    -0.527373    -0.427557 
H      -3.396049    -0.697806    -0.628299 
C       2.480147     0.204892    -3.237156 
H       3.104491    -0.692273    -3.258372 
H       2.874011     0.886002    -3.998292 
C       1.048977    -0.161640    -3.654691 
H       0.429280     0.735432    -3.710527 
H       1.045728    -0.660892    -4.625617 
C      -2.334929    -2.345201    -2.186036 
H      -1.728708    -3.093277    -2.705901 
H      -3.075985    -2.911753    -1.609322 
C      -3.043078    -1.492896    -3.240128 
H      -3.625140    -2.142545    -3.900298 
H      -3.728065    -0.760919    -2.808104 
H      -2.326768    -0.949472    -3.864137 
O      -2.223347    -0.512658     0.992842 
C      -1.310179     0.407226     1.568852 
H      -0.300337     0.263393     1.169895 
H      -1.609106     1.438096     1.336222 
C      -1.277553     0.191775     3.061032 
C      -1.341425     1.268994     3.938696 
C      -1.133404    -1.093999     3.582361 
C      -1.257743     1.071562     5.314468 
H      -1.465952     2.274354     3.545413 
C      -1.055866    -1.296131     4.953018 
H      -1.087759    -1.939604     2.904198 
C      -1.113524    -0.211909     5.824603 
H      -1.309511     1.923021     5.986069 
H      -0.948507    -2.303216     5.344278 
H      -1.051880    -0.369499     6.896759 
C      -0.519683    -0.616087    -1.790386 
O      -0.364167     0.547957    -1.198219 
C      -1.837344     0.624534    -1.228675 
C      -2.484176     1.695107    -1.898060 
O      -3.687763     1.893719    -1.882607 
O      -1.617973     2.482042    -2.607113 
C      -2.237980     3.561901    -3.303100 
H      -2.965833     3.189969    -4.028652 
H      -2.749508     4.230676    -2.606405 
H      -1.430782     4.090205    -3.812217 
72
     -1725.705319     -1725.181403   8.58   6.34
C      -1.215474     5.206803    -1.783867 
C      -0.783511     4.447041    -0.684005 
C       0.125724     5.021299     0.218410 
C       0.568011     6.304932    -0.002049 
C       0.121274     7.049893    -1.116351 
C      -0.775836     6.517920    -2.024750 
C      -2.216354     3.212341    -1.883076 
C      -1.440639     3.167224    -0.765617 
H       0.478272     4.463221     1.081051 
H       1.270225     6.782113     0.672351 
H      -1.128265     7.074908    -2.882752 
H      -2.866527     2.454773    -2.300230 
N      -2.092442     4.440151    -2.510289 
C      -2.770124     4.848557    -3.718151 
H      -2.052798     5.094212    -4.508502 
H      -3.398379     4.027421    -4.066947 
H      -3.409068     5.719403    -3.536635 
O       0.646065     8.308033    -1.205069 
C       0.247193     9.113851    -2.294829 
H      -0.834568     9.297488    -2.282773 
H       0.772924    10.062487    -2.180873 
H       0.527616     8.659098    -3.253287 
N       0.438373     0.407106     1.047278 
C       0.786757     0.850134     2.338828 
O       1.120568     1.995937     2.511867 
C       0.616392    -0.118116     3.507501 
H      -0.204486     0.311156     4.091202 
H       1.505367     0.014548     4.125013 
C       0.334819    -1.608216     3.199841 
H       0.831788    -2.245090     3.936723 
H      -0.734883    -1.813218     3.268823 
C       0.795486    -1.944099     1.783340 
C       0.217478    -3.164782     1.014135 
H       0.964548    -3.949268     0.871539 
C      -1.249678     2.024954     0.182343 
H      -2.017672     1.261558     0.030418 
H      -1.340961     2.381935     1.214393 
C       0.132662     1.391968    -0.001164 
H       0.192991     0.872303    -0.957919 
H       0.913015     2.151887     0.036541 
C       2.334439    -2.057191     1.623514 
H       2.618673    -2.946191     2.199871 
H       2.522022    -2.304010     0.573694 
C       3.264672    -0.910000     2.022196 
H       4.292449    -1.203907     1.788827 
H       3.067514     0.011570     1.469063 
H       3.236148    -0.686019     3.090585 
O      -0.927432    -3.675093     1.673472 
C      -1.514380    -4.782070     0.995504 
H      -2.488810    -4.923064     1.470404 
H      -1.676992    -4.528154    -0.059500 
C      -0.685457    -6.041844     1.108309 
C       0.051465    -6.512338     0.025104 
C      -0.630160    -6.733104     2.318029 
C       0.828340    -7.660255     0.148612 
H       0.033938    -5.964834    -0.913013 
C       0.143052    -7.878587     2.443634 
H      -1.199655    -6.366315     3.168040 
C       0.874457    -8.345687     1.355300 
H       1.401283    -8.014988    -0.702425 
H       0.176930    -8.408506     3.390621 
H       1.480716    -9.241181     1.451134 
C       0.174592    -0.907452     0.868803 
O      -0.867158    -1.268105     0.156549 
C      -0.037676    -2.423312    -0.257192 
C       0.144128    -2.727069    -1.628281 
O       0.602752    -3.782116    -2.043104 
O      -0.214594    -1.706728    -2.459500 
C      -0.047917    -1.983633    -3.848589 
H      -0.658617    -2.838361    -4.150625 
H      -0.372434    -1.083490    -4.371849 
H       0.997833    -2.201837    -4.079657 
72
     -1725.710182     -1725.181304   5.53   6.40
C       0.571545     0.021561     2.824930 
C       1.643396     0.457599     2.027777 
C       1.610382     1.769852     1.530878 
C       0.534366     2.575102     1.812364 
C      -0.544439     2.105003     2.597681 
C      -0.540483     0.825261     3.121874 
C       2.036998    -1.654000     2.664212 
C       2.571559    -0.641963     1.924088 
H       2.415254     2.145697     0.908028 
H       0.474810     3.588291     1.430338 
H      -1.355829     0.449058     3.725403 
H       2.429671    -2.647199     2.838573 
N       0.824581    -1.273164     3.209131 
C       0.023694    -2.052068     4.126171 
H       0.462355    -3.046503     4.223077 
H      -0.005577    -1.587408     5.117418 
H      -1.000975    -2.159993     3.756981 
O      -1.553955     2.999793     2.773616 
C      -2.719812     2.555313     3.445336 
H      -2.502711     2.299121     4.489942 
H      -3.421462     3.388763     3.416575 
H      -3.167604     1.695667     2.934453 
N       2.388736    -1.497685    -0.799295 
C       2.221480    -2.827230    -0.351300 
O       3.190215    -3.473721    -0.040174 
C       0.800759    -3.367249    -0.168783 
H       0.721015    -3.571056     0.902345 
H       0.791916    -4.345586    -0.654048 
C      -0.365189    -2.476914    -0.648584 
H      -1.227281    -3.089964    -0.923522 
H      -0.682803    -1.806551     0.154885 
C       0.143861    -1.658045    -1.831008 
C      -0.627568    -0.434084    -2.407205 
H      -0.957727    -0.630110    -3.426719 
C       3.833266    -0.729207     1.114902 
H       4.372646    -1.632997     1.403840 
H       4.488950     0.121742     1.329902 
C       3.600554    -0.756397    -0.411792 
H       3.469480     0.248609    -0.812127 
H       4.453594    -1.221084    -0.910652 
C       0.546032    -2.593912    -2.998642 
H       1.111585    -3.446041    -2.610325 
H      -0.392279    -3.010999    -3.384231 
C       1.348304    -1.980762    -4.146641 
H       2.313830    -1.598910    -3.801165 
H       1.549698    -2.750984    -4.897093 
H       0.825820    -1.162041    -4.644779 
O      -1.803622    -0.067338    -1.692314 
C      -1.678242     0.916830    -0.673336 
H      -1.055256     0.555088     0.153302 
H      -1.195442     1.817897    -1.070043 
C      -3.051377     1.247331    -0.147422 
C      -3.476992     2.567226    -0.050953 
C      -3.902304     0.230499     0.285189 
C      -4.732065     2.872556     0.467075 
H      -2.819580     3.365739    -0.381970 
C      -5.153729     0.530067     0.805038 
H      -3.579185    -0.802641     0.203785 
C      -5.572111     1.855092     0.899123 
H      -5.051916     3.908260     0.531848 
H      -5.807594    -0.271456     1.135049 
H      -6.552165     2.089763     1.302599 
C       1.311575    -0.855072    -1.307798 
O       1.094685     0.412307    -1.025534 
C       0.550500     0.478735    -2.396547 
C       1.096881     1.370354    -3.356624 
O       0.613553     1.574867    -4.458040 
O       2.257045     1.957741    -2.940745 
C       2.834747     2.859171    -3.883441 
H       2.146303     3.676998    -4.110677 
H       3.738455     3.245262    -3.410382 
H       3.083182     2.342115    -4.813819 
72
     -1725.709749     -1725.181269   5.80   6.42
C       1.173822     1.240796     2.107371 
C       1.953789     0.070005     1.989559 
C       1.569442    -1.059690     2.710610 
C       0.433773    -1.021923     3.501982 
C      -0.332519     0.157402     3.592323 
C       0.031419     1.303075     2.902393 
C       2.859937     1.666055     0.711098 
C       3.030642     0.367157     1.078879 
H       2.159387    -1.970594     2.664178 
H       0.148036    -1.905265     4.058525 
H      -0.573626     2.197645     2.993572 
H       3.422456     2.259189     0.002566 
N       1.745352     2.207760     1.321409 
C       1.240147     3.549118     1.138645 
H       0.219958     3.530230     0.742011 
H       1.244604     4.104798     2.081993 
H       1.877703     4.072435     0.424884 
O      -1.470138     0.259246     4.343119 
C      -1.857312    -0.850337     5.131757 
H      -2.758580    -0.542072     5.662628 
H      -2.085588    -1.725367     4.511312 
H      -1.080671    -1.112662     5.860021 
N       2.116747    -1.759628    -0.773217 
C       1.934731    -2.994258    -0.113511 
O       2.896303    -3.666481     0.166018 
C       0.521070    -3.402591     0.310818 
H       0.564465    -3.470119     1.400566 
H       0.403781    -4.430161    -0.040551 
C      -0.654828    -2.507377    -0.137754 
H      -1.567206    -3.099725    -0.243093 
H      -0.847885    -1.739364     0.615082 
C      -0.258015    -1.852861    -1.458558 
C      -1.034586    -0.647483    -2.067005 
H      -1.481882    -0.923870    -3.021269 
C       3.982173    -0.624412     0.478970 
H       4.154255    -1.457519     1.165474 
H       4.956230    -0.164120     0.284964 
C       3.463745    -1.168342    -0.859838 
H       3.391261    -0.363037    -1.593371 
H       4.128287    -1.944314    -1.244882 
C      -0.055809    -2.929458    -2.553501 
H       0.503744    -3.774714    -2.141466 
H      -1.055782    -3.317751    -2.781140 
C       0.633304    -2.489018    -3.845740 
H       0.098251    -1.691502    -4.364698 
H       1.652345    -2.137088    -3.657414 
H       0.702149    -3.341109    -4.528292 
O      -2.112569    -0.154071    -1.280487 
C      -1.835781     0.896519    -0.364703 
H      -1.254695     0.538791     0.491665 
H      -1.241205     1.672362    -0.867010 
C      -3.143567     1.475471     0.107163 
C      -4.025966     2.039192    -0.813646 
C      -3.484151     1.467884     1.455391 
C      -5.228006     2.587773    -0.392364 
H      -3.762831     2.037168    -1.867313 
C      -4.688664     2.021554     1.881732 
H      -2.809782     1.020556     2.179816 
C      -5.561396     2.582206     0.959885 
H      -5.908669     3.022207    -1.118080 
H      -4.944722     2.011035     2.936790 
H      -6.501402     3.012547     1.290735 
C       1.010528    -1.087243    -1.172886 
O       0.901285     0.210739    -0.997724 
C       0.166785     0.205858    -2.279015 
C       0.626991     0.983058    -3.371304 
O       0.019887     1.128564    -4.419727 
O       1.857326     1.540248    -3.150051 
C       2.353759     2.322329    -4.234848 
H       1.681149     3.155595    -4.453090 
H       3.326670     2.695268    -3.911947 
H       2.460154     1.713695    -5.136409 
72
     -1725.705943     -1725.181166   8.19   6.49
C      -4.669251    -2.782102     1.221906 
C      -3.357165    -2.824734     0.722277 
C      -2.922728    -3.985523     0.062705 
C      -3.793142    -5.041464    -0.077051 
C      -5.109344    -4.975601     0.432062 
C      -5.571038    -3.849584     1.089195 
C      -3.681590    -0.837784     1.704150 
C      -2.738189    -1.563816     1.044238 
H      -1.914352    -4.053980    -0.334962 
H      -3.494311    -5.953926    -0.580648 
H      -6.575567    -3.782843     1.485472 
H      -3.618731     0.161326     2.114531 
N      -4.855506    -1.560786     1.820706 
C      -6.068810    -1.112136     2.462539 
H      -6.333030    -1.761968     3.303568 
H      -5.915528    -0.101215     2.843420 
H      -6.904194    -1.091600     1.754611 
O      -5.857478    -6.098350     0.218234 
C      -7.186362    -6.106886     0.697916 
H      -7.219551    -5.991730     1.788655 
H      -7.786109    -5.315550     0.230835 
H      -7.601743    -7.078256     0.427391 
N       0.190403    -0.801948    -1.233812 
C       0.866734    -1.925516    -1.750828 
O       0.404009    -3.029580    -1.611239 
C       2.121237    -1.672762    -2.586494 
H       1.834644    -1.942423    -3.607784 
H       2.838392    -2.433993    -2.272311 
C       2.736482    -0.255162    -2.542591 
H       3.819386    -0.324017    -2.674931 
H       2.343944     0.368021    -3.349948 
C       2.368966     0.378793    -1.200792 
C       2.516021     1.907360    -0.933121 
H       3.274536     2.111971    -0.173944 
C      -1.345610    -1.157032     0.678626 
H      -0.641064    -1.947258     0.962557 
H      -1.056332    -0.248497     1.216993 
C      -1.218197    -0.909979    -0.827600 
H      -1.655696    -1.730378    -1.394894 
H      -1.712049     0.019806    -1.111312 
C       3.003922    -0.418199    -0.037281 
H       2.871581    -1.491063    -0.210604 
H       4.084182    -0.239365    -0.104845 
C       2.520291    -0.101056     1.377280 
H       3.069672    -0.717865     2.094868 
H       2.671158     0.944696     1.651868 
H       1.456759    -0.324248     1.495765 
O       2.766282     2.683877    -2.099080 
C       4.140662     2.877401    -2.373387 
H       4.668241     1.914926    -2.444379 
H       4.173857     3.340617    -3.365160 
C       4.854159     3.763514    -1.370531 
C       4.181006     4.794455    -0.719330 
C       6.209419     3.570832    -1.115003 
C       4.856759     5.619533     0.171070 
H       3.121240     4.939304    -0.896737 
C       6.888555     4.400304    -0.230059 
H       6.741725     2.763185    -1.611870 
C       6.212225     5.428325     0.415331 
H       4.319533     6.414487     0.678608 
H       7.945911     4.240125    -0.042919 
H       6.738409     6.076005     1.109558 
C       0.856559     0.370445    -1.164811 
O       0.244810     1.501473    -1.406443 
C       1.151115     2.096158    -0.392047 
C       0.635717     2.928352     0.629937 
O       1.329386     3.627365     1.353047 
O      -0.719937     2.846657     0.767950 
C      -1.264029     3.703016     1.768594 
H      -1.036127     4.749705     1.551068 
H      -2.342650     3.540923     1.745870 
H      -0.862481     3.457223     2.755348 
72
     -1725.710296     -1725.181041   5.46   6.57
C      -1.442679    -1.299240    -2.132583 
C      -0.345915    -2.112495    -1.798992 
C       0.814786    -2.019655    -2.578917 
C       0.867277    -1.117324    -3.615038 
C      -0.240303    -0.292358    -3.916287 
C      -1.414833    -0.378133    -3.190423 
C      -2.015373    -2.552691    -0.377591 
C      -0.732215    -2.906208    -0.660476 
H       1.663267    -2.667763    -2.382185 
H       1.749549    -1.022143    -4.238702 
H      -2.274890     0.239691    -3.412522 
H      -2.669296    -2.907502     0.407727 
N      -2.458497    -1.573564    -1.249887 
C      -3.827328    -1.120003    -1.369781 
H      -4.367318    -1.380500    -0.457844 
H      -3.865641    -0.034245    -1.489116 
H      -4.332404    -1.588665    -2.221861 
O      -0.045338     0.561181    -4.961660 
C      -1.114170     1.411528    -5.329245 
H      -1.992567     0.835678    -5.645664 
H      -1.393800     2.080249    -4.505613 
H      -0.753584     2.006838    -6.168469 
N       1.782648    -2.025009     0.801000 
C       2.981487    -2.368489     0.138427 
O       3.367554    -3.510889     0.160373 
C       3.711397    -1.291321    -0.668242 
H       3.707938    -1.655757    -1.698642 
H       4.753203    -1.351560    -0.345733 
C       3.171502     0.152149    -0.586167 
H       3.978051     0.871085    -0.749867 
H       2.419728     0.319799    -1.361265 
C       2.537694     0.328631     0.791266 
C       1.629180     1.542499     1.134299 
H       2.084072     2.161089     1.907407 
C       0.147686    -3.820745     0.139053 
H       0.879598    -4.316623    -0.504616 
H      -0.450574    -4.610669     0.604408 
C       0.881878    -3.091653     1.271071 
H       0.166172    -2.612370     1.941632 
H       1.493910    -3.792809     1.841963 
C       3.602765     0.161264     1.903320 
H       4.240988    -0.699007     1.680095 
H       4.253296     1.040971     1.829723 
C       3.094240     0.013269     3.337880 
H       2.492469     0.862399     3.667213 
H       2.487093    -0.889556     3.456345 
H       3.946987    -0.073841     4.017731 
O       1.392223     2.423826     0.036469 
C       0.180704     2.287215    -0.693021 
H       0.306132     2.962760    -1.545138 
H       0.058852     1.276457    -1.094169 
C      -1.049327     2.688849     0.091463 
C      -1.100828     3.928425     0.724885 
C      -2.143541     1.835496     0.184644 
C      -2.227509     4.306079     1.441290 
H      -0.241246     4.589394     0.667843 
C      -3.275367     2.212419     0.897668 
H      -2.085203     0.852575    -0.269588 
C      -3.321099     3.449682     1.526720 
H      -2.253230     5.270486     1.938918 
H      -4.119076     1.531980     0.974741 
H      -4.201943     3.745083     2.088456 
C       1.450008    -0.715128     0.881983 
O       0.209864    -0.316291     0.706287 
C       0.520224     0.734726     1.705441 
C      -0.330359     0.923162     2.825280 
O      -0.226655     1.849394     3.612190 
O      -1.266604    -0.058972     2.960517 
C      -2.183728     0.148322     4.032568 
H      -2.725240     1.088422     3.898520 
H      -2.874710    -0.695083     3.999967 
H      -1.662034     0.175200     4.992520 
72
     -1725.711523     -1725.181005   4.69   6.59
C       0.542935     2.918231     1.250305 
C      -0.717023     3.004074     0.618976 
C      -0.876950     3.921778    -0.419596 
C       0.182788     4.726510    -0.801710 
C       1.424428     4.628891    -0.142670 
C       1.617808     3.726555     0.891024 
C      -0.825631     1.460169     2.235124 
C      -1.584928     2.056948     1.274098 
H      -1.827791     4.015634    -0.935668 
H       0.043243     5.433798    -1.609126 
H       2.584843     3.670813     1.377347 
H      -1.109822     0.712607     2.961611 
N       0.462307     1.958027     2.227034 
C       1.566809     1.476246     3.028833 
H       2.297073     0.945661     2.409135 
H       2.056136     2.306755     3.546667 
H       1.179041     0.786777     3.780955 
O       2.512036     5.388772    -0.471140 
C       2.362484     6.371048    -1.477345 
H       2.112012     5.920763    -2.445798 
H       1.593414     7.105538    -1.209000 
H       3.327752     6.872955    -1.554734 
N      -2.877380    -0.657847     0.419652 
C      -3.900002    -1.388911     1.064136 
O      -4.914330    -0.830463     1.399645 
C      -3.726302    -2.899863     1.224867 
H      -4.583291    -3.339521     0.707116 
H      -3.888022    -3.100392     2.287663 
C      -2.397846    -3.505753     0.737888 
H      -2.208234    -4.464234     1.223306 
H      -2.437073    -3.694813    -0.338349 
C      -1.309663    -2.478614     1.035715 
C       0.141160    -2.607642     0.482426 
H       0.856327    -2.699926     1.299693 
C      -3.017836     1.776244     0.934470 
H      -3.483694     2.685912     0.540740 
H      -3.587192     1.493337     1.824467 
C      -3.189454     0.677978    -0.121321 
H      -4.220951     0.646478    -0.475725 
H      -2.520765     0.841641    -0.967048 
C      -1.215779    -2.134981     2.537191 
H      -0.395991    -1.419629     2.649476 
H      -2.120670    -1.621585     2.880757 
C      -0.955486    -3.354315     3.422768 
H      -0.747675    -3.040581     4.449876 
H      -1.816322    -4.028625     3.455403 
H      -0.094381    -3.930011     3.070239 
O       0.366016    -3.758805    -0.330563 
C       0.228683    -3.648012    -1.738111 
H       0.229559    -4.685320    -2.089621 
H      -0.732200    -3.207450    -2.021271 
C       1.354212    -2.897453    -2.419158 
C       2.676981    -3.109417    -2.036268 
C       1.086573    -2.030291    -3.474200 
C       3.713326    -2.472067    -2.703955 
H       2.888268    -3.770773    -1.202522 
C       2.123139    -1.394858    -4.148440 
H       0.056911    -1.839429    -3.763300 
C       3.440206    -1.617185    -3.767074 
H       4.739617    -2.642113    -2.393441 
H       1.899228    -0.722014    -4.971027 
H       4.251947    -1.122198    -4.291700 
C      -1.682512    -1.261936     0.215762 
O      -1.032862    -1.094832    -0.915996 
C       0.199326    -1.237837    -0.093372 
C       1.296172    -0.362848    -0.344421 
O       2.390027    -0.495709     0.182123 
O       0.996786     0.639046    -1.200885 
C       2.102578     1.443966    -1.610289 
H       2.746585     0.873700    -2.284457 
H       1.667663     2.299971    -2.126195 
H       2.681660     1.781431    -0.750992 
72
     -1725.704067     -1725.180642   9.36   6.82
C      -0.316930    -4.885583     2.587364 
C       0.141788    -4.155932     1.477995 
C       0.389174    -4.838537     0.276421 
C       0.173365    -6.195626     0.219672 
C      -0.289733    -6.908915     1.348110 
C      -0.542339    -6.270610     2.548719 
C      -0.133550    -2.744279     3.195051 
C       0.254639    -2.780502     1.890982 
H       0.745738    -4.306636    -0.601040 
H       0.352826    -6.756818    -0.690518 
H      -0.896911    -6.801848     3.422030 
H      -0.194528    -1.900396     3.869703 
N      -0.481696    -4.010398     3.632079 
C      -0.937398    -4.356909     4.957786 
H      -1.943977    -4.787390     4.928135 
H      -0.259199    -5.073889     5.432489 
H      -0.967093    -3.454107     5.569780 
O      -0.457887    -8.248772     1.142596 
C      -0.920356    -9.029398     2.225655 
H      -1.912989    -8.702496     2.560123 
H      -0.985715   -10.053652     1.857005 
H      -0.222401    -8.994527     3.071643 
N       0.085238    -0.296029    -0.969166 
C       0.552248    -0.705233    -2.234909 
O       0.814735    -1.863455    -2.439902 
C       0.590964     0.344100    -3.347058 
H      -0.202367     0.045080    -4.039275 
H       1.527318     0.166571    -3.880100 
C       0.437825     1.829112    -2.941497 
H       1.011341     2.456069    -3.629453 
H      -0.605828     2.147087    -3.001173 
C       0.923897     1.974969    -1.498834 
C       0.603388     3.229033    -0.628552 
H       1.508375     3.788724    -0.376325 
C       0.678104    -1.635224     1.027288 
H       1.600286    -1.888464     0.491172 
H       0.883235    -0.753778     1.642291 
C      -0.403194    -1.285881     0.001500 
H      -0.709448    -2.166629    -0.561389 
H      -1.276792    -0.857013     0.493468 
C       2.431651     1.642504    -1.405173 
H       2.645747     0.741555    -1.989038 
H       2.952310     2.458248    -1.922294 
C       3.027651     1.458628    -0.010138 
H       4.097849     1.249624    -0.099720 
H       2.912535     2.340128     0.623250 
H       2.571292     0.613334     0.511545 
O      -0.369246     4.088811    -1.202513 
C       0.193120     5.098103    -2.012496 
H       0.697714     5.847379    -1.382854 
H       0.960803     4.675608    -2.680234 
C      -0.873000     5.765558    -2.849129 
C      -0.540649     6.901549    -3.586930 
C      -2.168814     5.265674    -2.922744 
C      -1.485901     7.526965    -4.387560 
H       0.469475     7.300872    -3.532925 
C      -3.117536     5.892890    -3.725067 
H      -2.435389     4.389183    -2.344237 
C      -2.780471     7.021897    -4.459410 
H      -1.213281     8.410349    -4.956722 
H      -4.126429     5.494525    -3.773275 
H      -3.522153     7.508984    -5.084480 
C       0.061114     1.025970    -0.696176 
O      -0.911656     1.545391     0.010974 
C       0.096909     2.483311     0.546400 
C       0.404556     2.542418     1.922673 
O       1.164350     3.360015     2.421395 
O      -0.200522     1.559905     2.659808 
C       0.067387     1.624656     4.057094 
H       1.135384     1.504147     4.258493 
H      -0.259423     2.581259     4.472741 
H      -0.499533     0.808742     4.508874 
72
     -1725.705412     -1725.180603   8.52   6.84
C      -0.660171     1.083396    -5.294047 
C       0.314828     0.852242    -4.309446 
C       1.647450     1.196568    -4.585412 
C       1.958482     1.750753    -5.805024 
C       0.960653     1.975622    -6.779941 
C      -0.362050     1.647323    -6.544592 
C      -1.669732     0.180921    -3.517788 
C      -0.355466     0.269315    -3.175359 
H       2.427592     1.030132    -3.848080 
H       2.976226     2.029771    -6.053914 
H      -1.137997     1.812859    -7.280215 
H      -2.504755    -0.197272    -2.942525 
N      -1.870744     0.668049    -4.797825 
C      -3.133247     0.729077    -5.495921 
H      -3.395236     1.762402    -5.747150 
H      -3.102856     0.137332    -6.416940 
H      -3.914618     0.322779    -4.851828 
O       1.417136     2.531632    -7.941181 
C       0.476852     2.787731    -8.964151 
H      -0.291479     3.497957    -8.633538 
H       1.037526     3.225415    -9.790807 
H      -0.005901     1.863304    -9.305388 
N       1.391809     0.747276     0.156856 
C       2.798202     0.758550     0.181014 
O       3.419916     0.855527    -0.847922 
C       3.485689     0.774102     1.544294 
H       3.874623     1.793565     1.635552 
H       4.365459     0.139733     1.432692 
C       2.652221     0.405052     2.796700 
H       3.262195    -0.171164     3.497677 
H       2.331503     1.308538     3.317883 
C       1.407070    -0.375102     2.381408 
C       0.151913    -0.450668     3.295712 
H       0.001449    -1.453371     3.702742 
C       0.283454    -0.112153    -1.877955 
H       1.188505    -0.700930    -2.064962 
H      -0.397013    -0.733762    -1.286663 
C       0.663957     1.125879    -1.061958 
H       1.307138     1.791798    -1.636055 
H      -0.227735     1.671288    -0.752612 
C       1.686966    -1.843181     1.964203 
H       2.010816    -2.345561     2.883946 
H       0.719572    -2.284274     1.703368 
C       2.685177    -2.183755     0.856511 
H       2.697793    -3.270187     0.726934 
H       2.412252    -1.754576    -0.110254 
H       3.708121    -1.882416     1.091312 
O       0.231432     0.507917     4.334318 
C      -0.913067     0.507840     5.182608 
H      -0.827202     1.421079     5.777161 
H      -1.824956     0.574445     4.575868 
C      -0.971573    -0.704862     6.084010 
C      -0.094285    -0.813666     7.162398 
C      -1.874103    -1.735830     5.838725 
C      -0.120743    -1.930110     7.986126 
H       0.615796    -0.013550     7.354668 
C      -1.902250    -2.856920     6.662644 
H      -2.543665    -1.670506     4.985810 
C      -1.028433    -2.955653     7.737205 
H       0.566872    -2.002452     8.823192 
H      -2.608387    -3.655710     6.458595 
H      -1.050664    -3.830470     8.379724 
C       0.728894     0.438001     1.296043 
O      -0.344935     1.117103     1.627582 
C      -0.829332    -0.150092     2.208782 
C      -2.086377    -0.688323     1.842982 
O      -2.652138    -1.588454     2.447134 
O      -2.608986    -0.125010     0.713398 
C      -3.894405    -0.617414     0.344962 
H      -4.620457    -0.447087     1.144163 
H      -4.183129    -0.059193    -0.547016 
H      -3.857448    -1.688603     0.129573 
72
     -1725.704675     -1725.180248   8.98   7.06
C      -0.836260    -1.040480    -4.875717 
C      -0.579440    -0.756243    -3.523936 
C      -0.068114    -1.777754    -2.708217 
C       0.165953    -3.019081    -3.251750 
C      -0.100295    -3.281230    -4.614427 
C      -0.604302    -2.300532    -5.449176 
C      -1.372478     1.094962    -4.503939 
C      -0.929673     0.625478    -3.305363 
H       0.154377    -1.590235    -1.662964 
H       0.561709    -3.830549    -2.650994 
H      -0.813307    -2.482873    -6.494951 
H      -1.728549     2.082474    -4.766499 
N      -1.322634     0.100252    -5.464382 
C      -1.704905     0.237438    -6.850035 
H      -2.514478    -0.454524    -7.105360 
H      -2.056151     1.256164    -7.021714 
H      -0.854807     0.048384    -7.514260 
O       0.180978    -4.556680    -5.013207 
C      -0.056521    -4.891998    -6.365186 
H      -1.116427    -4.779241    -6.625659 
H       0.551024    -4.278742    -7.042522 
H       0.230221    -5.938452    -6.474545 
N      -1.717018     1.510148     0.306433 
C      -2.761545     2.280976     0.865993 
O      -3.658173     2.685392     0.171214 
C      -2.778091     2.471325     2.381265 
H      -3.624077     1.862181     2.715814 
H      -3.088024     3.504385     2.541081 
C      -1.506936     2.110671     3.183902 
H      -1.375609     2.807375     4.016261 
H      -1.599433     1.111454     3.612771 
C      -0.294121     2.124443     2.258258 
C       1.003167     1.353638     2.624540 
H       1.835998     2.023904     2.857844 
C      -0.839442     1.369512    -2.009109 
H      -0.993574     2.440901    -2.174172 
H       0.162632     1.244172    -1.585427 
C      -1.879850     0.865576    -1.006361 
H      -2.890267     1.089494    -1.344133 
H      -1.788059    -0.213166    -0.867064 
C       0.179023     3.543511     1.846359 
H       0.508979     4.019397     2.778145 
H       1.079866     3.407316     1.240082 
C      -0.746242     4.513733     1.109519 
H      -1.090727     4.124206     0.148368 
H      -1.619253     4.809249     1.694628 
H      -0.185010     5.428522     0.896629 
O       0.768487     0.466388     3.701790 
C       1.855084    -0.413618     3.936402 
H       1.977060    -1.099483     3.087751 
H       2.788200     0.163729     4.025283 
C       1.604780    -1.190797     5.204321 
C       1.105071    -0.554352     6.339370 
C       1.904469    -2.547684     5.268231 
C       0.913852    -1.263620     7.517062 
H       0.861176     0.501915     6.292944 
C       1.717517    -3.260231     6.448403 
H       2.284794    -3.055200     4.385753 
C       1.222305    -2.619220     7.576073 
H       0.522538    -0.756828     8.393939 
H       1.957223    -4.318543     6.483871 
H       1.073954    -3.172855     8.497868 
C      -0.637753     1.236633     1.076053 
O      -0.111219     0.027907     1.050955 
C       1.171609     0.728990     1.278147 
C       2.333700     0.394775     0.527853 
O       3.466005     0.703124     0.861093 
O       2.061474    -0.269605    -0.627910 
C       3.202705    -0.598606    -1.421541 
H       3.872101    -1.267795    -0.875263 
H       2.809433    -1.093216    -2.310357 
H       3.755302     0.303337    -1.696128 
72
     -1725.709734     -1725.179741   5.81   7.38
C       2.985560    -0.730482     0.938644 
C       2.070735    -1.608763     1.558561 
C       1.991493    -1.608178     2.951156 
C       2.804504    -0.765856     3.690704 
C       3.718357     0.089600     3.044252 
C       3.820689     0.115568     1.662321 
C       1.945837    -1.888235    -0.658122 
C       1.413829    -2.348554     0.508550 
H       1.297326    -2.264089     3.468061 
H       2.731469    -0.777048     4.770595 
H       4.531211     0.785621     1.192149 
H       1.743545    -2.200264    -1.672297 
N       2.885991    -0.905668    -0.418744 
C       3.559401    -0.109886    -1.422052 
H       3.196867     0.923389    -1.410888 
H       4.641334    -0.120581    -1.259187 
H       3.357795    -0.540096    -2.404698 
O       4.546168     0.948360     3.711454 
C       4.528478     0.931122     5.125425 
H       3.546726     1.221737     5.519246 
H       4.798716    -0.056930     5.517370 
H       5.273169     1.660991     5.445310 
N      -1.550293    -2.372923    -0.566299 
C      -2.264450    -3.286222    -1.368040 
O      -2.231679    -4.463985    -1.111489 
C      -3.171325    -2.729971    -2.462618 
H      -4.182818    -2.920581    -2.089589 
H      -3.048044    -3.400982    -3.312984 
C      -3.017871    -1.243344    -2.859451 
H      -3.178938    -1.119589    -3.933970 
H      -3.769647    -0.637006    -2.351883 
C      -1.635740    -0.738852    -2.450000 
C      -1.368306     0.781163    -2.261958 
H      -0.674885     1.172006    -3.012967 
C       0.347996    -3.387204     0.691338 
H       0.526791    -3.927670     1.627177 
H       0.379338    -4.133345    -0.108300 
C      -1.069415    -2.805094     0.757988 
H      -1.772932    -3.554980     1.122185 
H      -1.102554    -1.931392     1.409912 
C      -0.487272    -1.247909    -3.354903 
H      -0.654038    -0.769899    -4.328037 
H       0.434631    -0.808867    -2.960237 
C      -0.262889    -2.742444    -3.594061 
H       0.635745    -2.866894    -4.206891 
H      -0.101390    -3.308500    -2.673477 
H      -1.082985    -3.212125    -4.140886 
O      -2.583888     1.512986    -2.310207 
C      -2.429239     2.892750    -2.012344 
H      -1.468244     3.261586    -2.391937 
H      -3.226127     3.405216    -2.562900 
C      -2.554222     3.217882    -0.537457 
C      -1.746915     4.195740     0.035631 
C      -3.515449     2.587548     0.249780 
C      -1.904524     4.549046     1.371585 
H      -0.974348     4.669545    -0.562554 
C      -3.668321     2.931889     1.585762 
H      -4.136944     1.813710    -0.188469 
C      -2.865904     3.918358     2.150616 
H      -1.270372     5.317221     1.804395 
H      -4.418023     2.429673     2.189759 
H      -2.988234     4.190279     3.194566 
C      -1.473606    -1.083265    -0.978782 
O      -1.681345    -0.108347    -0.121022 
C      -0.702852     0.653383    -0.932976 
C       0.224961     1.506477    -0.268122 
O       0.891959     2.349033    -0.854127 
O       0.313230     1.275941     1.058865 
C       1.125190     2.191365     1.793397 
H       0.623456     3.159720     1.864416 
H       1.243777     1.749256     2.782448 
H       2.099750     2.317858     1.321307 
72
     -1725.708648     -1725.179727   6.49   7.39
C       2.208212     2.960279     0.362161 
C       2.326697     2.330162    -0.890267 
C       2.642488     3.117091    -2.007186 
C       2.831676     4.470720    -1.851773 
C       2.715296     5.078778    -0.582624 
C       2.403540     4.337168     0.543357 
C       1.804504     0.780350     0.641130 
C       2.071094     0.927790    -0.685557 
H       2.740409     2.669104    -2.991619 
H       3.076864     5.106339    -2.695183 
H       2.313638     4.787911     1.522965 
H       1.521107    -0.107041     1.189886 
N       1.877491     2.001117     1.286316 
C       1.691930     2.213140     2.702712 
H       2.645044     2.382076     3.216952 
H       1.042272     3.075615     2.879467 
H       1.212164     1.330734     3.126990 
O       2.933266     6.427384    -0.575825 
C       2.829418     7.105835     0.659011 
H       3.031080     8.156498     0.447437 
H       1.822736     7.010759     1.085181 
H       3.566566     6.736168     1.382897 
N      -0.068105    -1.318168    -2.589812 
C       0.142310    -2.244748    -3.637843 
O       0.672365    -1.891630    -4.659660 
C      -0.234679    -3.709005    -3.394382 
H       0.709891    -4.254226    -3.479465 
H      -0.819309    -4.003743    -4.268663 
C      -0.960037    -4.064132    -2.077064 
H      -1.595901    -4.941477    -2.220225 
H      -0.241607    -4.308890    -1.291952 
C      -1.776650    -2.847133    -1.644323 
C      -2.343122    -2.712045    -0.210195 
H      -3.437455    -2.713534    -0.197935 
C       1.987520    -0.133546    -1.740007 
H       2.039982    -1.115293    -1.262609 
H       2.839720    -0.071594    -2.423704 
C       0.667712    -0.043123    -2.547572 
H       0.002538     0.689009    -2.088706 
H       0.841670     0.241941    -3.584112 
C      -2.881622    -2.536838    -2.679757 
H      -2.468747    -2.611521    -3.690519 
H      -3.611068    -3.351170    -2.595249 
C      -3.592939    -1.189613    -2.552940 
H      -4.365418    -1.111767    -3.323675 
H      -4.075847    -1.055615    -1.582902 
H      -2.899513    -0.355589    -2.696065 
O      -1.854144    -3.752650     0.627222 
C      -2.115562    -3.522110     2.004491 
H      -3.088826    -3.034002     2.135156 
H      -2.170354    -4.513885     2.466200 
C      -1.037068    -2.709130     2.692751 
C       0.307784    -3.002246     2.472874 
C      -1.369769    -1.694985     3.585706 
C       1.302513    -2.302766     3.141761 
H       0.570096    -3.781181     1.764209 
C      -0.375322    -0.992362     4.258805 
H      -2.413539    -1.437123     3.735988 
C       0.962791    -1.298377     4.044046 
H       2.346224    -2.545815     2.965650 
H      -0.650342    -0.206801     4.956763 
H       1.740467    -0.759628     4.577270 
C      -0.774129    -1.725589    -1.514323 
O      -0.373955    -1.423479    -0.300070 
C      -1.813196    -1.343696     0.040013 
C      -2.303009    -0.253698     0.798609 
O      -3.394780    -0.247576     1.351324 
O      -1.454674     0.809129     0.828150 
C      -1.896007     1.910808     1.614093 
H      -1.155037     2.696690     1.462359 
H      -2.882908     2.251661     1.292376 
H      -1.946431     1.634282     2.671492 
72
     -1725.706700     -1725.178473   7.71   8.18
C      -1.108857     2.292308     3.458800 
C      -0.610292     1.358203     2.536071 
C      -1.433828     0.957009     1.472831 
C      -2.696930     1.489499     1.363666 
C      -3.177584     2.427996     2.303670 
C      -2.395723     2.846112     3.365042 
C       0.967185     1.746554     4.077231 
C       0.727347     1.018275     2.952538 
H      -1.082717     0.249028     0.731107 
H      -3.355394     1.204118     0.550845 
H      -2.747098     3.564260     4.093938 
H       1.851497     1.780200     4.699879 
N      -0.133191     2.522298     4.396865 
C      -0.240763     3.418036     5.524356 
H       0.693172     3.392239     6.088079 
H      -0.416323     4.447391     5.194040 
H      -1.055384     3.116276     6.191340 
O      -4.448655     2.869370     2.067266 
C      -4.996376     3.813470     2.964458 
H      -5.060289     3.408803     3.982340 
H      -4.409178     4.740267     2.978466 
H      -6.001446     4.031205     2.601427 
N       2.794175    -0.349742     0.082074 
C       4.041289    -0.937588     0.400039 
O       4.791729    -0.375383     1.155302 
C       4.349125    -2.333435    -0.150405 
H       4.463033    -2.959441     0.739682 
H       5.349159    -2.260776    -0.583303 
C       3.343106    -2.959035    -1.143453 
H       3.857652    -3.642855    -1.823034 
H       2.592277    -3.543846    -0.606600 
C       2.664180    -1.823229    -1.906052 
C       1.368813    -2.033464    -2.747077 
H       1.566321    -1.855280    -3.803251 
C       1.645108     0.067125     2.249063 
H       1.089513    -0.839814     1.985085 
H       2.469303    -0.236467     2.900724 
C       2.216950     0.678199     0.963330 
H       1.432323     1.176013     0.392898 
H       3.002966     1.399560     1.187647 
C       3.706374    -1.058364    -2.758872 
H       4.611975    -0.890266    -2.167682 
H       3.998280    -1.744847    -3.562512 
C       3.272657     0.281297    -3.354860 
H       3.030604     1.007814    -2.573284 
H       4.093953     0.697231    -3.946026 
H       2.403027     0.195615    -4.009128 
O       0.810420    -3.347584    -2.698868 
C      -0.158153    -3.645067    -1.704687 
H      -0.334213    -4.719334    -1.820465 
H       0.235337    -3.487384    -0.694267 
C      -1.474336    -2.907903    -1.852684 
C      -2.091478    -2.798576    -3.097199 
C      -2.104071    -2.364648    -0.735807 
C      -3.309346    -2.145374    -3.222021 
H      -1.599313    -3.209088    -3.972929 
C      -3.325091    -1.711887    -0.857434 
H      -1.622795    -2.431922     0.235659 
C      -3.930769    -1.600047    -2.102924 
H      -3.774632    -2.055502    -4.198669 
H      -3.799447    -1.288786     0.022869 
H      -4.884257    -1.090152    -2.202983 
C       2.030994    -0.943440    -0.857903 
O       0.732189    -1.053724    -0.684792 
C       0.624053    -0.894895    -2.158451 
C      -0.242027     0.079790    -2.713183 
O      -0.483461     0.173627    -3.905363 
O      -0.757618     0.931177    -1.783846 
C      -1.710841     1.863237    -2.291523 
H      -2.572591     1.336108    -2.710285 
H      -2.014930     2.469675    -1.437813 
H      -1.266685     2.489766    -3.068988 
72
     -1725.708168     -1725.177896   6.79   8.54
C      -1.340247     2.314489     1.872172 
C      -0.016380     2.232529     1.405089 
C       0.292352     2.836740     0.175765 
C      -0.694002     3.485307    -0.528298 
C      -2.012618     3.568970    -0.027985 
C      -2.356389     2.991475     1.180723 
C      -0.155097     1.156811     3.365478 
C       0.734867     1.495895     2.392942 
H       1.293854     2.781692    -0.236939 
H      -0.486524     3.953122    -1.484109 
H      -3.360104     3.047130     1.581310 
H       0.014778     0.603352     4.279321 
N      -1.415058     1.640788     3.066287 
C      -2.577527     1.554445     3.919902 
H      -2.914546     2.549374     4.229578 
H      -3.402996     1.042205     3.415299 
H      -2.317378     0.984717     4.813208 
O      -2.883985     4.247771    -0.827529 
C      -4.227024     4.354065    -0.398943 
H      -4.691366     3.365834    -0.292276 
H      -4.302166     4.896688     0.551671 
H      -4.749994     4.914962    -1.174140 
N       1.996134    -0.809099     0.952228 
C       1.752137    -1.797589     1.923591 
O       2.343633    -1.770401     2.974315 
C       0.646483    -2.817986     1.636558 
H      -0.178932    -2.519827     2.290692 
H       1.018170    -3.761238     2.041852 
C       0.149275    -2.969820     0.174968 
H      -0.075277    -4.017270    -0.041375 
H      -0.770201    -2.404516     0.029848 
C       1.244224    -2.435409    -0.747941 
C       1.027071    -2.070010    -2.251889 
H       1.672048    -2.689424    -2.874761 
C       2.207997     1.221898     2.435499 
H       2.445777     0.707331     3.367848 
H       2.762867     2.168273     2.441353 
C       2.761096     0.408300     1.264159 
H       2.772203     0.989093     0.341949 
H       3.787432     0.102975     1.487767 
C       2.505415    -3.329653    -0.630791 
H       2.664838    -3.605868     0.416708 
H       2.254861    -4.264608    -1.146011 
C       3.817075    -2.773074    -1.185818 
H       3.769879    -2.551701    -2.253545 
H       4.117554    -1.855120    -0.670312 
H       4.614026    -3.506917    -1.034255 
O      -0.278879    -2.262850    -2.779791 
C      -1.190671    -1.171717    -2.818088 
H      -0.658957    -0.216006    -2.806825 
H      -1.707358    -1.253397    -3.780452 
C      -2.200004    -1.247857    -1.696310 
C      -3.020711    -2.372728    -1.603079 
C      -2.306491    -0.250182    -0.733907 
C      -3.929380    -2.503850    -0.564314 
H      -2.928709    -3.156863    -2.349216 
C      -3.221052    -0.379673     0.307958 
H      -1.668375     0.626743    -0.785837 
C      -4.031267    -1.502418     0.397565 
H      -4.559794    -3.385539    -0.502406 
H      -3.290711     0.406647     1.050294 
H      -4.744201    -1.599937     1.210657 
C       1.503519    -1.024670    -0.287861 
O       0.964663    -0.052637    -0.986569 
C       1.588110    -0.693923    -2.165028 
C       2.643688    -0.051715    -2.856475 
O       3.193299    -0.494968    -3.851913 
O       3.022970     1.131659    -2.277486 
C       4.073163     1.811553    -2.962505 
H       3.774512     2.056228    -3.984885 
H       4.258162     2.724394    -2.394469 
H       4.976230     1.196998    -3.000220 
72
     -1725.707228     -1725.177727   7.38   8.65
C       0.503481     1.081202     3.080070 
C       1.318242     0.005060     2.665057 
C       1.321464    -1.157428     3.436940 
C       0.540481    -1.233093     4.577853 
C      -0.258961    -0.140775     4.969863 
C      -0.288673     1.027551     4.224274 
C       1.558673     1.687062     1.207060 
C       1.988182     0.418801     1.455997 
H       1.930980    -2.009172     3.151836 
H       0.554278    -2.141839     5.165250 
H      -0.915901     1.850270     4.547471 
H       1.792830     2.349084     0.385354 
N       0.658208     2.098148     2.172844 
C      -0.024540     3.370389     2.212838 
H      -1.110090     3.232157     2.173986 
H       0.228753     3.925616     3.121668 
H       0.280190     3.961379     1.348233 
O      -1.051099    -0.148436     6.083067 
C      -1.045759    -1.303396     6.899055 
H      -1.726234    -1.092156     7.724775 
H      -1.404851    -2.183798     6.352084 
H      -0.045100    -1.507772     7.298996 
N       1.734048    -0.931788    -1.416881 
C       1.686617    -2.343550    -1.441507 
O       2.687029    -2.978810    -1.220859 
C       0.327698    -3.017948    -1.637475 
H       0.100857    -3.460643    -0.662325 
H       0.520008    -3.860548    -2.304835 
C      -0.855079    -2.147312    -2.126237 
H      -1.505232    -2.728931    -2.784621 
H      -1.457716    -1.822913    -1.279648 
C      -0.276983    -0.935929    -2.854551 
C      -1.097955     0.349088    -3.190166 
H      -1.171362     0.472743    -4.270294 
C       3.000483    -0.380401     0.682161 
H       2.919355    -1.438472     0.946547 
H       4.015271    -0.076935     0.966432 
C       2.907900    -0.254988    -0.838099 
H       2.851637     0.787791    -1.154292 
H       3.784221    -0.714225    -1.299522 
C       0.460940    -1.404940    -4.135199 
H       1.039461    -2.307852    -3.913829 
H      -0.324843    -1.722252    -4.830990 
C       1.385442    -0.402160    -4.826050 
H       1.827660    -0.869001    -5.711011 
H       0.867724     0.501572    -5.152699 
H       2.208957    -0.096316    -4.173025 
O      -2.443096     0.382956    -2.725577 
C      -2.751199     1.001526    -1.480268 
H      -2.008317     1.763316    -1.227468 
H      -3.706958     1.511170    -1.640754 
C      -2.901311    -0.008093    -0.363469 
C      -3.908004    -0.969863    -0.454038 
C      -2.039662    -0.036828     0.728197 
C      -4.041983    -1.949235     0.518954 
H      -4.578832    -0.955430    -1.308574 
C      -2.168100    -1.018742     1.706779 
H      -1.245492     0.696722     0.810385 
C      -3.167734    -1.976614     1.601971 
H      -4.826976    -2.694459     0.433875 
H      -1.479439    -1.033165     2.544943 
H      -3.270469    -2.744179     2.362967 
C       0.656887    -0.260531    -1.880726 
O       0.218483     0.821246    -1.275276 
C      -0.104216     1.305794    -2.629365 
C       0.515869     2.470647    -3.146446 
O       0.244305     2.981756    -4.219708 
O       1.495747     2.968179    -2.326270 
C       2.140463     4.138944    -2.827346 
H       2.883713     4.415595    -2.078100 
H       2.624979     3.935586    -3.785576 
H       1.420641     4.949575    -2.964697 
72
     -1725.708123     -1725.177565   6.82   8.75
C       0.721937    -1.427986     2.592744 
C       1.828957    -0.779947     2.019998 
C       2.103181     0.541687     2.399264 
C       1.295900     1.159648     3.323530 
C       0.190806     0.485951     3.889933 
C      -0.119404    -0.813525     3.532761 
C       1.712417    -2.856538     1.192714 
C       2.452222    -1.714722     1.120742 
H       2.943230     1.080371     1.971938 
H       1.479938     2.181107     3.637674 
H      -0.964947    -1.341175     3.954393 
H       1.856884    -3.798795     0.680339 
N       0.656152    -2.697159     2.071921 
C      -0.296510    -3.714910     2.451686 
H      -0.100103    -4.618437     1.872536 
H      -0.209704    -3.960135     3.515496 
H      -1.320849    -3.388277     2.245924 
O      -0.525142     1.225306     4.787016 
C      -1.746978     0.688773     5.256955 
H      -2.188341     1.453351     5.896940 
H      -2.429017     0.473948     4.425167 
H      -1.586112    -0.223069     5.845075 
N       2.037233    -1.189172    -1.706980 
C       2.090744    -2.506136    -2.204294 
O       3.160193    -3.038843    -2.371912 
C       0.781115    -3.263200    -2.411104 
H       0.826762    -4.091806    -1.697952 
H       0.860485    -3.729611    -3.394062 
C      -0.532725    -2.475256    -2.247388 
H      -1.317329    -2.906330    -2.875103 
H      -0.878793    -2.529236    -1.212761 
C      -0.280915    -1.010503    -2.591124 
C      -1.274074     0.096682    -2.141633 
H      -1.834988     0.519406    -2.979459 
C       3.615623    -1.454287     0.212696 
H       4.055901    -2.398461    -0.113107 
H       4.397371    -0.897627     0.740789 
C       3.218118    -0.634346    -1.024718 
H       2.954056     0.387258    -0.750494 
H       4.038842    -0.607925    -1.744831 
C      -0.015540    -0.737177    -4.097497 
H      -0.892240    -1.130167    -4.627811 
H      -0.049570     0.349325    -4.219536 
C       1.253281    -1.229361    -4.799172 
H       1.235107    -0.865928    -5.830997 
H       2.163374    -0.833875    -4.340430 
H       1.339900    -2.315682    -4.850741 
O      -2.166829    -0.416725    -1.162039 
C      -3.255056     0.434839    -0.853385 
H      -3.751534     0.762881    -1.778102 
H      -3.963331    -0.198413    -0.308400 
C      -2.908265     1.646505    -0.012590 
C      -3.506077     2.870432    -0.290443 
C      -2.027503     1.549441     1.063447 
C      -3.243449     3.984302     0.498585 
H      -4.171048     2.960482    -1.144798 
C      -1.758564     2.662096     1.849327 
H      -1.534483     0.604870     1.271595 
C      -2.369544     3.881140     1.571680 
H      -3.716240     4.933720     0.267007 
H      -1.066944     2.579236     2.680011 
H      -2.158598     4.748948     2.189919 
C       0.843507    -0.548041    -1.683154 
O       0.515999     0.203011    -0.655546 
C      -0.213669     1.025984    -1.650724 
C      -0.126671     2.444796    -1.602773 
O      -0.856800     3.187692    -2.236842 
O       0.881798     2.896249    -0.808640 
C       0.942629     4.315914    -0.683219 
H       1.760693     4.516414     0.009769 
H       1.140744     4.784175    -1.650820 
H       0.002790     4.706834    -0.285001 
72
     -1725.707283     -1725.177426   7.35   8.83
C       0.004875     4.350572    -1.131823 
C       0.189575     3.070821    -0.568822 
C      -0.890595     2.187548    -0.546474 
C      -2.108285     2.580174    -1.074759 
C      -2.266452     3.864338    -1.631088 
C      -1.213584     4.765388    -1.667415 
C       2.119987     4.197637    -0.425848 
C       1.559343     2.996463    -0.120076 
H      -0.787565     1.189814    -0.136877 
H      -2.933191     1.880099    -1.055001 
H      -1.364717     5.746425    -2.102711 
H       3.129471     4.547739    -0.254032 
N       1.195934     5.027514    -1.037093 
C       1.432588     6.375333    -1.496897 
H       0.779733     7.087066    -0.980484 
H       2.469691     6.644930    -1.290389 
H       1.261072     6.457958    -2.575416 
O      -3.442945     4.310345    -2.168244 
C      -4.550892     3.433064    -2.161950 
H      -4.839220     3.156120    -1.140429 
H      -5.371308     3.978085    -2.630618 
H      -4.346707     2.522990    -2.739541 
N       2.713480    -0.601866     0.182677 
C       3.951197    -0.844966     0.823310 
O       4.904324    -0.157622     0.559530 
C       4.015321    -1.931641     1.899335 
H       4.428712    -1.432112     2.779716 
H       4.788909    -2.628516     1.564793 
C       2.706777    -2.674398     2.231680 
H       2.920676    -3.630036     2.712884 
H       2.108421    -2.089932     2.935830 
C       1.941855    -2.842692     0.922205 
C       0.456341    -3.316211     0.841741 
H       0.390749    -4.278571     0.336608 
C       2.200164     1.809027     0.528573 
H       1.531858     1.420218     1.305271 
H       3.137271     2.087753     1.018553 
C       2.472352     0.688586    -0.483837 
H       1.613515     0.546685    -1.140077 
H       3.348013     0.914147    -1.092668 
C       2.744173    -3.641500    -0.130853 
H       2.128950    -3.696143    -1.033985 
H       3.651579    -3.100716    -0.418531 
C       3.116711    -5.050724     0.330224 
H       3.557714    -5.614808    -0.496459 
H       3.849457    -5.036719     1.142763 
H       2.241614    -5.606317     0.680245 
O      -0.202354    -3.519746     2.091369 
C      -0.851520    -2.424946     2.718042 
H      -1.139132    -2.814794     3.699856 
H      -0.164946    -1.588822     2.889971 
C      -2.090885    -1.919089     2.006503 
C      -2.323619    -0.550913     1.894635 
C      -3.034864    -2.808926     1.498711 
C      -3.477044    -0.074651     1.282486 
H      -1.586071     0.150605     2.273854 
C      -4.185801    -2.336389     0.883438 
H      -2.851214    -3.876047     1.567990 
C      -4.411831    -0.967989     0.773986 
H      -3.640924     0.995974     1.205324 
H      -4.909158    -3.039487     0.482353 
H      -5.315103    -0.601625     0.295432 
C       1.683871    -1.440985     0.421567 
O       0.468071    -0.964126     0.566609 
C       0.016776    -2.233636    -0.071580 
C      -0.947747    -2.194790    -1.114586 
O      -1.526434    -3.178348    -1.540582 
O      -1.134825    -0.945938    -1.623780 
C      -2.143112    -0.858251    -2.628549 
H      -3.117330    -1.136654    -2.217087 
H      -2.149382     0.184312    -2.949509 
H      -1.912371    -1.516092    -3.469991 
72
     -1725.705390     -1725.176540   8.53   9.39
C       2.300935    -1.346817    -0.252626 
C       2.615706     0.018123    -0.129079 
C       2.542934     0.822745    -1.274672 
C       2.144174     0.270167    -2.469544 
C       1.824556    -1.104602    -2.566779 
C       1.907635    -1.935012    -1.463790 
C       2.838448    -0.948789     1.875333 
C       2.951409     0.256032     1.250729 
H       2.813534     1.873193    -1.226802 
H       2.079957     0.865667    -3.373923 
H       1.660036    -2.986815    -1.518191 
H       2.989923    -1.202605     2.916107 
N       2.442195    -1.925719     0.982399 
C       2.232640    -3.321700     1.289218 
H       2.395604    -3.477299     2.356507 
H       1.208554    -3.624273     1.049186 
H       2.930674    -3.957810     0.735005 
O       1.442193    -1.513767    -3.807203 
C       1.134684    -2.886397    -3.983667 
H       2.011380    -3.515138    -3.783821 
H       0.301508    -3.194115    -3.343187 
H       0.840286    -2.997647    -5.027276 
N       0.865539     2.443682     1.400846 
C       1.078019     3.467068     0.455865 
O       1.958218     4.272144     0.638065 
C       0.248689     3.474732    -0.827600 
H       0.976261     3.313342    -1.627294 
H      -0.082482     4.506209    -0.949774 
C      -0.918204     2.471379    -0.948123 
H      -1.726936     2.897172    -1.548207 
H      -0.572181     1.573458    -1.464624 
C      -1.404767     2.093331     0.446285 
C      -2.255818     0.805167     0.701182 
H      -3.264168     1.070677     1.014224 
C       3.180782     1.586538     1.903767 
H       3.650822     2.286266     1.207665 
H       3.860031     1.482139     2.756086 
C       1.880930     2.202032     2.440835 
H       1.417023     1.533435     3.168232 
H       2.083153     3.163625     2.917132 
C      -2.187950     3.224294     1.171566 
H      -3.092514     3.379176     0.570235 
H      -2.526394     2.801178     2.122438 
C      -1.562413     4.590054     1.465521 
H      -2.286013     5.178878     2.037333 
H      -0.659074     4.522796     2.076960 
H      -1.330646     5.165940     0.567894 
O      -2.437461    -0.051505    -0.419879 
C      -1.461670    -1.057658    -0.653581 
H      -0.480786    -0.616434    -0.857293 
H      -1.356870    -1.698956     0.230408 
C      -1.893568    -1.870847    -1.846300 
C      -2.133007    -3.236174    -1.738647 
C      -2.040287    -1.257062    -3.090000 
C      -2.509416    -3.982012    -2.852935 
H      -2.030709    -3.722409    -0.772517 
C      -2.420900    -1.993447    -4.201828 
H      -1.852228    -0.191937    -3.181898 
C      -2.653436    -3.361849    -4.086769 
H      -2.693581    -5.047272    -2.752962 
H      -2.535575    -1.501171    -5.162689 
H      -2.951019    -3.939506    -4.956276 
C      -0.197759     1.615469     1.228942 
O      -0.048432     0.316423     1.392546 
C      -1.446760     0.352346     1.868346 
C      -1.797525    -0.268617     3.101806 
O      -2.941901    -0.489757     3.455601 
O      -0.715350    -0.561807     3.879681 
C      -1.034576    -1.163543     5.133304 
H      -1.664562    -0.501239     5.732241 
H      -1.561460    -2.109803     4.987377 
H      -0.080038    -1.333363     5.632883 
72
     -1725.705573     -1725.176243   8.42   9.58
C       1.127451    -3.378170    -2.588779 
C       0.522326    -2.257339    -1.983500 
C       0.439915    -2.211942    -0.591283 
C       0.953307    -3.254659     0.160369 
C       1.553516    -4.362542    -0.468839 
C       1.648453    -4.439300    -1.849774 
C       0.469644    -1.982170    -4.205685 
C       0.106307    -1.372448    -3.045088 
H      -0.004857    -1.363124    -0.085945 
H       0.888703    -3.198471     1.239125 
H       2.116274    -5.304071    -2.305911 
H       0.336707    -1.649828    -5.226971 
N       1.087095    -3.194278    -3.949069 
C       1.602011    -4.114818    -4.934732 
H       1.431046    -3.702410    -5.930527 
H       2.678319    -4.269016    -4.803443 
H       1.096353    -5.084075    -4.869191 
O       2.079339    -5.422376     0.217998 
C       2.009853    -5.399727     1.629358 
H       0.971005    -5.372374     1.980615 
H       2.479376    -6.323299     1.970447 
H       2.555068    -4.543507     2.045477 
N      -0.272468     2.185664    -1.795356 
C      -0.914222     3.116661    -2.645657 
O      -0.607092     3.174452    -3.808417 
C      -2.063672     3.952280    -2.073994 
H      -2.935372     3.660234    -2.667247 
H      -1.846796     4.982166    -2.365570 
C      -2.359698     3.839405    -0.560816 
H      -2.788667     4.773040    -0.188636 
H      -3.093886     3.051803    -0.375080 
C      -1.051132     3.505533     0.152472 
C      -1.001517     2.992073     1.623630 
H      -0.497973     3.715764     2.263042 
C      -0.563698    -0.046445    -2.859478 
H      -1.363248    -0.149290    -2.117070 
H      -1.027870     0.293091    -3.789647 
C       0.422749     1.020801    -2.366708 
H       1.059883     0.618852    -1.578517 
H       1.052362     1.379082    -3.181440 
C      -0.044962     4.671405    -0.012796 
H      -0.059818     5.024727    -1.048555 
H      -0.441567     5.497373     0.589522 
C       1.408811     4.399586     0.375387 
H       1.998392     5.309566     0.229289 
H       1.522275     4.094424     1.417345 
H       1.851163     3.618386    -0.250150 
O      -2.268119     2.778890     2.248966 
C      -2.886255     1.506964     2.131491 
H      -3.869012     1.646837     2.593197 
H      -3.055847     1.232810     1.084197 
C      -2.165607     0.374111     2.835551 
C      -1.654521     0.542578     4.120852 
C      -2.044509    -0.867972     2.217831 
C      -1.020931    -0.509050     4.767771 
H      -1.734658     1.511423     4.602957 
C      -1.415336    -1.924385     2.865625 
H      -2.427482    -1.004713     1.210569 
C      -0.899387    -1.746442     4.143283 
H      -0.614872    -0.362000     5.763696 
H      -1.330192    -2.885500     2.367499 
H      -0.406266    -2.568184     4.653853 
C      -0.551232     2.229518    -0.476706 
O      -0.727282     1.116185     0.201018 
C      -0.113967     1.837470     1.346216 
C       0.966192     1.263440     2.061318 
O       1.419854     1.728339     3.094028 
O       1.477519     0.151718     1.463003 
C       2.506355    -0.503038     2.201899 
H       2.820473    -1.346502     1.585520 
H       3.345905     0.172367     2.383768 
H       2.119989    -0.855543     3.162394 
72
     -1725.703915     -1725.173806   9.46  11.11
C       1.061832     0.024192     3.181347 
C       1.779422     0.661784     2.151050 
C       3.051345     0.161770     1.826086 
C       3.547901    -0.926130     2.503488 
C       2.805674    -1.548512     3.531051 
C       1.553955    -1.082625     3.889623 
C      -0.184552     1.704841     2.416869 
C       0.955376     1.746064     1.673187 
H       3.648987     0.614643     1.043672 
H       4.524765    -1.333254     2.268470 
H       0.971246    -1.540209     4.678407 
H      -1.055468     2.343954     2.360672 
N      -0.136951     0.672769     3.334558 
C      -1.150885     0.368376     4.319087 
H      -0.734617     0.404404     5.330949 
H      -1.944327     1.113806     4.247761 
H      -1.590871    -0.619571     4.148805 
O       3.423067    -2.615040     4.116174 
C       2.736626    -3.286140     5.153743 
H       2.543331    -2.618629     6.002732 
H       1.787609    -3.706712     4.798308 
H       3.390204    -4.097096     5.476396 
N       1.308912     1.070262    -1.245498 
C       2.159977    -0.028345    -1.525947 
O       3.357078     0.102943    -1.487204 
C       1.520863    -1.390239    -1.798916 
H       1.787270    -1.999315    -0.929371 
H       2.090369    -1.800502    -2.636548 
C       0.000170    -1.439878    -2.061332 
H      -0.244331    -2.253740    -2.745597 
H      -0.532198    -1.633840    -1.132877 
C      -0.401671    -0.078058    -2.620657 
C      -1.867392     0.445253    -2.777653 
H      -2.076822     0.628193    -3.830800 
C       1.245065     2.789982     0.634708 
H       1.946923     3.532896     1.034802 
H       0.318510     3.322949     0.415528 
C       1.873808     2.308800    -0.679291 
H       1.764635     3.096386    -1.430183 
H       2.936369     2.106636    -0.562459 
C       0.322850     0.231779    -3.955961 
H       0.035229     1.241148    -4.267521 
H       1.408537     0.257119    -3.816412 
C      -0.010226    -0.765438    -5.067178 
H       0.403266    -1.757515    -4.863246 
H      -1.089851    -0.875445    -5.205186 
H       0.411525    -0.425236    -6.017333 
O      -2.924973    -0.397391    -2.345907 
C      -3.390162    -0.334351    -1.002367 
H      -3.180466     0.642763    -0.559553 
H      -4.477826    -0.444393    -1.066088 
C      -2.816306    -1.454252    -0.163743 
C      -1.947859    -1.209190     0.894366 
C      -3.108054    -2.774314    -0.506974 
C      -1.363325    -2.266555     1.586923 
H      -1.693654    -0.187543     1.155845 
C      -2.538173    -3.830346     0.188398 
H      -3.776623    -2.968868    -1.340755 
C      -1.658422    -3.577158     1.236993 
H      -0.655387    -2.063883     2.383781 
H      -2.772829    -4.852959    -0.090478 
H      -1.203525    -4.402302     1.776370 
C       0.003839     0.938312    -1.573641 
O      -0.944279     1.460533    -0.829053 
C      -1.637541     1.754371    -2.102411 
C      -1.688889     3.077103    -2.614187 
O      -2.206935     3.389584    -3.673300 
O      -1.072349     3.993631    -1.804221 
C      -1.140766     5.337733    -2.276761 
H      -0.623633     5.942979    -1.530867 
H      -0.654377     5.435262    -3.250636 
H      -2.180013     5.661758    -2.372040 
72
     -1725.702487     -1725.173769  10.36  11.13
C       2.855030     2.329238     0.665927 
C       2.949006     1.513300    -0.484023 
C       3.652941     1.997059    -1.586123 
C       4.244872     3.248528    -1.534670 
C       4.142202     4.036407    -0.372383 
C       3.447637     3.586943     0.740703 
C       1.746615     0.429868     1.066499 
C       2.234677     0.294243    -0.196005 
H       3.745614     1.401035    -2.489275 
H       4.788239     3.610479    -2.397625 
H       3.388815     4.217553     1.620421 
H       1.121534    -0.245370     1.634260 
N       2.106307     1.655282     1.598337 
C       1.809623     2.114567     2.934627 
H       2.685625     2.050064     3.590466 
H       1.467225     3.153402     2.913485 
H       1.011609     1.497086     3.348006 
O       4.704494     5.277238    -0.251091 
C       5.424977     5.792559    -1.352376 
H       4.784995     5.900061    -2.236853 
H       5.781843     6.776812    -1.046305 
H       6.284878     5.158979    -1.602496 
N      -0.200561    -1.491666    -2.244256 
C      -0.086638    -2.601619    -3.108467 
O       0.714925    -2.586650    -4.007556 
C      -0.924770    -3.843439    -2.805581 
H      -0.184314    -4.605574    -2.542994 
H      -1.328947    -4.159019    -3.767823 
C      -2.018264    -3.758678    -1.713564 
H      -2.873961    -4.381008    -1.989875 
H      -1.635661    -4.145026    -0.767230 
C      -2.440505    -2.305538    -1.504461 
C      -3.103880    -1.841660    -0.175685 
H      -4.150614    -1.557960    -0.318792 
C       1.967994    -0.838843    -1.138926 
H       1.639228    -1.708132    -0.563878 
H       2.881024    -1.136650    -1.663525 
C       0.868939    -0.482214    -2.171159 
H       0.392288     0.458526    -1.895076 
H       1.272543    -0.388599    -3.178435 
C      -3.339157    -1.736326    -2.632099 
H      -4.283520    -2.289320    -2.556489 
H      -3.569258    -0.702388    -2.356131 
C      -2.885981    -1.757030    -4.092869 
H      -3.652647    -1.265027    -4.698737 
H      -1.954597    -1.209746    -4.257876 
H      -2.770523    -2.767253    -4.491039 
O      -3.010581    -2.849425     0.822061 
C      -3.365359    -2.385188     2.117431 
H      -4.165659    -1.638501     2.052931 
H      -3.760244    -3.258064     2.648648 
C      -2.194643    -1.816832     2.894443 
C      -0.971242    -2.484489     2.906606 
C      -2.336344    -0.653545     3.644646 
C       0.087739    -2.006332     3.665943 
H      -0.852685    -3.381939     2.308230 
C      -1.277333    -0.171865     4.408004 
H      -3.274928    -0.108961     3.613425 
C      -0.064985    -0.850061     4.426236 
H       1.033560    -2.539960     3.670927 
H      -1.404949     0.734070     4.993587 
H       0.759500    -0.482556     5.030015 
C      -1.164121    -1.516401    -1.296072 
O      -0.864223    -1.175148    -0.062506 
C      -2.244330    -0.638640     0.004444 
C      -2.473642     0.615440     0.630648 
O      -3.565927     0.984285     1.035622 
O      -1.358605     1.388815     0.702684 
C      -1.537435     2.646655     1.345563 
H      -0.583909     3.166478     1.245153 
H      -2.335680     3.219925     0.868434 
H      -1.785883     2.507744     2.401915 
72
     -1725.699066     -1725.173450  12.50  11.33
C      -4.472239     0.632303     2.235336 
C      -3.878823     0.607575     0.962324 
C      -4.673857     0.277916    -0.147084 
C      -6.003847    -0.014464     0.045103 
C      -6.578839     0.013938     1.335592 
C      -5.827708     0.337269     2.450855 
C      -2.318131     1.175460     2.464844 
C      -2.492243     0.961030     1.132050 
H      -4.249609     0.253281    -1.146742 
H      -6.649326    -0.273550    -0.786653 
H      -6.252573     0.364434     3.445489 
H      -1.425857     1.460811     3.006348 
N      -3.506773     0.981597     3.146464 
C      -3.702052     1.124039     4.570223 
H      -2.754958     1.408619     5.031320 
H      -4.441098     1.901621     4.790518 
H      -4.034891     0.181676     5.018083 
O      -7.907810    -0.299005     1.371247 
C      -8.553751    -0.293205     2.627901 
H      -8.521644     0.701306     3.090425 
H      -9.592204    -0.566616     2.437900 
H      -8.107150    -1.026316     3.311353 
N      -0.249257    -0.344229    -1.643861 
C      -0.809508    -0.087060    -2.914464 
O      -2.005375    -0.135768    -3.062765 
C       0.123177     0.318811    -4.056119 
H      -0.272005     1.270519    -4.421811 
H      -0.066949    -0.406082    -4.852905 
C       1.627356     0.414545    -3.740723 
H       2.216558     0.327821    -4.655151 
H       1.871344     1.380829    -3.291933 
C       1.946858    -0.690355    -2.737338 
C       3.282301    -0.766579    -1.964912 
H       3.859443    -1.656200    -2.232321 
C      -1.466932     1.025824     0.044007 
H      -0.556070     1.517139     0.398403 
H      -1.849885     1.618406    -0.794656 
C      -1.124235    -0.377473    -0.464074 
H      -0.612433    -0.958513     0.303927 
H      -2.027565    -0.912905    -0.754730 
C       1.621259    -2.105505    -3.267058 
H       1.868416    -2.818215    -2.473958 
H       0.546866    -2.214396    -3.447265 
C       2.387311    -2.465141    -4.540638 
H       2.217756    -3.513916    -4.800089 
H       2.069274    -1.861297    -5.395944 
H       3.465513    -2.326247    -4.416512 
O       4.058218     0.403339    -2.171684 
C       5.272798     0.400016    -1.437396 
H       5.745810    -0.589358    -1.492370 
H       5.926501     1.110996    -1.953084 
C       5.121886     0.815272     0.011688 
C       4.464580     2.001853     0.335946 
C       5.677401     0.049657     1.032501 
C       4.370885     2.417458     1.656266 
H       4.016605     2.593460    -0.456443 
C       5.586831     0.464972     2.357220 
H       6.165990    -0.890301     0.792618 
C       4.937508     1.651600     2.672169 
H       3.856090     3.342924     1.896498 
H       6.021281    -0.144485     3.143628 
H       4.865935     1.977468     3.705370 
C       1.097822    -0.386659    -1.526128 
O       1.696742     0.153452    -0.484590 
C       2.691605    -0.934512    -0.606000 
C       2.867369    -1.967869     0.351957 
O       3.583527    -2.928586     0.126735 
O       2.177532    -1.924969     1.533187 
C       1.960895    -0.672576     2.185055 
H       2.024149    -0.875289     3.256132 
H       2.722871     0.059287     1.909610 
H       0.971338    -0.270880     1.951107 
72
     -1725.703339     -1725.172419   9.82  11.98
C       1.588488     0.841038    -2.727666 
C       1.876252    -0.347730    -2.029584 
C       3.149896    -0.481185    -1.452169 
C       4.058673     0.543757    -1.564293 
C       3.742561     1.727408    -2.266868 
C       2.506709     1.893326    -2.864665 
C      -0.215593    -0.462024    -2.820125 
C       0.696384    -1.175660    -2.103712 
H       3.430760    -1.378016    -0.912477 
H       5.045873     0.466837    -1.122972 
H       2.246534     2.788300    -3.414667 
H      -1.229308    -0.728822    -3.086904 
N       0.307163     0.756468    -3.208813 
C      -0.362999     1.741134    -4.028609 
H      -0.527243     2.674338    -3.480520 
H       0.216539     1.954163    -4.932541 
H      -1.333976     1.344708    -4.329090 
O       4.741064     2.655932    -2.299581 
C       4.494998     3.864907    -2.989812 
H       4.292210     3.684509    -4.052805 
H       3.654596     4.413938    -2.547018 
H       5.403265     4.460454    -2.893760 
N       0.710902    -1.793113     0.827737 
C       1.796060    -1.229476     1.547655 
O       2.867011    -1.779447     1.568640 
C       1.578300     0.148397     2.170130 
H       2.000670     0.836554     1.428574 
H       2.249058     0.182783     3.030085 
C       0.129841     0.568113     2.541268 
H       0.110519     0.998750     3.545492 
H      -0.231792     1.330949     1.856232 
C      -0.750795    -0.678797     2.476373 
C      -2.308526    -0.652425     2.367182 
H      -2.745252    -1.113534     3.252877 
C       0.457428    -2.562734    -1.581463 
H       0.957665    -3.299267    -2.222936 
H      -0.612173    -2.771166    -1.641844 
C       0.948144    -2.860506    -0.157680 
H       0.453283    -3.767015     0.202935 
H       2.021801    -3.037059    -0.131861 
C      -0.349603    -1.627010     3.637999 
H       0.741176    -1.633766     3.742230 
H      -0.726324    -1.148444     4.549716 
C      -0.839390    -3.073492     3.579361 
H      -0.465092    -3.593806     2.691718 
H      -0.468458    -3.615597     4.454051 
H      -1.927741    -3.155004     3.577081 
O      -2.931165     0.623159     2.284717 
C      -3.207477     1.205935     1.014755 
H      -3.234134     0.444907     0.230801 
H      -4.211967     1.634005     1.097979 
C      -2.216053     2.299450     0.687189 
C      -1.255602     2.146465    -0.307581 
C      -2.212404     3.462866     1.456200 
C      -0.292128     3.129966    -0.514514 
H      -1.235147     1.238946    -0.901437 
C      -1.263251     4.451781     1.243311 
H      -2.954544     3.581314     2.240688 
C      -0.295093     4.283618     0.257934 
H       0.477117     2.980670    -1.264847 
H      -1.271458     5.351350     1.850906 
H       0.455694     5.051053     0.096586 
C      -0.516150    -1.316364     1.125437 
O      -1.433015    -1.135957     0.201872 
C      -2.401603    -1.597481     1.219832 
C      -3.066172    -2.840015     1.067791 
O      -3.907382    -3.273980     1.837766 
O      -2.649294    -3.541829    -0.031467 
C      -3.318195    -4.786974    -0.224350 
H      -4.392630    -4.633609    -0.351763 
H      -2.888687    -5.219244    -1.129164 
H      -3.158818    -5.451700     0.628452 
72
     -1725.701007     -1725.171910  11.28  12.30
C       1.772782     3.033797     2.440212 
C       1.127097     1.924865     1.869328 
C       0.252604     2.136234     0.792251 
C       0.054547     3.415729     0.328813 
C       0.714277     4.516551     0.919230 
C       1.583457     4.347328     1.981428 
C       2.422330     1.206386     3.548582 
C       1.556963     0.757839     2.598314 
H      -0.253078     1.306191     0.312705 
H      -0.611546     3.611648    -0.503975 
H       2.097834     5.178436     2.445311 
H       2.964298     0.651166     4.302797 
N       2.564407     2.580357     3.466048 
C       3.396826     3.399519     4.315233 
H       4.152477     3.933173     3.728975 
H       2.797307     4.129934     4.869000 
H       3.909071     2.758430     5.034464 
O       0.420563     5.725242     0.354059 
C       1.046168     6.873051     0.890070 
H       2.137981     6.813848     0.798387 
H       0.682599     7.719063     0.305726 
H       0.777863     7.020512     1.943736 
N       1.129902    -2.437998     0.594969 
C       1.253110    -3.645365     1.316867 
O       2.167142    -3.790398     2.087757 
C       0.143785    -4.688871     1.184472 
H      -0.320404    -4.706246     2.175914 
H       0.655475    -5.647188     1.093256 
C      -0.931857    -4.496920     0.087800 
H      -1.227165    -5.466077    -0.323096 
H      -1.830444    -4.053526     0.522104 
C      -0.401442    -3.577847    -1.009102 
C      -1.363470    -2.799034    -1.971215 
H      -1.273486    -3.181459    -2.986403 
C       1.127786    -0.650496     2.326357 
H       0.043475    -0.671841     2.170301 
H       1.344370    -1.296799     3.181462 
C       1.809128    -1.224116     1.076981 
H       1.782566    -0.503596     0.259268 
H       2.847373    -1.485044     1.284002 
C       0.628019    -4.261672    -1.949316 
H       0.059303    -5.025321    -2.493944 
H       0.917847    -3.511506    -2.691626 
C       1.900103    -4.909213    -1.399076 
H       2.537129    -4.205474    -0.857463 
H       1.701574    -5.766527    -0.752528 
H       2.488701    -5.281166    -2.243005 
O      -2.756299    -2.894538    -1.674718 
C      -3.350791    -1.960205    -0.786897 
H      -4.368413    -2.339861    -0.648741 
H      -2.866403    -1.967093     0.195753 
C      -3.422307    -0.537239    -1.304356 
C      -3.828352    -0.274599    -2.610842 
C      -3.126479     0.530633    -0.461199 
C      -3.927361     1.032841    -3.066010 
H      -4.045539    -1.103085    -3.277125 
C      -3.226256     1.841265    -0.913388 
H      -2.795616     0.334882     0.554755 
C      -3.627281     2.095187    -2.219282 
H      -4.235029     1.224749    -4.089216 
H      -2.987799     2.661401    -0.243138 
H      -3.707085     3.117178    -2.577493 
C       0.148881    -2.342462    -0.330003 
O      -0.580610    -1.247625    -0.378654 
C      -0.660792    -1.499828    -1.840952 
C      -0.422714    -0.440362    -2.759895 
O      -0.679870    -0.504563    -3.948622 
O       0.161094     0.644619    -2.183801 
C       0.349726     1.755648    -3.059680 
H      -0.613855     2.116262    -3.429988 
H       0.838580     2.524483    -2.460774 
H       0.975227     1.476717    -3.911163 
72
     -1725.698650     -1725.169798  12.76  13.62
C       3.874937     0.479740    -1.321514 
C       3.253882    -0.698926    -0.855780 
C       3.095316    -0.863789     0.520866 
C       3.506028     0.129097     1.387876 
C       4.099584     1.307139     0.893804 
C       4.318845     1.484050    -0.464710 
C       3.287759    -0.746647    -3.094570 
C       2.887986    -1.473176    -2.015030 
H       2.639660    -1.758486     0.930013 
H       3.338454    -0.000975     2.447706 
H       4.778125     2.401362    -0.815337 
H       3.185329    -0.978537    -4.146222 
N       3.890680     0.432365    -2.694849 
C       4.452923     1.441057    -3.561459 
H       3.950392     2.403842    -3.421482 
H       5.522903     1.571073    -3.368766 
H       4.322864     1.130607    -4.599403 
O       4.480591     2.337817     1.698882 
C       4.018732     2.323742     3.042882 
H       2.931943     2.192973     3.086123 
H       4.507308     1.531486     3.622478 
H       4.292907     3.292636     3.461733 
N      -0.016320    -1.643080    -1.706265 
C      -0.479348    -1.490364    -3.032355 
O      -0.005881    -2.170496    -3.908635 
C      -1.634024    -0.531500    -3.308194 
H      -2.358433    -1.120393    -3.876628 
H      -1.239302     0.209982    -4.008383 
C      -2.285862     0.141909    -2.090757 
H      -2.829153     1.040102    -2.394140 
H      -3.004052    -0.528385    -1.613276 
C      -1.171472     0.474643    -1.099786 
C      -1.502187     0.876519     0.353518 
H      -1.233463     1.905917     0.591657 
C       2.199688    -2.801938    -2.043648 
H       2.802475    -3.552360    -1.517216 
H       2.100490    -3.132048    -3.077070 
C       0.814910    -2.813219    -1.375804 
H       0.274237    -3.718253    -1.665229 
H       0.910469    -2.809895    -0.291937 
C      -0.142327     1.437575    -1.746725 
H       0.421480     0.889269    -2.508669 
H      -0.718540     2.201550    -2.283296 
C       0.868198     2.124305    -0.828970 
H       1.402500     1.414309    -0.197785 
H       1.610723     2.643333    -1.440857 
H       0.407019     2.869288    -0.177325 
O      -2.879080     0.652554     0.609704 
C      -3.260577     0.980234     1.934634 
H      -2.546846     0.539972     2.646346 
H      -3.241032     2.070202     2.078143 
C      -4.643795     0.442922     2.197052 
C      -5.622978     1.243487     2.773713 
C      -4.946191    -0.883084     1.888482 
C      -6.887463     0.729904     3.046210 
H      -5.398472     2.280316     3.009651 
C      -6.206948    -1.396781     2.155173 
H      -4.185868    -1.508747     1.431451 
C      -7.181449    -0.591120     2.737747 
H      -7.642997     1.365463     3.497696 
H      -6.432113    -2.429972     1.908916 
H      -8.167362    -0.993791     2.947691 
C      -0.551727    -0.856908    -0.735682 
O      -0.950678    -1.399639     0.406658 
C      -0.569687    -0.101809     1.005316 
C       0.222204     0.052157     2.185842 
O       0.484863     1.163829     2.611305 
O       0.748468    -1.018449     2.850943 
C       0.121146    -2.297584     2.821414 
H       0.439979    -2.802591     3.734585 
H      -0.968704    -2.211827     2.816259 
H       0.438330    -2.883958     1.955286 
72
     -1725.702857     -1725.169773  10.12  13.64
C       2.554010     2.655719     0.919206 
C       2.008683     2.237805    -0.313678 
C       2.390557     0.993681    -0.817455 
C       3.248435     0.188074    -0.095508 
C       3.758016     0.620240     1.144685 
C       3.441097     1.871627     1.652954 
C       1.143238     4.235897     0.209179 
C       1.106631     3.272936    -0.752351 
H       2.013548     0.634689    -1.768459 
H       3.500256    -0.788118    -0.485621 
H       3.849146     2.177040     2.609813 
H       0.599823     5.170100     0.256911 
N       2.015736     3.883118     1.222836 
C       2.327092     4.668397     2.393773 
H       2.067531     4.127709     3.309924 
H       3.391933     4.921652     2.424069 
H       1.751169     5.594709     2.363955 
O       4.571389    -0.150022     1.920006 
C       4.695553    -1.523263     1.576695 
H       3.712799    -1.997634     1.479341 
H       5.258406    -1.650448     0.644302 
H       5.250594    -1.985165     2.394000 
N      -1.415668     1.798874    -0.900178 
C      -2.354636     2.721090    -0.390808 
O      -2.385603     3.843833    -0.831365 
C      -3.371554     2.245904     0.643740 
H      -4.342267     2.550389     0.244148 
H      -3.204805     2.869109     1.526717 
C      -3.353039     0.751897     1.003632 
H      -3.839061     0.582941     1.967533 
H      -3.894555     0.165622     0.257549 
C      -1.891311     0.306439     1.032193 
C      -1.522699    -1.192562     1.062857 
H      -1.005623    -1.485376     1.976063 
C       0.284719     3.300513    -2.003130 
H       0.935985     3.265284    -2.885339 
H      -0.268916     4.237977    -2.045978 
C      -0.700020     2.128211    -2.143977 
H      -1.435787     2.357774    -2.919213 
H      -0.178756     1.218511    -2.434147 
C      -1.101110     1.122378     2.088787 
H      -0.969003     2.143873     1.716960 
H      -1.741829     1.200614     2.975750 
C       0.273122     0.601172     2.508381 
H       0.208849    -0.297840     3.125440 
H       0.908065     0.376193     1.650791 
H       0.781374     1.365548     3.101872 
O      -2.687147    -1.991730     0.900672 
C      -2.405350    -3.381863     0.843980 
H      -1.574509    -3.631318     1.515586 
H      -3.303653    -3.881788     1.222265 
C      -2.105270    -3.885865    -0.552765 
C      -2.950258    -3.556676    -1.612295 
C      -1.020378    -4.724190    -0.789479 
C      -2.722796    -4.069488    -2.881816 
H      -3.788867    -2.890589    -1.434476 
C      -0.790283    -5.240602    -2.061215 
H      -0.338045    -4.958535     0.022047 
C      -1.643084    -4.919246    -3.109061 
H      -3.390371    -3.808370    -3.697536 
H       0.060094    -5.893896    -2.230849 
H      -1.466365    -5.323349    -4.101121 
C      -1.379711     0.546730    -0.370653 
O      -1.358487    -0.507709    -1.173904 
C      -0.578432    -1.156939    -0.098287 
C       0.609684    -1.929538    -0.293623 
O       1.147999    -2.465586     0.662068 
O       1.208968    -2.057703    -1.507028 
C       0.476863    -1.918308    -2.724694 
H       1.031901    -2.494992    -3.465847 
H      -0.531749    -2.322192    -2.637220 
H       0.427743    -0.873366    -3.041604 
