72
     -1725.729977     -1725.202465   0.00   0.00
C      -3.314652     1.726217    -1.869313 
C      -2.379345     0.703517    -2.136060 
C      -2.217695    -0.312384    -1.194680 
C      -2.928572    -0.274927    -0.008279 
C      -3.830316     0.776714     0.248076 
C      -4.040149     1.784376    -0.681234 
C      -2.400783     2.118177    -3.867374 
C      -1.790457     0.986882    -3.420860 
H      -1.536014    -1.132875    -1.382524 
H      -2.771571    -1.062749     0.717333 
H      -4.750603     2.572831    -0.460943 
H      -2.225549     2.681994    -4.773862 
N      -3.324780     2.575473    -2.946697 
C      -4.136354     3.763453    -3.072178 
H      -3.934035     4.230377    -4.037287 
H      -5.201714     3.516142    -3.021698 
H      -3.902028     4.484241    -2.281994 
O      -4.555982     0.881986     1.401283 
C      -4.410111    -0.133168     2.375314 
H      -3.378608    -0.190486     2.743739 
H      -5.071091     0.141750     3.198077 
H      -4.710058    -1.111954     1.981914 
N       0.857678     1.263645    -2.218275 
C       0.357050     2.472398    -1.628814 
O       0.030623     3.382249    -2.339134 
C       0.293945     2.544184    -0.118815 
H      -0.692437     2.957126     0.108969 
H       1.019825     3.311614     0.171167 
C       0.522120     1.227386     0.620005 
H       0.686883     1.409006     1.683138 
H      -0.370455     0.607985     0.540494 
C       1.699605     0.464047     0.016948 
C       1.681479    -1.063531     0.347276 
H       2.689175    -1.404051     0.631178 
C      -0.589994     0.308285    -4.012448 
H      -0.661725     0.266665    -5.103961 
H      -0.511449    -0.724045    -3.657531 
C       0.706198     1.062879    -3.675554 
H       1.580509     0.513662    -4.024649 
H       0.706234     2.058824    -4.115766 
C       3.071661     1.129632     0.232602 
H       3.809216     0.575832    -0.360244 
H       3.049035     2.145629    -0.179542 
C       3.525982     1.175535     1.691354 
H       2.832483     1.741957     2.318875 
H       3.618843     0.174529     2.118602 
H       4.504919     1.657968     1.763407 
O       0.776841    -1.337345     1.393805 
C       1.143822    -2.443329     2.207557 
H       0.221861    -2.746837     2.711536 
H       1.475160    -3.279424     1.584278 
C       2.205250    -2.070640     3.218853 
C       1.955524    -1.054730     4.142017 
C       3.446555    -2.697294     3.227574 
C       2.929520    -0.671015     5.051693 
H       0.990402    -0.556112     4.133855 
C       4.427133    -2.317652     4.140596 
H       3.653297    -3.485994     2.508988 
C       4.170867    -1.303284     5.052616 
H       2.723521     0.122501     5.763404 
H       5.391652    -2.815762     4.135317 
H       4.933556    -1.004648     5.764788 
C       1.430351     0.327669    -1.466749 
O       1.940156    -0.747825    -2.005546 
C       1.219825    -1.573099    -0.988720 
C       0.500392    -2.662835    -1.508209 
O       0.216554    -2.864823    -2.685848 
O       0.079426    -3.515569    -0.514748 
C      -0.708088    -4.609784    -0.969874 
H      -0.152227    -5.227228    -1.680270 
H      -0.956060    -5.190478    -0.079533 
H      -1.622222    -4.259464    -1.457405 
72
     -1725.732256     -1725.201777  -1.43   0.43
C      -2.593368    -1.718705     0.589706 
C      -2.238772    -2.661336    -0.393078 
C      -2.977643    -2.688507    -1.587090 
C      -3.997983    -1.786794    -1.772529 
C      -4.320253    -0.834751    -0.777866 
C      -3.626910    -0.785442     0.417431 
C      -0.879425    -2.916297     1.371482 
C      -1.126816    -3.416711     0.127390 
H      -2.741112    -3.404607    -2.366915 
H      -4.586980    -1.783217    -2.683107 
H      -3.858663    -0.065098     1.190793 
H      -0.107763    -3.188082     2.078891 
N      -1.760815    -1.894337     1.664885 
C      -1.750196    -1.086460     2.864109 
H      -2.756327    -1.018266     3.288429 
H      -1.099710    -1.562255     3.598189 
H      -1.366796    -0.081141     2.662961 
O      -5.351292    -0.001537    -1.102110 
C      -5.750657     0.957639    -0.143324 
H      -4.938904     1.660407     0.082220 
H      -6.584304     1.502711    -0.587190 
H      -6.085285     0.478532     0.785151 
N       0.958721    -2.440540    -1.461553 
C       0.094660    -2.121947    -2.550043 
O      -0.273033    -3.014467    -3.266821 
C      -0.294863    -0.673788    -2.744514 
H      -1.363240    -0.685452    -2.969931 
H       0.213073    -0.336502    -3.654781 
C       0.012384     0.224414    -1.548961 
H      -0.156453     1.273015    -1.796877 
H      -0.664643    -0.021729    -0.728071 
C       1.449088    -0.002660    -1.086943 
C       1.737165     0.496204     0.369000 
H       2.665171     1.086979     0.396849 
C      -0.299467    -4.426691    -0.615187 
H      -0.848977    -4.780613    -1.488604 
H      -0.093679    -5.299566     0.011671 
C       1.065470    -3.857844    -1.060531 
H       1.778597    -3.883038    -0.238920 
H       1.465300    -4.420831    -1.905196 
C       2.528247     0.416545    -2.102869 
H       3.501492     0.125740    -1.691428 
H       2.403509    -0.164497    -3.024310 
C       2.538502     1.908079    -2.435132 
H       2.699302     2.520736    -1.545495 
H       3.344495     2.129774    -3.140400 
H       1.600194     2.230242    -2.894999 
O       0.666103     1.274708     0.867048 
C       1.055414     2.393141     1.650947 
H       0.158174     2.676933     2.209195 
H       1.822503     2.102014     2.375491 
C       1.532788     3.551204     0.802563 
C       2.814251     4.071528     0.947648 
C       0.686836     4.098606    -0.162597 
C       3.250506     5.119500     0.140996 
H       3.482423     3.650473     1.694199 
C       1.117533     5.140866    -0.970215 
H      -0.313922     3.693362    -0.282237 
C       2.403937     5.654109    -0.820296 
H       4.253753     5.514979     0.265300 
H       0.450438     5.557834    -1.718363 
H       2.741399     6.470387    -1.451004 
C       1.589686    -1.479868    -0.784831 
O       2.537393    -1.746129     0.078769 
C       1.819790    -0.847937     1.034419 
C       1.880291    -1.298158     2.376048 
O       2.127844    -2.432408     2.762435 
O       1.589823    -0.286894     3.260485 
C       1.678046    -0.655059     4.632433 
H       1.392368     0.231685     5.201032 
H       1.005174    -1.485158     4.863790 
H       2.696407    -0.957024     4.892366 
72
     -1725.731240     -1725.201195  -0.79   0.79
C      -2.599239    -1.495848     0.908292 
C      -2.138332    -2.663782     0.259944 
C      -2.753456    -3.044059    -0.934510 
C      -3.767748    -2.268019    -1.467216 
C      -4.190006    -1.094122    -0.810154 
C      -3.612120    -0.695759     0.384607 
C      -0.957416    -2.370143     2.143769 
C      -1.073135    -3.202946     1.071390 
H      -2.433417    -3.937773    -1.459779 
H      -4.234277    -2.576572    -2.393914 
H      -3.958690     0.209857     0.868700 
H      -0.256159    -2.408174     2.966555 
N      -1.874545    -1.340212     2.062236 
C      -1.996485    -0.234660     2.985893 
H      -1.601595     0.690063     2.553443 
H      -3.043147    -0.088997     3.268866 
H      -1.425458    -0.466587     3.885229 
O      -5.179276    -0.280387    -1.285268 
C      -5.826119    -0.646650    -2.488427 
H      -6.325031    -1.618981    -2.395647 
H      -6.574272     0.124629    -2.675309 
H      -5.122663    -0.678335    -3.329399 
N       1.144592    -2.615824    -0.528680 
C       0.386925    -2.641444    -1.735865 
O       0.102017    -3.709702    -2.208552 
C       0.000089    -1.318110    -2.356888 
H      -1.039578    -1.434408    -2.669743 
H       0.593082    -1.221076    -3.272999 
C       0.172059    -0.116414    -1.431287 
H       0.013727     0.816912    -1.972910 
H      -0.580611    -0.157155    -0.640936 
C       1.558733    -0.149350    -0.794758 
C       1.693573     0.737786     0.488431 
H       2.603659     1.354254     0.436224 
C      -0.162402    -4.343469     0.717470 
H      -0.618553    -4.947234    -0.068364 
H      -0.006264    -5.000165     1.578635 
C       1.231411    -3.864229     0.255492 
H       1.862405    -3.635768     1.112143 
H       1.718304    -4.620242    -0.362223 
C       2.727313     0.023254    -1.783375 
H       3.659011    -0.102283    -1.220149 
H       2.704997    -0.791650    -2.516625 
C       2.746612     1.366847    -2.511096 
H       2.805812     2.205166    -1.813690 
H       3.616399     1.423166    -3.171755 
H       1.854789     1.510057    -3.127385 
O       0.565122     1.574385     0.655721 
C       0.855407     2.880483     1.131693 
H      -0.096862     3.265141     1.509136 
H       1.554292     2.832932     1.972816 
C       1.390195     3.783323     0.041952 
C       2.640704     4.382004     0.150256 
C       0.631755     4.006487    -1.107758 
C       3.132652     5.188587    -0.872809 
H       3.241027     4.212275     1.040135 
C       1.118432     4.807034    -2.130664 
H      -0.344361     3.538446    -1.198582 
C       2.373543     5.400449    -2.015366 
H       4.110854     5.648824    -0.774490 
H       0.519423     4.972478    -3.020844 
H       2.754631     6.027929    -2.814755 
C       1.691648    -1.481967    -0.087909 
O       2.553487    -1.464147     0.897595 
C       1.733388    -0.369890     1.501959 
C       1.668455    -0.436039     2.915110 
O       1.892309    -1.412121     3.618375 
O       1.278903     0.764937     3.458292 
C       1.233403     0.785875     4.880601 
H       2.224270     0.606644     5.307058 
H       0.880291     1.781269     5.155841 
H       0.551527     0.023187     5.266227 
72
     -1725.731813     -1725.200430  -1.15   1.27
C      -2.311149    -1.261431     1.118239 
C      -1.948305    -2.488274     0.531706 
C      -2.668592    -2.925876    -0.591621 
C      -3.661196    -2.129948    -1.112468 
C      -3.978376    -0.882274    -0.527935 
C      -3.315813    -0.431950     0.598635 
C      -0.643513    -2.122461     2.313216 
C      -0.853012    -3.018062     1.304956 
H      -2.446754    -3.881514    -1.055269 
H      -4.233553    -2.440240    -1.979945 
H      -3.545236     0.516363     1.066167 
H       0.102837    -2.135137     3.094631 
N      -1.516330    -1.061480     2.215040 
C      -1.541500     0.111618     3.063758 
H      -2.538988     0.249616     3.493001 
H      -0.822926    -0.020382     3.871981 
H      -1.246864     1.001318     2.502031 
O      -4.973929    -0.194617    -1.159876 
C      -5.369414     1.045137    -0.607721 
H      -6.169476     1.421809    -1.245661 
H      -5.747848     0.924366     0.414824 
H      -4.540602     1.764299    -0.605406 
N       1.073064    -2.818809    -0.792526 
C       0.215834    -3.110503    -1.893539 
O      -0.092499    -4.254681    -2.093760 
C      -0.222740    -1.952279    -2.757599 
H      -1.237695    -2.187313    -3.080076 
H       0.407125    -1.975094    -3.654468 
C      -0.156641    -0.598399    -2.053175 
H      -0.414740     0.193897    -2.757338 
H      -0.893859    -0.566140    -1.249070 
C       1.235692    -0.387215    -1.467037 
C       1.328564     0.655340    -0.285951 
H       2.055920     1.445608    -0.520758 
C      -0.022628    -4.223274     0.964952 
H      -0.609009    -4.914700     0.356971 
H       0.267392    -4.762864     1.871804 
C       1.284571    -3.873735     0.219954 
H       2.027054    -3.480502     0.911374 
H       1.688113    -4.751756    -0.285938 
C       2.344556    -0.171354    -2.516201 
H       3.301790    -0.136383    -1.985374 
H       2.394691    -1.043601    -3.178190 
C       2.180050     1.097039    -3.354890 
H       2.156328     1.994939    -2.730976 
H       3.021667     1.200816    -4.045705 
H       1.265276     1.077064    -3.954618 
O       0.085922     1.242125     0.045735 
C      -0.221286     2.432099    -0.655638 
H      -0.218562     2.262123    -1.741131 
H      -1.251375     2.667897    -0.368273 
C       0.683231     3.602679    -0.327175 
C       1.235603     3.742838     0.944657 
C       0.939424     4.571296    -1.294470 
C       2.032261     4.843924     1.236594 
H       1.060495     2.979736     1.696254 
C       1.731867     5.674749    -0.998978 
H       0.513770     4.465948    -2.289765 
C       2.279901     5.812929     0.270358 
H       2.463593     4.944024     2.227823 
H       1.921067     6.424545    -1.760930 
H       2.900952     6.671619     0.505470 
C       1.584233    -1.599667    -0.626904 
O       2.556801    -1.369793     0.214384 
C       1.725240    -0.276232     0.813473 
C       1.899021    -0.052756     2.195178 
O       1.532175     0.941825     2.811316 
O       2.525657    -1.096640     2.830800 
C       2.791876    -0.878077     4.210288 
H       3.303511    -1.775476     4.561644 
H       3.430030    -0.001941     4.353357 
H       1.867255    -0.726767     4.775785 
72
     -1725.726896     -1725.200067   1.94   1.50
C      -3.463379    -1.212031     1.338143 
C      -2.814398    -0.684088     2.475639 
C      -2.931094    -1.372029     3.683516 
C      -3.667849    -2.540471     3.745020 
C      -4.304721    -3.044695     2.593065 
C      -4.210769    -2.387241     1.376847 
C      -2.420634     0.667796     0.732956 
C      -2.145122     0.525268     2.059457 
H      -2.440960    -1.004052     4.579153 
H      -3.745152    -3.064940     4.688353 
H      -4.713013    -2.797971     0.508459 
H      -2.102362     1.446079     0.053971 
N      -3.207490    -0.376140     0.279236 
C      -3.718449    -0.533364    -1.061982 
H      -3.287594     0.243236    -1.696023 
H      -3.440028    -1.509389    -1.472132 
H      -4.809469    -0.440138    -1.085715 
O      -5.046200    -4.191907     2.584524 
C      -5.179823    -4.909935     3.795592 
H      -4.206926    -5.252114     4.169008 
H      -5.672735    -4.306730     4.567740 
H      -5.801170    -5.776320     3.565425 
N       0.638068    -0.008343     2.085010 
C       0.409997    -1.423116     2.014181 
O       0.160487    -2.029877     3.017101 
C       0.495598    -2.077269     0.653083 
H      -0.441374    -2.632241     0.547630 
H       1.283686    -2.832166     0.730381 
C       0.707775    -1.128792    -0.526668 
H       1.036613    -1.682369    -1.408440 
H      -0.236667    -0.645316    -0.783550 
C       1.729427    -0.043221    -0.177126 
C       1.613086     1.198537    -1.112328 
H       2.610238     1.605110    -1.335519 
C      -1.243883     1.411389     2.868139 
H      -1.728796     1.711120     3.803746 
H      -1.037069     2.324182     2.303186 
C       0.088220     0.731179     3.237662 
H       0.825124     1.470334     3.553412 
H      -0.035871    -0.007505     4.026600 
C       3.156731    -0.600626    -0.045324 
H       3.129645    -1.556496     0.488953 
H       3.497095    -0.825316    -1.063291 
C       4.160147     0.324405     0.644315 
H       4.243645     1.290261     0.140341 
H       3.877738     0.516795     1.684263 
H       5.153167    -0.133918     0.650836 
O       0.971211     0.856101    -2.319680 
C       1.453484     1.567401    -3.449711 
H       0.729888     1.363611    -4.244516 
H       1.442851     2.644687    -3.254099 
C       2.837496     1.116200    -3.867425 
C       3.855487     2.036727    -4.092685 
C       3.109905    -0.243029    -4.023709 
C       5.124887     1.611716    -4.474248 
H       3.657100     3.097312    -3.962660 
C       4.374888    -0.671230    -4.400523 
H       2.319129    -0.966370    -3.846940 
C       5.387273     0.257246    -4.628371 
H       5.908822     2.342354    -4.647618 
H       4.573500    -1.731843    -4.520845 
H       6.376439    -0.076912    -4.924794 
C       1.203444     0.637493     1.069787 
O       1.451441     1.921523     1.142787 
C       0.794616     2.066523    -0.196757 
C      -0.037610     3.201996    -0.316671 
O      -0.492449     3.881859     0.595257 
O      -0.346107     3.463927    -1.628464 
C      -1.202079     4.585207    -1.823985 
H      -1.351346     4.662580    -2.902229 
H      -2.161128     4.438959    -1.319716 
H      -0.744629     5.500401    -1.439028 
72
     -1725.726361     -1725.199478   2.27   1.87
C      -2.213900     4.590016    -2.139010 
C      -1.577035     3.435038    -1.655485 
C      -0.351893     3.568189    -0.982750 
C       0.179696     4.824327    -0.807172 
C      -0.482382     5.973158    -1.294633 
C      -1.685988     5.879630    -1.970030 
C      -3.473717     2.825870    -2.677378 
C      -2.404475     2.310313    -2.010740 
H       0.173817     2.690140    -0.620398 
H       1.124597     4.966960    -0.294910 
H      -2.204529     6.748620    -2.352949 
H      -4.325418     2.317641    -3.109784 
N      -3.373652     4.204988    -2.763631 
C      -4.317939     5.086850    -3.406259 
H      -4.732128     5.808241    -2.693599 
H      -3.849034     5.634373    -4.231041 
H      -5.139276     4.492899    -3.810546 
O       0.163949     7.151492    -1.044872 
C      -0.439549     8.342581    -1.504214 
H      -0.544264     8.343676    -2.596645 
H      -1.424973     8.495383    -1.046001 
H       0.223975     9.155559    -1.206946 
N      -2.039652    -0.678046     0.314162 
C      -2.784467    -1.809039    -0.142427 
O      -3.787646    -1.626033    -0.777331 
C      -2.263447    -3.187030     0.201729 
H      -2.351724    -3.777205    -0.713588 
H      -2.984404    -3.615412     0.906621 
C      -0.844895    -3.213671     0.761781 
H      -0.598215    -4.200274     1.153717 
H      -0.124215    -3.002653    -0.033243 
C      -0.695176    -2.145710     1.846274 
C       0.786197    -1.798080     2.148654 
H       0.898939    -1.537697     3.213737 
C      -2.148716     0.878664    -1.649066 
H      -1.098862     0.630739    -1.825360 
H      -2.770714     0.215648    -2.253823 
C      -2.457929     0.660026    -0.165371 
H      -1.928896     1.387868     0.445296 
H      -3.528962     0.745033     0.024035 
C      -1.545960    -2.387598     3.103970 
H      -1.412950    -1.524188     3.765804 
H      -2.610200    -2.409686     2.842563 
C      -1.167283    -3.668020     3.849885 
H      -0.096132    -3.697153     4.069449 
H      -1.707747    -3.731880     4.798403 
H      -1.412204    -4.562288     3.269809 
O       1.621360    -2.872278     1.829789 
C       2.953336    -2.696367     2.278144 
H       3.292350    -1.684207     2.024436 
H       2.994288    -2.801268     3.372838 
C       3.854459    -3.715193     1.626391 
C       3.577530    -4.215675     0.356433 
C       5.012897    -4.129003     2.278954 
C       4.449552    -5.110674    -0.250984 
H       2.675105    -3.898332    -0.151820 
C       5.887231    -5.022871     1.672071 
H       5.234635    -3.749299     3.273330 
C       5.607843    -5.515366     0.403012 
H       4.222758    -5.494854    -1.241071 
H       6.787495    -5.335408     2.192241 
H       6.288490    -6.213919    -0.073508 
C      -1.046585    -0.823988     1.191562 
O      -0.335349     0.192272     1.598276 
C       0.927687    -0.551008     1.291216 
C       1.399348    -0.363193    -0.025670 
O       0.967845     0.433073    -0.858037 
O       2.468359    -1.169640    -0.303688 
C       3.015681    -1.032031    -1.609780 
H       3.842139    -1.743097    -1.658863 
H       2.270667    -1.264896    -2.375417 
H       3.380262    -0.015038    -1.776545 
72
     -1725.726726     -1725.199394   2.04   1.92
C      -3.384761    -1.843385    -1.700905 
C      -1.974900    -1.904850    -1.716171 
C      -1.301883    -2.055561    -0.504342 
C      -2.014221    -2.096391     0.681009 
C      -3.420162    -2.003163     0.670963 
C      -4.122219    -1.882956    -0.518938 
C      -2.700439    -1.693370    -3.820342 
C      -1.555865    -1.791082    -3.090659 
H      -0.222193    -2.139904    -0.481094 
H      -1.470521    -2.198896     1.611494 
H      -5.204233    -1.824334    -0.495686 
H      -2.827212    -1.568709    -4.887510 
N      -3.812526    -1.726993    -2.999128 
C      -5.189198    -1.628085    -3.424674 
H      -5.218886    -1.550173    -4.512540 
H      -5.756316    -2.514961    -3.123677 
H      -5.668320    -0.739874    -3.000087 
O      -4.183888    -2.028551     1.803624 
C      -3.527280    -2.180508     3.047462 
H      -4.312574    -2.179676     3.804233 
H      -2.978102    -3.128482     3.097266 
H      -2.837325    -1.350214     3.241436 
N       0.002651     0.602475    -2.423539 
C      -1.263354     1.231661    -2.180386 
O      -2.009594     1.421104    -3.099970 
C      -1.595915     1.624984    -0.759774 
H      -2.505316     1.063540    -0.521276 
H      -1.902570     2.671395    -0.815443 
C      -0.525948     1.370777     0.311109 
H      -0.645640     2.077338     1.136612 
H      -0.677723     0.376648     0.727221 
C       0.906658     1.439865    -0.224703 
C       1.901058     0.538949     0.586825 
H       2.840056     1.087800     0.756737 
C      -0.147933    -1.603457    -3.574240 
H      -0.014591    -2.049477    -4.564905 
H       0.563865    -2.095261    -2.903736 
C       0.213021    -0.115052    -3.698662 
H       1.258306     0.011738    -3.980203 
H      -0.421931     0.383238    -4.429756 
C       1.485441     2.856593    -0.400301 
H       1.638041     3.257132     0.609567 
H       2.484980     2.747570    -0.837344 
C       0.679041     3.851171    -1.233822 
H       1.253318     4.773172    -1.361184 
H       0.456022     3.468900    -2.235637 
H      -0.263979     4.122022    -0.753140 
O       1.351551     0.167110     1.830280 
C       2.313244     0.042867     2.867102 
H       1.784111    -0.449817     3.688296 
H       3.129250    -0.615241     2.551148 
C       2.854437     1.384239     3.317105 
C       1.979373     2.440443     3.571597 
C       4.220831     1.587971     3.479110 
C       2.463180     3.674998     3.981473 
H       0.911659     2.287210     3.445241 
C       4.709424     2.823028     3.895097 
H       4.912095     0.775412     3.271817 
C       3.831949     3.869189     4.146295 
H       1.771641     4.488799     4.177265 
H       5.778403     2.966225     4.018442 
H       4.210558     4.833769     4.469167 
C       0.964666     0.643451    -1.509875 
O       2.118786     0.073091    -1.732163 
C       2.031175    -0.590358    -0.392361 
C       2.346914    -1.959924    -0.388615 
O       2.426710    -2.700834    -1.364379 
O       2.523881    -2.435574     0.889505 
C       2.785421    -3.832100     0.968689 
H       2.903410    -4.054691     2.030703 
H       1.955643    -4.410133     0.552539 
H       3.696757    -4.093833     0.424729 
72
     -1725.726564     -1725.199246   2.15   2.02
C      -3.185560    -2.625269     0.929411 
C      -1.918046    -2.166150     1.327526 
C      -1.728572    -0.787542     1.502198 
C      -2.766644     0.075111     1.241082 
C      -4.023117    -0.407227     0.810873 
C      -4.257272    -1.761745     0.654978 
C      -1.855943    -4.396943     1.195009 
C      -1.072007    -3.320601     1.479985 
H      -0.774854    -0.401670     1.843146 
H      -2.649039     1.146233     1.362956 
H      -5.216306    -2.149542     0.337944 
H      -1.601070    -5.447857     1.167806 
N      -3.135598    -3.994141     0.862645 
C      -4.226146    -4.862981     0.484826 
H      -4.562236    -4.651383    -0.535491 
H      -3.883621    -5.897926     0.526646 
H      -5.073280    -4.750223     1.169312 
O      -4.955484     0.562292     0.580026 
C      -6.243996     0.154356     0.165857 
H      -6.723490    -0.481884     0.920136 
H      -6.827173     1.067532     0.043067 
H      -6.206080    -0.381339    -0.790907 
N       0.795497    -2.276538    -0.540349 
C      -0.267202    -2.477809    -1.482814 
O      -0.649922    -3.591263    -1.709287 
C      -0.847813    -1.253055    -2.156065 
H      -1.927490    -1.323163    -1.994746 
H      -0.693887    -1.410058    -3.228327 
C      -0.317960     0.102892    -1.683704 
H      -0.537384     0.867012    -2.434215 
H      -0.828483     0.397265    -0.767649 
C       1.186468     0.049935    -1.410298 
C       1.659144     1.189227    -0.434807 
H       2.628334     1.597611    -0.759350 
C       0.412564    -3.310484     1.696405 
H       0.725010    -4.174995     2.290723 
H       0.721991    -2.415758     2.245815 
C       1.175347    -3.381622     0.365333 
H       2.251293    -3.318298     0.528860 
H       0.944465    -4.300683    -0.171408 
C       2.010470    -0.080272    -2.704683 
H       1.539682    -0.823927    -3.357598 
H       1.932072     0.876819    -3.234000 
C       3.483616    -0.445763    -2.517658 
H       3.596240    -1.438663    -2.071581 
H       3.994077    -0.458691    -3.484810 
H       4.006684     0.266065    -1.874576 
O       0.730318     2.240064    -0.314066 
C       0.938735     3.308591    -1.217036 
H       0.961512     2.947919    -2.256370 
H       0.054312     3.945617    -1.113431 
C       2.190109     4.115077    -0.932841 
C       2.872397     4.738679    -1.973741 
C       2.650083     4.268797     0.373366 
C       3.995309     5.517024    -1.716473 
H       2.524424     4.617087    -2.996682 
C       3.775222     5.043179     0.629790 
H       2.129001     3.768454     1.182560 
C       4.448552     5.671801    -0.412118 
H       4.516700     6.000684    -2.536689 
H       4.128760     5.156794     1.650130 
H       5.325694     6.277687    -0.207836 
C       1.411981    -1.102790    -0.457200 
O       2.361145    -0.912654     0.415828 
C       1.725825     0.380988     0.823135 
C       1.631026     0.563243     2.214933 
O       1.757469    -0.309191     3.070584 
O       1.324977     1.856234     2.550983 
C       1.146760     2.077797     3.945094 
H       0.320713     1.475862     4.333928 
H       2.051852     1.826246     4.503975 
H       0.919842     3.139929     4.051928 
72
     -1725.725569     -1725.198760   2.77   2.32
C       0.504853     0.308934     4.269420 
C       1.178820     0.416014     3.033929 
C       0.669784     1.285926     2.070077 
C      -0.496980     1.986220     2.321266 
C      -1.169022     1.835202     3.550286 
C      -0.673716     1.001023     4.541031 
C       2.297136    -1.019629     4.333199 
C       2.321502    -0.460425     3.092813 
H       1.182159     1.419482     1.124612 
H      -0.881522     2.651116     1.558661 
H      -1.205900     0.915547     5.481373 
H       2.959901    -1.755036     4.769470 
N       1.210626    -0.565037     5.056854 
C       0.855167    -0.961083     6.399494 
H       0.825474    -0.094448     7.067942 
H      -0.121355    -1.455912     6.417017 
H       1.604275    -1.661235     6.772337 
O      -2.329325     2.487929     3.858199 
C      -2.870100     3.375835     2.898999 
H      -3.778947     3.782512     3.343989 
H      -2.177504     4.196781     2.677329 
H      -3.125271     2.854647     1.968196 
N       1.318073    -2.049996     0.850345 
C       0.288311    -2.474599     1.753902 
O       0.579449    -3.138918     2.708898 
C      -1.133169    -2.060692     1.440996 
H      -1.502029    -1.589978     2.357263 
H      -1.693120    -2.995454     1.337664 
C      -1.323599    -1.131232     0.240389 
H      -2.365316    -1.162293    -0.089898 
H      -1.110411    -0.104024     0.534848 
C      -0.392523    -1.512054    -0.912490 
C      -0.150976    -0.318222    -1.906913 
H      -0.138599    -0.677501    -2.947083 
C       3.205296    -0.840426     1.941346 
H       4.234218    -1.007290     2.275580 
H       3.236685    -0.041331     1.194083 
C       2.730822    -2.141602     1.276194 
H       3.327994    -2.368968     0.393116 
H       2.779578    -2.978786     1.971002 
C      -0.799069    -2.839832    -1.577680 
H      -1.043660    -3.571961    -0.799826 
H      -1.733523    -2.655112    -2.120915 
C       0.235076    -3.449512    -2.525151 
H       0.515667    -2.762233    -3.326881 
H       1.150036    -3.727938    -1.993388 
H      -0.166407    -4.355416    -2.988087 
O      -1.103571     0.711422    -1.783216 
C      -2.216943     0.580485    -2.645882 
H      -2.705500    -0.396519    -2.513653 
H      -2.925899     1.345929    -2.313909 
C      -1.885301     0.787351    -4.110228 
C      -0.872226     1.666187    -4.487990 
C      -2.615131     0.125125    -5.093409 
C      -0.601345     1.880792    -5.834053 
H      -0.291662     2.168717    -3.721809 
C      -2.346995     0.343458    -6.440027 
H      -3.402057    -0.568256    -4.806665 
C      -1.338910     1.223931    -6.813159 
H       0.190959     2.565685    -6.120668 
H      -2.925427    -0.176798    -7.197171 
H      -1.126026     1.395694    -7.863575 
C       1.007711    -1.548121    -0.340495 
O       1.942721    -1.150945    -1.158567 
C       1.185503     0.118786    -1.393516 
C       1.977201     1.281308    -1.339974 
O       3.105128     1.368589    -0.861260 
O       1.331184     2.375584    -1.852903 
C       2.065395     3.591258    -1.763614 
H       1.433160     4.355852    -2.218258 
H       2.273547     3.846604    -0.720846 
H       3.015620     3.518888    -2.298958 
72
     -1725.727747     -1725.198236   1.40   2.65
C      -3.197959    -0.395123    -0.293838 
C      -3.354043     0.955944     0.067590 
C      -3.905567     1.249689     1.325185 
C      -4.249783     0.221732     2.170168 
C      -4.062747    -1.127850     1.791695 
C      -3.536474    -1.458632     0.556468 
C      -2.486744     0.859632    -1.997694 
C      -2.880528     1.747150    -1.040174 
H      -4.047817     2.278285     1.639540 
H      -4.677581     0.416305     3.147516 
H      -3.387190    -2.484881     0.247875 
H      -2.044232     1.045738    -2.966876 
N      -2.677106    -0.436697    -1.561392 
C      -2.320584    -1.634341    -2.288914 
H      -2.091025    -1.359222    -3.318543 
H      -1.439021    -2.117307    -1.855340 
H      -3.157260    -2.339402    -2.299140 
O      -4.443637    -2.039894     2.732799 
C      -4.304600    -3.410682     2.416279 
H      -4.668031    -3.961879     3.284149 
H      -4.905342    -3.680857     1.538932 
H      -3.255442    -3.674844     2.233984 
N      -0.475576     2.752739    -0.019700 
C      -0.931806     2.665570     1.327442 
O      -1.661830     3.528267     1.738183 
C      -0.471435     1.497869     2.166778 
H      -1.387313     1.058855     2.570809 
H       0.054372     1.932625     3.018774 
C       0.351134     0.435908     1.433287 
H       0.892103    -0.187900     2.148809 
H      -0.332514    -0.220994     0.891475 
C       1.322652     1.043093     0.421310 
C       1.705861     0.054397    -0.737774 
H       2.792802     0.077019    -0.901031 
C      -2.694817     3.237217    -1.065634 
H      -3.271525     3.692633    -0.259368 
H      -3.062953     3.661670    -2.004576 
C      -1.212394     3.648218    -0.934811 
H      -0.707384     3.575596    -1.895711 
H      -1.123348     4.667129    -0.554757 
C       2.597362     1.690451     0.995937 
H       3.200412     0.875464     1.415511 
H       3.164317     2.080875     0.143155 
C       2.441101     2.803589     2.031771 
H       2.091230     2.428081     2.995862 
H       3.411655     3.276930     2.205751 
H       1.754381     3.589172     1.698350 
O       1.305852    -1.271390    -0.458406 
C       2.295861    -2.249121    -0.740228 
H       1.781777    -3.209493    -0.641607 
H       2.638246    -2.155301    -1.777030 
C       3.469726    -2.175807     0.213436 
C       4.769920    -2.022099    -0.255865 
C       3.253034    -2.240859     1.590082 
C       5.839826    -1.937809     0.630733 
H       4.949505    -1.962006    -1.326041 
C       4.315914    -2.153700     2.477983 
H       2.239861    -2.361950     1.962296 
C       5.614652    -2.001925     1.998945 
H       6.848910    -1.818772     0.248817 
H       4.134094    -2.207088     3.546961 
H       6.446708    -1.935350     2.692650 
C       0.539047     2.002890    -0.449611 
O       1.063129     2.167053    -1.640015 
C       0.897891     0.690172    -1.829432 
C       0.609037     0.328813    -3.170871 
O       0.134246     1.041925    -4.043457 
O       0.906556    -0.991660    -3.404058 
C       0.686677    -1.422392    -4.742679 
H      -0.354123    -1.271031    -5.041165 
H       1.326563    -0.875101    -5.440478 
H       0.933319    -2.485344    -4.761075 
72
     -1725.726150     -1725.198159   2.41   2.70
C       1.473404     0.431104     3.142986 
C       1.389904     1.796627     2.819409 
C       2.396517     2.655457     3.285704 
C       3.425680     2.146360     4.038721 
C       3.486865     0.769300     4.352337 
C       2.514993    -0.110429     3.912261 
C      -0.369274     0.741312     1.920628 
C       0.198133     1.976089     2.028738 
H       2.373276     3.714689     3.050713 
H       4.220651     2.783167     4.410018 
H       2.544619    -1.166740     4.145086 
H      -1.275109     0.451210     1.407589 
N       0.394879    -0.205302     2.580024 
C       0.078286    -1.608511     2.704869 
H       0.927229    -2.226328     2.396176 
H      -0.192038    -1.868776     3.733964 
H      -0.766531    -1.837428     2.053228 
O       4.563931     0.406046     5.106931 
C       4.694116    -0.956923     5.457900 
H       5.607628    -1.033436     6.048516 
H       3.844001    -1.297478     6.062233 
H       4.785248    -1.592294     4.568012 
N       0.997392     2.531468    -0.635037 
C       2.279161     1.925825    -0.403118 
O       3.143452     2.564634     0.126075 
C       2.463351     0.490788    -0.844613 
H       2.831864    -0.032402     0.042742 
H       3.296277     0.497971    -1.553765 
C       1.219433    -0.194388    -1.410084 
H       1.491850    -1.098543    -1.957701 
H       0.564095    -0.499259    -0.591710 
C       0.442848     0.759814    -2.322312 
C      -1.035009     0.307405    -2.521023 
H      -1.371377     0.532828    -3.545977 
C      -0.292331     3.230907     1.367742 
H      -0.336558     4.056708     2.086281 
H      -1.307509     3.069199     0.996104 
C       0.607979     3.682620     0.202466 
H       0.090522     4.405672    -0.428816 
H       1.541268     4.118410     0.552700 
C       1.194246     1.065343    -3.628130 
H       2.258343     1.210054    -3.413515 
H       1.129047     0.160800    -4.244737 
C       0.680125     2.273516    -4.412182 
H       0.811727     3.200631    -3.845465 
H       1.232399     2.378603    -5.350093 
H      -0.380721     2.186842    -4.659093 
O      -1.162927    -1.071354    -2.283712 
C      -2.223166    -1.683197    -3.006179 
H      -3.141267    -1.098192    -2.876909 
H      -1.977284    -1.707330    -4.077812 
C      -2.426137    -3.084063    -2.490629 
C      -2.482823    -4.163579    -3.364583 
C      -2.590385    -3.307395    -1.123635 
C      -2.706858    -5.451092    -2.885987 
H      -2.347944    -3.999681    -4.430470 
C      -2.811462    -4.590041    -0.643417 
H      -2.541512    -2.462997    -0.443932 
C      -2.872124    -5.666130    -1.524757 
H      -2.749942    -6.285444    -3.579136 
H      -2.939738    -4.755186     0.422034 
H      -3.046392    -6.669175    -1.148204 
C       0.133766     1.979517    -1.479405 
O      -1.026833     2.537198    -1.723191 
C      -1.660052     1.203089    -1.483371 
C      -2.830678     1.244161    -0.695729 
O      -3.225493     2.181294    -0.012661 
O      -3.506764     0.049355    -0.728476 
C      -4.704208     0.017480     0.043550 
H      -5.418634     0.764488    -0.311959 
H      -5.113571    -0.986275    -0.083206 
H      -4.495855     0.211383     1.098996 
72
     -1725.724736     -1725.198135   3.29   2.71
C       0.075917     5.396973    -0.425668 
C       0.133463     3.994109    -0.382259 
C       1.133586     3.380310     0.388628 
C       2.016650     4.170340     1.086750 
C       1.934869     5.579798     1.035484 
C       0.968949     6.219124     0.279247 
C      -1.561075     4.594872    -1.716634 
C      -0.929380     3.496671    -1.218166 
H       1.216720     2.298213     0.419521 
H       2.803810     3.733299     1.690892 
H       0.894510     7.297205     0.225928 
H      -2.410715     4.656744    -2.383687 
N      -0.964674     5.753592    -1.246361 
C      -1.359686     7.103545    -1.568713 
H      -1.647719     7.656100    -0.667846 
H      -0.549065     7.643291    -2.070197 
H      -2.218629     7.070664    -2.240996 
O       2.877141     6.231958     1.780669 
C       2.856947     7.643877     1.776637 
H       3.675093     7.962917     2.423488 
H       3.017753     8.044371     0.767621 
H       1.910564     8.032505     2.173737 
N      -2.177710     0.046837    -0.219887 
C      -3.126345    -0.476294    -1.150407 
O      -3.838059     0.286714    -1.745655 
C      -3.178920    -1.975613    -1.343396 
H      -3.191011    -2.135379    -2.424613 
H      -4.165993    -2.286997    -0.987397 
C      -2.053762    -2.760801    -0.672583 
H      -2.287614    -3.826613    -0.647144 
H      -1.129149    -2.651765    -1.245371 
C      -1.814035    -2.243908     0.749225 
C      -0.415155    -2.641107     1.287150 
H      -0.454043    -2.794069     2.376290 
C      -1.284570     2.055618    -1.425184 
H      -0.377612     1.468385    -1.591150 
H      -1.936965     1.943429    -2.293571 
C      -1.992153     1.515878    -0.179054 
H      -1.408716     1.731317     0.713022 
H      -2.983665     1.958521    -0.073266 
C      -2.980020    -2.576756     1.697174 
H      -3.932661    -2.431088     1.177994 
H      -2.910034    -3.650009     1.910079 
C      -3.006991    -1.784038     3.004906 
H      -3.839279    -2.117623     3.630708 
H      -2.088529    -1.904846     3.584025 
H      -3.143150    -0.713413     2.820218 
O       0.033711    -3.809486     0.664650 
C       1.203277    -4.343497     1.259280 
H       1.927543    -3.536401     1.427329 
H       0.955524    -4.783961     2.236673 
C       1.806536    -5.390869     0.357037 
C       1.676223    -5.311571    -1.027471 
C       2.551150    -6.430545     0.907864 
C       2.286451    -6.254299    -1.845389 
H       1.094273    -4.506042    -1.458627 
C       3.163960    -7.373571     0.091083 
H       2.653090    -6.505398     1.987713 
C       3.034039    -7.286555    -1.289656 
H       2.177080    -6.182704    -2.923446 
H       3.742840    -8.177815     0.534726 
H       3.511035    -8.021702    -1.930261 
C      -1.526430    -0.760505     0.617572 
O      -0.606637    -0.303338     1.425203 
C       0.343420    -1.363548     0.965287 
C       1.137739    -0.988645    -0.138990 
O       1.219234     0.129799    -0.644013 
O       1.883656    -2.034807    -0.607933 
C       2.729291    -1.736391    -1.712608 
H       2.147873    -1.388989    -2.570931 
H       3.458128    -0.964977    -1.450561 
H       3.238101    -2.671038    -1.954718 
72
     -1725.726602     -1725.197970   2.12   2.82
C      -2.700158    -1.028647     1.403586 
C      -2.189317    -2.346058     1.436406 
C      -2.843283    -3.328519     0.690361 
C      -3.945350    -2.994608    -0.077031 
C      -4.417925    -1.666491    -0.109407 
C      -3.801935    -0.669734     0.630350 
C      -0.925983    -1.048674     2.759223 
C      -1.038586    -2.329471     2.307740 
H      -2.485640    -4.352819     0.693196 
H      -4.440864    -3.767792    -0.649940 
H      -4.189911     0.341330     0.588528 
H      -0.178488    -0.617862     3.411536 
N      -1.923365    -0.254425     2.227212 
C      -2.060337     1.173508     2.412886 
H      -3.103323     1.428583     2.620805 
H      -1.456228     1.473501     3.269493 
H      -1.714162     1.726784     1.534123 
O      -5.494339    -1.268786    -0.850467 
C      -6.181087    -2.244907    -1.609400 
H      -5.528402    -2.698637    -2.365160 
H      -6.596401    -3.032093    -0.968482 
H      -6.996757    -1.720040    -2.108110 
N       1.061645    -2.573020     0.475480 
C       0.226592    -3.236469    -0.469682 
O       0.003447    -4.407200    -0.313482 
C      -0.324163    -2.423091    -1.617775 
H      -1.384393    -2.679463    -1.674869 
H       0.138150    -2.823444    -2.525707 
C      -0.131182    -0.913198    -1.482123 
H      -0.376854    -0.422435    -2.426919 
H      -0.817178    -0.523932    -0.726358 
C       1.304311    -0.593984    -1.061534 
C       1.467115     0.838670    -0.429744 
H       2.357972     1.343286    -0.832982 
C      -0.061861    -3.448587     2.530664 
H      -0.506589    -4.392204     2.211454 
H       0.180320    -3.550147     3.592882 
C       1.272070    -3.228598     1.782595 
H       1.924692    -2.566374     2.347740 
H       1.780617    -4.177797     1.607586 
C       2.324500    -0.905740    -2.172470 
H       2.080789    -1.870557    -2.628960 
H       2.175831    -0.154971    -2.958461 
C       3.794463    -0.919519    -1.749818 
H       3.998418    -1.723233    -1.036484 
H       4.432292    -1.080842    -2.623702 
H       4.099028     0.019872    -1.282692 
O       0.341187     1.669784    -0.620493 
C       0.364971     2.409588    -1.827556 
H       0.494150     1.745282    -2.694240 
H      -0.631294     2.856864    -1.906701 
C       1.421130     3.495647    -1.865753 
C       1.772781     4.181190    -0.705196 
C       2.024979     3.843122    -3.070824 
C       2.713004     5.202864    -0.754714 
H       1.315895     3.897283     0.236071 
C       2.962085     4.869079    -3.121896 
H       1.761859     3.309097    -3.980649 
C       3.307522     5.552377    -1.962479 
H       2.983259     5.730024     0.155228 
H       3.423406     5.132258    -4.068658 
H       4.039963     6.352592    -1.998644 
C       1.555195    -1.360441     0.221080 
O       2.437062    -0.798526     1.007942 
C       1.568281     0.419442     1.005031 
C       1.580216     1.089002     2.257316 
O       1.904143     0.605236     3.333836 
O       1.142105     2.381999     2.157817 
C       1.174475     3.115585     3.377352 
H       0.553360     2.640430     4.141403 
H       2.195117     3.191069     3.761979 
H       0.786956     4.107995     3.140660 
72
     -1725.724724     -1725.197882   3.30   2.87
C      -3.443880    -1.347940     1.167059 
C      -2.559412    -2.175037     1.882344 
C      -2.897525    -3.527033     2.046458 
C      -4.065759    -4.003821     1.504926 
C      -4.934920    -3.153673     0.783768 
C      -4.641085    -1.814537     0.603052 
C      -1.713885    -0.101687     1.827202 
C      -1.446991    -1.354630     2.292863 
H      -2.241479    -4.200067     2.588827 
H      -4.351824    -5.044197     1.610520 
H      -5.296289    -1.148006     0.057696 
H      -1.125444     0.799143     1.923105 
N      -2.913429    -0.082103     1.139179 
C      -3.519518     1.080299     0.533174 
H      -4.462178     1.340322     1.026235 
H      -2.832998     1.922833     0.628454 
H      -3.712425     0.911092    -0.531149 
O      -6.055074    -3.764152     0.300553 
C      -6.971738    -2.976473    -0.432511 
H      -7.378970    -2.162381     0.180072 
H      -6.507129    -2.556284    -1.333323 
H      -7.781920    -3.645147    -0.725126 
N       0.732326    -2.209404     0.716650 
C      -0.122051    -2.845859    -0.245086 
O      -0.504436    -3.963407    -0.044010 
C      -0.500230    -2.051961    -1.475521 
H      -1.594249    -2.075188    -1.500173 
H      -0.167888    -2.645674    -2.332189 
C       0.017574    -0.614154    -1.521914 
H      -0.043823    -0.227445    -2.542187 
H      -0.609982     0.023456    -0.896578 
C       1.455219    -0.529604    -1.002138 
C       1.839157     0.927129    -0.554166 
H       2.874203     1.162920    -0.843785 
C      -0.185337    -1.779264     2.986125 
H      -0.409757    -2.327576     3.907622 
H       0.384659    -0.889842     3.267529 
C       0.698331    -2.691064     2.111577 
H       1.720562    -2.717501     2.490291 
H       0.312008    -3.706702     2.059744 
C       2.465809    -1.211009    -1.941161 
H       2.059105    -2.172719    -2.273003 
H       2.540707    -0.590004    -2.841737 
C       3.860046    -1.439598    -1.355607 
H       3.828361    -2.128069    -0.505807 
H       4.518562    -1.876756    -2.111521 
H       4.319717    -0.510381    -1.010694 
O       0.976039     1.915724    -1.068436 
C       1.380313     2.448246    -2.315713 
H       1.517703     1.649272    -3.059426 
H       0.537097     3.061468    -2.649848 
C       2.635435     3.294828    -2.245745 
C       2.919158     4.045602    -1.106921 
C       3.499287     3.357717    -3.335570 
C       4.050926     4.850768    -1.065622 
H       2.254973     3.983967    -0.251796 
C       4.629113     4.167056    -3.296151 
H       3.289053     2.770614    -4.226245 
C       4.906837     4.916777    -2.159773 
H       4.265977     5.430993    -0.173412 
H       5.293110     4.209466    -4.153947 
H       5.788858     5.548452    -2.125184 
C       1.430726    -1.128342     0.388265 
O       2.257319    -0.576916     1.237174 
C       1.632372     0.748632     0.919106 
C       1.470560     1.578714     2.054358 
O       1.503019     1.220241     3.225645 
O       1.213230     2.878659     1.712030 
C       1.017655     3.755753     2.816958 
H       0.158822     3.443787     3.417420 
H       1.900578     3.779675     3.460945 
H       0.837126     4.741999     2.386252 
72
     -1725.724547     -1725.197719   3.41   2.97
C       0.970542     2.730891     2.375110 
C       0.753340     3.432826     1.168671 
C       1.678302     4.408385     0.795263 
C       2.776964     4.662037     1.595457 
C       2.972200     3.940405     2.790396 
C       2.071870     2.967517     3.194732 
C      -0.913555     1.963706     1.455571 
C      -0.464000     2.914981     0.590256 
H       1.550703     4.968099    -0.125670 
H       3.487597     5.418404     1.289167 
H       2.246160     2.431599     4.120711 
H      -1.793112     1.341014     1.382056 
N      -0.057760     1.835087     2.534506 
C      -0.235608     0.944208     3.656831 
H      -1.112111     0.320519     3.474666 
H       0.634552     0.291331     3.779375 
H      -0.389907     1.502844     4.586032 
O       4.036043     4.138172     3.623589 
C       4.990388     5.119543     3.267679 
H       5.472184     4.882796     2.311222 
H       4.537730     6.116838     3.208758 
H       5.740457     5.111588     4.059482 
N       0.355904     1.441963    -1.672131 
C       1.711703     1.353801    -1.209575 
O       2.472977     2.246913    -1.453262 
C       2.105369     0.128984    -0.418781 
H       2.425169     0.520153     0.553005 
H       3.010567    -0.253929    -0.892960 
C       1.023411    -0.940932    -0.234702 
H       1.479970    -1.912889    -0.033243 
H       0.423664    -0.688094     0.640796 
C       0.070023    -1.045069    -1.429268 
C      -1.333480    -1.610205    -1.020369 
H      -1.684884    -2.316160    -1.787978 
C      -1.075015     3.247168    -0.739713 
H      -1.220357     4.327904    -0.845258 
H      -2.060618     2.779134    -0.807161 
C      -0.210122     2.780639    -1.928064 
H      -0.801662     2.733919    -2.842862 
H       0.645634     3.432215    -2.091170 
C       0.604919    -1.782628    -2.670048 
H       0.688058    -2.840686    -2.392475 
H      -0.179256    -1.731330    -3.434315 
C       1.922337    -1.303917    -3.278584 
H       1.908767    -0.233759    -3.510752 
H       2.775852    -1.502578    -2.626462 
H       2.104442    -1.834594    -4.217411 
O      -1.277496    -2.268508     0.225231 
C      -2.108335    -3.416706     0.309416 
H      -2.123584    -3.679221     1.371333 
H      -3.131971    -3.168046     0.010351 
C      -1.580552    -4.573972    -0.512724 
C      -2.405531    -5.262381    -1.395994 
C      -0.245208    -4.960586    -0.395900 
C      -1.910877    -6.324163    -2.147948 
H      -3.444639    -4.962503    -1.502944 
C       0.253085    -6.015707    -1.147070 
H       0.403827    -4.426036     0.291634 
C      -0.580760    -6.702377    -2.025741 
H      -2.567533    -6.852552    -2.832076 
H       1.293941    -6.307551    -1.045906 
H      -0.192220    -7.529087    -2.611901 
C      -0.406283     0.357615    -1.741536 
O      -1.622142     0.417630    -2.223087 
C      -2.087501    -0.312080    -0.997284 
C      -3.321930     0.148563    -0.486127 
O      -3.872055     1.214630    -0.733327 
O      -3.859720    -0.745227     0.407430 
C      -5.096661    -0.336772     0.983130 
H      -5.391287    -1.140714     1.659816 
H      -4.981468     0.599131     1.536619 
H      -5.859452    -0.192187     0.213491 
72
     -1725.727355     -1725.197393   1.65   3.18
C      -1.747892     3.128682    -1.918865 
C      -1.257901     1.843680    -2.209242 
C      -1.767502     0.756328    -1.484168 
C      -2.693227     0.976032    -0.492678 
C      -3.154039     2.280235    -0.204080 
C      -2.696989     3.375360    -0.914778 
C      -0.247759     3.311735    -3.559406 
C      -0.283369     1.983375    -3.260007 
H      -1.432088    -0.250329    -1.694021 
H      -3.090285     0.153282     0.091402 
H      -3.043564     4.380372    -0.713370 
H       0.365172     3.840643    -4.276871 
N      -1.127037     4.016346    -2.759929 
C      -1.337600     5.445129    -2.786128 
H      -0.703336     5.881375    -3.559235 
H      -2.380728     5.684284    -3.017739 
H      -1.073271     5.899140    -1.825520 
O      -4.067798     2.350521     0.807131 
C      -4.583702     3.623034     1.142658 
H      -5.288170     3.460147     1.958961 
H      -3.789546     4.300515     1.480503 
H      -5.111852     4.076491     0.294601 
N       1.909576     0.749307    -1.640774 
C       1.699465     1.887546    -0.777162 
O       1.976666     2.985351    -1.166593 
C       1.116315     1.537553     0.565109 
H       0.084733     1.210432     0.405801 
H       1.104325     2.450672     1.160580 
C       1.918391     0.423366     1.242661 
H       2.917208     0.807098     1.477929 
H       1.447100     0.146847     2.184479 
C       2.061896    -0.809625     0.346906 
C       0.916197    -1.875245     0.377409 
H       1.248921    -2.795010     0.872711 
C       0.631617     0.915747    -3.785321 
H       0.809370     1.054585    -4.856721 
H       0.184834    -0.075804    -3.663183 
C       2.006712     0.944890    -3.101672 
H       2.650706     0.156603    -3.493263 
H       2.494279     1.909782    -3.240560 
C       3.438095    -1.481594     0.543184 
H       3.514825    -2.332326    -0.140774 
H       4.214982    -0.764801     0.249137 
C       3.680158    -1.948435     1.980565 
H       4.660612    -2.426891     2.058172 
H       3.660785    -1.117000     2.690255 
H       2.931368    -2.675218     2.306316 
O      -0.203561    -1.351240     1.078735 
C      -0.870558    -2.289693     1.914471 
H      -1.773518    -1.772985     2.251402 
H      -1.175543    -3.163295     1.330866 
C      -0.026765    -2.711703     3.097938 
C       0.397407    -1.764145     4.029494 
C       0.373644    -4.034614     3.257351 
C       1.213416    -2.129309     5.090695 
H       0.079156    -0.731192     3.919892 
C       1.188570    -4.407855     4.322392 
H       0.051901    -4.781040     2.535955 
C       1.613118    -3.454934     5.238425 
H       1.536209    -1.381261     5.808144 
H       1.492560    -5.444115     4.432478 
H       2.249890    -3.742376     6.068998 
C       1.896419    -0.466231    -1.119856 
O       1.850184    -1.536794    -1.868888 
C       0.652971    -1.999726    -1.097192 
C      -0.404587    -2.473253    -1.888801 
O      -0.520832    -2.388759    -3.107749 
O      -1.382641    -3.059206    -1.114225 
C      -2.527820    -3.492210    -1.839205 
H      -3.008965    -2.653214    -2.349939 
H      -2.259902    -4.244300    -2.585643 
H      -3.207399    -3.920751    -1.100150 
72
     -1725.725857     -1725.197374   2.59   3.19
C      -3.312170    -1.560499     0.973377 
C      -2.455538    -2.592549     1.396672 
C      -2.891929    -3.918867     1.261578 
C      -4.130694    -4.173090     0.726271 
C      -4.974219    -3.118267     0.309081 
C      -4.581955    -1.797303     0.424819 
C      -1.440902    -0.628619     1.756669 
C      -1.254025    -1.972436     1.895217 
H      -2.257217    -4.744285     1.567652 
H      -4.494552    -5.187090     0.604710 
H      -5.215947    -0.977252     0.114138 
H      -0.773829     0.184288     2.003871 
N      -2.675626    -0.364429     1.193022 
C      -3.200250     0.949564     0.902407 
H      -2.400105     1.680920     1.028811 
H      -3.553509     1.003361    -0.132094 
H      -4.027368     1.210556     1.571460 
O      -6.174136    -3.518834    -0.202598 
C      -7.069863    -2.518312    -0.643211 
H      -7.952652    -3.040992    -1.012975 
H      -7.362233    -1.852813     0.178710 
H      -6.635986    -1.922654    -1.456157 
N       0.805232    -2.486809     0.026692 
C      -0.107502    -2.800750    -1.035214 
O      -0.629454    -3.878715    -1.066081 
C      -0.335944    -1.741424    -2.089380 
H      -1.405794    -1.773356    -2.307443 
H       0.171099    -2.093788    -2.994252 
C       0.113793    -0.337935    -1.694840 
H       0.041116     0.329734    -2.555124 
H      -0.552225     0.057184    -0.925158 
C       1.533155    -0.369625    -1.132607 
C       1.900186     0.882335    -0.247947 
H       2.870004     1.300877    -0.556402 
C       0.001564    -2.640650     2.374717 
H      -0.226911    -3.406483     3.123964 
H       0.645414    -1.900894     2.857433 
C       0.785765    -3.329725     1.240301 
H       1.817021    -3.517522     1.540464 
H       0.325872    -4.267359     0.937226 
C       2.627866    -0.742808    -2.150479 
H       3.567783    -0.859473    -1.599347 
H       2.402569    -1.726411    -2.578782 
C       2.825554     0.270487    -3.278080 
H       1.916856     0.405454    -3.872637 
H       3.130597     1.247014    -2.893325 
H       3.611961    -0.073480    -3.955821 
O       0.916163     1.896945    -0.275261 
C       1.066488     2.862329    -1.299773 
H       1.038948     2.393899    -2.292759 
H       0.178095     3.496863    -1.216255 
C       2.313875     3.714382    -1.179341 
C       2.821333     4.058781     0.071800 
C       2.944618     4.192503    -2.324705 
C       3.944279     4.870974     0.169770 
H       2.339221     3.674661     0.964078 
C       4.065362     5.009710    -2.226682 
H       2.556550     3.927259    -3.305243 
C       4.567691     5.350897    -0.977219 
H       4.335346     5.131848     1.148490 
H       4.545736     5.378335    -3.127676 
H       5.443322     5.987174    -0.896655 
C       1.542336    -1.382445    -0.006478 
O       2.454692    -1.154037     0.896710 
C       1.890316     0.220305     1.094202 
C       1.895756     0.632999     2.446671 
O       2.049701    -0.086829     3.426437 
O       1.658872     1.976671     2.577908 
C       1.617828     2.441994     3.923262 
H       1.430802     3.515509     3.862159 
H       0.816731     1.951389     4.482749 
H       2.565061     2.251615     4.434506 
72
     -1725.726016     -1725.197077   2.49   3.38
C      -4.779138    -0.168434     0.279087 
C      -3.629152    -0.808917    -0.232292 
C      -2.906424    -0.165465    -1.233718 
C      -3.299701     1.083268    -1.683991 
C      -4.439923     1.707859    -1.140263 
C      -5.195063     1.086533    -0.158312 
C      -4.540929    -2.120149     1.330927 
C      -3.490101    -2.059475     0.469733 
H      -2.037959    -0.641173    -1.674972 
H      -2.729218     1.566890    -2.466641 
H      -6.071039     1.587632     0.236929 
H      -4.788702    -2.882264     2.057721 
N      -5.330343    -0.991316     1.226111 
C      -6.510407    -0.700593     2.007598 
H      -6.714167    -1.544383     2.668419 
H      -6.363635     0.194225     2.621026 
H      -7.379572    -0.548301     1.359703 
O      -4.882912     2.938657    -1.532537 
C      -4.169703     3.615683    -2.548872 
H      -3.136262     3.822878    -2.245026 
H      -4.166341     3.045211    -3.485627 
H      -4.692512     4.559720    -2.706143 
N      -0.711408    -1.246848     1.233994 
C      -1.290817    -0.138247     1.955227 
O      -2.212938    -0.336962     2.692272 
C      -0.665298     1.214825     1.728565 
H      -0.842310     1.786770     2.640928 
H      -1.251575     1.696930     0.937780 
C       0.820498     1.146531     1.377829 
H       1.215720     2.142693     1.170338 
H       1.384656     0.751465     2.227245 
C       1.035817     0.235177     0.167201 
C       2.490223    -0.300984     0.030309 
H       2.787243    -0.294612    -1.023834 
C      -2.310875    -2.985306     0.433347 
H      -1.858369    -3.002692    -0.564280 
H      -2.620861    -4.011866     0.652043 
C      -1.249563    -2.606496     1.473538 
H      -1.683218    -2.585635     2.471968 
H      -0.399842    -3.284779     1.472765 
C       0.523044     0.900921    -1.128301 
H      -0.502145     1.246921    -0.975722 
H       1.136738     1.798929    -1.265996 
C       0.582046     0.056139    -2.403624 
H       0.085499     0.584662    -3.223082 
H       1.608674    -0.137154    -2.721670 
H       0.091457    -0.914017    -2.284449 
O       3.369293     0.517722     0.757623 
C       4.729553     0.312391     0.407365 
H       5.305061     0.839195     1.174092 
H       4.975459    -0.752725     0.471566 
C       5.059538     0.849942    -0.969211 
C       5.755764     0.073632    -1.889339 
C       4.658004     2.134496    -1.335610 
C       6.058003     0.571994    -3.153292 
H       6.057005    -0.934721    -1.618552 
C       4.954156     2.633764    -2.596190 
H       4.106827     2.741729    -0.623341 
C       5.658290     1.853145    -3.508985 
H       6.603322    -0.045351    -3.860468 
H       4.636772     3.635640    -2.868947 
H       5.891682     2.243937    -4.494358 
C       0.363063    -1.087297     0.474671 
O       0.978535    -2.118142    -0.012011 
C       2.350561    -1.733628     0.531624 
C       2.494133    -2.197463     1.866990 
O       1.729932    -2.941370     2.479509 
O       3.658918    -1.759396     2.437706 
C       3.873806    -2.203286     3.771826 
H       4.830826    -1.777025     4.077847 
H       3.077481    -1.857072     4.436466 
H       3.914822    -3.294568     3.819771 
72
     -1725.723921     -1725.196915   3.80   3.48
C      -3.527161    -1.021409     1.091172 
C      -2.691596    -1.829252     1.893891 
C      -3.071682    -3.152263     2.121730 
C      -4.234754    -3.644434     1.558979 
C      -5.043765    -2.817966     0.753357 
C      -4.700737    -1.497280     0.510875 
C      -1.790007     0.216731     1.749725 
C      -1.573082    -1.010753     2.298880 
H      -2.457752    -3.807304     2.731329 
H      -4.512443    -4.674341     1.740882 
H      -5.345260    -0.884182    -0.108578 
H      -1.180409     1.106174     1.815732 
N      -2.960881     0.226918     1.013240 
C      -3.513989     1.362655     0.313865 
H      -4.468157     1.673016     0.752664 
H      -2.810894     2.194122     0.382658 
H      -3.672555     1.129582    -0.744015 
O      -6.200612    -3.241454     0.164121 
C      -6.607164    -4.579742     0.374786 
H      -6.786679    -4.782084     1.437698 
H      -7.540203    -4.701570    -0.176759 
H      -5.864957    -5.290010    -0.009417 
N       0.616290    -2.046869     0.853691 
C      -0.222906    -2.736748    -0.084341 
O      -0.628367    -3.832042     0.183699 
C      -0.556682    -2.024554    -1.375981 
H      -1.650514    -2.020634    -1.420923 
H      -0.225302    -2.687210    -2.180841 
C       0.001318    -0.607679    -1.514464 
H      -0.025430    -0.296002    -2.561544 
H      -0.623066     0.090128    -0.953525 
C       1.428172    -0.521684    -0.965626 
C       1.841917     0.954051    -0.617977 
H       2.890107     1.140120    -0.896306 
C      -0.347076    -1.423434     3.059634 
H      -0.615279    -1.898100     4.009920 
H       0.242578    -0.533565     3.295517 
C       0.532275    -2.421294     2.278934 
H       1.543073    -2.446964     2.687253 
H       0.118800    -3.427441     2.291564 
C       2.441241    -1.298934    -1.823935 
H       2.015496    -2.272055    -2.092702 
H       2.555304    -0.750600    -2.766603 
C       3.813928    -1.519078    -1.186524 
H       3.742176    -2.139692    -0.288275 
H       4.477847    -2.029830    -1.889743 
H       4.291323    -0.578770    -0.900813 
O       1.020103     1.923496    -1.227577 
C       1.469167     2.348435    -2.500527 
H       1.601679     1.491716    -3.177874 
H       0.651961     2.956485    -2.901972 
C       2.745751     3.164409    -2.461994 
C       3.023170     3.992106    -1.376162 
C       3.636989     3.121175    -3.530516 
C       4.175961     4.767904    -1.366262 
H       2.337112     4.013423    -0.536489 
C       4.788007     3.901044    -3.522873 
H       3.431687     2.473626    -4.379468 
C       5.059457     4.727647    -2.439539 
H       4.385840     5.408606    -0.515145 
H       5.473366     3.860364    -4.363785 
H       5.957928     5.336602    -2.429761 
C       1.352696    -1.011900     0.464833 
O       2.174369    -0.420504     1.291634 
C       1.593279     0.892216     0.858503 
C       1.429741     1.810620     1.923622 
O       1.424192     1.541499     3.119024 
O       1.219004     3.087299     1.477932 
C       1.024944     4.051280     2.508248 
H       0.884446     5.006601     1.999916 
H       0.143466     3.810675     3.108739 
H       1.893202     4.098906     3.170586 
72
     -1725.725035     -1725.196787   3.11   3.56
C      -3.344211    -1.390745     0.953270 
C      -2.509555    -2.493278     1.241007 
C      -2.997002    -3.776050     0.991458 
C      -4.268710    -3.943918     0.475153 
C      -5.079976    -2.825118     0.197765 
C      -4.628399    -1.536333     0.433230 
C      -1.412970    -0.609068     1.757264 
C      -1.268934    -1.964340     1.754388 
H      -2.383502    -4.649017     1.190165 
H      -4.630863    -4.945277     0.282680 
H      -5.276660    -0.695913     0.213036 
H      -0.707727     0.151591     2.059319 
N      -2.655026    -0.246047     1.268769 
C      -3.144682     1.105586     1.131526 
H      -3.934088     1.323815     1.858964 
H      -2.315323     1.796930     1.291240 
H      -3.540608     1.269531     0.124508 
O      -6.343739    -2.920010    -0.312225 
C      -6.862636    -4.209000    -0.575169 
H      -6.259005    -4.740412    -1.321036 
H      -6.922344    -4.812005     0.339094 
H      -7.867582    -4.054749    -0.970113 
N       0.694862    -2.364090    -0.239028 
C      -0.268103    -2.547234    -1.286946 
O      -0.823759    -3.602679    -1.400500 
C      -0.506341    -1.383119    -2.221615 
H      -1.585456    -1.361092    -2.389895 
H      -0.053259    -1.660332    -3.179662 
C       0.008856    -0.039195    -1.715423 
H      -0.076338     0.710797    -2.503710 
H      -0.609955     0.299706    -0.882166 
C       1.448583    -0.169145    -1.223340 
C       1.896119     0.980156    -0.241767 
H       2.867230     1.394765    -0.551547 
C      -0.021516    -2.716390     2.115912 
H      -0.248651    -3.543023     2.798006 
H       0.666618    -2.047697     2.639561 
C       0.693581    -3.317989     0.889498 
H       1.728560    -3.565300     1.127104 
H       0.190229    -4.207860     0.519029 
C       2.485790    -0.477467    -2.320031 
H       3.443123    -0.676171    -1.825200 
H       2.207695    -1.407841    -2.828729 
C       2.672423     0.632458    -3.354700 
H       1.744980     0.852852    -3.892029 
H       3.028506     1.557290    -2.893631 
H       3.416673     0.330119    -4.096839 
O       0.949189     2.023836    -0.130437 
C       1.092288     3.077356    -1.065147 
H       1.007576     2.707105    -2.095650 
H       0.231346     3.728969    -0.883349 
C       2.373317     3.873805    -0.919855 
C       2.943384     4.080387     0.334669 
C       2.973596     4.439170    -2.041606 
C       4.097806     4.843297     0.459375 
H       2.484554     3.628082     1.207047 
C       4.126002     5.207127    -1.916278 
H       2.536610     4.281622    -3.024779 
C       4.690763     5.410838    -0.663502 
H       4.537548     4.996601     1.440194 
H       4.582166     5.644923    -2.798710 
H       5.591213     6.008269    -0.561836 
C       1.468212    -1.284935    -0.199369 
O       2.423558    -1.172661     0.680901 
C       1.916395     0.193584     1.031290 
C       1.991228     0.474648     2.415034 
O       2.158094    -0.340234     3.315071 
O       1.808600     1.806536     2.682516 
C       1.838855     2.142160     4.066201 
H       2.798464     1.873351     4.515380 
H       1.688539     3.222069     4.114687 
H       1.043797     1.626402     4.611505 
72
     -1725.725131     -1725.196452   3.05   3.77
C      -3.721541    -0.703192     0.173368 
C      -3.706867     0.704687     0.069358 
C      -4.622307     1.434899     0.826717 
C      -5.517740     0.777578     1.650716 
C      -5.512109    -0.629477     1.732028 
C      -4.614638    -1.386331     0.995615 
C      -2.114705    -0.129014    -1.267711 
C      -2.660929     1.052064    -0.862098 
H      -4.637173     2.519449     0.782000 
H      -6.219803     1.357943     2.234837 
H      -4.634889    -2.466961     1.078304 
H      -1.302955    -0.305706    -1.958390 
N      -2.735795    -1.196911    -0.645638 
C      -2.415827    -2.590845    -0.843216 
H      -1.497663    -2.658840    -1.429642 
H      -2.249021    -3.088081     0.117300 
H      -3.216114    -3.115263    -1.376427 
O      -6.368498    -1.340856     2.523861 
C      -7.307389    -0.625760     3.302718 
H      -7.880357    -1.376257     3.848767 
H      -6.810839     0.040825     4.018428 
H      -7.987798    -0.039292     2.673265 
N      -0.435063     2.288751     0.494927 
C      -0.817907     1.510717     1.652749 
O      -1.682907     1.911783     2.374574 
C      -0.056474     0.222722     1.803637 
H      -0.357816    -0.437448     0.984612 
H      -0.359987    -0.227878     2.748642 
C       1.451998     0.472114     1.741977 
H       1.740490     1.071113     2.612774 
H       1.990001    -0.472262     1.806063 
C       1.857651     1.220588     0.470926 
C       2.099512     0.373716    -0.823744 
H       3.164911     0.343018    -1.079988 
C      -2.200435     2.424187    -1.257302 
H      -3.054065     3.051005    -1.538571 
H      -1.551219     2.351000    -2.133438 
C      -1.451648     3.157684    -0.129617 
H      -0.948104     4.045515    -0.514187 
H      -2.119688     3.449066     0.679456 
C       3.044338     2.169546     0.737422 
H       3.280557     2.705214    -0.186871 
H       2.723467     2.922034     1.468570 
C       4.291301     1.446047     1.251262 
H       5.102529     2.163143     1.405738 
H       4.109582     0.942183     2.204383 
H       4.647342     0.692153     0.544445 
O       1.633048    -0.958476    -0.627797 
C       2.484122    -1.963849    -1.167722 
H       1.919382    -2.894660    -1.065347 
H       2.649791    -1.782009    -2.233786 
C       3.805326    -2.064255    -0.436782 
C       5.006149    -1.799234    -1.087890 
C       3.833792    -2.392825     0.918457 
C       6.215031    -1.851886    -0.399865 
H       4.996401    -1.541017    -2.143447 
C       5.035342    -2.442023     1.610780 
H       2.902434    -2.616448     1.431162 
C       6.231056    -2.168737     0.951728 
H       7.143217    -1.642114    -0.922176 
H       5.042551    -2.698616     2.665565 
H       7.171790    -2.208648     1.491496 
C       0.708261     2.022141    -0.110945 
O       1.012631     2.528433    -1.279894 
C       1.225366     1.132614    -1.780113 
C       0.733630     0.897383    -3.076462 
O       0.018477     1.629335    -3.750749 
O       1.141771    -0.333644    -3.545587 
C       0.673738    -0.651086    -4.851946 
H      -0.419137    -0.657585    -4.887369 
H       1.038728     0.072166    -5.585905 
H       1.063698    -1.645327    -5.078000 
72
     -1725.725091     -1725.196006   3.07   4.05
C       1.784780    -3.085297    -1.094214 
C       1.545710    -2.313484    -2.243710 
C       2.602055    -1.555154    -2.772467 
C       3.823039    -1.565827    -2.141000 
C       4.037155    -2.343275    -0.978940 
C       3.026960    -3.119630    -0.441398 
C      -0.344635    -3.380993    -1.697316 
C       0.168979    -2.520396    -2.619249 
H       2.466585    -0.971126    -3.677416 
H       4.661569    -0.996244    -2.526068 
H       3.175165    -3.726834     0.441723 
H      -1.344233    -3.785872    -1.615320 
N       0.620029    -3.734169    -0.771216 
C       0.436175    -4.635582     0.343999 
H       1.118544    -5.488564     0.274747 
H       0.603625    -4.122199     1.296546 
H      -0.587856    -5.011169     0.330245 
O       5.296325    -2.258220    -0.465158 
C       5.604739    -3.044132     0.670255 
H       4.984945    -2.765050     1.531191 
H       5.479088    -4.113584     0.461323 
H       6.650994    -2.843989     0.902330 
N      -0.459949     0.306258    -2.554010 
C       0.571787     1.054785    -3.196857 
O       0.726343     0.921022    -4.381101 
C       1.409847     1.954444    -2.327927 
H       1.745738     2.772822    -2.966636 
H       2.301254     1.375902    -2.059551 
C       0.671711     2.458450    -1.089278 
H       1.350205     3.042776    -0.463213 
H      -0.143988     3.121136    -1.386843 
C       0.089742     1.289125    -0.295836 
C      -1.098785     1.698125     0.656155 
H      -0.904507     1.352247     1.681303 
C      -0.540559    -1.871296    -3.772506 
H      -1.280707    -2.554038    -4.200594 
H       0.178088    -1.645904    -4.563512 
C      -1.288251    -0.586196    -3.390222 
H      -1.569058    -0.025126    -4.282138 
H      -2.182497    -0.803684    -2.809948 
C       1.190352     0.467608     0.413387 
H       1.933394     0.144793    -0.322276 
H       1.705455     1.159429     1.090862 
C       0.716665    -0.755311     1.200114 
H       0.190837    -1.466569     0.561575 
H       1.581232    -1.267440     1.632023 
H       0.046934    -0.482696     2.018830 
O      -1.317191     3.093146     0.687162 
C      -0.658658     3.763288     1.745067 
H       0.421401     3.550103     1.733083 
H      -0.783659     4.829103     1.526946 
C      -1.214570     3.452664     3.120330 
C      -0.379945     3.513979     4.233814 
C      -2.562298     3.142486     3.290036 
C      -0.882440     3.279278     5.508324 
H       0.674389     3.748687     4.105912 
C      -3.061284     2.902972     4.565444 
H      -3.212853     3.066313     2.424629 
C      -2.227861     2.974015     5.676229 
H      -0.222229     3.333256     6.368557 
H      -4.111484     2.657456     4.690544 
H      -2.624822     2.788043     6.669464 
C      -0.706846     0.432406    -1.253702 
O      -1.678928    -0.218810    -0.699253 
C      -2.227392     1.031783    -0.049979 
C      -3.623824     1.125245     0.046235 
O      -4.249251     1.927911     0.729565 
O      -4.268187     0.207866    -0.756755 
C      -5.685615     0.274972    -0.695388 
H      -6.046963     0.085154     0.319196 
H      -6.049063     1.256497    -1.012411 
H      -6.051444    -0.497683    -1.373732 
72
     -1725.728576     -1725.195955   0.88   4.08
C      -2.280145    -0.678852     1.746884 
C      -2.607101    -0.973647     0.402807 
C      -2.789325     0.086396    -0.484837 
C      -2.602890     1.389328    -0.059301 
C      -2.242032     1.654384     1.275828 
C      -2.084487     0.627973     2.193082 
C      -2.435678    -2.891066     1.538590 
C      -2.687013    -2.408028     0.290873 
H      -3.096565    -0.097593    -1.509902 
H      -2.745734     2.200576    -0.761486 
H      -1.815002     0.871423     3.214057 
H      -2.385605    -3.916792     1.878062 
N      -2.210401    -1.866606     2.430111 
C      -1.865461    -2.062249     3.821188 
H      -0.842751    -2.436440     3.911710 
H      -1.957943    -1.115191     4.355358 
H      -2.557658    -2.775041     4.278283 
O      -2.043538     2.917090     1.761681 
C      -2.063902     3.993610     0.842409 
H      -3.051807     4.108807     0.380764 
H      -1.833688     4.889427     1.420047 
H      -1.303214     3.865357     0.063477 
N      -0.974303    -2.291698    -2.213705 
C      -1.600190    -1.518316    -3.233565 
O      -2.603344    -1.939082    -3.747177 
C      -0.964167    -0.205296    -3.629999 
H      -1.788193     0.503529    -3.740508 
H      -0.572337    -0.362272    -4.640494 
C       0.104667     0.316537    -2.672515 
H       0.663948     1.135842    -3.129055 
H      -0.365820     0.711778    -1.771233 
C       1.055838    -0.811750    -2.276336 
C       1.841908    -0.501802    -0.966449 
H       2.897847    -0.799519    -1.072121 
C      -2.939995    -3.211899    -0.948596 
H      -3.671338    -2.713853    -1.589646 
H      -3.367799    -4.183032    -0.679481 
C      -1.673989    -3.512079    -1.758915 
H      -0.960500    -4.073974    -1.158886 
H      -1.923269    -4.083528    -2.654627 
C       1.953270    -1.248931    -3.449667 
H       1.358519    -1.301060    -4.367544 
H       2.675414    -0.437752    -3.603120 
C       2.692728    -2.575411    -3.267344 
H       1.996646    -3.418385    -3.218252 
H       3.363616    -2.749830    -4.113226 
H       3.293246    -2.592986    -2.354959 
O       1.777853     0.874419    -0.668922 
C       2.941799     1.407780    -0.059378 
H       3.352674     0.682222     0.652358 
H       3.707271     1.606765    -0.824011 
C       2.598136     2.682588     0.669387 
C       1.440104     2.771247     1.441892 
C       3.467898     3.767886     0.625332 
C       1.172706     3.922001     2.171424 
H       0.753485     1.933435     1.472310 
C       3.197928     4.923495     1.351062 
H       4.366932     3.710751     0.016942 
C       2.050582     5.000698     2.129866 
H       0.273333     3.968860     2.777168 
H       3.886431     5.761845     1.308687 
H       1.839279     5.898692     2.702327 
C       0.212721    -1.935764    -1.713487 
O       0.816440    -2.648456    -0.800323 
C       1.040531    -1.370908    -0.033357 
C       1.088489    -1.565241     1.373420 
O       0.715786    -2.536567     2.013412 
O       1.624803    -0.459274     1.979879 
C       1.661622    -0.486371     3.399884 
H       2.184411    -1.372828     3.767611 
H       2.189663     0.419904     3.701668 
H       0.648650    -0.475269     3.812573 
72
     -1725.720979     -1725.195310   5.65   4.49
C      -4.825503     0.929099    -2.700960 
C      -3.760842     0.726337    -1.797559 
C      -2.763033     1.700108    -1.709917 
C      -2.841367     2.831821    -2.503779 
C      -3.917069     3.009857    -3.395044 
C      -4.922630     2.062248    -3.505969 
C      -5.148040    -1.030091    -1.676508 
C      -3.993278    -0.542223    -1.148627 
H      -1.920109     1.580606    -1.037069 
H      -2.059693     3.576355    -2.430729 
H      -5.737118     2.225461    -4.202187 
H      -5.664504    -1.955961    -1.459201 
N      -5.665968    -0.153647    -2.614330 
C      -6.877103    -0.336709    -3.377618 
H      -7.333870    -1.287549    -3.097966 
H      -7.594506     0.465527    -3.174682 
H      -6.665310    -0.356503    -4.451992 
O      -4.050391     4.104791    -4.203490 
C      -3.053851     5.105272    -4.138910 
H      -2.069765     4.711285    -4.421117 
H      -3.351336     5.874019    -4.853342 
H      -2.992490     5.547601    -3.136999 
N      -0.773106    -1.934308     0.308585 
C      -0.428296    -3.320199     0.429899 
O      -1.109037    -4.138937    -0.122873 
C       0.803605    -3.672115     1.231143 
H       1.405982    -4.301653     0.570107 
H       0.461471    -4.332278     2.029832 
C       1.625055    -2.490575     1.752632 
H       2.284736    -2.807507     2.563093 
H       2.271269    -2.122327     0.952353 
C       0.748590    -1.323147     2.213437 
C       1.499370     0.045111     2.169065 
H       1.186997     0.656521     3.030295 
C      -3.109817    -1.181151    -0.121849 
H      -3.573111    -2.091995     0.270872 
H      -2.972373    -0.493826     0.721068 
C      -1.746653    -1.519226    -0.727453 
H      -1.828042    -2.348663    -1.426528 
H      -1.301305    -0.667188    -1.237057 
C       0.036258    -1.496119     3.569974 
H       0.821163    -1.488777     4.335701 
H      -0.553198    -0.586707     3.733378 
C      -0.868623    -2.711108     3.775990 
H      -1.605539    -2.824795     2.973801 
H      -0.303686    -3.642048     3.857946 
H      -1.426856    -2.592667     4.708713 
O       2.881834    -0.156301     2.217266 
C       3.611930     1.039384     2.430144 
H       3.255864     1.812000     1.737266 
H       3.442532     1.400429     3.455667 
C       5.081424     0.784771     2.206824 
C       5.513627    -0.132634     1.251476 
C       6.028160     1.506377     2.928534 
C       6.870578    -0.319978     1.021249 
H       4.778721    -0.698351     0.691342 
C       7.386680     1.322616     2.697281 
H       5.701321     2.219061     3.681688 
C       7.811352     0.408553     1.741052 
H       7.195713    -1.038866     0.275075 
H       8.113642     1.893649     3.266667 
H       8.871407     0.262060     1.558814 
C      -0.227643    -1.022641     1.099595 
O      -0.507431     0.238619     0.954722 
C       0.949162     0.641494     0.881553 
C       1.440737     0.552490    -0.442840 
O       0.778953     0.368138    -1.463976 
O       2.793413     0.747053    -0.502574 
C       3.356153     0.699353    -1.808784 
H       4.425572     0.872497    -1.676687 
H       3.185563    -0.274232    -2.276312 
H       2.923658     1.472438    -2.449167 
72
     -1725.722573     -1725.195056   4.65   4.65
C      -0.306411    -1.219211     3.556008 
C      -1.659963    -1.143979     3.180483 
C      -2.586701    -0.670686     4.122094 
C      -2.152684    -0.290228     5.368018 
C      -0.785509    -0.368043     5.718765 
C       0.159144    -0.833328     4.822327 
C      -0.480778    -1.943993     1.452399 
C      -1.750485    -1.609465     1.818722 
H      -3.640152    -0.595040     3.873013 
H      -2.843803     0.083744     6.114892 
H       1.209082    -0.903989     5.074474 
H      -0.123665    -2.328735     0.508525 
N       0.404224    -1.708815     2.488506 
C       1.823119    -1.976987     2.463052 
H       2.097124    -2.317450     1.463508 
H       2.397365    -1.072792     2.689375 
H       2.092929    -2.756456     3.183429 
O      -0.499810     0.046238     6.986587 
C       0.848067    -0.004401     7.409541 
H       0.859322     0.365057     8.435452 
H       1.234694    -1.031047     7.391230 
H       1.486665     0.635831     6.788125 
N      -2.326633     0.698329     0.307240 
C      -1.911084     1.590988     1.351900 
O      -2.697507     1.909761     2.197837 
C      -0.481379     2.075895     1.331594 
H      -0.054586     1.714079     2.273224 
H      -0.533200     3.161649     1.430056 
C       0.378430     1.620852     0.146767 
H       1.203003     2.323337    -0.002772 
H       0.825810     0.654180     0.383512 
C      -0.417986     1.445070    -1.149602 
C       0.248132     0.396852    -2.126892 
H       0.218378     0.780414    -3.159086 
C      -2.953729    -1.626410     0.921352 
H      -3.785346    -2.163134     1.390962 
H      -2.704643    -2.156913    -0.001436 
C      -3.458493    -0.211991     0.571487 
H      -4.093853    -0.235219    -0.314354 
H      -4.010002     0.240620     1.392683 
C      -0.800444     2.730578    -1.906584 
H       0.128799     3.164736    -2.295537 
H      -1.379623     2.423354    -2.784980 
C      -1.579854     3.804241    -1.147550 
H      -1.881698     4.593986    -1.841149 
H      -2.493608     3.409726    -0.691373 
H      -0.981083     4.275018    -0.364605 
O       1.576181     0.069046    -1.789286 
C       2.550222     0.914711    -2.373011 
H       2.354428     1.969050    -2.128155 
H       3.492973     0.638689    -1.889661 
C       2.677859     0.760195    -3.875010 
C       2.474465    -0.479449    -4.477602 
C       3.034554     1.850530    -4.663361 
C       2.632103    -0.622325    -5.850658 
H       2.178528    -1.324511    -3.865630 
C       3.197103     1.706570    -6.036709 
H       3.188239     2.823247    -4.202363 
C       2.996956     0.467897    -6.633390 
H       2.469341    -1.591247    -6.312867 
H       3.478437     2.564111    -6.640007 
H       3.121559     0.352454    -7.705455 
C      -1.632916     0.606268    -0.818793 
O      -2.042009    -0.150763    -1.800777 
C      -0.669004    -0.755821    -1.866763 
C      -0.684977    -2.145719    -2.130278 
O      -1.644933    -2.898065    -2.010504 
O       0.546916    -2.613871    -2.504137 
C       0.596393    -4.013722    -2.760932 
H       1.625427    -4.226798    -3.055385 
H       0.334377    -4.585832    -1.866722 
H      -0.091794    -4.290863    -3.563759 
72
     -1725.722573     -1725.195046   4.65   4.65
C      -3.535338    -0.852951     1.000560 
C      -2.829057    -1.240787     2.153611 
C      -3.223795    -2.415353     2.812441 
C      -4.271481    -3.151267     2.316224 
C      -4.960637    -2.744362     1.151003 
C      -4.606785    -1.591081     0.474843 
C      -1.943063     0.664601     1.378179 
C      -1.802531    -0.252949     2.376485 
H      -2.704934    -2.751470     3.704255 
H      -4.596429    -4.065278     2.800286 
H      -5.125422    -1.261679    -0.415915 
H      -1.364328     1.556141     1.186652 
N      -2.981551     0.313716     0.535277 
C      -3.432065     1.071423    -0.608726 
H      -2.763918     1.922080    -0.750323 
H      -3.410515     0.460505    -1.516935 
H      -4.449700     1.447822    -0.460149 
O      -5.975761    -3.573261     0.772746 
C      -6.712084    -3.229818    -0.384016 
H      -7.214008    -2.261365    -0.265742 
H      -6.069702    -3.200327    -1.273025 
H      -7.463190    -4.010310    -0.509687 
N       0.611724    -1.575138     1.771757 
C      -0.045661    -2.627744     1.050156 
O      -0.455735    -3.581338     1.648638 
C      -0.195538    -2.465741    -0.443462 
H      -1.277546    -2.470096    -0.613639 
H       0.175116    -3.393546    -0.882821 
C       0.436588    -1.213815    -1.062513 
H       0.643427    -1.389566    -2.121804 
H      -0.280193    -0.392615    -1.012486 
C       1.704498    -0.751975    -0.338051 
C       1.962133     0.798159    -0.506206 
H       3.030720     0.977635    -0.704535 
C      -0.715077    -0.261194     3.411244 
H      -1.132760    -0.372941     4.417845 
H      -0.186930     0.695514     3.383181 
C       0.298241    -1.404940     3.204373 
H       1.227592    -1.200524     3.736780 
H      -0.095303    -2.364750     3.531888 
C       2.990682    -1.552202    -0.615892 
H       3.270913    -1.360842    -1.659024 
H       3.783080    -1.105028    -0.004701 
C       2.963646    -3.060461    -0.369351 
H       2.636539    -3.309661     0.645335 
H       2.316793    -3.584208    -1.076765 
H       3.971194    -3.467628    -0.491609 
O       1.192201     1.395207    -1.523999 
C       1.799338     1.370462    -2.802841 
H       2.065049     0.343316    -3.093163 
H       1.021706     1.712333    -3.493496 
C       3.019863     2.260661    -2.921223 
C       3.093689     3.456622    -2.210276 
C       4.064804     1.907214    -3.770171 
C       4.198279     4.287100    -2.354185 
H       2.287973     3.722733    -1.534826 
C       5.167965     2.740542    -3.917990 
H       4.018777     0.972217    -4.323323 
C       5.236161     3.934120    -3.210104 
H       4.249253     5.216242    -1.794692 
H       5.974937     2.454842    -4.585571 
H       6.096642     4.586205    -3.322073 
C       1.383202    -0.701754     1.139552 
O       2.039282     0.215687     1.797269 
C       1.498601     1.243124     0.844572 
C       1.166168     2.465817     1.473867 
O       0.999821     2.644445     2.674829 
O       0.987325     3.479199     0.569668 
C       0.628249     4.731181     1.145494 
H       1.394765     5.077178     1.843834 
H       0.535888     5.427971     0.310646 
H      -0.321791     4.657951     1.681811 
72
     -1725.720181     -1725.194899   6.15   4.74
C      -5.303379     0.893945     2.590557 
C      -3.952686     0.493163     2.666016 
C      -3.634066    -0.661168     3.383039 
C      -4.643216    -1.384126     3.997463 
C      -5.984031    -0.962909     3.905451 
C      -6.331907     0.180195     3.202399 
C      -4.073950     2.370203     1.449040 
C      -3.181317     1.460854     1.924198 
H      -2.604884    -0.998926     3.462397 
H      -4.386931    -2.278173     4.550560 
H      -7.372417     0.479082     3.149614 
H      -3.900919     3.250639     0.844028 
N      -5.360810     2.044016     1.842478 
C      -6.561931     2.781004     1.529177 
H      -6.299096     3.646825     0.919168 
H      -7.267269     2.161171     0.965486 
H      -7.054701     3.135682     2.440696 
O      -7.024277    -1.632466     4.488644 
C      -6.736035    -2.808592     5.217914 
H      -7.693711    -3.175541     5.589405 
H      -6.278663    -3.575278     4.580451 
H      -6.074267    -2.602808     6.068240 
N       0.140781     0.061306     0.753738 
C       0.679149    -0.953079     1.606355 
O      -0.021392    -1.427190     2.458558 
C       2.100785    -1.401524     1.360222 
H       2.041562    -2.486802     1.236156 
H       2.630230    -1.244615     2.301473 
C       2.813200    -0.757849     0.167050 
H       3.896053    -0.857526     0.265868 
H       2.534991    -1.288819    -0.746276 
C       2.436915     0.715066    -0.019760 
C       2.641058     1.206803    -1.486151 
H       2.978024     2.255153    -1.468832 
C      -1.700927     1.417286     1.710493 
H      -1.195398     1.257048     2.670405 
H      -1.343616     2.369613     1.306205 
C      -1.320756     0.283248     0.756407 
H      -1.774108    -0.655348     1.067792 
H      -1.609986     0.488983    -0.271868 
C       3.075110     1.711702     0.969550 
H       4.144540     1.741676     0.728821 
H       2.681920     2.703067     0.716606 
C       2.896426     1.480068     2.469959 
H       3.462002     0.617240     2.828006 
H       3.264067     2.352740     3.016843 
H       1.846737     1.344949     2.751516 
O       3.599072     0.418721    -2.130148 
C       3.992336     0.936525    -3.388897 
H       3.098819     1.184883    -3.975148 
H       4.571293     1.861261    -3.246124 
C       4.823385    -0.086268    -4.122310 
C       5.822075     0.330231    -4.998222 
C       4.578459    -1.449785    -3.974621 
C       6.561932    -0.597554    -5.722477 
H       6.026283     1.391657    -5.115078 
C       5.318804    -2.378555    -4.694955 
H       3.804754    -1.776812    -3.290255 
C       6.310836    -1.955836    -5.572981 
H       7.336616    -0.257854    -6.403084 
H       5.119866    -3.438833    -4.570333 
H       6.887500    -2.682795    -6.136332 
C       0.928227     0.801162    -0.011811 
O       0.429887     1.659518    -0.842634 
C       1.219711     1.132910    -2.032557 
C       0.575896    -0.007360    -2.587487 
O      -0.540669    -0.438105    -2.307613 
O       1.341037    -0.597514    -3.555829 
C       0.756766    -1.733331    -4.183320 
H      -0.180257    -1.466454    -4.678759 
H       1.488175    -2.075149    -4.917741 
H       0.552291    -2.524643    -3.456843 
72
     -1725.721770     -1725.194504   5.15   4.99
C      -3.598691    -0.963781     0.308812 
C      -3.630787     0.438122     0.479954 
C      -4.482043     0.966446     1.451131 
C      -5.259515     0.122468     2.222487 
C      -5.200014    -1.273341     2.035741 
C      -4.370602    -1.832801     1.076686 
C      -2.177640    -0.053741    -1.152944 
C      -2.700232     1.002238    -0.469103 
H      -4.536268     2.037649     1.616138 
H      -5.910555     0.547908     2.974841 
H      -4.349351    -2.909442     0.952646 
H      -1.441760    -0.053190    -1.943663 
N      -2.704011    -1.247377    -0.693218 
C      -2.401729    -2.562230    -1.207765 
H      -1.621185    -2.472464    -1.964717 
H      -2.038436    -3.219516    -0.411207 
H      -3.284013    -3.020528    -1.666963 
O      -5.936758    -2.162167     2.765114 
C      -6.805601    -1.653751     3.758751 
H      -6.254084    -1.104434     4.531439 
H      -7.571679    -0.999354     3.325346 
H      -7.287879    -2.521713     4.210026 
N      -0.564768     1.943681     1.110765 
C      -0.948587     1.164757     2.253931 
O      -1.751502     1.610200     3.023885 
C      -0.318049    -0.197293     2.417099 
H      -1.160857    -0.896387     2.388771 
H       0.058046    -0.231212     3.441131 
C       0.736701    -0.591372     1.376681 
H       1.403337    -1.350281     1.795489 
H       0.237308    -1.047247     0.520282 
C       1.543505     0.598648     0.848735 
C       2.107832     0.344745    -0.605427 
H       3.149063     0.699017    -0.666806 
C      -2.281152     2.435676    -0.618186 
H      -3.151291     3.086272    -0.759137 
H      -1.654352     2.534404    -1.508374 
C      -1.506975     2.962571     0.607103 
H      -0.939424     3.857735     0.351192 
H      -2.166374     3.186905     1.442696 
C       2.644466     1.152776     1.772134 
H       3.427680     0.387409     1.835908 
H       3.097974     2.004639     1.252441 
C       2.246078     1.585657     3.182898 
H       3.099053     2.065057     3.671268 
H       1.427215     2.312384     3.178683 
H       1.950972     0.739802     3.807876 
O       2.049356    -1.003476    -1.010459 
C       3.191046    -1.765243    -0.662835 
H       3.387011    -1.710784     0.418158 
H       2.922238    -2.801414    -0.892388 
C       4.443235    -1.378210    -1.423358 
C       5.693176    -1.501179    -0.823291 
C       4.360034    -0.929548    -2.739788 
C       6.849813    -1.190327    -1.529551 
H       5.766924    -1.843702     0.206056 
C       5.515504    -0.614214    -3.444054 
H       3.384958    -0.816159    -3.200860 
C       6.762891    -0.746754    -2.843355 
H       7.818806    -1.293372    -1.051086 
H       5.441899    -0.262894    -4.468795 
H       7.663806    -0.501804    -3.397009 
C       0.552458     1.670468     0.451208 
O       0.945500     2.417729    -0.544684 
C       1.124081     1.174292    -1.368028 
C       0.738610     1.341075    -2.718950 
O       0.037469     2.239349    -3.170088 
O       1.200970     0.327480    -3.516042 
C       0.823704     0.430733    -4.885326 
H       1.194934     1.359384    -5.326613 
H       1.272383    -0.430051    -5.384085 
H      -0.263873     0.405069    -4.995339 
72
     -1725.720074     -1725.194387   6.22   5.06
C      -5.350016     1.027445     0.550542 
C      -4.503874     0.475902    -0.429212 
C      -5.082530    -0.264342    -1.471256 
C      -6.447136    -0.433407    -1.505956 
C      -7.274842     0.128513    -0.509072 
C      -6.743918     0.867105     0.532913 
C      -3.247508     1.583168     1.061387 
C      -3.157469     0.848739    -0.081624 
H      -4.465182    -0.701201    -2.250324 
H      -6.924990    -0.999629    -2.297501 
H      -7.363059     1.305242     1.304707 
H      -2.448554     2.034365     1.634365 
N      -4.568881     1.700810     1.454811 
C      -5.043912     2.416670     2.615140 
H      -5.570669     1.747432     3.303959 
H      -4.186907     2.844467     3.137077 
H      -5.717729     3.231389     2.328658 
O      -8.608946    -0.120590    -0.670379 
C      -9.498212     0.410023     0.290181 
H      -9.289511     0.013469     1.291880 
H      -9.451696     1.506065     0.317321 
H     -10.498284     0.101268    -0.016305 
N      -0.097535    -1.246393    -0.836932 
C       0.269818    -1.483951    -2.204778 
O      -0.582774    -1.770865    -2.998415 
C       1.727418    -1.268982    -2.519526 
H       1.890489    -0.185372    -2.535478 
H       1.902418    -1.660523    -3.522032 
C       2.653429    -1.902404    -1.478550 
H       2.579205    -2.991120    -1.552509 
H       3.689901    -1.638549    -1.689924 
C       2.294869    -1.462026    -0.060511 
C       2.875130    -0.097930     0.430232 
H       3.712365    -0.257988     1.120977 
C      -1.883827     0.470973    -0.771224 
H      -1.085128     1.107441    -0.381457 
H      -1.952829     0.636216    -1.852223 
C      -1.514972    -0.992405    -0.502726 
H      -1.640950    -1.229501     0.552871 
H      -2.110390    -1.684577    -1.096909 
C       2.599050    -2.561441     0.979935 
H       3.648170    -2.847889     0.841789 
H       2.520166    -2.122811     1.978749 
C       1.693069    -3.789573     0.900037 
H       0.650913    -3.528487     1.111451 
H       1.725448    -4.275144    -0.078952 
H       1.998064    -4.530228     1.644134 
O       3.336552     0.651308    -0.689177 
C       4.572947     1.325799    -0.479522 
H       4.649340     2.042332    -1.302010 
H       4.537190     1.889758     0.457770 
C       5.754127     0.381401    -0.490014 
C       6.111764    -0.278542    -1.666041 
C       6.482321     0.128665     0.668255 
C       7.170727    -1.174888    -1.682078 
H       5.552885    -0.081903    -2.577259 
C       7.546194    -0.768678     0.658205 
H       6.213190     0.637812     1.590011 
C       7.890739    -1.423450    -0.516475 
H       7.438363    -1.680691    -2.604614 
H       8.103864    -0.955349     1.570624 
H       8.719363    -2.124323    -0.527400 
C       0.846220    -1.052414     0.071988 
O       0.584572    -0.550117     1.244393 
C       1.638323     0.507978     1.034163 
C       1.193834     1.822387     1.235743 
O       0.052734     2.205067     1.483709 
O       2.239299     2.715218     1.138534 
C       1.872117     4.079017     1.298851 
H       1.438999     4.257359     2.286813 
H       2.793010     4.653866     1.184338 
H       1.143625     4.383008     0.541852 
72
     -1725.720672     -1725.194223   5.84   5.17
C      -3.393843     4.212066     0.129786 
C      -3.220444     3.202278    -0.834692 
C      -4.222058     3.022249    -1.800611 
C      -5.336421     3.828121    -1.779663 
C      -5.486967     4.835145    -0.800844 
C      -4.522343     5.045375     0.167801 
C      -1.445302     3.196762     0.532286 
C      -1.959230     2.565467    -0.559229 
H      -4.124383     2.255688    -2.563257 
H      -6.127911     3.714552    -2.511884 
H      -4.621329     5.811896     0.925176 
H      -0.520969     2.992169     1.054710 
N      -2.301989     4.196877     0.959244 
C      -2.081122     5.076072     2.082802 
H      -1.133466     4.811102     2.553741 
H      -2.028948     6.122409     1.762833 
H      -2.878134     4.973122     2.827051 
O      -6.642439     5.558391    -0.901619 
C      -6.861834     6.582999     0.045393 
H      -6.906070     6.182669     1.066197 
H      -6.081444     7.352638    -0.008490 
H      -7.824190     7.030253    -0.206155 
N      -1.077688    -1.080269    -1.034794 
C      -0.898100    -1.475452    -2.396576 
O      -1.627019    -1.013556    -3.231755 
C       0.217947    -2.441467    -2.719812 
H       0.801323    -1.955244    -3.507210 
H      -0.260897    -3.296921    -3.199472 
C       1.116612    -2.847810    -1.549513 
H       1.649730    -3.773523    -1.776419 
H       1.878893    -2.079783    -1.398912 
C       0.343179    -2.995290    -0.236193 
C       1.256788    -2.800096     1.011809 
H       0.926076    -3.478222     1.814534 
C      -1.344414     1.393205    -1.261005 
H      -0.277319     1.373048    -1.031751 
H      -1.466384     1.474127    -2.344131 
C      -1.960077     0.079334    -0.763036 
H      -2.093685     0.113098     0.314908 
H      -2.918743    -0.126172    -1.240992 
C      -0.509838    -4.269722    -0.084922 
H       0.195336    -5.105603    -0.001858 
H      -1.011056    -4.200445     0.887426 
C      -1.553466    -4.587780    -1.155768 
H      -2.226626    -3.745695    -1.347666 
H      -1.099032    -4.887705    -2.102433 
H      -2.173711    -5.423320    -0.819797 
O       2.591136    -3.068438     0.692286 
C       3.429157    -3.158747     1.831193 
H       3.219938    -2.318472     2.505040 
H       3.216141    -4.090649     2.376230 
C       4.876320    -3.125939     1.407419 
C       5.280438    -2.415777     0.279289 
C       5.837554    -3.772265     2.179972 
C       6.624720    -2.349867    -0.064733 
H       4.534330    -1.915012    -0.325651 
C       7.183346    -3.705822     1.838462 
H       5.531679    -4.335214     3.058366 
C       7.580713    -2.992129     0.714427 
H       6.927741    -1.793833    -0.946947 
H       7.921865    -4.213498     2.451313 
H       8.630842    -2.938673     0.444765 
C      -0.470827    -1.731485    -0.047499 
O      -0.571564    -1.337674     1.191159 
C       0.917519    -1.364902     1.371083 
C       1.547774    -0.140944     1.068365 
O       1.001478     0.937518     0.833885 
O       2.912854    -0.251257     1.097503 
C       3.630893     0.944572     0.820969 
H       3.396070     1.324416    -0.177264 
H       3.396030     1.721765     1.553133 
H       4.686862     0.675280     0.881995 
72
     -1725.720715     -1725.193703   5.82   5.49
C      -2.140679     3.287314    -0.636113 
C      -2.746948     2.136410    -0.086347 
C      -3.306326     1.202658    -0.959872 
C      -3.247630     1.412221    -2.325914 
C      -2.631755     2.568141    -2.846416 
C      -2.071977     3.519708    -2.007576 
C      -1.951543     3.398774     1.585475 
C      -2.613307     2.233259     1.348194 
H      -3.777985     0.301898    -0.582594 
H      -3.681378     0.675687    -2.989515 
H      -1.606145     4.399501    -2.435895 
H      -1.650591     3.828522     2.531552 
N      -1.657440     4.047582     0.399939 
C      -1.021088     5.338428     0.268243 
H      -0.127028     5.269999    -0.359488 
H      -1.705567     6.071323    -0.171228 
H      -0.723308     5.689828     1.257242 
O      -2.537505     2.833985    -4.181039 
C      -3.115752     1.916723    -5.090662 
H      -4.195514     1.816818    -4.927141 
H      -2.939276     2.328070    -6.085093 
H      -2.644112     0.929158    -5.019680 
N      -0.924757     0.035629     1.822138 
C       0.004523     0.724071     2.654686 
O      -0.367179     1.118324     3.728211 
C       1.402965     0.923896     2.121380 
H       2.064738     0.914058     2.989361 
H       1.434994     1.942385     1.716727 
C       1.817680    -0.105825     1.072376 
H       2.798770     0.132202     0.661239 
H       1.909899    -1.081478     1.553629 
C       0.764016    -0.182190    -0.029003 
C       0.810688    -1.496653    -0.890376 
H       0.646143    -1.233623    -1.944713 
C      -3.046264     1.242375     2.387263 
H      -4.118063     1.034808     2.295399 
H      -2.884638     1.676980     3.374474 
C      -2.308916    -0.111910     2.309901 
H      -2.264597    -0.575241     3.296365 
H      -2.798194    -0.800641     1.625302 
C       0.664398     1.086790    -0.897676 
H      -0.170720     0.950496    -1.592875 
H       0.395272     1.948020    -0.276625 
C       1.943727     1.386224    -1.678464 
H       2.265193     0.519481    -2.263305 
H       1.778896     2.216693    -2.370636 
H       2.768682     1.666281    -1.016559 
O       2.061401    -2.143414    -0.884159 
C       2.328852    -3.172072     0.059409 
H       1.541829    -3.212104     0.817723 
H       2.307756    -4.133293    -0.465021 
C       3.676641    -2.960051     0.712545 
C       4.682611    -2.231195     0.083702 
C       3.934736    -3.527235     1.959050 
C       5.924021    -2.074809     0.690291 
H       4.486952    -1.784327    -0.884657 
C       5.174909    -3.373610     2.566685 
H       3.154514    -4.094647     2.460716 
C       6.175200    -2.645697     1.932384 
H       6.699409    -1.504391     0.187675 
H       5.359477    -3.823021     3.537689 
H       7.145124    -2.523687     2.404080 
C      -0.566668    -0.441804     0.630865 
O      -1.400048    -1.104500    -0.117588 
C      -0.358931    -2.203256    -0.263114 
C      -0.893433    -3.497338    -0.486233 
O      -0.261425    -4.443205    -0.935357 
O      -2.201908    -3.613649    -0.101280 
C      -2.752544    -4.913876    -0.279998 
H      -2.204645    -5.655570     0.307441 
H      -3.785593    -4.848244     0.064121 
H      -2.722637    -5.212164    -1.331258 
72
     -1725.720581     -1725.193139   5.90   5.85
C      -3.505233     0.360425    -0.947310 
C      -3.211434     1.671251    -0.532946 
C      -4.240989     2.439467     0.030510 
C      -5.497277     1.898908     0.158378 
C      -5.768807     0.579455    -0.269304 
C      -4.781214    -0.211200    -0.827957 
C      -1.348376     0.754150    -1.373664 
C      -1.817678     1.906059    -0.813721 
H      -4.053875     3.453474     0.369807 
H      -6.313364     2.465752     0.592112 
H      -4.971557    -1.222610    -1.162246 
H      -0.352841     0.514778    -1.718593 
N      -2.354271    -0.192541    -1.451782 
C      -2.219622    -1.517364    -2.010297 
H      -1.162636    -1.709643    -2.201168 
H      -2.584784    -2.272852    -1.307640 
H      -2.771805    -1.614741    -2.951343 
O      -7.058889     0.175644    -0.081830 
C      -7.403823    -1.135457    -0.480812 
H      -7.256241    -1.277778    -1.558736 
H      -6.822044    -1.886780     0.067835 
H      -8.461372    -1.257636    -0.244352 
N      -0.272242     2.044163     1.614718 
C      -1.242319     1.157129     2.213923 
O      -2.254670     1.604997     2.666348 
C      -0.855046    -0.295894     2.168741 
H      -0.896494    -0.606553     1.120132 
H      -1.606092    -0.852072     2.729712 
C       0.556937    -0.515754     2.720315 
H       0.550405    -0.307411     3.794164 
H       0.833615    -1.564554     2.610158 
C       1.588226     0.383337     2.035260 
C       2.217667    -0.140226     0.693083 
H       3.255690    -0.471261     0.838023 
C      -1.012810     3.131915    -0.496052 
H      -1.533698     4.033401    -0.837616 
H      -0.058479     3.090521    -1.027214 
C      -0.748971     3.303629     1.010551 
H       0.005442     4.071899     1.185286 
H      -1.655244     3.562399     1.555960 
C       2.704526     0.831122     3.000112 
H       3.131182    -0.075598     3.445572 
H       3.500541     1.298021     2.412641 
C       2.257338     1.800847     4.093452 
H       3.100839     2.048497     4.743486 
H       1.890528     2.739541     3.665769 
H       1.466502     1.388693     4.725940 
O       1.460599    -1.227140     0.163667 
C       2.039098    -2.505655     0.383054 
H       2.368013    -2.610868     1.426527 
H       1.226345    -3.220406     0.219902 
C       3.195598    -2.825030    -0.537502 
C       4.448331    -3.143185    -0.023905 
C       3.008936    -2.833645    -1.918505 
C       5.501944    -3.470077    -0.872854 
H       4.606272    -3.137756     1.051770 
C       4.054674    -3.160179    -2.767958 
H       2.038071    -2.567762    -2.323649 
C       5.305804    -3.480651    -2.246654 
H       6.474027    -3.716704    -0.457752 
H       3.897552    -3.168480    -3.842391 
H       6.124029    -3.736129    -2.912536 
C       0.958216     1.610304     1.409042 
O       1.828373     2.288918     0.709987 
C       2.020657     1.075610    -0.154742 
C       2.196975     1.375235    -1.521415 
O       1.986596     2.447225    -2.076574 
O       2.641068     0.279522    -2.213653 
C       2.866687     0.503351    -3.600719 
H       3.259403    -0.435805    -3.993009 
H       1.937392     0.769755    -4.112178 
H       3.590098     1.308004    -3.755355 
72
     -1725.723053     -1725.193011   4.35   5.93
C      -2.642927    -0.015443    -0.191325 
C      -2.465157     1.180201    -0.924224 
C      -3.356364     2.230151    -0.700125 
C      -4.369657     2.092095     0.230476 
C      -4.512882     0.893305     0.957921 
C      -3.652083    -0.174016     0.755237 
C      -0.887821    -0.284263    -1.540802 
C      -1.317120     0.987632    -1.779557 
H      -3.255074     3.166055    -1.239415 
H      -5.047532     2.919167     0.396188 
H      -3.789964    -1.086579     1.323569 
H      -0.052178    -0.817937    -1.966817 
N      -1.671644    -0.901266    -0.585301 
C      -1.472994    -2.232975    -0.058362 
H      -1.316284    -2.206725     1.023936 
H      -2.330887    -2.876802    -0.276333 
H      -0.582260    -2.667032    -0.511457 
O      -5.487048     0.692418     1.893742 
C      -6.409918     1.737385     2.132796 
H      -6.978745     1.984614     1.228252 
H      -7.093614     1.366358     2.897298 
H      -5.908122     2.639308     2.503864 
N       0.498292     2.748827    -0.581646 
C      -0.317452     3.000204     0.574151 
O      -1.086012     3.919672     0.552767 
C      -0.150521     2.090135     1.766447 
H      -1.156104     1.707093     1.967620 
H       0.096847     2.737344     2.609656 
C       0.828724     0.929839     1.579980 
H       1.123975     0.517211     2.548424 
H       0.314035     0.133344     1.043857 
C       2.067912     1.313926     0.768730 
C       2.717580     0.091734     0.017043 
H       3.789303     0.018215     0.260933 
C      -0.639866     1.993880    -2.666830 
H      -1.347985     2.415606    -3.388582 
H       0.141682     1.490990    -3.240921 
C      -0.006780     3.180814    -1.898706 
H       0.824604     3.601507    -2.463946 
H      -0.728847     3.967166    -1.690900 
C       3.151397     2.114080     1.514057 
H       3.564644     1.453050     2.285772 
H       3.961919     2.296005     0.799196 
C       2.740704     3.444502     2.145102 
H       2.225555     4.098596     1.433660 
H       2.095140     3.309410     3.015615 
H       3.632231     3.977982     2.486099 
O       2.075055    -1.110994     0.381723 
C       2.912888    -2.258055     0.436679 
H       3.462828    -2.372600    -0.501690 
H       3.635961    -2.145047     1.258670 
C       2.018756    -3.447019     0.671886 
C       1.764760    -4.358345    -0.347193 
C       1.382766    -3.612761     1.901529 
C       0.887490    -5.419739    -0.147557 
H       2.251704    -4.227720    -1.308656 
C       0.504730    -4.667666     2.105460 
H       1.572601    -2.900581     2.699784 
C       0.253281    -5.573683     1.078283 
H       0.698321    -6.124688    -0.951113 
H       0.014420    -4.786296     3.066782 
H      -0.432155    -6.400111     1.237220 
C       1.611045     2.032979    -0.482494 
O       2.490727     1.990678    -1.454560 
C       2.408014     0.505611    -1.394192 
C       2.353605    -0.113306    -2.661619 
O       2.164866     0.437194    -3.738836 
O       2.502835    -1.479490    -2.578736 
C       2.441289    -2.149799    -3.834974 
H       1.472180    -1.992572    -4.315624 
H       3.224741    -1.792721    -4.507829 
H       2.586588    -3.210040    -3.620084 
72
     -1725.715726     -1725.191285   8.95   7.01
C      -5.216820    -1.130406    -1.536241 
C      -3.912851    -0.957682    -1.043275 
C      -3.100832    -2.088940    -0.863108 
C      -3.602253    -3.327690    -1.187387 
C      -4.913903    -3.477279    -1.690500 
C      -5.745475    -2.386784    -1.871507 
C      -4.896393     1.049749    -1.171384 
C      -3.725363     0.452700    -0.816426 
H      -2.098870    -1.986877    -0.457695 
H      -3.006690    -4.224669    -1.059616 
H      -6.753704    -2.483710    -2.251923 
H      -5.168563     2.096782    -1.152926 
N      -5.809932     0.105096    -1.609495 
C      -7.156259     0.368641    -2.057097 
H      -7.343063     1.442563    -2.006012 
H      -7.298441     0.042662    -3.093122 
H      -7.890127    -0.140167    -1.422710 
O      -5.272975    -4.766404    -1.969407 
C      -6.571787    -4.992241    -2.475274 
H      -6.724676    -4.476955    -3.432080 
H      -6.656415    -6.068531    -2.630206 
H      -7.341457    -4.668803    -1.762972 
N      -0.117943     1.632084    -1.051690 
C       0.014663     3.021917    -0.748029 
O      -0.893067     3.761519    -1.015594 
C       1.291367     3.495819    -0.093125 
H       0.973395     4.061295     0.787365 
H       1.713180     4.235139    -0.776829 
C       2.297210     2.408647     0.291315 
H       3.291503     2.844612     0.422752 
H       2.016277     1.981181     1.256175 
C       2.348217     1.263661    -0.721385 
C       2.846408    -0.082699    -0.073674 
H       3.523367    -0.592558    -0.775730 
C      -2.462513     1.109582    -0.348459 
H      -2.030305     0.540798     0.479474 
H      -2.665776     2.126925    -0.006469 
C      -1.447086     1.148236    -1.493455 
H      -1.296568     0.153142    -1.905251 
H      -1.780712     1.818185    -2.286756 
C       3.096985     1.543167    -2.040597 
H       4.158528     1.655430    -1.788508 
H       3.026701     0.629899    -2.642733 
C       2.654429     2.732301    -2.894024 
H       3.167514     2.695962    -3.858921 
H       1.579518     2.720877    -3.101586 
H       2.905767     3.690280    -2.433776 
O       3.487491     0.092503     1.156800 
C       4.898140     0.131116     1.095902 
H       5.267441    -0.749675     0.547128 
H       5.248658     1.024071     0.555539 
C       5.452888     0.129043     2.498792 
C       6.639236     0.797104     2.785234 
C       4.804059    -0.575315     3.511408 
C       7.180339     0.757942     4.065512 
H       7.146278     1.355974     2.002605 
C       5.342837    -0.611810     4.791141 
H       3.872686    -1.084311     3.288584 
C       6.532799     0.051639     5.071364 
H       8.107392     1.281821     4.276885 
H       4.830880    -1.161391     5.575234 
H       6.952056     0.020229     6.072099 
C       0.927728     0.813174    -0.982057 
O       0.806498    -0.461825    -1.202634 
C       1.537398    -0.818998     0.061215 
C       0.677840    -1.061928     1.149780 
O      -0.553503    -1.104900     1.111528 
O       1.352252    -1.302738     2.315350 
C       0.521048    -1.571642     3.436829 
H       1.197978    -1.735869     4.277112 
H      -0.142945    -0.729094     3.649062 
H      -0.091683    -2.461571     3.269471 
72
     -1725.717002     -1725.191031   8.15   7.17
C      -0.294012     4.171535    -3.328733 
C       0.211731     3.809476    -2.059805 
C       0.992536     4.735191    -1.367420 
C       1.257144     5.973632    -1.928784 
C       0.741164     6.306547    -3.196024 
C      -0.040203     5.411655    -3.910468 
C      -0.987504     2.096103    -2.871999 
C      -0.252387     2.471783    -1.789849 
H       1.395550     4.497280    -0.387574 
H       1.864102     6.681767    -1.380044 
H      -0.423434     5.696910    -4.883552 
H      -1.491120     1.154295    -3.047800 
N      -1.023129     3.113353    -3.809594 
C      -1.713396     3.076506    -5.077045 
H      -1.014788     3.213237    -5.909461 
H      -2.196256     2.104497    -5.186103 
H      -2.481868     3.855239    -5.130333 
O       0.964140     7.510148    -3.807556 
C       1.755968     8.464787    -3.130373 
H       2.771079     8.090153    -2.949397 
H       1.806707     9.335211    -3.785866 
H       1.303177     8.758783    -2.175336 
N       1.646695    -0.065289     0.283901 
C       2.149037     0.212175     1.595064 
O       2.532947     1.319777     1.852703 
C       2.176477    -0.936802     2.578039 
H       2.018417    -0.493699     3.562861 
H       3.200317    -1.327891     2.574478 
C       1.155574    -2.033860     2.279929 
H       1.266350    -2.865739     2.974998 
H       0.154577    -1.628138     2.435320 
C       1.294677    -2.496965     0.832244 
C       0.052947    -3.266784     0.244974 
H       0.424106    -4.089407    -0.382406 
C       0.054429     1.613371    -0.603000 
H      -0.654480     0.781548    -0.583196 
H      -0.062636     2.171515     0.332931 
C       1.476381     1.044894    -0.679746 
H       1.672704     0.641886    -1.672313 
H       2.231611     1.791526    -0.442345 
C       2.617345    -3.229487     0.534667 
H       2.644982    -3.439094    -0.540249 
H       3.470246    -2.572958     0.741314 
C       2.767746    -4.535789     1.316185 
H       2.871514    -4.355838     2.389931 
H       1.902405    -5.187992     1.169381 
H       3.658260    -5.077370     0.985075 
O      -0.746938    -3.917325     1.204327 
C      -1.798518    -3.228047     1.864393 
H      -1.831806    -2.180960     1.552063 
H      -2.742845    -3.684726     1.547993 
C      -1.665162    -3.334500     3.367854 
C      -2.178504    -2.330564     4.185090 
C      -1.058088    -4.440331     3.958146 
C      -2.092118    -2.428404     5.569350 
H      -2.649148    -1.459985     3.734579 
C      -0.968318    -4.539363     5.341550 
H      -0.651934    -5.222872     3.326496 
C      -1.486272    -3.535016     6.151963 
H      -2.498635    -1.637851     6.192674 
H      -0.492987    -5.407036     5.789093 
H      -1.417007    -3.614489     7.232173 
C       1.180412    -1.268617    -0.035699 
O       0.666884    -1.495934    -1.204305 
C      -0.548212    -2.138477    -0.550167 
C      -1.706405    -1.962799    -1.346704 
O      -1.878977    -1.127674    -2.226516 
O      -2.695403    -2.838469    -0.983174 
C      -3.915757    -2.696188    -1.703343 
H      -3.761862    -2.861993    -2.772867 
H      -4.591086    -3.452228    -1.299563 
H      -4.339140    -1.697826    -1.563031 
72
     -1725.717540     -1725.190924   7.81   7.24
C       2.310333     2.038108    -4.346164 
C       1.903195     1.505810    -3.111665 
C       1.409118     2.376941    -2.127491 
C       1.326493     3.720704    -2.407726 
C       1.733007     4.233326    -3.659872 
C       2.234016     3.406555    -4.649282 
C       2.645070    -0.169615    -4.398512 
C       2.124845     0.083280    -3.165953 
H       1.114204     1.995770    -1.154639 
H       0.953192     4.424846    -1.672593 
H       2.553545     3.782824    -5.612070 
H       2.948651    -1.110658    -4.837799 
N       2.763700     1.003447    -5.125621 
C       3.282691     1.123051    -6.466784 
H       2.530075     1.538873    -7.145378 
H       4.171783     1.762463    -6.490701 
H       3.561681     0.132093    -6.828704 
O       1.591403     5.586287    -3.794159 
C       1.979140     6.169334    -5.020334 
H       3.046470     6.010463    -5.220204 
H       1.391090     5.771570    -5.857207 
H       1.787825     7.238779    -4.924106 
N      -0.160718    -1.970950    -0.926815 
C       0.146029    -3.365687    -0.976779 
O       0.582996    -3.825437    -1.996670 
C      -0.086528    -4.197155     0.263280 
H       0.853173    -4.729054     0.436725 
H      -0.805026    -4.964867    -0.030599 
C      -0.520416    -3.433760     1.516509 
H      -0.984947    -4.116010     2.233635 
H       0.361785    -3.019590     2.009202 
C      -1.462244    -2.270056     1.205585 
C      -1.408924    -1.147001     2.306835 
H      -2.425621    -0.779925     2.501865 
C       1.778823    -0.903631    -2.092929 
H       2.085646    -0.516926    -1.117052 
H       2.288160    -1.853774    -2.269671 
C       0.265127    -1.131529    -2.071247 
H      -0.263228    -0.185478    -1.979749 
H      -0.064847    -1.640441    -2.977580 
C      -2.923946    -2.637679     0.877342 
H      -3.368090    -3.032466     1.799384 
H      -3.447380    -1.696963     0.671087 
C      -3.193215    -3.613988    -0.268396 
H      -2.890042    -4.634451    -0.024356 
H      -4.266267    -3.639858    -0.477111 
H      -2.692857    -3.318118    -1.196282 
O      -0.828922    -1.585756     3.507176 
C      -1.741011    -1.785246     4.569724 
H      -2.544765    -2.475714     4.272193 
H      -1.159505    -2.279857     5.354182 
C      -2.344172    -0.502183     5.104511 
C      -1.618858     0.686978     5.072885 
C      -3.619353    -0.509104     5.663534 
C      -2.165951     1.850734     5.599904 
H      -0.631519     0.697134     4.624216 
C      -4.164130     0.654297     6.194897 
H      -4.194746    -1.431600     5.684268 
C      -3.436712     1.837902     6.164651 
H      -1.595428     2.774002     5.567967 
H      -5.158399     0.635457     6.630449 
H      -3.859685     2.748617     6.577032 
C      -0.839386    -1.454799     0.094001 
O      -1.073869    -0.179212     0.175524 
C      -0.576265    -0.111597     1.592057 
C       0.765320     0.296915     1.692227 
O       1.490312     0.664580     0.765051 
O       1.222114     0.295778     2.982966 
C       2.571600     0.714848     3.137580 
H       2.779645     0.662517     4.207539 
H       3.253627     0.058490     2.589860 
H       2.711086     1.737358     2.776350 
72
     -1725.715075     -1725.190735   9.36   7.36
C      -4.987131     2.646120    -0.549093 
C      -3.794808     1.893605    -0.501894 
C      -3.144281     1.585774    -1.698089 
C      -3.674956     2.035188    -2.895407 
C      -4.862391     2.792882    -2.914856 
C      -5.536036     3.106356    -1.744645 
C      -4.550711     2.163910     1.588902 
C      -3.533566     1.596689     0.885491 
H      -2.240186     0.984341    -1.692858 
H      -3.166038     1.789044    -3.818135 
H      -6.449640     3.687708    -1.792293 
H      -4.726131     2.172321     2.656716 
N      -5.438454     2.802633     0.737863 
C      -6.638522     3.503705     1.124943 
H      -6.596801     4.554135     0.817447 
H      -7.525926     3.041565     0.679096 
H      -6.738103     3.465875     2.211079 
O      -5.434079     3.265866    -4.064868 
C      -4.793925     2.980171    -5.291844 
H      -4.739660     1.900013    -5.475472 
H      -5.404521     3.445829    -6.066695 
H      -3.782434     3.403382    -5.325977 
N       0.137886     1.072201     1.721400 
C       0.332780     0.706480     3.088721 
O      -0.430975     1.127720     3.914488 
C       1.489055    -0.204018     3.431337 
H       1.053483    -1.018833     4.016546 
H       2.106880     0.359962     4.132910 
C       2.291442    -0.750704     2.248663 
H       3.274119    -1.092336     2.585730 
H       1.782228    -1.626234     1.840312 
C       2.441476     0.264368     1.114549 
C       2.671517    -0.430172    -0.280216 
H       3.428397     0.134988    -0.844900 
C      -2.338306     0.868141     1.419230 
H      -2.135149    -0.014572     0.806451 
H      -2.514748     0.547378     2.448402 
C      -1.113223     1.785038     1.371673 
H      -0.974626     2.186845     0.370809 
H      -1.216791     2.609435     2.078165 
C       3.465163     1.397017     1.334230 
H       4.459088     0.933228     1.341628 
H       3.435054     2.027489     0.438038 
C       3.316256     2.286800     2.568887 
H       3.556254     1.757644     3.493617 
H       4.008677     3.129656     2.493063 
H       2.309316     2.706197     2.662914 
O       3.060409    -1.769790    -0.180351 
C       4.451214    -1.997221    -0.276261 
H       4.842754    -1.508499    -1.182449 
H       4.985056    -1.566111     0.584770 
C       4.704601    -3.482697    -0.346420 
C       5.861970    -4.024022     0.204217 
C       3.801845    -4.320743    -0.998524 
C       6.123691    -5.385663     0.099759 
H       6.566401    -3.377897     0.722124 
C       4.061631    -5.681431    -1.100095 
H       2.894147    -3.898220    -1.415377 
C       5.223419    -6.217268    -0.554322 
H       7.030826    -5.796543     0.532010 
H       3.352926    -6.328285    -1.608285 
H       5.424317    -7.280816    -0.636413 
C       1.068346     0.819033     0.805411 
O       0.878721     1.098893    -0.449632 
C       1.300849    -0.274759    -0.888975 
C       0.219395    -1.158235    -1.066659 
O      -0.977271    -0.869901    -0.995709 
O       0.617067    -2.428017    -1.383974 
C      -0.446241    -3.348626    -1.590787 
H      -1.087217    -3.031845    -2.417969 
H       0.027498    -4.302739    -1.828515 
H      -1.063306    -3.449427    -0.693625 
72
     -1725.716789     -1725.190218   8.28   7.68
C      -0.474653     3.357495     2.479647 
C      -0.182177     2.048514     2.918699 
C      -1.231107     1.261213     3.396429 
C      -2.515658     1.771511     3.434079 
C      -2.777277     3.084463     2.993804 
C      -1.760565     3.892210     2.509242 
C       1.708682     2.998916     2.180218 
C       1.234107     1.844373     2.723413 
H      -1.057653     0.240520     3.720767 
H      -3.318702     1.146055     3.800907 
H      -1.991573     4.895895     2.171725 
H       2.719437     3.249942     1.887408 
N       0.692458     3.924186     2.029199 
C       0.821630     5.255671     1.484512 
H       1.865032     5.431876     1.218679 
H       0.209023     5.372395     0.584362 
H       0.517735     6.009473     2.217835 
O      -4.020584     3.647782     3.005513 
C      -5.102067     2.871464     3.483983 
H      -5.249726     1.970773     2.875745 
H      -4.955980     2.582082     4.531762 
H      -5.985815     3.505882     3.406502 
N       1.745756    -0.369106     0.797001 
C       3.031152    -0.336377     0.178759 
O       4.008463    -0.429007     0.872306 
C       3.076803    -0.180498    -1.321959 
H       3.962977    -0.723621    -1.655154 
H       3.274511     0.879701    -1.515639 
C       1.813308    -0.663827    -2.033617 
H       1.860281    -0.435840    -3.100252 
H       1.756156    -1.749696    -1.946258 
C       0.573545    -0.025555    -1.409699 
C      -0.762997    -0.810755    -1.683885 
H      -1.550560    -0.097024    -1.957442 
C       2.042989     0.629734     3.066221 
H       1.900396     0.368139     4.121209 
H       3.105325     0.845915     2.933181 
C       1.686012    -0.616416     2.251975 
H       2.389726    -1.421042     2.468525 
H       0.676907    -0.963972     2.462333 
C       0.466595     1.468847    -1.774998 
H       1.453733     1.936237    -1.701268 
H       0.193562     1.500423    -2.836578 
C      -0.525711     2.289269    -0.952761 
H      -0.567010     3.314428    -1.332859 
H      -1.536483     1.877615    -0.989854 
H      -0.228442     2.335315     0.095963 
O      -0.688776    -1.673747    -2.796547 
C      -0.342175    -3.040388    -2.619247 
H       0.067349    -3.207744    -1.618557 
H      -1.254195    -3.642722    -2.688154 
C       0.654944    -3.474214    -3.670641 
C       1.441926    -4.602499    -3.445454 
C       0.790111    -2.788721    -4.874730 
C       2.345763    -5.041342    -4.404808 
H       1.346422    -5.143035    -2.506770 
C       1.695205    -3.225684    -5.836116 
H       0.183098    -1.908656    -5.054849 
C       2.474923    -4.352594    -5.605800 
H       2.950447    -5.922648    -4.213624 
H       1.789454    -2.681600    -6.771149 
H       3.180006    -4.692649    -6.357706 
C       0.627122    -0.271652     0.080035 
O      -0.543289    -0.328937     0.644184 
C      -0.936892    -1.428559    -0.325219 
C      -1.893124    -2.342934     0.176350 
O      -2.558433    -3.107608    -0.508375 
O      -1.983379    -2.330526     1.545689 
C      -2.910498    -3.268716     2.079035 
H      -2.629585    -4.291857     1.814824 
H      -2.877341    -3.137018     3.161655 
H      -3.920646    -3.079533     1.706300 
72
     -1725.723745     -1725.189497   3.91   8.13
C      -1.804684     1.943508     0.482268 
C      -0.914753     2.277170    -0.562352 
C       0.383370     2.666023    -0.226556 
C       0.768286     2.716720     1.102838 
C      -0.149500     2.406112     2.126192 
C      -1.445374     2.016893     1.826202 
C      -2.889215     1.708367    -1.452630 
C      -1.643080     2.132193    -1.799601 
H       1.092650     2.951466    -0.997434 
H       1.775905     3.025491     1.350026 
H      -2.131424     1.784813     2.632484 
H      -3.727805     1.449629    -2.083183 
N      -3.000087     1.579489    -0.083725 
C      -4.191148     1.184698     0.630723 
H      -4.720600     2.049137     1.047095 
H      -4.849338     0.649888    -0.055527 
H      -3.926267     0.506130     1.446222 
O       0.154619     2.478159     3.453106 
C       1.515939     2.619944     3.817939 
H       1.910558     3.599655     3.522062 
H       1.545846     2.534109     4.904103 
H       2.126962     1.822621     3.380326 
N       0.444959     0.427432    -3.034634 
C       1.709165     1.052636    -2.882311 
O       1.926909     2.077485    -3.475943 
C       2.751941     0.383758    -2.016688 
H       3.218582     1.187954    -1.443108 
H       3.517536     0.036581    -2.714461 
C       2.256048    -0.730282    -1.090439 
H       3.097877    -1.342521    -0.755239 
H       1.838887    -0.260500    -0.202083 
C       1.195491    -1.610747    -1.746257 
C       0.163307    -2.275832    -0.751961 
H       0.132343    -3.358114    -0.931650 
C      -1.124246     2.374008    -3.185499 
H      -0.354408     3.148450    -3.169902 
H      -1.929772     2.740912    -3.829556 
C      -0.568297     1.116274    -3.860597 
H      -1.362783     0.393461    -4.037205 
H      -0.092021     1.370039    -4.809281 
C       1.746971    -2.694561    -2.696640 
H       2.299873    -3.407053    -2.072656 
H       0.883095    -3.239324    -3.091114 
C       2.627088    -2.248397    -3.864060 
H       2.800556    -3.096050    -4.532718 
H       2.157704    -1.458959    -4.460707 
H       3.607742    -1.895304    -3.536150 
O       0.530639    -2.165692     0.607156 
C       0.063286    -1.060077     1.368642 
H       0.180199    -0.120211     0.817175 
H      -1.001527    -1.171561     1.583366 
C       0.840099    -1.003476     2.661993 
C       2.213535    -1.242313     2.693616 
C       0.187918    -0.690733     3.850122 
C       2.917450    -1.163586     3.888516 
H       2.729432    -1.510711     1.778781 
C       0.887127    -0.615126     5.049199 
H      -0.881798    -0.505148     3.837193 
C       2.256036    -0.848250     5.071539 
H       3.985762    -1.357722     3.898274 
H       0.359287    -0.372765     5.966603 
H       2.805698    -0.792812     6.006074 
C       0.180726    -0.753905    -2.463680 
O      -0.925449    -1.406568    -2.706717 
C      -1.064422    -1.518430    -1.203210 
C      -2.450364    -1.702602    -0.866084 
O      -3.420834    -1.365845    -1.521189 
O      -2.578499    -2.344031     0.333332 
C      -3.910428    -2.697181     0.693686 
H      -4.354188    -3.353238    -0.059835 
H      -3.833238    -3.219919     1.648177 
H      -4.541859    -1.811669     0.797546 
72
     -1725.718752     -1725.187354   7.05   9.48
C       0.138738     1.551677    -2.211092 
C       0.354506     0.235867    -2.685899 
C       1.613318    -0.073876    -3.203375 
C       2.619125     0.877167    -3.203529 
C       2.379477     2.171874    -2.704517 
C       1.133035     2.526460    -2.212571 
C      -1.766488     0.416072    -1.989897 
C      -0.890764    -0.481488    -2.519204 
H       1.824090    -1.060738    -3.599663 
H       3.590753     0.611595    -3.599187 
H       0.969751     3.536011    -1.852799 
H      -2.804960     0.264622    -1.734898 
N      -1.163448     1.641254    -1.784866 
C      -1.826091     2.830981    -1.300319 
H      -2.800664     2.545919    -0.899213 
H      -1.250373     3.297385    -0.495749 
H      -1.974227     3.563706    -2.101097 
O       3.325944     3.155337    -2.670882 
C       4.600882     2.874834    -3.217067 
H       4.531411     2.610858    -4.279180 
H       5.182022     3.791609    -3.111052 
H       5.101673     2.064668    -2.673327 
N       0.293559    -2.583836    -0.931136 
C       1.696319    -2.304053    -0.867450 
O       2.417719    -2.699622    -1.742085 
C       2.201110    -1.513065     0.317100 
H       2.767978    -0.684141    -0.117013 
H       2.932047    -2.150017     0.823026 
C       1.110581    -0.995548     1.250759 
H       1.535394    -0.621394     2.184037 
H       0.629141    -0.155993     0.752563 
C       0.068676    -2.079681     1.518882 
C      -1.298895    -1.531169     2.065801 
H      -1.675770    -2.202698     2.847056 
C      -1.239077    -1.913312    -2.817560 
H      -1.261974    -2.088730    -3.899502 
H      -2.250440    -2.089941    -2.443831 
C      -0.291333    -2.978181    -2.226422 
H      -0.831640    -3.916050    -2.085917 
H       0.559629    -3.168346    -2.875910 
C       0.642819    -3.233691     2.360143 
H       1.657289    -3.465493     2.019476 
H       0.747111    -2.844839     3.380285 
C      -0.175261    -4.526125     2.376261 
H      -0.216700    -4.985932     1.384194 
H       0.283202    -5.249067     3.057076 
H      -1.203732    -4.363325     2.706015 
O      -1.217188    -0.284469     2.719477 
C      -1.261922     0.934849     1.981059 
H      -1.198039     0.746262     0.907403 
H      -2.234320     1.401704     2.169264 
C      -0.156521     1.860966     2.435575 
C       0.716609     2.443358     1.522353 
C      -0.010197     2.156680     3.790211 
C       1.712455     3.317454     1.948483 
H       0.638247     2.196932     0.467610 
C       0.982831     3.025864     4.219704 
H      -0.680792     1.695878     4.509348 
C       1.845697     3.613098     3.297965 
H       2.386367     3.762285     1.222595 
H       1.085019     3.247899     5.277433 
H       2.621400     4.293976     3.633572 
C      -0.460071    -2.497687     0.166519 
O      -1.689352    -2.950951     0.190392 
C      -2.067965    -1.617721     0.768272 
C      -3.370361    -1.222023     0.344343 
O      -3.985453    -1.649586    -0.621246 
O      -3.880727    -0.235457     1.140249 
C      -5.191499     0.199598     0.789557 
H      -5.210902     0.611225    -0.223562 
H      -5.903628    -0.627793     0.841340 
H      -5.455153     0.970111     1.515620 
