74
     -1835.282827     -1834.750523   0.00   0.00
C      -0.446625     0.387602     3.691037 
C       0.206440    -0.584405     2.916133 
C       1.063791    -1.474600     3.514271 
C       1.280445    -1.427627     4.896376 
C       0.607716    -0.474664     5.656455 
C      -0.265437     0.443631     5.062278 
C      -1.223841     0.764518     1.534053 
C      -0.260839    -0.460593     1.487826 
H       1.588322    -2.221206     2.926681 
H       1.961269    -2.133672     5.351354 
H      -0.759056     1.177057     5.687776 
H      -2.238807     0.506441     1.204109 
N      -1.228054     1.215481     2.915832 
C      -2.324203     1.988524     3.455657 
H      -2.762931     2.583070     2.654474 
H      -3.100334     1.351935     3.905607 
H      -1.954741     2.675407     4.222110 
O       0.737153    -0.348787     7.005796 
C       1.606369    -1.243260     7.675175 
H       1.561489    -0.974243     8.731072 
H       1.281210    -2.283082     7.551261 
H       2.637794    -1.139656     7.317714 
N       1.290320    -1.134802    -0.188779 
C       2.352487    -1.226150    -1.077678 
O       2.710428    -2.320757    -1.458358 
C       3.000029     0.057227    -1.547267 
H       4.022945    -0.210138    -1.819487 
H       3.041669     0.795047    -0.742841 
C       2.266794     0.663566    -2.766127 
H       1.295689     1.043397    -2.452705 
H       2.853879     1.524637    -3.100906 
C       2.096100    -0.316406    -3.900012 
C       0.960815    -0.989782    -4.056517 
H       0.824090    -1.721980    -4.851300 
C      -0.741434    -1.785806     0.854571 
H      -1.511703    -1.581676     0.106345 
H      -1.151086    -2.471995     1.596746 
C       0.523163    -2.342478     0.174526 
H       1.112389    -2.985487     0.832167 
H       0.308178    -2.903653    -0.735362 
C       3.265497    -0.579057    -4.814869 
H       4.132424    -0.867183    -4.205952 
H       3.040591    -1.443597    -5.448746 
C       3.637164     0.612700    -5.704246 
H       3.930451     1.484698    -5.112206 
H       4.476655     0.360631    -6.359615 
H       2.789536     0.905051    -6.332092 
O      -0.093188    -0.849258    -3.192902 
C      -1.299415    -1.468551    -3.614597 
H      -1.592872    -1.071940    -4.597506 
H      -1.152785    -2.552106    -3.718890 
C      -2.374586    -1.184581    -2.597168 
C      -2.578446     0.116075    -2.136970 
C      -3.188435    -2.207737    -2.123838 
C      -3.585781     0.387206    -1.221271 
H      -1.936753     0.914688    -2.494280 
C      -4.199217    -1.939352    -1.205401 
H      -3.031627    -3.225101    -2.472127 
C      -4.399456    -0.641864    -0.753404 
H      -3.736800     1.403180    -0.869095 
H      -4.829813    -2.745865    -0.845001 
H      -5.190486    -0.429511    -0.040961 
C       0.734756    -0.030423     0.417158 
O       0.189206     0.936574    -0.320152 
C      -0.572665     1.693234     0.516688 
N       1.875598     1.215050     1.421624 
N       1.264080     2.155776     1.593745 
C      -1.192118     2.882013    -0.038117 
O      -2.162209     3.423639     0.454462 
O      -0.574742     3.328327    -1.147403 
C      -1.122443     4.527138    -1.706631 
H      -2.166464     4.377163    -1.991402 
H      -1.063554     5.345402    -0.985354 
H      -0.513982     4.746946    -2.583544 
74
     -1835.282660     -1834.750446   0.11   0.05
C      -0.687695     1.745856     3.193600 
C      -0.216330     0.453531     2.960025 
C       0.326534    -0.279095     3.998026 
C       0.389168     0.266325     5.273096 
C      -0.105615     1.551802     5.502942 
C      -0.652707     2.311258     4.467887 
C      -1.101753     1.395543     0.936948 
C      -0.472920     0.093240     1.519406 
H       0.713117    -1.278999     3.829669 
H       0.811864    -0.284129     6.104650 
H      -1.026091     3.312215     4.633406 
H      -2.105445     1.223829     0.526440 
N      -1.149879     2.342268     2.039828 
C      -2.087263     3.443107     2.042921 
H      -2.277048     3.743703     1.012602 
H      -3.039172     3.179664     2.527335 
H      -1.657657     4.300986     2.567863 
O      -0.008418     1.992993     6.786730 
C      -0.481508     3.292952     7.082836 
H      -1.554156     3.384637     6.873595 
H      -0.308097     3.442124     8.148955 
H       0.066199     4.055521     6.516068 
N       1.041708    -1.456941     0.531207 
C       2.140910    -2.083412    -0.039690 
O       2.257369    -3.285776     0.069887 
C       3.134284    -1.229293    -0.795092 
H       4.083131    -1.767211    -0.747266 
H       3.266641    -0.258367    -0.312406 
C       2.715596    -1.020025    -2.268793 
H       1.839866    -0.374209    -2.308460 
H       3.531302    -0.483161    -2.763360 
C       2.436063    -2.313491    -2.992652 
C       1.194370    -2.769848    -3.122050 
H       0.970703    -3.714137    -3.616805 
C      -1.191510    -1.259586     1.315127 
H      -1.798857    -1.224206     0.406963 
H      -1.838080    -1.512803     2.156187 
C      -0.035402    -2.261809     1.140390 
H       0.299540    -2.694312     2.085826 
H      -0.278898    -3.082909     0.465454 
C       3.599104    -3.124818    -3.505016 
H       4.293738    -3.309366    -2.675089 
H       3.239805    -4.109467    -3.823110 
C       4.351578    -2.465526    -4.666282 
H       4.783044    -1.503097    -4.375635 
H       5.170758    -3.104618    -5.010234 
H       3.678721    -2.288334    -5.511267 
O       0.117937    -2.110051    -2.590628 
C      -1.148900    -2.608235    -2.994538 
H      -1.223171    -2.579576    -4.091444 
H      -1.264147    -3.653245    -2.676510 
C      -2.227464    -1.754798    -2.377955 
C      -3.317893    -2.341152    -1.745174 
C      -2.152721    -0.364428    -2.457426 
C      -4.327581    -1.552560    -1.201248 
H      -3.380136    -3.423655    -1.672770 
C      -3.158106     0.424934    -1.916248 
H      -1.296766     0.096815    -2.938880 
C      -4.249296    -0.168910    -1.286501 
H      -5.175237    -2.021766    -0.712026 
H      -3.091012     1.506610    -1.983432 
H      -5.038280     0.447844    -0.867562 
C       0.712601    -0.121178     0.585229 
O       0.509830     0.566151    -0.538877 
C      -0.130258     1.716401    -0.191401 
N       2.005404     1.177379     1.289214 
N       1.631011     2.208005     0.995236 
C      -0.369244     2.690542    -1.239160 
O      -1.224158     3.551827    -1.169793 
O       0.459956     2.548881    -2.289450 
C       0.292532     3.517403    -3.330481 
H      -0.717229     3.467005    -3.744498 
H       0.470552     4.524312    -2.946157 
H       1.031158     3.262837    -4.090180 
74
     -1835.281200     -1834.749847   1.03   0.43
C      -0.001067    -2.435103    -1.767597 
C      -0.309846    -1.958187    -0.492596 
C      -1.627557    -1.883493    -0.085774 
C      -2.640948    -2.273243    -0.950264 
C      -2.324464    -2.752161    -2.223240 
C      -0.999582    -2.845427    -2.650079 
C       2.070062    -2.014779    -0.808741 
C       0.972297    -1.679076     0.249815 
H      -1.892362    -1.525387     0.902590 
H      -3.681326    -2.227120    -0.653843 
H      -0.743248    -3.211183    -3.634403 
H       2.754364    -2.806263    -0.468570 
N       1.355983    -2.432568    -2.004437 
C       1.985385    -3.273756    -2.998530 
H       1.827728    -4.344007    -2.799112 
H       1.587060    -3.043356    -3.990459 
H       3.053991    -3.060723    -3.011410 
O      -3.388138    -3.112494    -2.991618 
C      -3.133380    -3.598403    -4.295743 
H      -2.624593    -2.845510    -4.909710 
H      -2.530600    -4.514213    -4.269836 
H      -4.108075    -3.820428    -4.731187 
N       0.912220     0.046962     1.896087 
C       0.970990     1.247139     2.585820 
O       0.541848     1.301998     3.720097 
C       1.647161     2.430894     1.924643 
H       1.922081     2.227979     0.892466 
H       2.578726     2.552661     2.488717 
C       0.807486     3.723190     2.018185 
H       0.163113     3.658020     2.898353 
H       1.480066     4.570765     2.179410 
C      -0.011232     3.981320     0.773588 
C      -1.114047     3.292544     0.502169 
H      -1.683289     3.454363    -0.411728 
C       1.028147    -2.307140     1.661255 
H       2.066343    -2.525801     1.931801 
H       0.447884    -3.228284     1.726942 
C       0.471501    -1.193969     2.567059 
H      -0.616360    -1.220646     2.647408 
H       0.880915    -1.210825     3.577099 
C       0.491543     5.010357    -0.207586 
H      -0.253842     5.160225    -0.995900 
H       0.598024     5.973903     0.308426 
C       1.832848     4.630222    -0.846070 
H       2.615646     4.509955    -0.090790 
H       1.748062     3.687258    -1.394683 
H       2.164234     5.404689    -1.544812 
O      -1.613422     2.337848     1.344187 
C      -2.680673     1.587498     0.789372 
H      -3.459122     2.269505     0.418963 
H      -2.313208     1.004020    -0.066680 
C      -3.277891     0.660981     1.819522 
C      -2.737453     0.513626     3.091914 
C      -4.400560    -0.087099     1.464816 
C      -3.309586    -0.382939     3.991368 
H      -1.868143     1.090149     3.384101 
C      -4.967987    -0.981445     2.360484 
H      -4.828797     0.027716     0.471835 
C      -4.419835    -1.133606     3.630908 
H      -2.879068    -0.489985     4.982396 
H      -5.839965    -1.559006     2.069912 
H      -4.861745    -1.830781     4.335713 
C       1.329248    -0.242544     0.616265 
O       2.592945    -0.002597     0.257232 
C       2.811342    -0.689534    -0.901189 
N       0.561590     0.758271    -0.883260 
N       1.212790     0.560728    -1.790225 
C       4.068539    -0.475078    -1.593681 
O       4.526177    -1.259700    -2.400079 
O       4.652481     0.692021    -1.272210 
C       5.876202     0.968224    -1.962987 
H       6.619801     0.197207    -1.749659 
H       5.703951     1.009224    -3.040827 
H       6.210631     1.936401    -1.591412 
74
     -1835.276116     -1834.749548   4.22   0.61
C       4.285328    -0.668760    -2.014143 
C       3.593942     0.542543    -1.991692 
C       4.258509     1.709532    -1.665263 
C       5.615191     1.675916    -1.375702 
C       6.305324     0.462509    -1.423882 
C       5.652053    -0.727947    -1.744277 
C       2.118828    -1.247927    -2.606746 
C       2.167447     0.299882    -2.414858 
H       3.731815     2.657450    -1.625582 
H       6.161361     2.574007    -1.114490 
H       6.174600    -1.673827    -1.769420 
H       1.819952    -1.535985    -3.625546 
N       3.456819    -1.731767    -2.309302 
C       3.941435    -2.973288    -2.872156 
H       3.103636    -3.662837    -2.971807 
H       4.416437    -2.829627    -3.853984 
H       4.670814    -3.429414    -2.197630 
O       7.632974     0.535513    -1.134772 
C       8.386730    -0.661596    -1.155008 
H       8.011557    -1.381699    -0.417842 
H       8.377980    -1.121940    -2.150378 
H       9.408014    -0.380057    -0.896836 
N       0.515387     1.784371    -1.551319 
C      -0.444833     2.419475    -0.771669 
O      -0.834598     3.522114    -1.090963 
C      -0.930803     1.661775     0.442647 
H      -0.060157     1.375099     1.039704 
H      -1.389239     0.728489     0.106223 
C      -1.931692     2.464775     1.275728 
H      -1.487486     3.424238     1.555764 
H      -2.799192     2.695376     0.651980 
C      -2.368198     1.713473     2.514164 
C      -3.227654     0.702184     2.437673 
H      -3.551033     0.140116     3.312040 
C       1.671756     1.231937    -3.545370 
H       0.920170     0.714762    -4.150581 
H       2.482515     1.555761    -4.199039 
C       1.019574     2.405062    -2.791405 
H       1.730031     3.201505    -2.557297 
H       0.184173     2.854181    -3.328971 
C      -1.786198     2.116060     3.846609 
H      -2.031671     3.169054     4.039695 
H      -2.261089     1.533866     4.644061 
C      -0.265068     1.937361     3.923013 
H       0.111294     2.222384     4.910429 
H       0.013444     0.894862     3.738913 
H       0.247721     2.558056     3.181897 
O      -3.768780     0.302618     1.242899 
C      -4.660286    -0.799703     1.326190 
H      -4.888720    -1.056078     0.288138 
H      -4.155493    -1.661994     1.782020 
C      -5.931934    -0.485666     2.085172 
C      -6.592879     0.724123     1.879319 
C      -6.466143    -1.405431     2.980893 
C      -7.773725     1.002494     2.553014 
H      -6.173221     1.450410     1.190382 
C      -7.652277    -1.130609     3.654529 
H      -5.951755    -2.346577     3.157342 
C      -8.308785     0.073704     3.440798 
H      -8.279942     1.948076     2.385432 
H      -8.059876    -1.858923     4.348567 
H      -9.233473     0.291648     3.965714 
C       1.045594     0.521079    -1.407638 
O       0.236745    -0.543889    -1.416047 
C       1.024655    -1.634575    -1.620385 
N       1.918613     0.002421     0.283505 
N       2.028304    -1.126172     0.259832 
C       0.416991    -2.949916    -1.517180 
O       0.905831    -3.946052    -2.009514 
O      -0.718251    -2.950568    -0.798236 
C      -1.325623    -4.235900    -0.626894 
H      -0.643903    -4.913096    -0.107682 
H      -2.219316    -4.060207    -0.028516 
H      -1.590253    -4.668235    -1.594269 
74
     -1835.281091     -1834.749259   1.09   0.80
C       2.160843     2.147770     0.581687 
C       0.935769     1.587222     0.977999 
C       0.860126     0.854693     2.136915 
C       2.001177     0.657006     2.922029 
C       3.208262     1.224888     2.522715 
C       3.300681     1.980637     1.348998 
C       0.661061     2.858997    -1.043202 
C      -0.133553     2.017126     0.004525 
H      -0.075884     0.418533     2.467764 
H       1.919743     0.078197     3.831534 
H       4.258772     2.401926     1.071281 
H       0.292317     3.893019    -1.117771 
N       2.046317     2.837617    -0.604353 
C       2.979527     3.868172    -1.003549 
H       2.702338     4.229140    -1.993664 
H       2.995198     4.711012    -0.296823 
H       3.988375     3.451758    -1.066954 
O       4.373597     1.101815     3.215856 
C       4.353154     0.358910     4.420266 
H       3.672698     0.807512     5.153771 
H       4.061211    -0.682834     4.241450 
H       5.371649     0.386228     4.809051 
N      -1.968660     0.524922    -0.305919 
C      -2.834714    -0.466135    -0.738414 
O      -3.821510    -0.721754    -0.078999 
C      -2.559631    -1.139847    -2.067285 
H      -1.606841    -0.838098    -2.495416 
H      -3.345805    -0.755342    -2.726792 
C      -2.653901    -2.678677    -1.984203 
H      -3.325339    -2.943708    -1.163814 
H      -3.112235    -3.054937    -2.903488 
C      -1.305606    -3.339441    -1.806889 
C      -0.662381    -3.324510    -0.644907 
H       0.324090    -3.770085    -0.527568 
C      -1.395712     2.601068     0.679621 
H      -1.874209     3.325277     0.012248 
H      -1.168654     3.094004     1.625616 
C      -2.303158     1.370903     0.858927 
H      -2.108185     0.836131     1.789832 
H      -3.366698     1.607434     0.826816 
C      -0.660109    -3.972935    -3.013740 
H       0.251800    -4.497356    -2.708940 
H      -1.336959    -4.735396    -3.421821 
C      -0.317753    -2.962223    -4.114879 
H       0.141985    -3.462707    -4.972782 
H      -1.212205    -2.444500    -4.474878 
H       0.381206    -2.206335    -3.744115 
O      -1.188029    -2.755809     0.482332 
C      -0.268274    -2.661175     1.556721 
H       0.177782    -3.646896     1.750676 
H       0.545630    -1.974606     1.283351 
C      -0.952899    -2.168296     2.807557 
C      -0.220376    -2.133719     3.994050 
C      -2.271836    -1.728613     2.810734 
C      -0.788616    -1.652006     5.164317 
H       0.808869    -2.484814     3.997866 
C      -2.842019    -1.246876     3.986652 
H      -2.856659    -1.755377     1.899322 
C      -2.105980    -1.202723     5.162446 
H      -0.206926    -1.630631     6.080560 
H      -3.872813    -0.905888     3.977176 
H      -2.555419    -0.826838     6.076095 
C      -0.802031     0.973949    -0.883362 
O      -0.809932     1.415370    -2.143714 
C       0.352582     2.104715    -2.328252 
N       0.662728    -0.295536    -1.186714 
N       1.397990     0.200298    -1.893019 
C       0.667229     2.560979    -3.669870 
O       1.449296     3.460962    -3.900451 
O       0.027407     1.863758    -4.624322 
C       0.338248     2.249474    -5.968077 
H      -0.255369     1.595095    -6.605787 
H       0.073220     3.295288    -6.138194 
H       1.404007     2.114811    -6.165831 
74
     -1835.276002     -1834.748855   4.29   1.05
C      -0.666343     3.258191    -3.134847 
C      -0.590612     1.863552    -3.275458 
C      -1.686772     1.157089    -3.706678 
C      -2.876623     1.822653    -4.021203 
C      -2.930679     3.208952    -3.901731 
C      -1.824974     3.942917    -3.458047 
C       1.515449     2.744759    -2.527752 
C       0.813060     1.417372    -2.950044 
H      -1.649202     0.076966    -3.804824 
H      -3.731741     1.252202    -4.356356 
H      -1.913367     5.018144    -3.365686 
H       2.390100     2.974472    -3.154465 
N       0.510345     3.787236    -2.648339 
C       0.886835     5.169100    -2.854014 
H       1.002917     5.414709    -3.920059 
H       0.125378     5.827856    -2.428842 
H       1.824738     5.359306    -2.333107 
O      -4.032204     3.954225    -4.191366 
C      -5.190751     3.278344    -4.643838 
H      -4.999080     2.741596    -5.580581 
H      -5.561325     2.573517    -3.890014 
H      -5.941869     4.049823    -4.816878 
N       1.066848    -0.789380    -2.089445 
C       1.145738    -1.916033    -1.278997 
O       1.223941    -3.010942    -1.793884 
C       1.122326    -1.680239     0.215036 
H       0.196776    -1.153889     0.467717 
H       1.938840    -0.999853     0.470065 
C       1.221803    -2.986070     1.007535 
H       0.380128    -3.624960     0.728445 
H       2.127963    -3.522384     0.711185 
C       1.221645    -2.757425     2.502750 
C       0.097927    -2.478130     3.156145 
H       0.072618    -2.308258     4.231189 
C       1.460325     0.517251    -4.028437 
H       2.545107     0.665154    -4.032942 
H       1.076662     0.727565    -5.027478 
C       1.128679    -0.910507    -3.559108 
H       0.174928    -1.271607    -3.951387 
H       1.892840    -1.641589    -3.823922 
C       2.529998    -2.845486     3.249198 
H       2.344812    -2.744232     4.324297 
H       2.958659    -3.845560     3.099105 
C       3.555711    -1.794246     2.809369 
H       3.161194    -0.783611     2.954388 
H       4.480102    -1.886441     3.388095 
H       3.814740    -1.906637     1.752111 
O      -1.109527    -2.387460     2.514323 
C      -2.222274    -2.140864     3.362423 
H      -2.067466    -1.214716     3.932133 
H      -3.063942    -1.979532     2.683324 
C      -2.518349    -3.285276     4.308398 
C      -2.857802    -3.037157     5.633856 
C      -2.472621    -4.602427     3.854715 
C      -3.161641    -4.086813     6.495301 
H      -2.884697    -2.014212     6.000429 
C      -2.771174    -5.651416     4.712737 
H      -2.196401    -4.802009     2.824143 
C      -3.119890    -5.396047     6.035728 
H      -3.428153    -3.878485     7.526742 
H      -2.732092    -6.673424     4.348749 
H      -3.355095    -6.217158     6.705477 
C       1.047459     0.539886    -1.726828 
O       2.062320     1.048863    -1.017057 
C       1.972878     2.402478    -1.115819 
N      -0.327417     1.210508    -0.480663 
N       0.019519     2.232070    -0.132919 
C       2.866858     3.211469    -0.304976 
O       3.122507     4.370859    -0.557320 
O       3.351789     2.552986     0.760744 
C       4.200555     3.327545     1.615941 
H       3.655466     4.184468     2.017785 
H       4.501266     2.654669     2.418407 
H       5.074336     3.685724     1.067338 
74
     -1835.275976     -1834.747953   4.30   1.62
C       2.614755    -0.824113    -3.509692 
C       2.015214    -1.660925    -2.555292 
C       0.934853    -2.434871    -2.902016 
C       0.438747    -2.408393    -4.210007 
C       1.060152    -1.595541    -5.154812 
C       2.156076    -0.794298    -4.815397 
C       3.865993    -0.477387    -1.584620 
C       2.784933    -1.554542    -1.262942 
H       0.448822    -3.071833    -2.169904 
H      -0.413755    -3.021506    -4.467650 
H       2.599781    -0.164853    -5.576642 
H       4.889556    -0.857004    -1.447510 
N       3.645472    -0.086576    -2.966805 
C       4.716508     0.465295    -3.767900 
H       4.304738     1.137549    -4.524966 
H       5.373686     1.047785    -3.122729 
H       5.300533    -0.315648    -4.277206 
O       0.666369    -1.503836    -6.454510 
C      -0.438884    -2.284660    -6.869975 
H      -0.240474    -3.355662    -6.743811 
H      -1.347359    -2.015483    -6.318081 
H      -0.581595    -2.066069    -7.928815 
N       1.562774    -1.951402     0.742599 
C       0.756920    -1.848873     1.868616 
O       0.446927    -2.856920     2.468585 
C       0.259153    -0.477924     2.263008 
H       0.915926     0.314583     1.904198 
H       0.252030    -0.450888     3.354526 
C      -1.180575    -0.269890     1.748770 
H      -1.188312    -0.362132     0.658026 
H      -1.810861    -1.064584     2.151938 
C      -1.713592     1.080826     2.155653 
C      -2.463589     1.234331     3.242287 
H      -2.836810     2.208263     3.556587 
C       3.216048    -2.912155    -0.661255 
H       4.147600    -2.788137    -0.099770 
H       3.369468    -3.673874    -1.426535 
C       2.068270    -3.266222     0.300627 
H       1.271179    -3.834273    -0.185076 
H       2.392838    -3.832849     1.173517 
C      -1.353887     2.277828     1.310107 
H      -1.604381     3.194615     1.854813 
H      -0.268296     2.300700     1.151135 
C      -2.060677     2.291212    -0.050577 
H      -1.781753     3.181908    -0.621696 
H      -1.794319     1.416812    -0.650690 
H      -3.147349     2.293885     0.081576 
O      -2.806819     0.184352     4.052886 
C      -3.815227     0.475910     5.006836 
H      -3.879895    -0.417665     5.634164 
H      -3.502746     1.312133     5.647461 
C      -5.161907     0.779556     4.382678 
C      -6.019960     1.698658     4.977855 
C      -5.568717     0.124202     3.222493 
C      -7.273678     1.952802     4.432038 
H      -5.707647     2.224060     5.876818 
C      -6.818381     0.379206     2.673690 
H      -4.898154    -0.584144     2.747311 
C      -7.676087     1.292110     3.278694 
H      -7.934240     2.670348     4.908634 
H      -7.124838    -0.137213     1.769233 
H      -8.653450     1.489138     2.849668 
C       2.099447    -0.953931    -0.043714 
O       2.908521    -0.038858     0.502463 
C       3.562935     0.571713    -0.524617 
N       0.914037     0.378382    -0.864069 
N       1.565508     1.229777    -1.230126 
C       4.391096     1.725954    -0.222602 
O       5.274255     2.118133    -0.957694 
O       4.056920     2.323897     0.932547 
C       4.819667     3.492850     1.254709 
H       4.423840     3.848247     2.205536 
H       5.879424     3.245528     1.347852 
H       4.697240     4.252593     0.479566 
74
     -1835.275694     -1834.747075   4.48   2.17
C      -0.168510    -3.170491     3.227428 
C      -0.542227    -1.839960     2.981742 
C      -1.844167    -1.445793     3.171721 
C      -2.798929    -2.361088     3.628029 
C      -2.409434    -3.671235     3.895179 
C      -1.089025    -4.090746     3.698414 
C       1.799918    -2.144688     2.546416 
C       0.682294    -1.057325     2.578344 
H      -2.152461    -0.425380     2.967649 
H      -3.820460    -2.036830     3.770795 
H      -0.831789    -5.122450     3.903305 
H       2.632767    -1.909752     3.226017 
N       1.160199    -3.391158     2.931368 
C       1.921753    -4.471400     3.520348 
H       1.993117    -4.382449     4.614568 
H       1.452215    -5.429061     3.281660 
H       2.922698    -4.471367     3.089688 
O      -3.253281    -4.636316     4.352377 
C      -4.606883    -4.285032     4.572246 
H      -5.098225    -5.189087     4.933564 
H      -4.696378    -3.496121     5.328507 
H      -5.089318    -3.955859     3.644204 
N       0.335849     0.825889     1.160346 
C       0.134565     1.677378     0.087190 
O      -0.185322     2.830208     0.298494 
C       0.278550     1.127878    -1.312247 
H       0.938871     0.262538    -1.353080 
H       0.726402     1.930201    -1.900795 
C      -1.108245     0.796875    -1.906713 
H      -1.490354    -0.125477    -1.459799 
H      -1.794637     1.603286    -1.635774 
C      -1.060016     0.669910    -3.412266 
C      -1.020951     1.766033    -4.165505 
H      -0.967523     1.730093    -5.253766 
C       0.905555     0.241482     3.386877 
H       1.976835     0.457692     3.450907 
H       0.502758     0.174020     4.398118 
C       0.203420     1.320890     2.545109 
H      -0.851281     1.438151     2.804914 
H       0.673551     2.301594     2.617562 
C      -1.033404    -0.698264    -4.042272 
H      -1.913166    -1.260407    -3.703684 
H      -1.126648    -0.598045    -5.129284 
C       0.230818    -1.499998    -3.712375 
H       0.219407    -2.468455    -4.221478 
H       1.126368    -0.956942    -4.030518 
H       0.314299    -1.693356    -2.640267 
O      -1.085763     3.013511    -3.610834 
C      -0.535465     4.054670    -4.402988 
H       0.511462     3.816470    -4.643776 
H      -1.084741     4.140137    -5.350901 
C      -0.607750     5.355262    -3.643019 
C      -0.420091     5.389751    -2.261948 
C      -0.820364     6.545426    -4.331707 
C      -0.440564     6.604564    -1.588528 
H      -0.268586     4.471034    -1.706036 
C      -0.835832     7.761271    -3.657333 
H      -0.978496     6.524074    -5.407127 
C      -0.644395     7.792646    -2.282016 
H      -0.296539     6.621553    -0.512816 
H      -1.000615     8.682523    -4.207537 
H      -0.657578     8.739423    -1.751014 
C       0.763051    -0.486072     1.169453 
O       1.948410    -0.802732     0.637923 
C       2.271862    -2.041050     1.103166 
N      -0.217103    -1.843682     0.127337 
N       0.444154    -2.762107     0.078594 
C       3.442670    -2.699214     0.551020 
O       4.019162    -3.607228     1.114155 
O       3.796269    -2.219472    -0.652654 
C       4.922561    -2.866230    -1.256905 
H       5.071947    -2.363328    -2.211866 
H       5.808010    -2.763248    -0.625858 
H       4.714751    -3.927539    -1.410046 
74
     -1835.275588     -1834.746967   4.55   2.23
C      -2.552635    -2.421574    -2.732828 
C      -1.207296    -2.254397    -2.404876 
C      -0.439384    -3.350626    -2.060176 
C      -1.004001    -4.618113    -2.059444 
C      -2.345301    -4.780557    -2.414543 
C      -3.140020    -3.686046    -2.756673 
C      -2.202442    -0.138720    -2.943961 
C      -0.843626    -0.799553    -2.557183 
H       0.603460    -3.235083    -1.782964 
H      -0.427649    -5.495427    -1.792420 
H      -4.182902    -3.800687    -3.016849 
H      -2.154132     0.384995    -3.910316 
N      -3.175200    -1.217807    -2.994722 
C      -4.360244    -1.109663    -3.818008 
H      -4.187133    -1.456944    -4.847478 
H      -5.171011    -1.700935    -3.384477 
H      -4.680219    -0.068156    -3.835450 
O      -2.801908    -6.062105    -2.394028 
C      -4.156162    -6.293262    -2.732331 
H      -4.371269    -5.973059    -3.758941 
H      -4.308342    -7.369896    -2.650947 
H      -4.833567    -5.777810    -2.040862 
N       0.922578     0.022090    -1.184345 
C       1.694363     0.526497    -0.151331 
O       2.904833     0.508326    -0.253628 
C       1.001254     1.042858     1.087263 
H      -0.016634     1.374500     0.886248 
H       1.584949     1.904237     1.415924 
C       1.027446    -0.024131     2.203956 
H       0.297838    -0.808230     1.981838 
H       2.017703    -0.486962     2.207655 
C       0.754497     0.576951     3.563853 
C       1.719814     1.236518     4.199082 
H       1.570400     1.703812     5.172627 
C       0.406242    -0.540222    -3.429553 
H       0.313808     0.429055    -3.930051 
H       0.548749    -1.311557    -4.187315 
C       1.559123    -0.495727    -2.411917 
H       1.994281    -1.480264    -2.224977 
H       2.368051     0.174877    -2.701662 
C      -0.615962     0.441751     4.174660 
H      -0.869456    -0.624034     4.241522 
H      -0.593497     0.822073     5.201882 
C      -1.711958     1.168903     3.387316 
H      -1.479337     2.234587     3.295995 
H      -1.821849     0.758204     2.380827 
H      -2.679162     1.071967     3.889654 
O       2.979269     1.332163     3.676847 
C       3.741501     2.436125     4.140175 
H       3.192138     3.368654     3.941785 
H       3.893100     2.362713     5.226073 
C       5.072474     2.459842     3.431476 
C       5.178469     2.084433     2.092962 
C       6.205259     2.904108     4.106300 
C       6.404831     2.161805     1.445109 
H       4.309888     1.720868     1.554977 
C       7.431274     2.985765     3.455501 
H       6.131411     3.187629     5.153270 
C       7.532682     2.615007     2.120822 
H       6.478585     1.864598     0.403755 
H       8.306600     3.336283     3.993572 
H       8.488237     2.675270     1.609151 
C      -0.450212    -0.001445    -1.321203 
O      -1.139487     1.144441    -1.304555 
C      -2.370638     0.872008    -1.819299 
N      -1.557426    -0.845102     0.072931 
N      -2.627859    -0.527740    -0.118763 
C      -3.385224     1.909080    -1.766087 
O      -4.364631     1.914184    -2.483848 
O      -3.141096     2.835944    -0.825176 
C      -4.137507     3.858244    -0.707095 
H      -5.103626     3.419635    -0.447758 
H      -3.789532     4.516384     0.088486 
H      -4.235569     4.408446    -1.645450 
74
     -1835.278484     -1834.746964   2.73   2.24
C       0.257055     3.869872    -2.152918 
C      -0.920898     3.221623    -1.783457 
C      -2.040194     3.960761    -1.449484 
C      -1.993459     5.346700    -1.497825 
C      -0.816671     5.988200    -1.891349 
C       0.326018     5.260556    -2.225443 
C       0.780213     1.615538    -2.320594 
C      -0.709572     1.732899    -1.883435 
H      -2.959037     3.471620    -1.142766 
H      -2.853717     5.952182    -1.239995 
H       1.245216     5.749071    -2.516681 
H       0.895555     1.102369    -3.286806 
N       1.282654     2.979008    -2.403613 
C       2.396223     3.304069    -3.270013 
H       3.080222     2.456678    -3.294816 
H       2.072190     3.542596    -4.294045 
H       2.940928     4.163241    -2.870077 
O      -0.874642     7.347378    -1.916378 
C       0.288652     8.057899    -2.295509 
H       0.026501     9.115140    -2.246161 
H       1.119819     7.857790    -1.608628 
H       0.593647     7.807210    -3.318673 
N      -1.997265     0.399276    -0.392841 
C      -2.553885    -0.159358     0.749733 
O      -3.701791    -0.551099     0.713518 
C      -1.694197    -0.190887     1.993175 
H      -1.681914     0.831875     2.389148 
H      -0.663620    -0.431219     1.733135 
C      -2.224765    -1.163188     3.051505 
H      -1.647275    -1.006559     3.967476 
H      -3.265981    -0.915153     3.267399 
C      -2.120090    -2.615199     2.628113 
C      -0.931840    -3.191077     2.478084 
H      -0.811498    -4.222869     2.148638 
C      -1.796351     0.980381    -2.685535 
H      -1.359807     0.096264    -3.161208 
H      -2.243888     1.605217    -3.459484 
C      -2.814111     0.553440    -1.613648 
H      -3.594687     1.300617    -1.452656 
H      -3.305979    -0.393541    -1.838140 
C      -3.386030    -3.407551     2.423617 
H      -4.053891    -2.849565     1.759905 
H      -3.146830    -4.352976     1.924476 
C      -4.101141    -3.703009     3.748050 
H      -3.454339    -4.279641     4.417040 
H      -4.379137    -2.780379     4.266401 
H      -5.017073    -4.277301     3.576623 
O       0.231333    -2.521402     2.781226 
C       1.234081    -2.603647     1.775694 
H       0.822095    -2.304410     0.806960 
H       1.979619    -1.856177     2.058961 
C       1.880066    -3.967459     1.665561 
C       2.182468    -4.501552     0.416652 
C       2.210683    -4.690930     2.810228 
C       2.817543    -5.734720     0.308934 
H       1.917135    -3.947952    -0.480335 
C       2.839111    -5.924254     2.705281 
H       1.968107    -4.281376     3.785748 
C       3.147704    -6.448169     1.453515 
H       3.049506    -6.138789    -0.671561 
H       3.091318    -6.478967     3.603681 
H       3.641376    -7.411326     1.372552 
C      -0.729938     0.902397    -0.607710 
O       0.325699     0.073701    -0.617970 
C       1.351215     0.746500    -1.208203 
N       0.086694     2.138499     0.697881 
N       1.193720     2.183097     0.462776 
C       2.667435     0.133323    -1.246226 
O       3.532139     0.483694    -2.022649 
O       2.840624    -0.835540    -0.331285 
C       4.144924    -1.432721    -0.319185 
H       4.902932    -0.681587    -0.087371 
H       4.112797    -2.200757     0.453326 
H       4.370290    -1.878383    -1.290340 
74
     -1835.280063     -1834.746690   1.74   2.41
C      -0.643357     2.349456    -2.668194 
C       0.553837     1.709955    -2.345748 
C       1.553017     1.601739    -3.294180 
C       1.369119     2.140791    -4.559917 
C       0.176842     2.800088    -4.866933 
C      -0.846910     2.915907    -3.926239 
C      -0.931673     1.695947    -0.462590 
C       0.514341     1.295911    -0.896250 
H       2.484509     1.094243    -3.065632 
H       2.134006     2.067933    -5.323322 
H      -1.778868     3.411649    -4.159128 
H      -0.932492     2.382223     0.397346 
N      -1.542307     2.321985    -1.622258 
C      -2.610870     3.285573    -1.475181 
H      -3.266233     3.253822    -2.349703 
H      -3.207611     3.015505    -0.604271 
H      -2.234713     4.312820    -1.358291 
O       0.096920     3.303168    -6.128838 
C      -1.091113     3.972534    -6.505783 
H      -1.959920     3.305724    -6.448766 
H      -1.268018     4.855005    -5.879124 
H      -0.945505     4.287613    -7.539446 
N       1.822013    -0.591431    -0.240545 
C       2.267252    -1.847142     0.158290 
O       3.379950    -1.965273     0.623735 
C       1.369609    -3.035433    -0.124661 
H       1.759682    -3.445595    -1.063723 
H       0.341967    -2.732634    -0.316499 
C       1.422650    -4.106568     0.985164 
H       1.512220    -5.096664     0.529808 
H       2.331452    -3.950457     1.572720 
C       0.203271    -4.087010     1.880447 
C      -0.068527    -3.048750     2.663157 
H      -0.959312    -3.012270     3.288202 
C       1.731516     1.773420    -0.071235 
H       1.441595     1.939143     0.968666 
H       2.161281     2.694074    -0.467229 
C       2.707649     0.588043    -0.150090 
H       3.359642     0.636835    -1.025693 
H       3.332960     0.490138     0.733714 
C      -0.758463    -5.245813     1.805240 
H      -0.215884    -6.181383     1.993957 
H      -1.508666    -5.154617     2.598260 
C      -1.463679    -5.332378     0.445799 
H      -2.167393    -6.170198     0.419321 
H      -2.017278    -4.410558     0.240982 
H      -0.745244    -5.475843    -0.367394 
O       0.747309    -1.952189     2.733918 
C       0.206643    -0.887594     3.502300 
H      -0.783240    -0.615671     3.117233 
H       0.081923    -1.219193     4.544741 
C       1.126320     0.305278     3.460715 
C       2.506812     0.149635     3.369956 
C       0.591634     1.586275     3.579332 
C       3.338330     1.263101     3.408624 
H       2.928474    -0.842843     3.255588 
C       1.422904     2.699602     3.623436 
H      -0.485984     1.714949     3.639560 
C       2.801186     2.539370     3.538491 
H       4.413857     1.131413     3.339258 
H       0.993698     3.691604     3.724386 
H       3.454130     3.405560     3.573499 
C       0.542715    -0.185966    -0.537043 
O      -0.454548    -0.454651     0.305988 
C      -1.500451     0.345824    -0.046149 
N      -0.396690    -0.975416    -2.083630 
N      -1.488955    -0.688990    -1.978678 
C      -2.772145     0.141913     0.615413 
O      -3.656655     0.974101     0.637757 
O      -2.886939    -1.077161     1.180641 
C      -4.164003    -1.354364     1.764709 
H      -4.948809    -1.296051     1.007170 
H      -4.093519    -2.366906     2.161866 
H      -4.387266    -0.642859     2.562972 
74
     -1835.279033     -1834.746485   2.39   2.54
C      -0.069497     4.176937     0.367165 
C      -0.135843     3.142519     1.314007 
C       0.507120     3.276014     2.520461 
C       1.215145     4.445567     2.818069 
C       1.250205     5.474936     1.880900 
C       0.606822     5.352453     0.644506 
C      -1.372771     2.552494    -0.658205 
C      -1.021636     2.045547     0.775374 
H       0.481583     2.479217     3.256707 
H       1.718260     4.533679     3.771005 
H       0.670817     6.170385    -0.062227 
H      -2.457908     2.637914    -0.819062 
N      -0.730081     3.847124    -0.796955 
C      -1.233358     4.842346    -1.718563 
H      -0.411292     5.469653    -2.072873 
H      -1.664188     4.336226    -2.581921 
H      -1.991841     5.491731    -1.256793 
O       1.898608     6.656149     2.073288 
C       2.574935     6.849725     3.301685 
H       1.881792     6.804116     4.150084 
H       3.369607     6.107103     3.440815 
H       3.016530     7.845490     3.249272 
N      -0.605084    -0.169499     1.549543 
C      -0.094769    -1.447350     1.760960 
O      -0.348316    -2.020397     2.797879 
C       0.723472    -2.032464     0.634258 
H       1.457084    -1.291336     0.304327 
H       0.037154    -2.182336    -0.204487 
C       1.391086    -3.358406     1.006690 
H       2.197365    -3.167130     1.722640 
H       0.667440    -3.997187     1.509524 
C       1.926026    -4.054791    -0.219969 
C       1.428521    -5.215502    -0.637065 
H       1.779889    -5.694653    -1.553618 
C      -2.148797     1.614413     1.741938 
H      -3.012575     1.258012     1.170797 
H      -2.472855     2.428517     2.391217 
C      -1.522895     0.447311     2.525618 
H      -0.976256     0.778900     3.411345 
H      -2.250620    -0.298484     2.846779 
C       3.027765    -3.389445    -1.010215 
H       3.234363    -3.985788    -1.905267 
H       2.689078    -2.408253    -1.367019 
C       4.321198    -3.211562    -0.206796 
H       4.674476    -4.173610     0.177589 
H       5.109746    -2.783988    -0.833629 
H       4.176017    -2.541299     0.645376 
O       0.472685    -5.923782     0.051770 
C      -0.767618    -6.044894    -0.647163 
H      -0.586445    -6.367743    -1.680753 
H      -1.315085    -6.837481    -0.130814 
C      -1.546825    -4.751999    -0.623223 
C      -1.608185    -3.929399    -1.743736 
C      -2.170676    -4.339657     0.552864 
C      -2.281191    -2.713067    -1.693197 
H      -1.116325    -4.237864    -2.662303 
C      -2.844530    -3.127730     0.608768 
H      -2.113358    -4.967571     1.437369 
C      -2.899774    -2.311458    -0.516004 
H      -2.307265    -2.069257    -2.565932 
H      -3.316136    -2.816544     1.535368 
H      -3.417900    -1.358720    -0.475243 
C      -0.418219     0.676841     0.480652 
O      -0.772540     0.297555    -0.749675 
C      -0.813905     1.423151    -1.514764 
N       1.414172     1.169141    -0.075954 
N       1.321647     1.650363    -1.098724 
C      -1.019471     1.278320    -2.944119 
O      -1.418112     2.179490    -3.652646 
O      -0.692427     0.057042    -3.405372 
C      -0.806649    -0.105277    -4.823965 
H      -1.835203     0.064864    -5.150038 
H      -0.148610     0.596844    -5.340643 
H      -0.503582    -1.132159    -5.027678 
74
     -1835.278945     -1834.746474   2.44   2.54
C       3.026588     0.377229    -2.673724 
C       3.199409     0.799664    -1.355556 
C       4.310844     0.392653    -0.641906 
C       5.261369    -0.419423    -1.244000 
C       5.094274    -0.815940    -2.572865 
C       3.975365    -0.423948    -3.308161 
C       1.165697     1.695805    -2.257652 
C       2.069547     1.728364    -0.986311 
H       4.451833     0.695219     0.390587 
H       6.141047    -0.754936    -0.708519 
H       3.829269    -0.739115    -4.331786 
H       1.007183     2.697134    -2.684964 
N       1.840841     0.832981    -3.212437 
C       1.635858     0.994271    -4.635645 
H       0.613325     1.329960    -4.805332 
H       2.338028     1.715350    -5.079877 
H       1.759188     0.033349    -5.142087 
O       6.085555    -1.600748    -3.075703 
C       5.969638    -2.046108    -4.413599 
H       5.072124    -2.660719    -4.553027 
H       5.945586    -1.202748    -5.114256 
H       6.855289    -2.651625    -4.608313 
N       1.461247     1.858093     1.315858 
C       0.944075     1.643247     2.585298 
O       1.443893     2.215720     3.532580 
C      -0.220699     0.693591     2.736424 
H      -0.771251     0.573736     1.806872 
H      -0.882767     1.149626     3.476539 
C       0.242945    -0.685961     3.242841 
H       0.860081    -1.156297     2.470883 
H       0.876952    -0.549040     4.123770 
C      -0.924846    -1.587021     3.584957 
C      -1.742211    -2.039783     2.638937 
H      -2.597731    -2.677672     2.856739 
C       2.531396     3.084337    -0.405596 
H       1.800307     3.862070    -0.649272 
H       3.505955     3.388755    -0.788889 
C       2.546377     2.838222     1.112286 
H       3.497217     2.431808     1.464649 
H       2.331179     3.731005     1.699464 
C      -1.165814    -1.932633     5.032444 
H      -1.959787    -2.684163     5.102700 
H      -0.260331    -2.394638     5.447603 
C      -1.542841    -0.712824     5.881861 
H      -0.750310     0.041828     5.873268 
H      -2.455285    -0.244486     5.498990 
H      -1.716981    -0.999869     6.923551 
O      -1.557510    -1.718270     1.322646 
C      -2.561279    -2.169060     0.429831 
H      -2.182817    -1.920099    -0.564998 
H      -2.658897    -3.261409     0.491713 
C      -3.912451    -1.518173     0.648402 
C      -4.019760    -0.250237     1.213711 
C      -5.069084    -2.175115     0.237621 
C      -5.263688     0.351096     1.360463 
H      -3.124255     0.272805     1.528267 
C      -6.314287    -1.573153     0.377496 
H      -4.998131    -3.168604    -0.198225 
C      -6.414699    -0.306318     0.940091 
H      -5.333519     1.340635     1.801783 
H      -7.206687    -2.097105     0.049841 
H      -7.385551     0.165658     1.053154 
C       1.087932     1.312126     0.103791 
O      -0.160238     1.471722    -0.348985 
C      -0.138121     1.170022    -1.677388 
N       1.070550    -0.638818    -0.111904 
N       0.518017    -0.859027    -1.075370 
C      -1.396652     1.079147    -2.392937 
O      -1.477725     1.184318    -3.600616 
O      -2.446976     0.833190    -1.593397 
C      -3.704402     0.690731    -2.268455 
H      -3.657344    -0.134372    -2.982798 
H      -4.437144     0.484397    -1.489770 
H      -3.953914     1.609595    -2.803589 
74
     -1835.277225     -1834.746322   3.52   2.64
C       2.242850     0.526023     3.981264 
C       2.061819    -0.461042     2.999808 
C       3.143349    -1.158831     2.520238 
C       4.425705    -0.901857     3.017254 
C       4.588323     0.061290     4.009892 
C       3.497835     0.785781     4.504075 
C      -0.047353     0.522333     3.596968 
C       0.588110    -0.588051     2.703711 
H       3.022189    -1.912491     1.748792 
H       5.267623    -1.457303     2.627806 
H       3.670078     1.536059     5.265637 
H      -0.782616     0.117346     4.308324 
N       1.056085     1.151449     4.301903 
C       0.847232     1.829110     5.563190 
H       0.924348     1.145229     6.421533 
H       1.589772     2.621690     5.685581 
H      -0.139476     2.291473     5.554931 
O       5.787136     0.380762     4.569338 
C       6.936610    -0.310383     4.116353 
H       6.853327    -1.387734     4.302571 
H       7.110059    -0.138192     3.047427 
H       7.774493     0.091110     4.687343 
N      -0.013831    -1.323302     0.517836 
C      -0.326621    -1.409660    -0.830034 
O      -0.416220    -2.504276    -1.348636 
C      -0.571170    -0.129052    -1.589974 
H      -0.221931    -0.313065    -2.606670 
H      -0.000034     0.702406    -1.177171 
C      -2.077146     0.209145    -1.636848 
H      -2.626366    -0.703903    -1.882519 
H      -2.412862     0.544211    -0.652843 
C      -2.373074     1.267006    -2.676151 
C      -2.423085     0.933977    -3.963058 
H      -2.609276     1.661563    -4.753386 
C       0.045610    -2.034100     2.779064 
H      -1.005130    -2.020302     3.086146 
H       0.605940    -2.650272     3.483131 
C       0.160974    -2.542859     1.331200 
H       1.129807    -3.002290     1.122090 
H      -0.612334    -3.261955     1.060984 
C      -2.579608     2.692755    -2.235489 
H      -2.861385     3.304012    -3.100049 
H      -3.428380     2.725180    -1.539265 
C      -1.350202     3.302244    -1.551914 
H      -1.097831     2.765108    -0.634495 
H      -0.481876     3.273036    -2.217619 
H      -1.534601     4.345795    -1.278244 
O      -2.280656    -0.364807    -4.366065 
C      -1.793289    -0.535001    -5.688415 
H      -2.503151    -0.110896    -6.412103 
H      -0.840551     0.004184    -5.798939 
C      -1.590297    -2.004233    -5.960202 
C      -1.865808    -2.519409    -7.222619 
C      -1.087333    -2.850836    -4.972793 
C      -1.633811    -3.860890    -7.506766 
H      -2.268894    -1.867402    -7.993479 
C      -0.860500    -4.191420    -5.255682 
H      -0.880982    -2.471042    -3.977907 
C      -1.128870    -4.700004    -6.522213 
H      -1.851248    -4.249034    -8.497035 
H      -0.471512    -4.843163    -4.479762 
H      -0.948097    -5.748236    -6.739067 
C       0.072827    -0.206781     1.322194 
O      -0.988396     0.593454     1.459602 
C      -0.758430     1.372501     2.552315 
N       1.290336     1.276527     0.843782 
N       0.988213     2.160133     1.486847 
C      -1.702226     2.439132     2.835104 
O      -1.802221     2.971833     3.920763 
O      -2.430038     2.790297     1.760895 
C      -3.331438     3.883198     1.964769 
H      -4.071231     3.633599     2.728514 
H      -2.783939     4.775538     2.276068 
H      -3.815328     4.047587     1.002180 
74
     -1835.278913     -1834.746303   2.46   2.65
C      -0.624703     1.682008     3.740889 
C      -0.474287     0.348402     3.360279 
C       0.224280    -0.524651     4.172870 
C       0.759704    -0.076890     5.372201 
C       0.582814     1.253924     5.757687 
C      -0.112229     2.153489     4.949060 
C      -1.732130     1.550255     1.707980 
C      -1.215626     0.121785     2.066282 
H       0.367798    -1.560752     3.884299 
H       1.313450    -0.738173     6.027302 
H      -0.241273     3.188878     5.231569 
H      -2.825838     1.585101     1.593765 
N      -1.302228     2.418184     2.790777 
C      -2.021650     3.633721     3.103844 
H      -1.336781     4.376318     3.521812 
H      -2.433267     4.044052     2.182198 
H      -2.834706     3.464072     3.825264 
O       1.135097     1.592362     6.954328 
C       1.001168     2.929703     7.396231 
H       1.474638     3.629948     6.697534 
H      -0.052806     3.203091     7.527122 
H       1.509612     2.982045     8.359393 
N      -0.419659    -1.612819     0.638385 
C       0.289967    -2.377455    -0.283423 
O       0.193913    -3.584690    -0.247961 
C       1.111742    -1.610754    -1.292509 
H       1.702742    -0.853554    -0.769356 
H       0.402683    -1.067213    -1.923991 
C       1.993724    -2.515691    -2.156065 
H       2.807095    -2.917496    -1.542687 
H       1.408554    -3.366189    -2.500701 
C       2.546004    -1.759162    -3.338624 
C       2.202351    -2.065698    -4.586293 
H       2.561132    -1.485876    -5.439639 
C      -2.198575    -1.071161     2.102867 
H      -3.034651    -0.885997     1.420168 
H      -2.597816    -1.248788     3.102099 
C      -1.353346    -2.248952     1.586655 
H      -0.805449    -2.756225     2.383983 
H      -1.937365    -3.001676     1.056317 
C       3.481255    -0.600329    -3.086797 
H       3.716409    -0.118229    -4.041631 
H       2.976286     0.159132    -2.476073 
C       4.782805    -1.017597    -2.392572 
H       5.301125    -1.788693    -2.971236 
H       5.455463    -0.161072    -2.285595 
H       4.594316    -1.417251    -1.391935 
O       1.410741    -3.140794    -4.913857 
C       0.159725    -2.775847    -5.499776 
H       0.319467    -2.039771    -6.298550 
H      -0.227740    -3.693042    -5.950506 
C      -0.801440    -2.238734    -4.466824 
C      -1.058561    -0.875067    -4.365310 
C      -1.401990    -3.109127    -3.558996 
C      -1.901766    -0.385404    -3.373249 
H      -0.586984    -0.187695    -5.062434 
C      -2.245018    -2.626381    -2.567910 
H      -1.193444    -4.173401    -3.620128 
C      -2.495485    -1.261538    -2.473467 
H      -2.081051     0.681226    -3.289523 
H      -2.696414    -3.316439    -1.862291 
H      -3.146986    -0.877789    -1.694940 
C      -0.432285    -0.247596     0.810936 
O      -0.804650     0.554852    -0.189666 
C      -1.065269     1.774432     0.357142 
N       1.263621     0.719803     1.109255 
N       1.034655     1.822175     0.972270 
C      -1.338222     2.887127    -0.533237 
O      -1.912791     3.895813    -0.178387 
O      -0.861926     2.699764    -1.777901 
C      -1.041772     3.807158    -2.668457 
H      -2.103091     4.033869    -2.792536 
H      -0.531524     4.692064    -2.281762 
H      -0.601542     3.496901    -3.615964 
74
     -1835.278462     -1834.746173   2.74   2.73
C       3.771098    -0.258875    -1.301714 
C       3.501280     0.303208    -0.053851 
C       4.168253    -0.154736     1.066699 
C       5.117974    -1.159121     0.945212 
C       5.401509    -1.698005    -0.311861 
C       4.733369    -1.256549    -1.454227 
C       2.154696     1.343065    -1.744674 
C       2.497306     1.415961    -0.224333 
H       3.957069     0.257069     2.048170 
H       5.654694    -1.538534     1.806096 
H       4.934327    -1.678828    -2.428792 
H       2.350201     2.292833    -2.264381 
N       2.978862     0.279859    -2.294639 
C       3.361361     0.281046    -3.690073 
H       2.556366     0.728152    -4.272432 
H       4.294876     0.835671    -3.866974 
H       3.496123    -0.745370    -4.041345 
O       6.355265    -2.668327    -0.328106 
C       6.680195    -3.263277    -1.569955 
H       5.810235    -3.763439    -2.012364 
H       7.072427    -2.522294    -2.276959 
H       7.452385    -4.003273    -1.357652 
N       1.092143     1.919838     1.635047 
C       0.102049     1.939087     2.607271 
O       0.294112     2.556022     3.635388 
C      -1.175900     1.177441     2.346389 
H      -1.341376     1.010795     1.285260 
H      -1.982586     1.807031     2.731332 
C      -1.183387    -0.170938     3.091996 
H      -0.400306    -0.812573     2.675263 
H      -0.933411     0.011284     4.140818 
C      -2.529389    -0.858144     2.995792 
C      -2.998208    -1.297285     1.831453 
H      -3.971131    -1.777022     1.733231 
C       2.932223     2.760440     0.402241 
H       2.496644     3.591841    -0.161457 
H       4.016238     2.878855     0.417506 
C       2.325191     2.711556     1.814345 
H       2.984181     2.230279     2.540660 
H       2.061129     3.693110     2.208046 
C      -3.335293    -1.034427     4.257885 
H      -3.424710    -0.064137     4.764783 
H      -4.353414    -1.348893     4.003573 
C      -2.718238    -2.053518     5.223543 
H      -2.650333    -3.037687     4.749771 
H      -1.708452    -1.759374     5.525080 
H      -3.323384    -2.149882     6.130448 
O      -2.281645    -1.161774     0.674658 
C      -2.940584    -1.569974    -0.511843 
H      -2.178821    -1.499906    -1.292596 
H      -3.247343    -2.621566    -0.431040 
C      -4.135403    -0.711025    -0.873890 
C      -4.203208     0.626446    -0.492163 
C      -5.165678    -1.248269    -1.640434 
C      -5.281807     1.413164    -0.876415 
H      -3.401161     1.056043     0.096585 
C      -6.243185    -0.461559    -2.031496 
H      -5.127147    -2.293355    -1.937559 
C      -6.303688     0.873279    -1.650025 
H      -5.322181     2.454977    -0.573380 
H      -7.037525    -0.894306    -2.631519 
H      -7.144547     1.489858    -1.951478 
C       1.118433     1.279958     0.411986 
O       0.185324     1.549197    -0.507193 
C       0.657526     1.079872    -1.696101 
N       0.842154    -0.661553     0.333291 
N       0.666895    -0.926020    -0.753623 
C      -0.228486     1.074520    -2.844524 
O       0.175820     1.034606    -3.989553 
O      -1.529746     1.082088    -2.512962 
C      -2.439622     1.031367    -3.620448 
H      -2.271848     0.123836    -4.204859 
H      -3.437394     1.029565    -3.184168 
H      -2.299387     1.900589    -4.266765 
74
     -1835.280096     -1834.746136   1.72   2.76
C      -0.337884     2.750584    -1.755722 
C       0.144402     1.458518    -1.543197 
C      -0.351336     0.405569    -2.286694 
C      -1.337886     0.633864    -3.236051 
C      -1.814823     1.929713    -3.444471 
C      -1.319002     3.009054    -2.712012 
C       1.310430     3.024603    -0.141695 
C       1.239929     1.511134    -0.510254 
H       0.018484    -0.603784    -2.144644 
H      -1.743480    -0.172461    -3.835167 
H      -1.684013     4.015028    -2.863879 
H       2.290788     3.469222    -0.368742 
N       0.262545     3.668073    -0.920797 
C       0.308285     5.084427    -1.210732 
H      -0.706967     5.482867    -1.288667 
H       0.805537     5.595153    -0.386519 
H       0.841171     5.300688    -2.148448 
O      -2.777428     2.049512    -4.398682 
C      -3.307485     3.336433    -4.652673 
H      -4.054353     3.206282    -5.436357 
H      -3.787690     3.753480    -3.759310 
H      -2.530231     4.026089    -5.003294 
N       1.470615    -0.424392     0.859488 
C       1.362062    -1.399583     1.836376 
O       1.894052    -2.477398     1.655242 
C       0.606962    -1.075057     3.108337 
H       0.668126    -0.010871     3.341837 
H       1.134406    -1.621546     3.890947 
C      -0.882260    -1.495219     3.082202 
H      -1.273371    -1.345603     4.094815 
H      -1.425628    -0.809776     2.429672 
C      -1.160020    -2.914468     2.646500 
C      -1.383733    -3.190926     1.365666 
H      -1.601448    -4.197324     1.011496 
C       2.523926     0.751090    -0.911346 
H       3.394199     1.208572    -0.429449 
H       2.682956     0.749739    -1.990536 
C       2.289983    -0.661559    -0.348543 
H       1.759183    -1.309602    -1.047104 
H       3.209070    -1.169385    -0.055994 
C      -1.198865    -4.019546     3.672410 
H      -1.977272    -3.796397     4.415040 
H      -1.500728    -4.950279     3.179811 
C       0.135204    -4.243878     4.394923 
H       0.949718    -4.362128     3.674814 
H       0.382664    -3.402417     5.048907 
H       0.087539    -5.139601     5.021811 
O      -1.326478    -2.220523     0.401639 
C      -1.820432    -2.580545    -0.874546 
H      -2.708389    -3.218926    -0.765733 
H      -2.140805    -1.646229    -1.341771 
C      -0.801509    -3.270159    -1.762494 
C      -1.123481    -3.486179    -3.102555 
C       0.435281    -3.693138    -1.286567 
C      -0.227567    -4.114995    -3.955357 
H      -2.087454    -3.156430    -3.483218 
C       1.334778    -4.323126    -2.143717 
H       0.714708    -3.527474    -0.252003 
C       1.008888    -4.536862    -3.475648 
H      -0.493784    -4.276562    -4.995233 
H       2.297156    -4.647819    -1.760130 
H       1.712762    -5.029482    -4.138906 
C       1.003204     0.872144     0.853094 
O       1.399011     1.726263     1.803733 
C       1.097460     2.978786     1.364795 
N      -0.913882     1.237925     1.137568 
N      -1.014679     2.340323     1.376797 
C       1.295125     4.090936     2.277431 
O       1.391264     5.243368     1.905874 
O       1.330632     3.714161     3.565461 
C       1.478890     4.783512     4.507188 
H       1.486489     4.310832     5.488776 
H       2.413095     5.321619     4.332374 
H       0.643384     5.482080     4.423821 
74
     -1835.277498     -1834.746134   3.35   2.76
C       3.051024    -0.524914     2.459158 
C       1.751365    -0.641484     2.951869 
C       1.370669    -1.783406     3.630801 
C       2.287404    -2.804938     3.835493 
C       3.594080    -2.670094     3.360762 
C       3.996369    -1.528841     2.665928 
C       2.043477     1.478156     1.864606 
C       1.002553     0.633461     2.660273 
H       0.358099    -1.897054     4.004151 
H       2.017083    -3.711890     4.362319 
H       5.001386    -1.422348     2.282438 
H       2.272030     2.434201     2.358761 
N       3.238733     0.655129     1.767824 
C       4.541510     1.260965     1.594647 
H       5.204199     0.574535     1.061191 
H       4.431838     2.158780     0.987048 
H       5.010931     1.523598     2.554461 
O       4.419714    -3.719873     3.621122 
C       5.754189    -3.650163     3.156257 
H       5.792088    -3.569941     2.063169 
H       6.288303    -2.802387     3.602077 
H       6.231187    -4.580323     3.466430 
N      -1.357853     0.453360     2.391698 
C      -2.645283     0.235990     1.922261 
O      -3.567622     0.214095     2.712476 
C      -2.846912     0.053386     0.437967 
H      -3.637044    -0.692288     0.332100 
H      -1.952135    -0.321789    -0.055393 
C      -3.285898     1.374072    -0.225844 
H      -4.124333     1.796517     0.336929 
H      -2.460652     2.088924    -0.167747 
C      -3.688184     1.171971    -1.670956 
C      -2.773094     0.908068    -2.599056 
H      -3.028014     0.739185    -3.644059 
C       0.299605     1.257280     3.887756 
H       0.256767     2.345401     3.775545 
H       0.812957     1.023487     4.821165 
C      -1.120589     0.668765     3.833400 
H      -1.206197    -0.275970     4.375404 
H      -1.884729     1.342295     4.221378 
C      -5.150469     1.240745    -2.030962 
H      -5.547576     2.220747    -1.734125 
H      -5.262958     1.176043    -3.118841 
C      -5.987662     0.140969    -1.367045 
H      -5.943025     0.207171    -0.275581 
H      -7.038901     0.219445    -1.661385 
H      -5.624340    -0.849909    -1.657990 
O      -1.446474     0.823122    -2.283767 
C      -0.569861     0.548177    -3.368433 
H      -0.668559     1.324871    -4.138876 
H       0.432116     0.618864    -2.939642 
C      -0.792279    -0.815961    -3.981874 
C      -0.944143    -0.960138    -5.356218 
C      -0.839212    -1.949640    -3.170776 
C      -1.132685    -2.217988    -5.921260 
H      -0.916239    -0.081027    -5.995057 
C      -1.032033    -3.204313    -3.731272 
H      -0.722136    -1.844550    -2.096582 
C      -1.177374    -3.342330    -5.108865 
H      -1.247067    -2.315434    -6.996296 
H      -1.067894    -4.080883    -3.091776 
H      -1.325954    -4.325177    -5.544911 
C      -0.175605     0.601880     1.694805 
O      -0.043230     1.603051     0.819674 
C       1.287196     1.737026     0.569290 
N       0.419730    -0.778640     0.402619 
N       1.245070    -0.305467    -0.213995 
C       1.702157     2.674169    -0.460655 
O       2.833158     3.108316    -0.545840 
O       0.716488     2.983276    -1.316126 
C       1.083797     3.852412    -2.390598 
H       1.870908     3.397805    -2.997312 
H       0.176505     3.988110    -2.978902 
H       1.439532     4.811330    -2.007236 
74
     -1835.276680     -1834.746025   3.86   2.83
C       0.266309     0.377923     4.410066 
C       1.185462     0.184602     3.366827 
C       2.305298     0.975367     3.282842 
C       2.545291     1.963154     4.244210 
C       1.640211     2.126159     5.290050 
C       0.490313     1.334455     5.385224 
C      -0.628953    -1.378141     3.183269 
C       0.729961    -0.982481     2.526816 
H       3.015398     0.850684     2.471595 
H       3.429973     2.579498     4.163525 
H      -0.195543     1.504409     6.205775 
H      -0.639771    -2.423455     3.526587 
N      -0.816119    -0.469141     4.300828 
C      -1.640076    -0.834069     5.432782 
H      -2.072354     0.063857     5.881656 
H      -2.458990    -1.462303     5.083364 
H      -1.070862    -1.369984     6.206778 
O       1.783578     3.046866     6.282161 
C       2.923128     3.886102     6.249500 
H       3.849652     3.303221     6.313720 
H       2.941137     4.499037     5.340464 
H       2.844153     4.536034     7.121646 
N       1.377781    -0.980268     0.233155 
C       1.467832    -0.787277    -1.137350 
O       2.474162    -1.139956    -1.719292 
C       0.319084    -0.108193    -1.842343 
H      -0.623566    -0.261200    -1.320691 
H       0.247129    -0.582515    -2.821585 
C       0.608954     1.397551    -2.039144 
H       0.475938     1.925881    -1.090357 
H       1.653588     1.509135    -2.337061 
C      -0.277764     2.002546    -3.101789 
C       0.096404     1.986343    -4.378142 
H      -0.533308     2.386487    -5.173909 
C       1.811238    -2.063660     2.297700 
H       1.336538    -3.043652     2.184364 
H       2.525678    -2.115569     3.120063 
C       2.469778    -1.645100     0.971663 
H       3.304424    -0.954827     1.115161 
H       2.833785    -2.487182     0.383124 
C      -1.593741     2.625527    -2.706235 
H      -1.393522     3.437550    -1.995008 
H      -2.046542     3.091421    -3.588486 
C      -2.599737     1.653580    -2.078428 
H      -2.247999     1.271474    -1.117040 
H      -3.555050     2.156146    -1.899131 
H      -2.782442     0.800548    -2.739694 
O       1.325359     1.532364    -4.776469 
C       1.350457     0.886536    -6.044122 
H       0.783421     1.472034    -6.780037 
H       2.400905     0.890922    -6.348106 
C       0.826202    -0.529521    -5.978099 
C      -0.212954    -0.950553    -6.799561 
C       1.393274    -1.433162    -5.079266 
C      -0.680974    -2.259991    -6.733790 
H      -0.665170    -0.250120    -7.497014 
C       0.922854    -2.735853    -5.005590 
H       2.191706    -1.111152    -4.417456 
C      -0.114094    -3.154032    -5.835858 
H      -1.491650    -2.577164    -7.382362 
H       1.365699    -3.425022    -4.293505 
H      -0.479548    -4.174665    -5.778919 
C       0.317914    -0.738206     1.081390 
O      -0.861572    -1.327063     0.858658 
C      -1.582605    -1.214268     2.008562 
N      -0.458269     1.070577     1.186848 
N      -1.446778     0.973798     1.732204 
C      -2.975371    -1.623906     1.988630 
O      -3.598125    -1.907430     2.991391 
O      -3.504410    -1.623058     0.753581 
C      -4.889844    -1.980100     0.686752 
H      -5.044007    -2.992173     1.067341 
H      -5.491488    -1.282557     1.273669 
H      -5.156762    -1.922824    -0.368108 
74
     -1835.278020     -1834.745995   3.02   2.84
C       0.981380     3.257394    -2.747914 
C       0.316937     3.165594    -1.514722 
C       0.696563     3.971422    -0.469300 
C       1.733597     4.896529    -0.631589 
C       2.366748     4.996355    -1.867907 
C       1.996686     4.178097    -2.941060 
C      -0.625508     1.616703    -3.090950 
C      -0.799560     2.157988    -1.637030 
H       0.205002     3.900475     0.495639 
H       2.022907     5.521735     0.201732 
H       2.524289     4.277645    -3.881443 
H      -1.529242     1.759824    -3.701977 
N       0.498100     2.341196    -3.657685 
C       0.638170     2.509622    -5.087704 
H       1.696502     2.582608    -5.351165 
H       0.228215     1.632010    -5.586877 
H       0.126173     3.412185    -5.452991 
O       3.376686     5.868360    -2.136067 
C       3.806586     6.726724    -1.095633 
H       4.608425     7.333761    -1.517345 
H       2.994605     7.381607    -0.757819 
H       4.193152     6.156678    -0.242431 
N      -1.451292     1.011062     0.348854 
C      -1.564180     0.127009     1.413190 
O      -2.285421     0.413685     2.347121 
C      -0.802710    -1.172663     1.338214 
H      -0.522876    -1.418599     2.362074 
H       0.110159    -1.070601     0.752461 
C      -1.692825    -2.305461     0.778082 
H      -2.680847    -2.226619     1.238123 
H      -1.815294    -2.182238    -0.300690 
C      -1.106797    -3.664335     1.085023 
C      -1.330436    -4.236391     2.264329 
H      -0.898124    -5.198897     2.539677 
C      -2.178275     2.679514    -1.169292 
H      -2.974168     2.184242    -1.734884 
H      -2.278602     3.757791    -1.298047 
C      -2.244809     2.254700     0.308840 
H      -1.816360     3.001232     0.981583 
H      -3.256248     2.039388     0.653592 
C      -0.262296    -4.353474     0.042981 
H       0.052606    -5.332228     0.421960 
H      -0.890460    -4.548496    -0.837099 
C       0.967540    -3.551822    -0.397367 
H       1.607239    -3.314787     0.458566 
H       1.561798    -4.122230    -1.118095 
H       0.681172    -2.615692    -0.883036 
O      -2.175143    -3.682877     3.189192 
C      -1.846969    -3.944534     4.548584 
H      -2.759566    -3.728206     5.110655 
H      -1.610754    -5.008399     4.683751 
C      -0.706876    -3.084543     5.043123 
C      -0.814137    -1.694213     4.989412 
C       0.452478    -3.656346     5.553800 
C       0.225131    -0.894507     5.441593 
H      -1.707859    -1.236084     4.574854 
C       1.494346    -2.855804     6.013588 
H       0.546020    -4.738587     5.592280 
C       1.381739    -1.473616     5.957577 
H       0.134145     0.185856     5.389752 
H       2.393676    -3.315187     6.411777 
H       2.193039    -0.845737     6.312462 
C      -0.735931     0.873954    -0.820143 
O      -0.969583    -0.166720    -1.623652 
C      -0.411909     0.131449    -2.829532 
N       1.212168     0.547721    -0.756095 
N       1.516005     0.214427    -1.796685 
C      -0.388216    -0.909985    -3.840794 
O      -0.242062    -0.689100    -5.024950 
O      -0.513752    -2.143324    -3.320715 
C      -0.428082    -3.216187    -4.264017 
H      -0.524640    -4.129949    -3.677932 
H      -1.231678    -3.145644    -5.000364 
H       0.533504    -3.192462    -4.781444 
74
     -1835.276155     -1834.745965   4.19   2.86
C       2.438543     0.468003     3.947451 
C       2.174324    -0.522427     2.988724 
C       3.197549    -1.303463     2.509277 
C       4.501790    -1.127360     2.983837 
C       4.745967    -0.159236     3.954648 
C       3.716018     0.649014     4.448457 
C       0.150912     0.626072     3.584709 
C       0.690205    -0.552452     2.715993 
H       3.013566    -2.061887     1.755172 
H       5.297008    -1.747800     2.594411 
H       3.951075     1.400225     5.192050 
H      -0.612440     0.300027     4.306793 
N       1.303660     1.181691     4.271857 
C       1.158826     1.885558     5.527911 
H       0.205994     2.413907     5.527005 
H       1.201994     1.207298     6.392995 
H       1.954658     2.627562     5.630983 
O       5.972214     0.086079     4.491446 
C       7.063911    -0.692384     4.037162 
H       7.936052    -0.339678     4.588739 
H       6.908457    -1.757494     4.246121 
H       7.233208    -0.553227     2.962778 
N      -0.006580    -1.302182     0.563326 
C      -0.344464    -1.399398    -0.776681 
O      -0.484675    -2.497297    -1.276657 
C      -0.572584    -0.122891    -1.549148 
H      -0.203501    -0.308602    -2.558571 
H      -0.020087     0.719633    -1.131825 
C      -2.080497     0.198184    -1.621100 
H      -2.616117    -0.713054    -1.899418 
H      -2.432255     0.505675    -0.633703 
C      -2.346093     1.283399    -2.637935 
C      -2.363542     0.986835    -3.934224 
H      -2.515020     1.738243    -4.709839 
C       0.053282    -1.956369     2.839601 
H      -0.989647    -1.865313     3.160073 
H       0.582364    -2.589912     3.552354 
C       0.113425    -2.509106     1.404429 
H       1.050131    -3.029318     1.191871 
H      -0.705037    -3.188571     1.166167 
C      -2.578329     2.692746    -2.159585 
H      -1.793802     2.968358    -1.443210 
H      -2.493410     3.385631    -3.003931 
C      -3.951962     2.865007    -1.498551 
H      -4.748190     2.563342    -2.185776 
H      -4.039892     2.257380    -0.593265 
H      -4.123626     3.909917    -1.220940 
O      -2.228019    -0.303338    -4.367413 
C      -1.645945    -0.449156    -5.654176 
H      -2.291729     0.006888    -6.417397 
H      -0.678015     0.073354    -5.678840 
C      -1.449638    -1.915043    -5.947944 
C      -1.014834    -2.790334    -4.952916 
C      -1.662208    -2.399306    -7.234370 
C      -0.792482    -4.128038    -5.251781 
H      -0.858131    -2.434907    -3.940029 
C      -1.434660    -3.738221    -7.534413 
H      -2.012217    -1.724980    -8.011877 
C      -0.997685    -4.605656    -6.542098 
H      -0.456775    -4.802006    -4.469995 
H      -1.602525    -4.102034    -8.543382 
H      -0.820680    -5.651875    -6.771389 
C       0.180979    -0.173321     1.331743 
O      -0.804054     0.719852     1.454606 
C      -0.491280     1.507061     2.520757 
N       1.510667     1.189777     0.781589 
N       1.299009     2.111877     1.405445 
C      -1.317916     2.669767     2.784883 
O      -1.362202     3.219279     3.866079 
O      -1.998555     3.093710     1.705298 
C      -2.771458     4.282105     1.911968 
H      -3.540389     4.112499     2.668822 
H      -2.127227     5.102226     2.235966 
H      -3.225424     4.509448     0.948876 
74
     -1835.276568     -1834.745962   3.93   2.87
C       0.142038     4.273159    -0.932966 
C       1.013770     3.398552    -0.284274 
C       2.350671     3.371330    -0.633662 
C       2.826571     4.227438    -1.616480 
C       1.952366     5.118780    -2.243198 
C       0.597680     5.155932    -1.911534 
C      -1.208966     3.158021     0.586724 
C       0.252823     2.647325     0.778327 
H       3.038045     2.682996    -0.152612 
H       3.868511     4.227505    -1.912331 
H      -0.088978     5.831071    -2.402603 
H      -1.615323     3.618443     1.499588 
N      -1.158825     4.125812    -0.496452 
C      -2.146320     5.178385    -0.598263 
H      -1.861227     6.075515    -0.028865 
H      -2.283705     5.461460    -1.645147 
H      -3.099155     4.801086    -0.227850 
O       2.516849     5.923446    -3.184048 
C       1.682276     6.841189    -3.864547 
H       0.892292     6.324047    -4.422389 
H       1.227798     7.558054    -3.170078 
H       2.326958     7.375077    -4.563313 
N       1.050514     0.475926     1.353866 
C       1.317214    -0.883507     1.420445 
O       2.180341    -1.280466     2.177550 
C       0.543951    -1.810677     0.514768 
H      -0.432367    -1.404668     0.257750 
H       0.391938    -2.727491     1.085229 
C       1.360334    -2.144521    -0.754913 
H       1.343204    -1.291159    -1.439391 
H       2.398367    -2.312359    -0.460330 
C       0.834894    -3.379573    -1.447769 
C       1.284421    -4.584014    -1.106294 
H       0.904314    -5.498056    -1.564494 
C       0.901148     2.693441     2.181229 
H       0.124387     2.634576     2.950514 
H       1.480155     3.604047     2.339388 
C       1.773864     1.426941     2.221223 
H       2.782100     1.597916     1.836636 
H       1.867830     0.995920     3.217892 
C      -0.205908    -3.238767    -2.530951 
H       0.207244    -2.608744    -3.329504 
H      -0.390814    -4.222275    -2.977019 
C      -1.538011    -2.638970    -2.065544 
H      -1.424481    -1.600894    -1.743834 
H      -2.266884    -2.648970    -2.881625 
H      -1.953387    -3.212556    -1.230812 
O       2.303872    -4.759142    -0.208996 
C       2.205749    -5.926522     0.598620 
H       1.943666    -6.795336    -0.019750 
H       3.212199    -6.087138     0.995025 
C       1.214057    -5.762713     1.727402 
C       1.350645    -4.695512     2.615356 
C       0.165619    -6.658932     1.899123 
C       0.448369    -4.530549     3.655747 
H       2.153116    -3.976566     2.479975 
C      -0.736119    -6.500633     2.947840 
H       0.047994    -7.488565     1.206722 
C      -0.596267    -5.435480     3.826950 
H       0.559981    -3.689086     4.332217 
H      -1.549425    -7.208746     3.072541 
H      -1.300214    -5.306599     4.643247 
C       0.076361     1.140720     0.639372 
O      -1.211898     0.833623     0.824443 
C      -1.940908     1.856164     0.296977 
N      -0.017325     0.927156    -1.315671 
N      -1.017640     1.344644    -1.646051 
C      -3.381448     1.700849     0.209545 
O      -4.144551     2.639466     0.105141 
O      -3.772581     0.415542     0.223208 
C      -5.184250     0.209479     0.096592 
H      -5.325934    -0.870667     0.118268 
H      -5.716891     0.683195     0.924117 
H      -5.546698     0.625614    -0.846001 
74
     -1835.275880     -1834.745770   4.36   2.99
C       3.160423    -2.892599    -1.183101 
C       2.526075    -2.398465    -0.032523 
C       1.865548    -3.257889     0.811001 
C       1.837566    -4.630140     0.539460 
C       2.494918    -5.111581    -0.590041 
C       3.164529    -4.247964    -1.464218 
C       3.574312    -0.608360    -1.243702 
C       2.771399    -0.913587     0.058127 
H       1.353687    -2.887525     1.693542 
H       1.311878    -5.294419     1.211343 
H       3.649256    -4.662008    -2.339519 
H       4.559064    -0.164349    -1.034480 
N       3.721230    -1.879708    -1.932075 
C       4.807317    -2.105821    -2.861024 
H       5.037343    -1.168939    -3.367727 
H       5.711353    -2.483520    -2.360658 
H       4.502314    -2.832813    -3.618023 
O       2.539608    -6.426030    -0.940219 
C       1.881332    -7.358939    -0.103333 
H       2.304347    -7.355073     0.908277 
H       0.805213    -7.155663    -0.048534 
H       2.041260    -8.337221    -0.557935 
N       1.107708     0.375517     1.173621 
C      -0.019958     1.107109     1.502803 
O      -0.236862     1.384323     2.665572 
C      -0.973048     1.478425     0.392941 
H      -0.473353     1.559616    -0.572616 
H      -1.379449     2.458037     0.651116 
C      -2.128665     0.458625     0.328337 
H      -1.734991    -0.515740     0.029120 
H      -2.555703     0.352799     1.327128 
C      -3.183289     0.926757    -0.642881 
C      -4.162412     1.725159    -0.227447 
H      -4.920205     2.128842    -0.900671 
C       3.322898    -0.435892     1.421861 
H       3.952217     0.447913     1.276279 
H       3.913090    -1.204931     1.921535 
C       2.060777    -0.054870     2.215757 
H       1.648509    -0.894997     2.779740 
H       2.219018     0.767423     2.913744 
C      -3.067472     0.516718    -2.087889 
H      -3.769358     1.103833    -2.690258 
H      -2.061527     0.760870    -2.454463 
C      -3.330949    -0.977042    -2.310750 
H      -2.610954    -1.596504    -1.768750 
H      -4.335360    -1.246519    -1.969701 
H      -3.249962    -1.227708    -3.372583 
O      -4.293469     2.060584     1.093766 
C      -4.687118     3.404998     1.332284 
H      -4.056293     4.080741     0.736585 
H      -5.730155     3.557953     1.022661 
C      -4.526429     3.707889     2.800253 
C      -5.526082     4.381744     3.492241 
C      -3.358064     3.344768     3.471343 
C      -5.364743     4.702495     4.836664 
H      -6.443186     4.657624     2.978176 
C      -3.199008     3.659970     4.813408 
H      -2.572008     2.806664     2.951304 
C      -4.199530     4.342251     5.499362 
H      -6.152577     5.230896     5.364538 
H      -2.287785     3.370893     5.327379 
H      -4.070618     4.588740     6.548712 
C       1.590796     0.036846    -0.074684 
O       1.905628     1.001568    -0.946035 
C       2.677685     0.426436    -1.908985 
N       0.436255    -0.923922    -1.352984 
N       0.933181    -0.851901    -2.368549 
C       3.030493     1.220892    -3.073134 
O       3.971385     0.957173    -3.793583 
O       2.193131     2.249847    -3.279816 
C       2.475160     3.039111    -4.441713 
H       3.472221     3.479624    -4.373133 
H       2.417815     2.423888    -5.342397 
H       1.712633     3.817067    -4.459839 
74
     -1835.273542     -1834.745587   5.83   3.10
C       4.283741     0.881870     0.934220 
C       3.475526     0.551049    -0.153474 
C       3.418049     1.388041    -1.251529 
C       4.180479     2.547028    -1.278711 
C       5.008022     2.857959    -0.196878 
C       5.072955     2.031460     0.925548 
C       3.314170    -1.135872     1.547821 
C       2.817352    -0.777674     0.114024 
H       2.776735     1.154635    -2.095323 
H       4.155669     3.223150    -2.124515 
H       5.697870     2.273305     1.773712 
H       3.866535    -2.086813     1.576186 
N       4.170692    -0.034522     1.958953 
C       5.192893    -0.219731     2.965735 
H       4.849128    -0.966885     3.680566 
H       6.151585    -0.541732     2.532873 
H       5.354356     0.714581     3.509997 
O       5.723268     4.008322    -0.323433 
C       6.572740     4.386750     0.742947 
H       6.004790     4.548963     1.666940 
H       7.349649     3.633450     0.920780 
H       7.041136     5.323071     0.438319 
N       0.696396    -1.130254    -0.911615 
C      -0.657620    -1.222241    -1.216952 
O      -0.988532    -1.695472    -2.283913 
C      -1.649186    -0.667961    -0.220987 
H      -1.322747    -0.840188     0.806523 
H      -2.579429    -1.211787    -0.389477 
C      -1.907251     0.841007    -0.440655 
H      -2.710980     1.131413     0.240959 
H      -1.019587     1.409140    -0.153412 
C      -2.286082     1.183176    -1.862987 
C      -3.513078     0.937789    -2.311024 
H      -3.831597     1.148772    -3.328353 
C       2.970761    -1.812393    -1.024182 
H       2.978555    -2.824111    -0.606091 
H       3.888563    -1.665294    -1.594987 
C       1.707329    -1.608475    -1.877974 
H       1.850457    -0.869584    -2.670462 
H       1.345133    -2.525555    -2.342080 
C      -1.199886     1.777321    -2.726728 
H      -0.898442     2.738444    -2.287905 
H      -0.313481     1.133808    -2.644326 
C      -1.535017     1.967125    -4.202988 
H      -2.368434     2.663283    -4.340916 
H      -0.673282     2.374147    -4.740299 
H      -1.801304     1.014144    -4.670383 
O      -4.468014     0.382186    -1.499382 
C      -5.689047     0.055096    -2.151266 
H      -6.216653     0.972335    -2.444847 
H      -5.472857    -0.520202    -3.062941 
C      -6.538220    -0.760489    -1.213378 
C      -6.068914    -1.985531    -0.740661 
C      -7.793132    -0.316854    -0.814450 
C      -6.843698    -2.752422     0.116301 
H      -5.087313    -2.334284    -1.047677 
C      -8.576140    -1.086199     0.041352 
H      -8.163379     0.639704    -1.173172 
C      -8.102390    -2.304175     0.508361 
H      -6.467796    -3.703588     0.480062 
H      -9.555433    -0.729551     0.344746 
H      -8.709991    -2.904925     1.177750 
C       1.305640    -0.825461     0.287238 
O       1.015952    -1.539066     1.380568 
C       1.994368    -1.285756     2.292189 
N       0.964446     0.910661     1.179597 
N       1.333100     0.814427     2.245683 
C       1.844074    -1.824781     3.632667 
O       2.777199    -1.961493     4.397732 
O       0.572382    -2.123573     3.940765 
C       0.368723    -2.614863     5.271043 
H      -0.701352    -2.802085     5.353881 
H       0.933678    -3.535909     5.430304 
H       0.686170    -1.869855     6.003990 
74
     -1835.275108     -1834.745059   4.85   3.43
C       1.180942    -3.348325    -1.376193 
C       0.405532    -3.271411    -0.208988 
C      -0.664274    -4.115812    -0.037806 
C      -0.976292    -5.066027    -1.016406 
C      -0.183425    -5.149695    -2.158173 
C       0.905417    -4.291721    -2.350737 
C       2.202781    -1.679609    -0.125194 
C       1.002666    -2.227950     0.700326 
H      -1.283485    -4.056017     0.851483 
H      -1.822834    -5.722276    -0.868872 
H       1.487556    -4.381388    -3.259397 
H       3.166028    -1.829467     0.384780 
N       2.178344    -2.394434    -1.391458 
C       3.381296    -2.550229    -2.181765 
H       3.956573    -3.442056    -1.891684 
H       3.120578    -2.636877    -3.239632 
H       4.001326    -1.663077    -2.058402 
O      -0.391650    -6.042786    -3.163946 
C      -1.477906    -6.941914    -3.039026 
H      -2.433610    -6.407327    -2.982498 
H      -1.462613    -7.560148    -3.937270 
H      -1.366213    -7.581946    -2.155739 
N      -0.524791    -1.115696     2.146336 
C      -1.562815    -0.361340     2.670825 
O      -2.049130    -0.694591     3.733540 
C      -2.079220     0.828173     1.895505 
H      -3.116157     0.573592     1.651735 
H      -1.547831     0.986080     0.959302 
C      -2.057976     2.117885     2.740030 
H      -2.809621     2.795983     2.326075 
H      -2.362106     1.881243     3.763140 
C      -0.715378     2.817913     2.727107 
C      -0.313750     3.440334     1.621383 
H       0.644184     3.953939     1.553834 
C       1.243675    -2.701202     2.151290 
H       2.096371    -2.162509     2.577025 
H       1.445118    -3.771472     2.209376 
C      -0.047838    -2.303681     2.884986 
H      -0.806288    -3.089252     2.863702 
H       0.114704    -2.032146     3.928230 
C       0.142180     2.838903     3.967777 
H       0.998940     3.500250     3.797587 
H      -0.435948     3.287691     4.786450 
C       0.648602     1.462491     4.415153 
H      -0.177621     0.803359     4.692804 
H       1.219063     0.981196     3.615007 
H       1.302129     1.561496     5.287780 
O      -1.103705     3.495977     0.507993 
C      -0.452269     3.960175    -0.674771 
H       0.013578     4.935416    -0.475753 
H       0.331203     3.250057    -0.957906 
C      -1.476292     4.087693    -1.768272 
C      -1.802608     2.987260    -2.557704 
C      -2.126515     5.297952    -1.988484 
C      -2.765495     3.098475    -3.553024 
H      -1.299883     2.038806    -2.389777 
C      -3.090121     5.412790    -2.982955 
H      -1.876448     6.157806    -1.372628 
C      -3.411054     4.311189    -3.767254 
H      -3.013653     2.236010    -4.163666 
H      -3.591103     6.362035    -3.145004 
H      -4.163600     4.396942    -4.544848 
C       0.210530    -0.959548     0.987800 
O       1.025224     0.094060     0.849802 
C       1.877024    -0.192108    -0.172028 
N      -0.685045    -0.655141    -0.756538 
N       0.114349    -0.287493    -1.470298 
C       2.812308     0.832209    -0.603883 
O       3.805879     0.586291    -1.255520 
O       2.462132     2.075131    -0.229134 
C       3.349018     3.111226    -0.667079 
H       2.930366     4.041022    -0.281497 
H       4.353183     2.951264    -0.268966 
H       3.397760     3.136358    -1.757994 
74
     -1835.277699     -1834.745013   3.22   3.46
C       0.797654     4.021196     0.704430 
C       1.017984     2.954685     1.575887 
C       1.871290     3.108096     2.652009 
C       2.495310     4.327942     2.872240 
C       2.250755     5.398252     2.008899 
C       1.398309     5.262242     0.912631 
C      -0.526769     2.317137    -0.146519 
C       0.163666     1.789169     1.147849 
H       2.067030     2.282243     3.328303 
H       3.170732     4.476678     3.705779 
H       1.214814     6.081063     0.231176 
H      -1.624237     2.308199    -0.070494 
N      -0.039006     3.673725    -0.337047 
C      -0.818391     4.644031    -1.074845 
H      -1.538304     5.176262    -0.435193 
H      -0.156281     5.380261    -1.538077 
H      -1.354347     4.129359    -1.872119 
O       2.900415     6.554035     2.315091 
C       2.704149     7.673191     1.472068 
H       3.309004     8.477469     1.891842 
H       3.037771     7.464841     0.448356 
H       1.651730     7.981256     1.456241 
N       0.993712    -0.378509     1.675992 
C       1.661479    -1.594551     1.708506 
O       1.659835    -2.238325     2.736736 
C       2.372992    -2.057805     0.456847 
H       3.190233    -2.686489     0.810355 
H       2.804557    -1.210408    -0.081062 
C       1.463128    -2.855704    -0.509051 
H       0.810119    -2.155758    -1.029694 
H       2.114240    -3.305354    -1.267004 
C       0.625131    -3.938561     0.132027 
C      -0.585125    -3.668845     0.610025 
H      -1.216813    -4.429654     1.067064 
C      -0.692936     1.179704     2.280321 
H      -1.615995     0.763937     1.864223 
H      -0.957025     1.916264     3.040145 
C       0.188699     0.047341     2.837182 
H       0.838336     0.377769     3.650670 
H      -0.384724    -0.808493     3.193859 
C       1.172214    -5.341508     0.224170 
H       0.402053    -5.996320     0.646165 
H       1.378105    -5.716999    -0.787794 
C       2.446774    -5.452498     1.069931 
H       2.300660    -4.994221     2.052064 
H       2.725608    -6.501498     1.209479 
H       3.291791    -4.952513     0.587080 
O      -1.102785    -2.398366     0.603854 
C      -2.520738    -2.332516     0.574051 
H      -2.944826    -2.861106     1.438812 
H      -2.755558    -1.269746     0.682360 
C      -3.115402    -2.874667    -0.707249 
C      -4.255555    -3.668748    -0.673659 
C      -2.536652    -2.563214    -1.937109 
C      -4.824736    -4.140626    -1.852642 
H      -4.706097    -3.924439     0.281951 
C      -3.100518    -3.038325    -3.113030 
H      -1.641382    -1.951533    -1.969292 
C      -4.247920    -3.825405    -3.074973 
H      -5.717038    -4.757324    -1.812311 
H      -2.642910    -2.798459    -4.067953 
H      -4.686927    -4.193772    -3.996732 
C       0.836657     0.517468     0.644583 
O       0.258013     0.145100    -0.498195 
C      -0.072139     1.282826    -1.167411 
N       2.427224     1.253298    -0.263115 
N       2.059596     1.748521    -1.214904 
C      -0.607967     1.148267    -2.508523 
O      -1.245666     2.019111    -3.063353 
O      -0.306296    -0.033326    -3.080669 
C      -0.796620    -0.201366    -4.415488 
H      -0.396673     0.575898    -5.069880 
H      -0.449260    -1.184047    -4.734667 
H      -1.888155    -0.155846    -4.431199 
74
     -1835.274960     -1834.744827   4.94   3.58
C      -1.973822    -2.916648     1.388772 
C      -1.501773    -1.935629     2.260176 
C      -2.333249    -1.422357     3.237782 
C      -3.631563    -1.896745     3.360328 
C      -4.089363    -2.896712     2.499125 
C      -3.268346    -3.422368     1.500707 
C       0.230926    -2.602155     0.739240 
C      -0.052322    -1.666164     1.950155 
H      -1.986555    -0.645370     3.911370 
H      -4.306494    -1.512545     4.115328 
H      -3.619146    -4.185990     0.820795 
H       1.021208    -3.337038     0.952606 
N      -1.026300    -3.274849     0.449462 
C      -1.039439    -4.561823    -0.213498 
H      -0.954511    -5.397785     0.496767 
H      -1.967569    -4.680448    -0.778659 
H      -0.210563    -4.601249    -0.919320 
O      -5.371723    -3.301693     2.706357 
C      -5.899709    -4.304386     1.859212 
H      -5.908794    -3.977848     0.812318 
H      -5.331358    -5.238465     1.944142 
H      -6.923781    -4.473689     2.193178 
N       0.725002     0.531928     2.427191 
C       0.925984     1.903237     2.456578 
O       1.283202     2.419942     3.496927 
C       0.665214     2.716862     1.210464 
H      -0.161588     3.382632     1.479979 
H       0.340255     2.109043     0.368610 
C       1.889661     3.563943     0.810135 
H       1.526323     4.413861     0.225538 
H       2.357366     3.966493     1.712602 
C       2.897719     2.799851    -0.022173 
C       2.602328     2.487708    -1.281805 
H       3.286211     1.934129    -1.923579 
C       0.888479    -1.716639     3.174758 
H       1.885789    -2.040382     2.859886 
H       0.528375    -2.400133     3.944600 
C       0.938319    -0.257820     3.658177 
H       0.162362    -0.027891     4.391545 
H       1.897370     0.019090     4.096367 
C       4.237873     2.427415     0.561234 
H       4.865807     2.003759    -0.230343 
H       4.741314     3.343770     0.896961 
C       4.170169     1.441237     1.733404 
H       5.178231     1.179743     2.070767 
H       3.635996     1.868968     2.585404 
H       3.660923     0.519859     1.435050 
O       1.424455     2.876413    -1.854815 
C       1.125132     2.256144    -3.105579 
H       1.965277     2.406758    -3.797804 
H       0.987658     1.181090    -2.951739 
C      -0.124696     2.878757    -3.663184 
C      -1.377253     2.399960    -3.285533 
C      -0.045812     3.954091    -4.542572 
C      -2.532901     2.989761    -3.782191 
H      -1.445925     1.561503    -2.597935 
C      -1.199586     4.546470    -5.041291 
H       0.929651     4.332013    -4.837198 
C      -2.446168     4.064090    -4.660673 
H      -3.504885     2.610395    -3.482783 
H      -1.125406     5.385257    -5.726301 
H      -3.349739     4.524537    -5.047817 
C       0.343947    -0.303732     1.395869 
O       1.158152    -0.488012     0.348784 
C       0.727003    -1.604504    -0.299020 
N      -1.224607     0.127307     0.262771 
N      -1.156836    -0.539453    -0.650814 
C       1.375444    -1.981534    -1.542728 
O       1.300655    -3.097504    -2.013663 
O       2.047533    -0.974893    -2.128276 
C       2.672067    -1.308375    -3.373494 
H       3.170575    -0.398077    -3.707124 
H       3.398220    -2.112275    -3.236110 
H       1.923604    -1.624829    -4.103401 
74
     -1835.277583     -1834.744823   3.29   3.58
C      -0.668266     3.904949     0.326222 
C       0.084477     3.331032    -0.710092 
C      -0.064967     3.783526    -1.998468 
C      -0.953048     4.826855    -2.281742 
C      -1.674199     5.405579    -1.240536 
C      -1.539160     4.951283     0.076046 
C       0.634794     2.305279     1.391047 
C       1.008823     2.294281    -0.121908 
H       0.496285     3.338370    -2.813557 
H      -1.061353     5.170163    -3.301274 
H      -2.129548     5.419162     0.853857 
H       1.492616     2.558722     2.031805 
N      -0.422631     3.291832     1.537416 
C      -0.650330     3.957554     2.802343 
H      -1.698812     4.255868     2.879508 
H      -0.440243     3.258114     3.610494 
H      -0.024292     4.854766     2.919138 
O      -2.554151     6.431040    -1.403715 
C      -2.744212     6.941099    -2.710490 
H      -3.135367     6.171155    -3.386174 
H      -3.475373     7.744836    -2.617217 
H      -1.810932     7.345014    -3.120568 
N       1.613355     0.486777    -1.548373 
C       1.566152    -0.625542    -2.375730 
O       2.339514    -0.697659    -3.308099 
C       0.496133    -1.653172    -2.078767 
H      -0.438926    -1.222417    -2.457587 
H       0.370518    -1.761422    -1.002583 
C       0.746246    -3.020237    -2.730453 
H      -0.228172    -3.498461    -2.874113 
H       1.181774    -2.868895    -3.720552 
C       1.617516    -3.960599    -1.919164 
C       1.205183    -4.418811    -0.739824 
H       1.800554    -5.113147    -0.147359 
C       2.488642     2.446482    -0.543076 
H       3.140085     2.066830     0.250666 
H       2.756518     3.483886    -0.746858 
C       2.604883     1.552972    -1.789966 
H       2.370738     2.086146    -2.714175 
H       3.591592     1.104488    -1.909870 
C       2.932190    -4.445742    -2.481963 
H       3.266594    -5.314098    -1.902921 
H       2.760328    -4.805847    -3.504684 
C       4.046759    -3.393765    -2.499924 
H       3.788949    -2.548425    -3.139175 
H       4.228140    -3.008296    -1.491147 
H       4.978837    -3.835447    -2.867610 
O      -0.014346    -4.087929    -0.212556 
C      -0.130945    -4.323847     1.183229 
H       0.013980    -5.391541     1.398763 
H       0.654588    -3.762738     1.710261 
C      -1.485522    -3.876969     1.667262 
C      -2.053015    -2.694903     1.198443 
C      -2.151806    -4.606030     2.646028 
C      -3.259972    -2.242099     1.710759 
H      -1.542295    -2.118898     0.436002 
C      -3.361830    -4.154387     3.164336 
H      -1.724059    -5.537322     3.009090 
C      -3.916675    -2.969364     2.698988 
H      -3.680862    -1.312646     1.340516 
H      -3.870763    -4.732060     3.929627 
H      -4.860829    -2.614694     3.100715 
C       0.802189     0.830536    -0.485045 
O       0.830207     0.098990     0.638556 
C       0.246694     0.848621     1.611049 
N      -1.168137     0.737081    -0.656479 
N      -1.584207     0.807972     0.395015 
C      -0.007457     0.238677     2.905953 
O      -0.302760     0.889285     3.887164 
O       0.095342    -1.098362     2.896751 
C      -0.284619    -1.745832     4.118605 
H       0.253461    -1.316487     4.965282 
H      -1.361097    -1.644885     4.273716 
H      -0.029480    -2.796245     3.989134 
74
     -1835.277810     -1834.744589   3.15   3.73
C      -0.465258     3.676519    -1.889419 
C      -1.592273     3.064715    -1.319372 
C      -2.472501     3.806671    -0.570234 
C      -2.259497     5.177158    -0.384719 
C      -1.151221     5.777570    -0.976540 
C      -0.241481     5.033809    -1.736874 
C      -0.329184     1.467304    -2.594459 
C      -1.617486     1.616482    -1.735198 
H      -3.339092     3.343084    -0.109741 
H      -2.959629     5.747998     0.209440 
H       0.614554     5.537548    -2.168075 
H      -0.547670     1.168724    -3.630470 
N       0.323663     2.767888    -2.565275 
C       1.223224     3.172933    -3.625206 
H       0.691340     3.652963    -4.460170 
H       1.960765     3.878638    -3.234641 
H       1.754866     2.295274    -3.990188 
O      -0.856618     7.102084    -0.868745 
C      -1.731997     7.917276    -0.111755 
H      -1.318929     8.925609    -0.155735 
H      -2.742494     7.919940    -0.537452 
H      -1.778440     7.589284     0.933534 
N      -2.641007     0.123588    -0.193299 
C      -2.961748    -0.624146     0.928219 
O      -4.119902    -0.939700     1.117947 
C      -1.858462    -1.007895     1.884004 
H      -2.216819    -0.729658     2.878407 
H      -0.936397    -0.464583     1.693548 
C      -1.584974    -2.521797     1.839566 
H      -2.524536    -3.063828     1.980592 
H      -1.208277    -2.776657     0.843357 
C      -0.576394    -2.935707     2.889444 
C       0.703284    -2.599740     2.756976 
H       1.465257    -2.858298     3.491027 
C      -2.965419     1.135072    -2.319080 
H      -2.787022     0.336691    -3.046415 
H      -3.511769     1.938971    -2.813981 
C      -3.717104     0.576988    -1.099022 
H      -4.331743     1.330675    -0.601289 
H      -4.363316    -0.267984    -1.338004 
C      -1.054882    -3.693841     4.101419 
H      -1.546110    -4.619909     3.774106 
H      -0.193408    -3.995283     4.707408 
C      -2.031021    -2.890294     4.968749 
H      -1.563393    -1.965462     5.321464 
H      -2.932681    -2.619432     4.410940 
H      -2.343419    -3.470128     5.842783 
O       1.135692    -1.890218     1.669646 
C       2.536749    -1.759058     1.528442 
H       2.679270    -0.963308     0.793276 
H       2.981329    -1.423502     2.476091 
C       3.227569    -3.023492     1.056117 
C       4.617403    -3.030048     0.943851 
C       2.517404    -4.164985     0.701071 
C       5.286471    -4.155216     0.482331 
H       5.183328    -2.142820     1.218078 
C       3.187133    -5.296309     0.243063 
H       1.435962    -4.170313     0.770273 
C       4.570868    -5.295298     0.129947 
H       6.368834    -4.143776     0.399780 
H       2.619844    -6.181289    -0.028970 
H       5.090982    -6.177699    -0.228866 
C      -1.413381     0.544732    -0.674170 
O      -0.539547    -0.357142    -1.142109 
C       0.378707     0.324588    -1.875893 
N      -0.066272     1.413758     0.510158 
N       0.920059     1.380133    -0.047032 
C       1.516742    -0.392760    -2.432864 
O       2.179552     0.058120    -3.345351 
O       1.767915    -1.567111    -1.840547 
C       2.905106    -2.272565    -2.361745 
H       2.938773    -3.220574    -1.829362 
H       2.792763    -2.430008    -3.436192 
H       3.817356    -1.700950    -2.176594 
74
     -1835.280193     -1834.744545   1.66   3.75
C      -0.260605    -3.174936     1.464614 
C       0.927359    -2.475617     1.249813 
C       2.075674    -2.844387     1.923644 
C       2.048375    -3.918181     2.803064 
C       0.860528    -4.626866     2.995833 
C      -0.311857    -4.267793     2.329354 
C      -0.829664    -1.570405    -0.113367 
C       0.688675    -1.417846     0.204431 
H       3.003219    -2.299846     1.778885 
H       2.932345    -4.228059     3.346897 
H      -1.238825    -4.802618     2.482210 
H      -1.009489    -1.810073    -1.169827 
N      -1.309715    -2.641202     0.746114 
C      -2.495725    -3.396152     0.407481 
H      -3.182136    -2.745359    -0.133877 
H      -2.267422    -4.278411    -0.208859 
H      -2.999652    -3.731278     1.318298 
O       0.938166    -5.667988     3.868866 
C      -0.234549    -6.419504     4.116728 
H      -1.026031    -5.793705     4.546432 
H      -0.604396    -6.895890     3.200745 
H       0.046417    -7.189747     4.835554 
N       2.039412     0.537263     0.360404 
C       2.588513     1.773263     0.668387 
O       3.705369     2.039582     0.279814 
C       1.794958     2.725670     1.539603 
H       2.404027     2.842037     2.441898 
H       0.834357     2.312275     1.841359 
C       1.613223     4.104441     0.869363 
H       1.573948     4.869195     1.651095 
H       2.501327     4.312000     0.266455 
C       0.364292     4.212806     0.022401 
C       0.285544     3.668239    -1.187208 
H      -0.611818     3.751451    -1.797062 
C       1.710807    -1.415016    -0.954278 
H       1.231647    -1.058044    -1.868721 
H       2.123539    -2.407022    -1.141387 
C       2.781969    -0.408156    -0.497404 
H       3.594015    -0.874500     0.065190 
H       3.224229     0.146816    -1.324775 
C      -0.823495     4.941287     0.601362 
H      -0.533086     5.975034     0.833674 
H      -1.616315     5.004585    -0.152320 
C      -1.376463     4.278226     1.868950 
H      -2.241250     4.830667     2.250863 
H      -1.686322     3.250163     1.664574 
H      -0.626093     4.253078     2.665143 
O       1.314382     2.947710    -1.729169 
C       1.276507     2.731224    -3.135477 
H       0.686368     3.522177    -3.615847 
H       2.307760     2.826554    -3.484567 
C       0.733612     1.370979    -3.517187 
C      -0.556420     0.982170    -3.155879 
C       1.511123     0.496981    -4.271170 
C      -1.059642    -0.251104    -3.547045 
H      -1.176578     1.643006    -2.560152 
C       1.010021    -0.738848    -4.669483 
H       2.519439     0.785991    -4.555138 
C      -0.277303    -1.114843    -4.309327 
H      -2.067774    -0.535456    -3.260785 
H       1.627141    -1.405648    -5.263362 
H      -0.672251    -2.076043    -4.623267 
C       0.774745     0.050627     0.601643 
O      -0.289968     0.693899     0.121850 
C      -1.342305    -0.168342     0.193288 
N       0.071916    -0.001998     2.433916 
N      -1.047900    -0.170709     2.353718 
C      -2.645622     0.334075    -0.193823 
O      -3.575553    -0.382812    -0.506513 
O      -2.725353     1.679010    -0.164437 
C      -4.015093     2.218952    -0.471312 
H      -4.314812     1.949038    -1.486669 
H      -4.762067     1.844194     0.231982 
H      -3.911401     3.299744    -0.376201 
74
     -1835.277626     -1834.744458   3.27   3.81
C      -0.516441    -0.751090    -3.605279 
C      -0.932710     0.381278    -2.905193 
C      -0.446990     1.626355    -3.257285 
C       0.438639     1.749404    -4.318360 
C       0.829441     0.613725    -5.031684 
C       0.358356    -0.653341    -4.686806 
C      -1.972853    -1.583664    -2.005604 
C      -1.947965    -0.029604    -1.868665 
H      -0.744196     2.515475    -2.710827 
H       0.836813     2.711836    -4.615655 
H       0.667706    -1.539787    -5.222588 
H      -2.980524    -1.969131    -2.220757 
N      -1.057858    -1.909098    -3.085713 
C      -1.220476    -3.118946    -3.862208 
H      -0.248088    -3.466610    -4.220977 
H      -1.633031    -3.895018    -3.218208 
H      -1.880549    -2.972880    -4.730036 
O       1.690211     0.839950    -6.060864 
C       2.133940    -0.271412    -6.815663 
H       1.295639    -0.781700    -7.305141 
H       2.806098     0.128349    -7.575480 
H       2.679560    -0.987016    -6.188843 
N      -2.148362     1.328142     0.080635 
C      -2.040297     1.900225     1.339884 
O      -2.629304     2.935599     1.569960 
C      -1.230597     1.150063     2.377596 
H      -0.427918     0.579059     1.908548 
H      -1.925428     0.415924     2.803011 
C      -0.673268     2.060297     3.483868 
H      -1.394738     2.860989     3.669099 
H      -0.580695     1.486811     4.406459 
C       0.675023     2.638534     3.129258 
C       1.765675     2.342053     3.829939 
H       2.747792     2.735807     3.563166 
C      -3.270337     0.767952    -1.928587 
H      -4.099270     0.140602    -1.585313 
H      -3.494287     1.123043    -2.935052 
C      -3.041501     1.919441    -0.935428 
H      -2.568478     2.788083    -1.399460 
H      -3.954597     2.259770    -0.447477 
C       0.783289     3.577285     1.951373 
H       1.842110     3.747925     1.729168 
H       0.359415     3.107200     1.054534 
C       0.088605     4.922598     2.191689 
H      -0.986048     4.793201     2.337638 
H       0.504546     5.414390     3.076743 
H       0.231780     5.587433     1.333991 
O       1.741678     1.562993     4.960367 
C       2.839339     0.667854     5.064726 
H       3.787719     1.220811     5.011847 
H       2.762256     0.234376     6.066202 
C       2.812565    -0.417449     4.010044 
C       1.602397    -0.992600     3.627555 
C       3.989951    -0.862727     3.419648 
C       1.569397    -1.993778     2.667794 
H       0.681192    -0.645045     4.082838 
C       3.961877    -1.873252     2.462977 
H       4.938597    -0.413490     3.702696 
C       2.751881    -2.437661     2.083053 
H       0.619346    -2.422710     2.366562 
H       4.888556    -2.211986     2.009813 
H       2.724136    -3.215373     1.326562 
C      -1.618999     0.145705    -0.390349 
O      -1.867147    -0.999376     0.253669 
C      -1.546203    -2.007077    -0.607180 
N       0.328168    -0.121177    -0.388028 
N       0.501155    -1.222096    -0.598762 
C      -1.557678    -3.369535    -0.107663 
O      -1.645345    -4.341361    -0.829363 
O      -1.428580    -3.443953     1.229921 
C      -1.389468    -4.773217     1.763170 
H      -0.540094    -5.323368     1.351952 
H      -1.283785    -4.654963     2.841356 
H      -2.310750    -5.309049     1.525187 
74
     -1835.279437     -1834.744282   2.13   3.92
C       0.646293     1.612575     3.519327 
C      -0.631670     1.092977     3.259055 
C      -1.326214     0.447106     4.252349 
C      -0.770837     0.314324     5.529930 
C       0.487879     0.854126     5.781661 
C       1.210704     1.510856     4.779029 
C       0.237449     2.196325     1.307776 
C      -1.016271     1.438039     1.843187 
H      -2.309105     0.028098     4.061478 
H      -1.328264    -0.199279     6.300981 
H       2.191232     1.905564     5.014242 
H       0.005786     3.228494     1.005347 
N       1.202466     2.185126     2.394925 
C       2.260056     3.170287     2.463143 
H       1.945505     4.082731     2.991302 
H       3.124344     2.750543     2.984228 
H       2.567963     3.426660     1.449714 
O       1.114236     0.790461     6.988356 
C       0.443633     0.138425     8.050989 
H       1.109664     0.202014     8.912179 
H      -0.504933     0.634704     8.288154 
H       0.253962    -0.915650     7.815828 
N      -2.475457    -0.090043     0.737895 
C      -3.025127    -1.104417    -0.033100 
O      -4.231257    -1.180934    -0.145459 
C      -2.090003    -2.127485    -0.644918 
H      -2.241873    -3.029571    -0.041187 
H      -1.043172    -1.844346    -0.545700 
C      -2.420594    -2.437257    -2.115854 
H      -2.019635    -3.422760    -2.356257 
H      -3.507358    -2.489698    -2.224274 
C      -1.834552    -1.421507    -3.066910 
C      -0.757545    -1.707111    -3.794498 
H      -0.305002    -0.983064    -4.470695 
C      -2.413234     2.085304     1.693875 
H      -2.413519     2.766993     0.837321 
H      -2.706305     2.644956     2.582863 
C      -3.346647     0.893265     1.414732 
H      -3.761738     0.461577     2.328550 
H      -4.179708     1.139896     0.756622 
C      -2.469542    -0.055468    -3.174818 
H      -2.483619     0.427980    -2.190994 
H      -1.842487     0.579060    -3.810691 
C      -3.898116    -0.089673    -3.729864 
H      -3.922609    -0.582302    -4.706982 
H      -4.573587    -0.626488    -3.058075 
H      -4.289381     0.925438    -3.849653 
O      -0.152761    -2.936476    -3.758950 
C       1.074829    -3.034455    -4.455923 
H       1.258528    -4.107735    -4.563060 
H       0.973956    -2.614006    -5.466280 
C       2.244149    -2.387882    -3.739127 
C       2.229120    -2.193049    -2.361836 
C       3.379763    -2.030763    -4.463124 
C       3.337545    -1.658712    -1.715139 
H       1.346018    -2.458155    -1.791776 
C       4.490972    -1.501017    -3.818390 
H       3.399696    -2.174262    -5.540906 
C       4.472817    -1.317957    -2.440192 
H       3.306080    -1.504884    -0.641261 
H       5.372388    -1.233917    -4.393332 
H       5.340040    -0.905767    -1.933408 
C      -1.160684     0.320606     0.821112 
O      -0.521576     0.677087    -0.297418 
C       0.586313     1.369811     0.075351 
N       0.274487    -0.929261     1.392891 
N       1.254197    -0.449139     1.086712 
C       1.504091     1.782610    -0.976872 
O       2.343338     2.645259    -0.817944 
O       1.329923     1.103587    -2.117418 
C       2.247954     1.427958    -3.169439 
H       3.275789     1.345974    -2.815111 
H       2.065455     0.694695    -3.953592 
H       2.065754     2.443003    -3.530679 
74
     -1835.279284     -1834.744157   2.23   4.00
C      -1.279384    -2.348368    -2.859059 
C      -0.834837    -2.986422    -1.700899 
C      -1.481658    -4.119407    -1.245165 
C      -2.565053    -4.627630    -1.948050 
C      -2.991022    -3.995308    -3.118392 
C      -2.355128    -2.847146    -3.592648 
C       0.562173    -1.097826    -2.201851 
C       0.387786    -2.271080    -1.188550 
H      -1.156928    -4.618108    -0.337576 
H      -3.093015    -5.512372    -1.613957 
H      -2.686150    -2.344667    -4.490628 
H       1.523967    -1.142439    -2.734043 
N      -0.545773    -1.212955    -3.137026 
C      -0.457779    -0.639709    -4.462652 
H      -1.455045    -0.367855    -4.818507 
H       0.139445     0.270435    -4.411667 
H      -0.005627    -1.332440    -5.188046 
O      -4.053623    -4.575004    -3.739828 
C      -4.541270    -3.976472    -4.925504 
H      -4.889501    -2.952949    -4.741582 
H      -3.775734    -3.964859    -5.710715 
H      -5.381719    -4.590521    -5.250332 
N       0.748235    -2.330083     1.168295 
C       0.801057    -2.053162     2.527030 
O       1.419111    -2.794459     3.263050 
C       0.013661    -0.868597     3.048851 
H      -0.842274    -1.317887     3.565411 
H      -0.382309    -0.247729     2.246609 
C       0.814040    -0.007935     4.042615 
H       0.107219     0.537929     4.668887 
H       1.386046    -0.672541     4.695812 
C       1.723850     0.978858     3.351126 
C       1.411640     2.271041     3.290424 
H       2.041559     2.997101     2.778251 
C       1.592627    -3.190895    -0.880253 
H       2.526161    -2.644672    -1.049329 
H       1.597170    -4.086937    -1.501992 
C       1.439053    -3.514565     0.617015 
H       0.843162    -4.413164     0.793459 
H       2.390694    -3.640952     1.133059 
C       2.994421     0.484786     2.701171 
H       2.757309    -0.280667     1.953057 
H       3.455519     1.310491     2.148209 
C       4.003825    -0.094469     3.698993 
H       4.250669     0.640601     4.471510 
H       3.610134    -0.988803     4.189817 
H       4.930020    -0.378056     3.189454 
O       0.286559     2.782734     3.882671 
C       0.003706     4.137924     3.589838 
H      -0.727097     4.447264     4.343093 
H       0.903161     4.753728     3.729636 
C      -0.568910     4.362765     2.203933 
C      -1.216831     3.342319     1.515473 
C      -0.494693     5.629560     1.628550 
C      -1.792067     3.586728     0.273809 
H      -1.270401     2.350929     1.950660 
C      -1.073242     5.877759     0.389698 
H       0.014032     6.432857     2.156301 
C      -1.727711     4.855627    -0.288688 
H      -2.286035     2.777306    -0.254102 
H      -1.014840     6.871335    -0.044115 
H      -2.182090     5.046864    -1.256043 
C       0.311471    -1.525501     0.135812 
O       0.860641    -0.316716    -0.020021 
C       0.547164     0.109206    -1.271801 
N      -1.546583    -0.827612     0.092492 
N      -1.551145     0.018328    -0.661554 
C       0.954106     1.456274    -1.644180 
O       1.007005     1.833002    -2.797227 
O       1.244963     2.225107    -0.587534 
C       1.593759     3.581172    -0.894313 
H       1.651144     4.092879     0.065242 
H       2.553199     3.616062    -1.416108 
H       0.824014     4.039973    -1.515383 
74
     -1835.279284     -1834.744117   2.23   4.02
C      -2.399207     2.450228     1.888912 
C      -1.125230     2.943347     1.606277 
C      -0.960872     4.268979     1.252143 
C      -2.062750     5.110503     1.190608 
C      -3.332362     4.614453     1.495574 
C      -3.520654     3.277877     1.850071 
C      -1.004133     0.626777     2.229344 
C      -0.118182     1.843526     1.819063 
H       0.021912     4.663512     1.014762 
H      -1.965100     6.153112     0.913910 
H      -4.501314     2.883038     2.075546 
H      -0.761555     0.251023     3.234447 
N      -2.378125     1.101001     2.178303 
C      -3.416042     0.445777     2.944496 
H      -4.380346     0.563009     2.443039 
H      -3.192958    -0.619646     2.996893 
H      -3.501617     0.851023     3.963790 
O      -4.345553     5.519157     1.416195 
C      -5.658792     5.077239     1.702518 
H      -5.974758     4.289309     1.008239 
H      -5.740328     4.709053     2.732337 
H      -6.304130     5.947342     1.578491 
N       1.849851     1.925084     0.474327 
C       2.815855     1.748032    -0.506045 
O       3.916258     2.237172    -0.354092 
C       2.427510     1.009559    -1.770694 
H       2.350289     1.795242    -2.531000 
H       1.448911     0.538363    -1.692080 
C       3.481648    -0.022423    -2.209684 
H       3.362271    -0.199507    -3.279342 
H       4.474790     0.408830    -2.057216 
C       3.347528    -1.334644    -1.475000 
C       2.817334    -2.400587    -2.069604 
H       2.690594    -3.350801    -1.552576 
C       1.088191     2.234767     2.704694 
H       1.447709     1.354747     3.247597 
H       0.834068     3.009625     3.428910 
C       2.154228     2.699361     1.695795 
H       2.095875     3.770076     1.486361 
H       3.174114     2.477872     2.009913 
C       3.802385    -1.428434    -0.037917 
H       3.270496    -0.687780     0.570646 
H       3.515107    -2.406633     0.363043 
C       5.311177    -1.222120     0.138320 
H       5.611703    -0.212015    -0.153410 
H       5.599801    -1.363313     1.184576 
H       5.873847    -1.936969    -0.470314 
O       2.410456    -2.384298    -3.378263 
C       1.715401    -3.536118    -3.817011 
H       1.725478    -3.477960    -4.909564 
H       2.263236    -4.444376    -3.529398 
C       0.283172    -3.616464    -3.325646 
C      -0.368226    -4.848034    -3.309608 
C      -0.413892    -2.475731    -2.941036 
C      -1.701956    -4.936863    -2.929667 
H       0.169265    -5.746520    -3.603600 
C      -1.746698    -2.562593    -2.555756 
H       0.087774    -1.514772    -2.940406 
C      -2.395509    -3.791290    -2.555582 
H      -2.199974    -5.901631    -2.928822 
H      -2.273418    -1.664309    -2.249957 
H      -3.438072    -3.857276    -2.259754 
C       0.636057     1.285319     0.621074 
O       0.610981    -0.049843     0.682360 
C      -0.600026    -0.406789     1.185042 
N      -0.749953     1.373589    -0.797520 
N      -1.490124     0.545898    -0.571032 
C      -0.905726    -1.828278     1.254155 
O      -1.796834    -2.277207     1.945986 
O      -0.115184    -2.571436     0.469968 
C      -0.412503    -3.973579     0.453404 
H      -0.180575    -4.420769     1.423068 
H      -1.464974    -4.135777     0.219452 
H       0.212384    -4.396032    -0.332051 
74
     -1835.278679     -1834.743635   2.61   4.33
C      -3.055188     2.210348     0.633347 
C      -1.919495     2.860902     0.126001 
C      -2.059935     3.872336    -0.792481 
C      -3.333232     4.268227    -1.216826 
C      -4.452912     3.630997    -0.688216 
C      -4.326587     2.594970     0.244292 
C      -1.280625     1.196043     1.737748 
C      -0.695545     2.296699     0.801231 
H      -1.190258     4.374106    -1.204609 
H      -3.427906     5.064077    -1.942562 
H      -5.222840     2.117908     0.620677 
H      -1.059206     1.387206     2.798302 
N      -2.715914     1.197491     1.505940 
C      -3.633212     0.692366     2.504765 
H      -3.158958    -0.134861     3.031951 
H      -3.928043     1.466780     3.228540 
H      -4.535912     0.312031     2.019824 
O      -5.734286     3.944268    -1.023433 
C      -5.939750     4.982265    -1.963867 
H      -7.019972     5.069862    -2.085249 
H      -5.536736     5.935090    -1.600526 
H      -5.484218     4.739805    -2.931363 
N       1.319199     2.324320    -0.471068 
C       2.379625     2.038888    -1.319424 
O       3.269915     2.853662    -1.449960 
C       2.355883     0.743987    -2.104655 
H       2.207422     1.058750    -3.143634 
H       1.517236     0.104341    -1.833096 
C       3.678982    -0.038156    -1.993219 
H       3.769453    -0.681554    -2.869592 
H       4.509410     0.674169    -2.016334 
C       3.744385    -0.882990    -0.742010 
C       3.398626    -2.167121    -0.781511 
H       3.402804    -2.813770     0.091253 
C       0.261842     3.359594     1.388369 
H       0.775925     2.949407     2.263488 
H      -0.262506     4.267781     1.687728 
C       1.273632     3.610272     0.256111 
H       0.961665     4.412072    -0.417261 
H       2.274443     3.850901     0.614498 
C       4.180678    -0.197399     0.531533 
H       5.181922     0.221552     0.362488 
H       3.533269     0.672522     0.701723 
C       4.186711    -1.054677     1.795183 
H       3.184563    -1.431431     2.018494 
H       4.866020    -1.907914     1.697749 
H       4.521029    -0.463224     2.652938 
O       3.013141    -2.769783    -1.953257 
C       2.684828    -4.143250    -1.858706 
H       2.744022    -4.522770    -2.883448 
H       3.440292    -4.676573    -1.265586 
C       1.300407    -4.411430    -1.302010 
C       0.279333    -3.475275    -1.432861 
C       1.022831    -5.640166    -0.707477 
C      -1.004349    -3.768041    -0.987853 
H       0.488319    -2.512382    -1.885319 
C      -0.261060    -5.937027    -0.265162 
H       1.814715    -6.377237    -0.596560 
C      -1.279282    -5.001345    -0.409068 
H      -1.787153    -3.023868    -1.091900 
H      -0.465888    -6.901432     0.189523 
H      -2.283550    -5.231292    -0.066519 
C       0.305703     1.501873    -0.024111 
O       0.615026     0.381607     0.637037 
C      -0.513276    -0.035563     1.270264 
N      -0.899323     0.565896    -1.300166 
N      -1.425896    -0.240390    -0.703422 
C      -0.461520    -1.302124     1.985287 
O      -1.291168    -1.624769     2.810576 
O       0.577857    -2.068265     1.629277 
C       0.633421    -3.352914     2.264275 
H       0.790271    -3.239446     3.339416 
H      -0.289728    -3.904087     2.083784 
H       1.470623    -3.872853     1.800711 
74
     -1835.277351     -1834.743532   3.44   4.39
C      -1.428080    -0.449050    -3.583908 
C      -2.379663    -0.446681    -2.552107 
C      -3.602964     0.146592    -2.746094 
C      -3.912661     0.737875    -3.976093 
C      -2.969336     0.707305    -5.000028 
C      -1.715886     0.112170    -4.815906 
C      -0.399041    -1.618440    -1.860417 
C      -1.821284    -1.209014    -1.378244 
H      -4.341930     0.169684    -1.951402 
H      -4.878766     1.203495    -4.113602 
H      -1.006945     0.121798    -5.634404 
H      -0.262987    -2.709610    -1.889327 
N      -0.249545    -1.048730    -3.190094 
C       0.689117    -1.606282    -4.140486 
H       1.549397    -1.997102    -3.598197 
H       0.241811    -2.410707    -4.743167 
H       1.040871    -0.823213    -4.817203 
O      -3.171469     1.241871    -6.235362 
C      -4.416753     1.863393    -6.494097 
H      -4.369627     2.215773    -7.525067 
H      -5.245929     1.153417    -6.390568 
H      -4.582970     2.716839    -5.826000 
N      -2.595290    -0.524106     0.765970 
C      -2.852352     0.143173     1.955670 
O      -3.808654    -0.194723     2.623909 
C      -1.975784     1.308457     2.356582 
H      -2.650957     2.170817     2.367817 
H      -1.191079     1.511400     1.629488 
C      -1.363659     1.113048     3.755716 
H      -1.055924     2.091417     4.129795 
H      -2.130573     0.722403     4.430252 
C      -0.169235     0.187223     3.708337 
C       1.008680     0.658169     3.311940 
H       1.895436     0.043210     3.194883 
C      -2.759144    -2.297931    -0.810075 
H      -2.162791    -3.113024    -0.387835 
H      -3.420828    -2.711373    -1.572057 
C      -3.528749    -1.576035     0.308423 
H      -4.458387    -1.122979    -0.043994 
H      -3.776568    -2.222466     1.150290 
C      -0.396987    -1.260943     4.067789 
H      -0.754798    -1.297117     5.105910 
H      -1.233534    -1.641219     3.465578 
C       0.801810    -2.192126     3.903500 
H       1.636756    -1.882637     4.540398 
H       0.531702    -3.214347     4.185516 
H       1.148912    -2.208298     2.866435 
O       1.177805     1.999012     3.045019 
C       1.945617     2.284839     1.886876 
H       1.572844     1.705444     1.035158 
H       1.761905     3.343162     1.678237 
C       3.435074     2.056312     2.045167 
C       4.228262     1.947124     0.904649 
C       4.036056     1.984684     3.297261 
C       5.600415     1.766558     1.012649 
H       3.763232     1.992288    -0.076939 
C       5.410272     1.796533     3.407767 
H       3.424926     2.078078     4.188573 
C       6.196039     1.687012     2.267484 
H       6.207085     1.685304     0.115739 
H       5.867521     1.740568     4.390839 
H       7.268442     1.544565     2.355014 
C      -1.513073    -0.457931    -0.090140 
O      -0.302775    -0.830581     0.341196 
C       0.473130    -1.028118    -0.758401 
N      -0.858710     1.279700    -0.799566 
N       0.175330     1.086552    -1.221757 
C       1.870805    -1.384086    -0.558719 
O       2.532263    -1.938760    -1.411857 
O       2.351883    -1.032037     0.643430 
C       3.717348    -1.403793     0.886400 
H       3.805707    -2.491680     0.937925 
H       4.362357    -1.026690     0.092364 
H       3.986871    -0.945438     1.837172 
74
     -1835.275104     -1834.743528   4.85   4.39
C      -1.596648     3.170746     1.074321 
C      -0.557282     3.219789     0.146008 
C      -0.678247     4.004294    -0.985568 
C      -1.828158     4.754466    -1.187139 
C      -2.855067     4.718473    -0.240919 
C      -2.755597     3.926948     0.904061 
C       0.037700     1.801352     1.988378 
C       0.584450     2.376453     0.649602 
H       0.114422     4.038550    -1.725955 
H      -1.952249     5.376986    -2.064787 
H      -3.551407     3.882506     1.634258 
H       0.642323     2.108469     2.854579 
N      -1.323065     2.301831     2.113385 
C      -1.942477     2.433250     3.415486 
H      -1.718777     3.401403     3.887993 
H      -3.027255     2.335149     3.323563 
H      -1.586430     1.627471     4.056395 
O      -3.935286     5.495993    -0.523907 
C      -5.015659     5.494863     0.389658 
H      -5.762797     6.172140    -0.025071 
H      -5.450664     4.493330     0.491633 
H      -4.704293     5.858569     1.376326 
N       1.958289     1.385924    -1.021825 
C       2.440781     0.648332    -2.092098 
O       3.372405     1.090423    -2.735184 
C       1.768515    -0.655243    -2.454394 
H       1.356832    -0.484895    -3.455044 
H       0.940175    -0.901022    -1.793956 
C       2.765610    -1.828625    -2.509933 
H       2.338665    -2.592624    -3.166175 
H       3.696509    -1.488168    -2.971033 
C       3.033335    -2.448887    -1.154743 
C       2.075229    -3.149612    -0.553542 
H       2.211508    -3.610674     0.423696 
C       1.959999     3.080208     0.644261 
H       2.581574     2.678603     1.451016 
H       1.872466     4.159131     0.777544 
C       2.560930     2.701532    -0.719508 
H       2.311395     3.417713    -1.505473 
H       3.646190     2.599809    -0.699832 
C       4.386494    -2.294801    -0.507122 
H       4.426839    -2.922870     0.389678 
H       5.150642    -2.684969    -1.192375 
C       4.745768    -0.852462    -0.130522 
H       3.996692    -0.432403     0.547490 
H       5.717501    -0.819555     0.372519 
H       4.807270    -0.211862    -1.013774 
O       0.863984    -3.360341    -1.151072 
C      -0.178578    -3.775792    -0.272098 
H       0.151838    -4.664649     0.286410 
H      -0.394641    -2.980433     0.446776 
C      -1.402559    -4.100916    -1.084445 
C      -2.596889    -3.422724    -0.869526 
C      -1.351288    -5.098959    -2.056308 
C      -3.732009    -3.744769    -1.608213 
H      -2.639448    -2.633524    -0.124160 
C      -2.479049    -5.417706    -2.797895 
H      -0.416285    -5.623177    -2.231951 
C      -3.675245    -4.741644    -2.572183 
H      -4.660839    -3.211521    -1.430856 
H      -2.427985    -6.195539    -3.553487 
H      -4.559377    -4.991681    -3.150211 
C       0.958194     1.109699    -0.109437 
O       1.120957     0.116723     0.775649 
C       0.198884     0.304617     1.757922 
N      -0.817442     0.468434    -0.701083 
N      -1.334443     0.050414     0.216548 
C       0.084785    -0.695243     2.805618 
O      -0.461657    -0.479792     3.867457 
O       0.623348    -1.882677     2.477801 
C       0.487202    -2.905254     3.471254 
H      -0.567935    -3.104033     3.672142 
H       0.969958    -3.788811     3.053169 
H       0.977364    -2.606744     4.400212 
74
     -1835.278523     -1834.743526   2.70   4.39
C       0.306730    -2.545224    -2.830282 
C       0.167684    -3.119521    -1.566804 
C      -0.578613    -4.272172    -1.410682 
C      -1.177290    -4.863580    -2.514173 
C      -1.015245    -4.294677    -3.779535 
C      -0.270752    -3.127912    -3.957739 
C       1.563589    -1.169196    -1.447358 
C       0.973072    -2.319628    -0.576251 
H      -0.709258    -4.721960    -0.431716 
H      -1.769624    -5.765702    -2.422248 
H      -0.151252    -2.673929    -4.931404 
H       2.663610    -1.171112    -1.454669 
N       1.043181    -1.378305    -2.789501 
C       1.739851    -0.852056    -3.943600 
H       2.506446    -1.545435    -4.320585 
H       1.028451    -0.651400    -4.749014 
H       2.209453     0.092009    -3.668949 
O      -1.631853    -4.953797    -4.797695 
C      -1.515413    -4.422538    -6.103869 
H      -1.944817    -3.415254    -6.164516 
H      -0.468947    -4.392313    -6.430561 
H      -2.076984    -5.093806    -6.754221 
N       0.171956    -2.293915     1.668401 
C      -0.471825    -2.011783     2.864948 
O      -0.270523    -2.722515     3.828199 
C      -1.456329    -0.861650     2.908613 
H      -2.433006    -1.344275     3.025993 
H      -1.480610    -0.295029     1.978794 
C      -1.208106     0.083005     4.100580 
H      -2.144227     0.593235     4.331909 
H      -0.932927    -0.518626     4.972285 
C      -0.137013     1.108252     3.808778 
C      -0.470316     2.320319     3.372995 
H       0.258160     3.086694     3.124212 
C       1.920023    -3.160188     0.311334 
H       2.799476    -2.565755     0.578969 
H       2.254614    -4.070040    -0.188315 
C       1.083197    -3.453434     1.569231 
H       0.507179    -4.377963     1.485155 
H       1.677733    -3.516260     2.480555 
C       1.298855     0.680150     4.001892 
H       1.418754     0.365503     5.047461 
H       1.477758    -0.226526     3.409615 
C       2.367394     1.711980     3.647847 
H       2.268256     2.616948     4.256270 
H       3.365477     1.301211     3.827935 
H       2.306616     1.993579     2.592799 
O      -1.783260     2.688476     3.213381 
C      -1.999510     4.010104     2.755550 
H      -3.039023     4.235551     3.012893 
H      -1.362957     4.714686     3.308111 
C      -1.800653     4.188091     1.263161 
C      -1.977216     3.125268     0.382630 
C      -1.500879     5.449339     0.753532 
C      -1.868899     3.322911    -0.988791 
H      -2.200972     2.137890     0.770660 
C      -1.395858     5.650545    -0.617822 
H      -1.356807     6.285854     1.433345 
C      -1.584493     4.586569    -1.492670 
H      -2.003278     2.481603    -1.660755 
H      -1.169333     6.640249    -1.002455 
H      -1.505329     4.741222    -2.564391 
C       0.248868    -1.542488     0.513952 
O       0.755598    -0.306219     0.569923 
C       1.058580     0.061334    -0.703461 
N      -1.391780    -0.964091    -0.446501 
N      -1.067865    -0.148075    -1.162607 
C       1.536944     1.417613    -0.924340 
O       2.103359     1.756020    -1.943481 
O       1.276375     2.243755     0.097196 
C       1.675675     3.606340    -0.104038 
H       1.215148     4.005710    -1.007923 
H       1.311999     4.149841     0.766868 
H       2.762991     3.676486    -0.183046 
74
     -1835.276526     -1834.743368   3.96   4.49
C      -0.382711    -0.852210     3.560744 
C       0.586250    -1.321294     2.673652 
C       1.919442    -1.030236     2.891965 
C       2.293550    -0.291730     4.005406 
C       1.319978     0.148223     4.905575 
C      -0.032324    -0.124489     4.697617 
C      -1.598912    -1.994579     1.951606 
C      -0.084856    -2.152385     1.609301 
H       2.683769    -1.366597     2.199086 
H       3.330395    -0.047539     4.201740 
H      -0.794324     0.227137     5.379037 
H      -2.095982    -2.963040     2.110262 
N      -1.658807    -1.183842     3.155142 
C      -2.776924    -1.280594     4.067900 
H      -2.619714    -2.046988     4.841178 
H      -2.941742    -0.318992     4.561319 
H      -3.674372    -1.518246     3.497446 
O       1.788314     0.852437     5.971367 
C       0.851391     1.337096     6.914316 
H       1.431016     1.864726     7.672312 
H       0.142142     2.033046     6.450310 
H       0.299116     0.515668     7.386497 
N       0.984048    -2.302432    -0.515610 
C       1.422559    -2.115998    -1.819697 
O       2.341343    -2.790874    -2.233798 
C       0.667485    -1.107392    -2.660500 
H       0.376332    -0.244008    -2.059174 
H      -0.266134    -1.609086    -2.941264 
C       1.429772    -0.670307    -3.919578 
H       2.003414    -1.526946    -4.287041 
H       0.708807    -0.403174    -4.692735 
C       2.361865     0.498228    -3.705921 
C       2.177271     1.654148    -4.336168 
H       2.852711     2.500325    -4.193723 
C       0.521040    -3.562855     1.433831 
H      -0.252411    -4.261134     1.098085 
H       0.958755    -3.943480     2.357263 
C       1.566051    -3.368428     0.323021 
H       2.540138    -3.060450     0.710369 
H       1.718735    -4.256368    -0.290077 
C       3.543125     0.358034    -2.766991 
H       3.908143    -0.673099    -2.806341 
H       4.357765     0.994414    -3.129465 
C       3.244069     0.747417    -1.311746 
H       2.508086     0.089527    -0.845393 
H       4.156098     0.701097    -0.708656 
H       2.852035     1.768054    -1.259595 
O       1.168394     1.870254    -5.243679 
C       0.495022     3.109008    -5.054309 
H       1.211119     3.941358    -5.099623 
H      -0.181969     3.201942    -5.908296 
C      -0.268946     3.149622    -3.750262 
C      -1.097155     2.084039    -3.399477 
C      -0.149567     4.227374    -2.881544 
C      -1.788131     2.093479    -2.197740 
H      -1.187443     1.237511    -4.073345 
C      -0.848085     4.244336    -1.676701 
H       0.500836     5.058853    -3.140980 
C      -1.663467     3.176436    -1.330962 
H      -2.415520     1.250489    -1.925924 
H      -0.744910     5.092103    -1.006300 
H      -2.194418     3.175167    -0.384787 
C      -0.042793    -1.679198     0.160409 
O      -1.282261    -1.695552    -0.343994 
C      -2.120054    -1.350068     0.675300 
N      -0.014672     0.267028     0.388305 
N      -1.041352     0.564716     0.765633 
C      -3.517795    -1.112509     0.367496 
O      -4.400530    -1.164179     1.198978 
O      -3.727510    -0.797261    -0.924220 
C      -5.089721    -0.515333    -1.266917 
H      -5.722381    -1.383000    -1.068148 
H      -5.459273     0.335520    -0.690178 
H      -5.083213    -0.282917    -2.331612 
74
     -1835.277062     -1834.743280   3.62   4.55
C       3.431509    -1.414243     0.421340 
C       2.730778    -1.197295     1.607898 
C       2.854711    -2.090434     2.655323 
C       3.686815    -3.193941     2.529393 
C       4.402315    -3.392029     1.346306 
C       4.286652    -2.505813     0.274607 
C       2.301248     0.577910     0.049161 
C       1.973353     0.100662     1.496735 
H       2.303809    -1.944882     3.578888 
H       3.801873    -3.911596     3.332421 
H       4.826652    -2.658747    -0.649206 
H       2.811234     1.552581     0.034516 
N       3.151554    -0.451727    -0.527528 
C       4.049388    -0.143442    -1.619693 
H       3.584559     0.612186    -2.252467 
H       5.024728     0.224408    -1.267561 
H       4.215509    -1.035794    -2.228908 
O       5.197948    -4.495586     1.324548 
C       5.941347    -4.759084     0.149921 
H       6.498731    -5.675833     0.344404 
H       5.282412    -4.911380    -0.713391 
H       6.644661    -3.946302    -0.067978 
N      -0.047444     0.267681     2.749711 
C      -1.353172     0.211724     3.211529 
O      -1.584797     0.523990     4.362487 
C      -2.440602    -0.281984     2.281896 
H      -2.742424    -1.246266     2.705067 
H      -2.080472    -0.467729     1.271770 
C      -3.660785     0.663777     2.249889 
H      -4.549617     0.054082     2.068634 
H      -3.780189     1.124284     3.234174 
C      -3.581888     1.722602     1.169920 
C      -3.832806     1.392097    -0.094586 
H      -3.790991     2.110300    -0.911448 
C       2.186449     1.070376     2.681713 
H       2.091035     2.104326     2.334591 
H       3.166259     0.948275     3.144952 
C       1.033558     0.732956     3.643256 
H       1.295542    -0.049825     4.358718 
H       0.677802     1.593101     4.210379 
C      -3.275100     3.154495     1.534308 
H      -3.342310     3.773759     0.632992 
H      -4.057178     3.515967     2.215669 
C      -1.908804     3.369626     2.194816 
H      -1.747068     4.433971     2.393862 
H      -1.839987     2.843127     3.150162 
H      -1.103469     3.018112     1.545027 
O      -4.164825     0.109746    -0.442935 
C      -4.691274    -0.064684    -1.749834 
H      -5.301448    -0.971554    -1.693178 
H      -5.359631     0.767572    -2.004909 
C      -3.634159    -0.237318    -2.820427 
C      -2.466117    -0.945790    -2.551730 
C      -3.855101     0.244332    -4.107296 
C      -1.537928    -1.179742    -3.557200 
H      -2.283463    -1.317600    -1.549705 
C      -2.930145     0.005740    -5.118738 
H      -4.762181     0.802189    -4.326987 
C      -1.771245    -0.710717    -4.845805 
H      -0.630456    -1.728430    -3.327336 
H      -3.117971     0.379071    -6.120807 
H      -1.048137    -0.898645    -5.633547 
C       0.450709     0.075571     1.477600 
O       0.019967     0.853986     0.480065 
C       0.904833     0.721530    -0.544141 
N       0.106907    -1.609884     0.480432 
N       0.375478    -1.395979    -0.599189 
C       0.603477     1.415230    -1.788226 
O       1.434256     1.600352    -2.654159 
O      -0.671088     1.815103    -1.873446 
C      -1.024322     2.468126    -3.099684 
H      -2.093473     2.663745    -3.029184 
H      -0.465479     3.400351    -3.209207 
H      -0.820513     1.815256    -3.948634 
74
     -1835.275047     -1834.743114   4.89   4.65
C       3.481036    -0.142626    -1.097931 
C       3.201835    -0.002386     0.270636 
C       3.625042    -0.959070     1.160344 
C       4.353975    -2.066068     0.712143 
C       4.651472    -2.178087    -0.643877 
C       4.218478    -1.217161    -1.564629 
C       2.310229     1.857932    -0.958969 
C       2.478890     1.302413     0.487987 
H       3.398035    -0.873384     2.218275 
H       4.679358    -2.812036     1.423994 
H       4.457718    -1.351530    -2.612189 
H       2.777453     2.845922    -1.085540 
N       2.929806     0.881420    -1.839146 
C       3.436724     1.263610    -3.139453 
H       2.807719     2.056982    -3.542564 
H       4.479825     1.610420    -3.094263 
H       3.385520     0.411970    -3.822632 
O       5.363426    -3.205207    -1.182854 
C       5.832343    -4.217362    -0.311256 
H       6.370984    -4.929143    -0.937756 
H       6.514797    -3.808917     0.443564 
H       5.001592    -4.729712     0.188464 
N       1.004434     1.402002     2.354698 
C      -0.073156     1.289324     3.223406 
O       0.084965     1.536757     4.401037 
C      -1.378734     0.785883     2.657209 
H      -1.464276     0.987790     1.591973 
H      -2.179170     1.320038     3.166072 
C      -1.474984    -0.722661     2.929984 
H      -0.537639    -1.191741     2.608620 
H      -1.523024    -0.877892     4.015091 
C      -2.609183    -1.479911     2.279754 
C      -3.717618    -0.964894     1.756299 
H      -4.474718    -1.614075     1.317448 
C       3.097603     2.207033     1.578859 
H       2.912689     3.257880     1.334476 
H       4.173227     2.057328     1.678952 
C       2.328203     1.823046     2.854573 
H       2.802337     1.004922     3.402341 
H       2.197760     2.653130     3.549054 
C      -2.424830    -2.980809     2.226073 
H      -2.094197    -3.337061     3.210615 
H      -3.388511    -3.462988     2.029933 
C      -1.417535    -3.421556     1.156330 
H      -1.328923    -4.512238     1.132259 
H      -1.737529    -3.079618     0.167296 
H      -0.421536    -3.008609     1.339547 
O      -4.018313     0.370280     1.718191 
C      -5.080537     0.704629     0.835899 
H      -6.010198     0.217787     1.161382 
H      -5.210481     1.784393     0.949638 
C      -4.793648     0.349168    -0.608351 
C      -5.814308    -0.113607    -1.432013 
C      -3.509060     0.486956    -1.130307 
C      -5.561717    -0.426659    -2.763839 
H      -6.817297    -0.235014    -1.030532 
C      -3.251438     0.161729    -2.454869 
H      -2.703173     0.844784    -0.499465 
C      -4.278361    -0.291487    -3.277065 
H      -6.368168    -0.783524    -3.396793 
H      -2.241262     0.256970    -2.840151 
H      -4.076292    -0.543374    -4.313597 
C       1.039661     1.271399     0.981507 
O       0.303170     2.088729     0.217949 
C       0.796921     1.992234    -1.048414 
N       0.353521    -0.361788     0.133954 
N       0.240522    -0.139789    -0.971648 
C       0.077353     2.667032    -2.116047 
O       0.589322     2.966172    -3.175276 
O      -1.211634     2.889651    -1.816054 
C      -1.990251     3.498354    -2.853781 
H      -1.927745     2.911567    -3.772488 
H      -3.013530     3.512056    -2.480658 
H      -1.634980     4.512300    -3.051424 
74
     -1835.272590     -1834.739701   6.43   6.79
C      -0.232473    -2.238378     3.143694 
C      -1.431438    -1.677154     2.676353 
C      -2.630071    -2.281957     2.966934 
C      -2.664085    -3.446851     3.741167 
C      -1.469753    -3.977589     4.221822 
C      -0.239834    -3.378142     3.929085 
C       0.443580    -0.356987     1.965792 
C      -1.117773    -0.391869     1.948701 
H      -3.565231    -1.872233     2.599027 
H      -3.615380    -3.912495     3.958456 
H       0.666840    -3.831610     4.309792 
H       0.836336     0.562618     2.425510 
N       0.867229    -1.526299     2.712919 
C       2.140026    -1.557551     3.399660 
H       2.506949    -2.585626     3.454372 
H       2.861612    -0.974991     2.827525 
H       2.072219    -1.158298     4.422646 
O      -1.390997    -5.097099     4.991692 
C      -2.596883    -5.759041     5.326122 
H      -2.311336    -6.614561     5.939165 
H      -3.263705    -5.106182     5.901809 
H      -3.119320    -6.113178     4.429476 
N      -2.631256     0.320561     0.246567 
C      -3.308025     0.522630    -0.949753 
O      -4.400489     1.048807    -0.938326 
C      -2.580597     0.142310    -2.217217 
H      -3.334215    -0.200810    -2.927676 
H      -1.882408    -0.671127    -2.034681 
C      -1.852140     1.395128    -2.737791 
H      -2.607338     2.084847    -3.133367 
H      -1.389884     1.913098    -1.893998 
C      -0.781271     1.160829    -3.786257 
C       0.137596     2.101556    -3.988865 
H       0.914578     2.009405    -4.747061 
C      -1.929744     0.826133     2.449152 
H      -1.347625     1.743433     2.311469 
H      -2.202511     0.740119     3.501377 
C      -3.158136     0.844531     1.521188 
H      -3.972517     0.215337     1.887342 
H      -3.560949     1.843437     1.352533 
C      -0.770987    -0.086396    -4.644650 
H      -1.804298    -0.394081    -4.841842 
H      -0.342518     0.162477    -5.621925 
C       0.019132    -1.268006    -4.065130 
H      -0.371368    -1.602610    -3.102085 
H      -0.009805    -2.119576    -4.752534 
H       1.065033    -0.990152    -3.910786 
O       0.116168     3.288613    -3.307240 
C       1.295823     4.071685    -3.352435 
H       1.804346     3.946438    -4.317143 
H       0.962759     5.113089    -3.290388 
C       2.252176     3.785305    -2.212884 
C       3.617795     3.993321    -2.383698 
C       1.777414     3.385773    -0.966123 
C       4.498220     3.822180    -1.320822 
H       3.999398     4.299270    -3.354668 
C       2.656251     3.209283     0.094793 
H       0.716357     3.208768    -0.829553 
C       4.017927     3.432117    -0.076754 
H       5.560143     3.994090    -1.466637 
H       2.277807     2.892403     1.061482 
H       4.701867     3.294350     0.754445 
C      -1.410824    -0.283505     0.457926 
O      -0.322425     0.162190    -0.174889 
C       0.754639    -0.358053     0.475264 
N      -1.124273    -2.162288    -0.133298 
N      -0.007635    -2.342333    -0.076974 
C       2.068155    -0.173628    -0.116836 
O       3.097399    -0.263739     0.520652 
O       2.014694     0.072441    -1.432067 
C       3.281272     0.255296    -2.076277 
H       3.047845     0.567586    -3.093786 
H       3.861476     1.026483    -1.569457 
H       3.840456    -0.683532    -2.080027 
74
     -1835.270295     -1834.739178   7.87   7.12
C      -3.916067     0.118489    -2.660981 
C      -3.403939     0.795139    -1.542992 
C      -3.555663     2.156088    -1.435480 
C      -4.232512     2.871360    -2.429223 
C      -4.758477     2.184649    -3.520669 
C      -4.606980     0.799373    -3.648207 
C      -2.961984    -1.560342    -1.371162 
C      -2.799296    -0.213761    -0.597970 
H      -3.150666     2.696291    -0.585780 
H      -4.341177     3.942679    -2.332103 
H      -5.018765     0.306062    -4.519737 
H      -3.544821    -2.301610    -0.804203 
N      -3.626938    -1.229463    -2.619170 
C      -4.403144    -2.217175    -3.337268 
H      -5.449369    -2.251544    -2.998905 
H      -4.393264    -1.990559    -4.406387 
H      -3.943789    -3.195306    -3.197138 
O      -5.442224     2.780352    -4.535260 
C      -5.632324     4.181983    -4.475219 
H      -4.674023     4.714866    -4.478001 
H      -6.196190     4.448429    -5.369825 
H      -6.205710     4.468869    -3.585725 
N      -1.016463     0.534819     0.798940 
C       0.219405     0.837473     1.341204 
O       0.281754     1.403901     2.415534 
C       1.455462     0.409805     0.585737 
H       2.185646     1.209874     0.715368 
H       1.271289     0.297646    -0.482848 
C       2.012372    -0.908096     1.166113 
H       1.932595    -0.886279     2.255065 
H       1.378691    -1.730077     0.827600 
C       3.435592    -1.156573     0.711043 
C       4.480798    -0.385548     1.017168 
H       5.448998    -0.575743     0.559299 
C      -3.300744    -0.097454     0.861008 
H      -3.286189    -1.082299     1.338969 
H      -4.313503     0.302737     0.919701 
C      -2.265598     0.824527     1.531064 
H      -2.522211     1.882311     1.439098 
H      -2.112563     0.609511     2.588582 
C       3.652296    -2.329841    -0.217357 
H       2.932942    -2.266594    -1.044353 
H       4.651233    -2.265563    -0.661211 
C       3.496297    -3.683447     0.486140 
H       3.708817    -4.509260    -0.200777 
H       4.189315    -3.759661     1.329772 
H       2.481795    -3.822319     0.872237 
O       4.549305     0.721970     1.816211 
C       3.806922     0.755065     3.037575 
H       2.757425     0.992769     2.857628 
H       3.867461    -0.232919     3.513353 
C       4.399089     1.811186     3.934408 
C       3.575549     2.775993     4.505193 
C       5.762950     1.824118     4.220239 
C       4.105041     3.738806     5.359116 
H       2.513526     2.774204     4.274619 
C       6.293582     2.786160     5.067241 
H       6.408869     1.078069     3.767863 
C       5.464186     3.745531     5.641882 
H       3.453079     4.486374     5.800548 
H       7.357867     2.789225     5.281742 
H       5.879552     4.497037     6.306049 
C      -1.299184    -0.186420    -0.342012 
O      -0.808763    -1.420293    -0.478020 
C      -1.512736    -2.018705    -1.476980 
N      -0.606708     0.415806    -2.098639 
N      -0.732580    -0.458691    -2.808210 
C      -1.070184    -3.324185    -1.932043 
O      -1.781246    -4.091809    -2.546008 
O       0.215329    -3.577355    -1.628056 
C       0.714647    -4.830945    -2.108354 
H       0.634484    -4.879948    -3.196456 
H       1.758284    -4.869769    -1.798877 
H       0.153556    -5.659993    -1.671702 
74
     -1835.272694     -1834.737847   6.36   7.96
C       2.446306    -2.069370    -1.886106 
C       1.299000    -1.335930    -2.229763 
C       1.399696    -0.265532    -3.083239 
C       2.640738     0.099333    -3.617782 
C       3.768052    -0.647284    -3.283329 
C       3.682990    -1.741921    -2.415511 
C       0.723012    -3.149656    -0.760196 
C       0.101250    -1.970520    -1.570426 
H       0.522493     0.314067    -3.351116 
H       2.704112     0.945911    -4.287535 
H       4.585242    -2.289969    -2.174277 
H       0.324633    -4.128098    -1.067555 
N       2.155644    -3.080866    -0.999598 
C       3.011725    -4.231650    -0.812558 
H       3.124106    -4.819186    -1.735506 
H       4.003700    -3.908398    -0.485577 
H       2.588456    -4.861874    -0.030971 
O       5.018080    -0.386883    -3.753392 
C       5.180056     0.700884    -4.644859 
H       6.240172     0.727144    -4.898973 
H       4.591227     0.558423    -5.558763 
H       4.896834     1.649287    -4.172897 
N      -1.691146    -0.502324    -1.022994 
C      -2.552359     0.391695    -0.403014 
O      -3.510575     0.818817    -1.012941 
C      -2.202812     0.776273     1.015690 
H      -1.198462     1.209363     1.006091 
H      -2.139487    -0.138814     1.609930 
C      -3.206596     1.760023     1.620011 
H      -3.424989     2.526240     0.885075 
H      -4.154433     1.233858     1.786165 
C      -2.741909     2.324702     2.942339 
C      -2.420559     3.582700     3.252879 
H      -2.156870     3.803990     4.285227 
C      -1.087363    -2.238937    -2.521770 
H      -1.653450    -3.107145    -2.169462 
H      -0.763514    -2.427415    -3.546134 
C      -1.947611    -0.968644    -2.399136 
H      -1.663916    -0.197676    -3.120074 
H      -3.014987    -1.155704    -2.518498 
C      -2.624092     1.320431     4.084357 
H      -2.944797     1.796506     5.017561 
H      -3.326019     0.496535     3.907550 
C      -1.209616     0.760396     4.289390 
H      -0.498599     1.573498     4.466006 
H      -1.182432     0.093629     5.157647 
H      -0.857300     0.195515     3.423398 
O      -2.331117     4.752414     2.554160 
C      -2.408181     4.807727     1.140463 
H      -3.393135     4.484956     0.788641 
H      -2.321907     5.876011     0.917947 
C      -1.306422     4.056527     0.422788 
C      -0.057504     3.876621     1.011652 
C      -1.525904     3.566096    -0.860595 
C       0.952154     3.210522     0.328431 
H       0.122173     4.256696     2.011710 
C      -0.513981     2.904716    -1.546395 
H      -2.501569     3.679127    -1.325129 
C       0.729516     2.724882    -0.954652 
H       1.917141     3.062295     0.802822 
H      -0.706662     2.525767    -2.545229 
H       1.516835     2.194972    -1.480110 
C      -0.628244    -1.195397    -0.480831 
O      -0.836917    -2.012382     0.561557 
C       0.253740    -2.822488     0.651375 
N       0.845711    -0.236743     0.394843 
N       1.436113    -0.998072     0.992333 
C       0.354627    -3.707379     1.799392 
O       1.058933    -4.696173     1.816646 
O      -0.386999    -3.299162     2.842498 
C      -0.287999    -4.116819     4.014042 
H      -0.621306    -5.134836     3.800812 
H       0.743720    -4.146576     4.371414 
H      -0.936450    -3.648728     4.754052 
74
     -1835.267136     -1834.737755   9.85   8.02
C       4.598044    -1.808791    -0.433788 
C       4.124943    -0.551351    -0.028320 
C       4.698274     0.084628     1.045587 
C       5.765373    -0.508405     1.729252 
C       6.242891    -1.744281     1.300524 
C       5.665149    -2.408129     0.212709 
C       2.889317    -1.336039    -1.932808 
C       3.032307    -0.117512    -0.973290 
H       4.331734     1.049125     1.382063 
H       6.204640     0.003144     2.574452 
H       6.056335    -3.374720    -0.079174 
H       3.051090    -1.067323    -2.986510 
N       3.873542    -2.311932    -1.494264 
C       4.427251    -3.289035    -2.408936 
H       4.672936    -4.206827    -1.868153 
H       3.678180    -3.529587    -3.161885 
H       5.339025    -2.922547    -2.902969 
O       7.280611    -2.402635     1.886282 
C       7.912745    -1.791576     2.995554 
H       8.352755    -0.825308     2.721527 
H       7.211036    -1.649181     3.826059 
H       8.704858    -2.474204     3.305265 
N       1.372353     1.338404    -0.083473 
C       0.325769     1.880077     0.648602 
O       0.314958     3.073258     0.867062 
C      -0.723668     0.918461     1.161623 
H      -0.251006     0.326872     1.955013 
H      -0.997914     0.216841     0.373206 
C      -1.969900     1.626942     1.700865 
H      -2.580760     0.875908     2.212125 
H      -1.661082     2.362858     2.446230 
C      -2.800646     2.302365     0.628181 
C      -3.490809     1.589317    -0.254669 
H      -4.096999     2.049772    -1.032841 
C       3.223193     1.298662    -1.564226 
H       2.770670     1.348405    -2.559819 
H       4.275361     1.573452    -1.646654 
C       2.453216     2.206891    -0.590817 
H       3.074020     2.560461     0.235657 
H       2.013549     3.081398    -1.070974 
C      -2.882446     3.808673     0.605166 
H      -1.869111     4.218838     0.638726 
H      -3.333171     4.133952    -0.339013 
C      -3.705422     4.367002     1.773072 
H      -3.750893     5.459810     1.729915 
H      -4.729244     3.979571     1.746717 
H      -3.269119     4.090904     2.737853 
O      -3.479458     0.213819    -0.253648 
C      -4.552430    -0.382101    -0.968700 
H      -4.527836    -0.069077    -2.021754 
H      -4.355415    -1.457190    -0.935572 
C      -5.910621    -0.080098    -0.372430 
C      -7.004393     0.159015    -1.196949 
C      -6.085820    -0.063073     1.009931 
C      -8.262029     0.398787    -0.652254 
H      -6.875682     0.159705    -2.276278 
C      -7.338251     0.180209     1.555846 
H      -5.232643    -0.236049     1.657864 
C      -8.431507     0.408577     0.725615 
H      -9.108047     0.580690    -1.307551 
H      -7.463115     0.191314     2.634178 
H      -9.411053     0.596616     1.153647 
C       1.615422     0.027565    -0.438776 
O       0.772976    -0.606228    -1.270134 
C       1.423036    -1.711001    -1.733874 
N       1.552689    -1.409369     0.929137 
N       1.525201    -2.392070     0.366908 
C       0.731334    -2.634961    -2.637384 
O       1.363837    -3.243250    -3.471950 
O      -0.595687    -2.828836    -2.560123 
C      -1.380980    -2.393008    -1.444573 
H      -1.622740    -1.333030    -1.520159 
H      -2.294620    -2.985809    -1.499141 
H      -0.876108    -2.597749    -0.498585 
74
     -1835.271796     -1834.737642   6.93   8.09
C       1.061542     0.999129     3.659673 
C      -0.301731     0.947242     3.330354 
C      -1.192100     0.342245     4.183495 
C      -0.748826    -0.209803     5.390265 
C       0.602321    -0.128540     5.717757 
C       1.523098     0.477997     4.855945 
C       0.928612     2.103396     1.621211 
C      -0.514370     1.677560     2.027977 
H      -2.246440     0.278468     3.934313 
H      -1.461056    -0.685093     6.050477 
H       2.566934     0.507014     5.142519 
H       1.030925     3.194400     1.522388 
N       1.805770     1.598662     2.664349 
C       3.089919     2.215115     2.921972 
H       3.780038     1.474237     3.333409 
H       3.503359     2.573536     1.980031 
H       3.014665     3.051884     3.632316 
O       1.136059    -0.621658     6.868463 
C       0.263780    -1.251997     7.788256 
H       0.885852    -1.566413     8.626970 
H      -0.506102    -0.558572     8.147063 
H      -0.217188    -2.131242     7.343360 
N      -2.337624     0.941200     0.684813 
C      -3.174880     0.255283    -0.178002 
O      -4.364926     0.499982    -0.171995 
C      -2.574829    -0.755655    -1.127172 
H      -3.303443    -1.564037    -1.190572 
H      -1.643065    -1.175323    -0.748716 
C      -2.375724    -0.125703    -2.526543 
H      -3.160841     0.621696    -2.680102 
H      -1.432567     0.419891    -2.540099 
C      -2.485742    -1.145111    -3.644170 
C      -1.586427    -2.065198    -4.003588 
H      -1.852613    -2.795190    -4.764332 
C      -1.637867     2.739131     2.066120 
H      -1.408460     3.545573     1.362265 
H      -1.765889     3.170273     3.059582 
C      -2.883743     1.969744     1.594022 
H      -3.424286     1.496740     2.417022 
H      -3.593558     2.587882     1.044338 
C      -3.820646    -1.163361    -4.363776 
H      -3.999797    -0.172736    -4.803338 
H      -3.774406    -1.869504    -5.199385 
C      -5.004536    -1.527254    -3.459554 
H      -5.127648    -0.814017    -2.639353 
H      -5.936468    -1.538833    -4.033336 
H      -4.864689    -2.521876    -3.023140 
O      -0.319510    -2.322726    -3.572186 
C       0.478062    -1.269473    -3.037243 
H       0.275358    -0.348353    -3.593354 
H       0.241097    -1.100792    -1.983591 
C       1.929729    -1.644821    -3.188882 
C       2.732988    -1.868789    -2.077230 
C       2.490341    -1.742916    -4.460891 
C       4.081575    -2.175349    -2.231080 
H       2.305744    -1.797767    -1.082125 
C       3.833893    -2.050565    -4.619505 
H       1.862155    -1.578771    -5.332250 
C       4.635208    -2.264310    -3.501064 
H       4.698078    -2.344880    -1.353765 
H       4.258536    -2.125297    -5.615847 
H       5.686806    -2.504783    -3.622399 
C      -0.963819     0.891754     0.804771 
O      -0.195536     1.231676    -0.237438 
C       1.056210     1.454153     0.248505 
N      -0.032948    -0.841885     1.093218 
N       1.063662    -0.648241     0.887058 
C       2.127048     1.725660    -0.697468 
O       3.189439     2.206887    -0.363081 
O       1.825877     1.380488    -1.958428 
C       2.880814     1.579460    -2.911899 
H       2.453813     1.323211    -3.880411 
H       3.215682     2.618344    -2.897815 
H       3.719313     0.916930    -2.689150 
74
     -1835.271660     -1834.737591   7.01   8.12
C       0.120334     3.404775     1.942253 
C       1.332488     2.883141     1.491352 
C       2.256802     3.711289     0.882947 
C       1.983280     5.063758     0.736936 
C       0.777142     5.583309     1.213080 
C      -0.172372     4.762814     1.823075 
C       0.009296     1.157993     2.507974 
C       1.394197     1.418461     1.842099 
H       3.196622     3.317539     0.509750 
H       2.687373     5.736469     0.262737 
H      -1.114473     5.153816     2.180849 
H       0.103405     0.794029     3.541877 
N      -0.697968     2.428068     2.474937 
C      -1.736807     2.721812     3.439285 
H      -2.263822     1.798830     3.678221 
H      -1.335691     3.164833     4.363037 
H      -2.460321     3.417873     3.007049 
O       0.607635     6.921084     1.032455 
C      -0.598843     7.507552     1.482482 
H      -0.719870     7.389743     2.566083 
H      -0.527644     8.568404     1.240763 
H      -1.467295     7.076222     0.970213 
N       2.694992     0.032569     0.406831 
C       3.169492    -0.747697    -0.633376 
O       4.355517    -1.004894    -0.691105 
C       2.188263    -1.284655    -1.649198 
H       2.712512    -1.254847    -2.604531 
H       1.300222    -0.659099    -1.736392 
C       1.810418    -2.746531    -1.310224 
H       2.671912    -3.219502    -0.827811 
H       1.012199    -2.744805    -0.568440 
C       1.469766    -3.560125    -2.544082 
C       0.352140    -3.509922    -3.274070 
H       0.295987    -4.086239    -4.194496 
C       2.684714     0.989941     2.577998 
H       2.469268     0.147134     3.242601 
H       3.110753     1.800403     3.170407 
C       3.619494     0.537107     1.443019 
H       4.223783     1.354551     1.043212 
H       4.298207    -0.264910     1.733133 
C       2.582173    -4.462773    -3.041968 
H       2.848343    -5.169924    -2.244638 
H       2.215503    -5.064384    -3.880202 
C       3.843238    -3.706104    -3.476498 
H       4.604352    -4.404378    -3.838406 
H       3.613133    -3.007598    -4.287936 
H       4.281198    -3.133697    -2.653622 
O      -0.812620    -2.820024    -3.116240 
C      -1.251863    -2.454180    -1.810542 
H      -1.003451    -3.258373    -1.110254 
H      -0.758558    -1.537020    -1.478490 
C      -2.745384    -2.255927    -1.846786 
C      -3.582906    -3.344357    -2.082996 
C      -3.309097    -1.006199    -1.619722 
C      -4.961557    -3.188585    -2.083166 
H      -3.144624    -4.320689    -2.271421 
C      -4.691295    -0.845355    -1.616570 
H      -2.665801    -0.151325    -1.437540 
C      -5.519933    -1.935420    -1.845464 
H      -5.603333    -4.044103    -2.269759 
H      -5.118138     0.136110    -1.434816 
H      -6.598313    -1.810912    -1.844674 
C       1.399359     0.388097     0.721548 
O       0.500888    -0.564188     1.001570 
C      -0.543765     0.047429     1.624097 
N       0.238076     1.273386    -0.625651 
N      -0.817898     1.211522    -0.220944 
C      -1.724615    -0.742422     1.933862 
O      -2.570436    -0.373117     2.721741 
O      -1.786783    -1.899020     1.256942 
C      -2.968932    -2.679047     1.492730 
H      -3.083044    -2.884579     2.558727 
H      -3.848835    -2.150540     1.121121 
H      -2.828189    -3.602593     0.933037 
74
     -1835.266436     -1834.737190  10.29   8.37
C      -0.304842     0.845761    -4.812479 
C       0.600640     0.047095    -4.114955 
C       0.973984    -1.181562    -4.626009 
C       0.459445    -1.610377    -5.841265 
C      -0.428241    -0.793869    -6.545920 
C      -0.823415     0.446266    -6.043645 
C       0.206097     2.093881    -2.925518 
C       1.043918     0.781976    -2.876034 
H       1.663016    -1.822848    -4.085989 
H       0.732083    -2.568820    -6.265726 
H      -1.522063     1.078017    -6.573940 
H       0.832531     2.997105    -2.939350 
N      -0.600905     2.010897    -4.133145 
C      -1.054874     3.206991    -4.812577 
H      -0.336693     3.550995    -5.571351 
H      -2.013136     3.016846    -5.303486 
H      -1.205646     3.992966    -4.074045 
O      -0.868161    -1.298385    -7.730867 
C      -1.778929    -0.524523    -8.487871 
H      -2.708495    -0.347105    -7.933643 
H      -1.339751     0.437381    -8.778816 
H      -1.998431    -1.106415    -9.383521 
N       1.688634    -0.559826    -1.018412 
C       1.693041    -1.446299     0.048418 
O       2.715217    -2.044018     0.313105 
C       0.386385    -1.640206     0.786210 
H      -0.270062    -2.205608     0.113516 
H      -0.096032    -0.675694     0.949015 
C       0.548086    -2.384678     2.115316 
H      -0.452191    -2.668736     2.456246 
H       1.110794    -3.305084     1.942361 
C       1.227173    -1.569244     3.198851 
C       0.581974    -0.564283     3.781468 
H       1.012448     0.051900     4.564985 
C       2.577196     0.865474    -2.692676 
H       2.836536     1.784622    -2.157544 
H       3.107410     0.856990    -3.645704 
C       2.909459    -0.360112    -1.824754 
H       3.119510    -1.252263    -2.419258 
H       3.756937    -0.200649    -1.157678 
C       2.627675    -1.969621     3.598734 
H       2.591555    -3.015752     3.934425 
H       3.247875    -1.975206     2.696528 
C       3.289347    -1.118686     4.679827 
H       4.293853    -1.494963     4.894756 
H       3.388342    -0.075580     4.362152 
H       2.720836    -1.138693     5.615533 
O      -0.701924    -0.225417     3.413834 
C      -1.383409     0.593622     4.353638 
H      -0.851217     1.546288     4.484886 
H      -2.350159     0.811279     3.891318 
C      -1.581026    -0.074407     5.696500 
C      -1.308091     0.609491     6.875410 
C      -2.054493    -1.383757     5.765357 
C      -1.516382     0.002735     8.110493 
H      -0.927549     1.626678     6.831610 
C      -2.259283    -1.992829     6.994681 
H      -2.257653    -1.926491     4.847397 
C      -1.993370    -1.299147     8.172087 
H      -1.301982     0.549465     9.023368 
H      -2.627819    -3.013041     7.036517 
H      -2.155610    -1.775814     9.133621 
C       0.663728     0.219643    -1.514520 
O       0.158689     1.212348    -0.764007 
C      -0.545623     2.027441    -1.599108 
N      -1.111629    -0.579655    -1.888841 
N      -1.834664     0.281080    -2.026345 
C      -1.257945     3.187585    -1.056705 
O      -1.398872     4.176912    -1.741195 
O      -1.766152     3.181449     0.186448 
C      -1.902377     1.988128     0.966286 
H      -2.281552     1.159736     0.364610 
H      -0.958313     1.709933     1.434514 
H      -2.635449     2.240693     1.732872 
74
     -1835.267867     -1834.734958   9.39   9.77
C       1.978894    -2.652089     0.980617 
C       1.739861    -1.301714     1.280929 
C       0.854208    -0.960208     2.272324 
C       0.200135    -1.959898     3.002690 
C       0.462948    -3.296513     2.712848 
C       1.356324    -3.658934     1.698580 
C       3.335522    -1.491157    -0.506941 
C       2.608986    -0.448326     0.393712 
H       0.640758     0.081108     2.490127 
H      -0.488592    -1.681975     3.788866 
H       1.521607    -4.709586     1.495224 
H       4.430107    -1.435108    -0.422328 
N       2.853659    -2.792605    -0.072763 
C       3.610125    -4.005364    -0.300707 
H       4.237504    -3.868225    -1.180399 
H       4.241162    -4.264797     0.561543 
H       2.929873    -4.839562    -0.494470 
O      -0.113385    -4.342414     3.367103 
C      -1.033708    -4.051750     4.402214 
H      -1.372892    -5.015375     4.783735 
H      -0.557289    -3.488194     5.213241 
H      -1.894791    -3.488060     4.023485 
N       1.762592     1.711632    -0.136047 
C       1.144326     2.810389    -0.718905 
O       1.350776     3.921202    -0.279408 
C       0.153278     2.546971    -1.828642 
H       0.493563     1.750224    -2.493154 
H       0.082657     3.470857    -2.405295 
C      -1.219694     2.164766    -1.232862 
H      -1.931957     2.082571    -2.060703 
H      -1.153619     1.180043    -0.775517 
C      -1.731924     3.154151    -0.217711 
C      -1.819857     2.842020     1.071508 
H      -2.217507     3.543467     1.807419 
C       3.445255     0.618325     1.137374 
H       4.378208     0.798224     0.593845 
H       3.689981     0.312643     2.155220 
C       2.561828     1.876487     1.096581 
H       1.896450     1.953282     1.959639 
H       3.129720     2.803752     1.026393 
C      -2.132770     4.531254    -0.685483 
H      -2.394039     5.140065     0.186459 
H      -1.261429     5.015088    -1.143524 
C      -3.305395     4.527919    -1.671984 
H      -3.603234     5.550513    -1.922977 
H      -3.048047     4.021106    -2.606830 
H      -4.172743     4.016343    -1.241498 
O      -1.380881     1.647105     1.594112 
C      -2.434414     0.839003     2.132281 
H      -1.938730     0.084839     2.745768 
H      -3.075573     1.450431     2.780374 
C      -3.242580     0.185510     1.039769 
C      -4.427071     0.758412     0.587432 
C      -2.771860    -0.975160     0.428302 
C      -5.135280     0.183572    -0.461750 
H      -4.795168     1.667357     1.055316 
C      -3.474353    -1.549849    -0.622094 
H      -1.842296    -1.422268     0.769171 
C      -4.658048    -0.971399    -1.069122 
H      -6.058054     0.639864    -0.806225 
H      -3.094509    -2.449074    -1.096497 
H      -5.206991    -1.421279    -1.890581 
C       1.931478     0.439325    -0.636945 
O       2.545195     0.274491    -1.820258 
C       2.917239    -1.036596    -1.903332 
N       0.374366    -0.681917    -1.145682 
N       0.764151    -1.537701    -1.775990 
C       3.590823    -1.518301    -3.110742 
O       4.390460    -2.425270    -3.033163 
O       3.342290    -0.975744    -4.315802 
C       2.219099    -0.124665    -4.568885 
H       2.410316     0.892266    -4.222804 
H       2.101077    -0.128857    -5.652520 
H       1.311878    -0.516637    -4.103667 
74
     -1835.266264     -1834.734644  10.40   9.97
C       0.190944     1.299061     3.515623 
C       0.620814     0.040792     3.067015 
C       1.963064    -0.230144     2.962205 
C       2.907930     0.736987     3.322332 
C       2.468841     1.970962     3.795717 
C       1.104879     2.265836     3.898294 
C      -1.778074     0.138968     3.110665 
C      -0.588399    -0.827894     2.827712 
H       2.310093    -1.191478     2.597061 
H       3.961290     0.509949     3.233034 
H       0.806020     3.243497     4.255394 
H      -2.448118    -0.235995     3.897768 
N      -1.184256     1.405685     3.504438 
C      -1.891021     2.334022     4.362695 
H      -2.959868     2.238544     4.177360 
H      -1.684380     2.151946     5.427644 
H      -1.595309     3.359036     4.124053 
O       3.301501     2.975603     4.184142 
C       4.696448     2.749057     4.104911 
H       5.171427     3.664203     4.460230 
H       5.001230     1.910606     4.742485 
H       5.010943     2.554054     3.072680 
N      -0.372087    -2.551302     1.198408 
C      -0.291597    -3.286914     0.027665 
O       0.183742    -4.404044     0.057465 
C      -0.769023    -2.654977    -1.259081 
H      -1.443030    -1.817112    -1.094558 
H      -1.314764    -3.435775    -1.792836 
C       0.435548    -2.193431    -2.102331 
H       0.912671    -1.349306    -1.595314 
H       1.169347    -3.003599    -2.144425 
C       0.037354    -1.791025    -3.504439 
C      -0.599177    -0.648126    -3.736797 
H      -0.893027    -0.334657    -4.738499 
C      -0.537819    -2.201348     3.536935 
H      -1.553532    -2.529344     3.780000 
H       0.047852    -2.170549     4.456285 
C       0.075410    -3.134341     2.479211 
H       1.166789    -3.160280     2.521698 
H      -0.282549    -4.161760     2.545213 
C       0.359933    -2.732598    -4.637000 
H       0.086352    -2.266857    -5.590151 
H       1.445416    -2.896497    -4.668866 
C      -0.345735    -4.087949    -4.508913 
H      -0.093831    -4.738395    -5.352133 
H      -0.053734    -4.607021    -3.590725 
H      -1.432703    -3.958595    -4.491193 
O      -0.963892     0.195803    -2.720933 
C      -1.041895     1.569251    -3.088979 
H      -1.755824     1.697811    -3.913678 
H      -1.445219     2.074511    -2.207526 
C       0.299819     2.151707    -3.469084 
C       0.459349     2.844555    -4.663340 
C       1.393015     2.005886    -2.615212 
C       1.690763     3.396820    -5.003453 
H      -0.385809     2.954862    -5.338062 
C       2.622482     2.551971    -2.954460 
H       1.275663     1.461568    -1.683104 
C       2.774404     3.251265    -4.148782 
H       1.800535     3.937776    -5.938143 
H       3.468452     2.433808    -2.284362 
H       3.737169     3.679051    -4.410379 
C      -0.891776    -1.291084     1.412143 
O      -2.184328    -1.052133     1.145664 
C      -2.514313     0.113370     1.774734 
N      -0.231688     0.228038     0.347321 
N      -0.952085     1.086227     0.503816 
C      -3.854405     0.676546     1.608466 
O      -4.339375     1.341726     2.497727 
O      -4.566517     0.484424     0.484557 
C      -4.015266    -0.084720    -0.708772 
H      -3.959684    -1.171746    -0.631228 
H      -4.713668     0.191375    -1.498853 
H      -3.029716     0.323825    -0.935162 
74
     -1835.266163     -1834.734545  10.46  10.03
C      -0.702480     0.632885     3.572785 
C       0.386690    -0.095283     3.095524 
C       1.659336     0.438696     3.166429 
C       1.853514     1.690369     3.733170 
C       0.761144     2.401556     4.235538 
C      -0.532714     1.884708     4.163454 
C      -1.643468    -1.336853     2.792215 
C      -0.098403    -1.437160     2.610238 
H       2.514211    -0.106555     2.779649 
H       2.838807     2.134956     3.801974 
H      -1.386124     2.435313     4.533695 
H      -2.044471    -2.129992     3.439498 
N      -1.898243    -0.027343     3.370882 
C      -3.061752     0.207796     4.200998 
H      -3.387449     1.246748     4.101822 
H      -3.872223    -0.432066     3.855013 
H      -2.861545     0.005048     5.263494 
O       1.056220     3.612583     4.781990 
C      -0.008594     4.388121     5.297865 
H       0.442306     5.304571     5.679690 
H      -0.734518     4.639660     4.515232 
H      -0.521383     3.867921     6.115933 
N       1.173261    -2.493427     0.895363 
C       1.741803    -2.880810    -0.306698 
O       2.758591    -3.544821    -0.298344 
C       1.091617    -2.430226    -1.594052 
H       0.053323    -2.133484    -1.462701 
H       1.120934    -3.292517    -2.263357 
C       1.889530    -1.265320    -2.211671 
H       1.770568    -0.384652    -1.573277 
H       2.952160    -1.524973    -2.211705 
C       1.442134    -0.942483    -3.619508 
C       0.293966    -0.314348    -3.848706 
H      -0.047939    -0.067339    -4.853755 
C       0.662380    -2.645163     3.205115 
H      -0.007248    -3.508777     3.269594 
H       1.057332    -2.435159     4.199672 
C       1.772604    -2.918188     2.176432 
H       2.681944    -2.346473     2.375959 
H       2.051468    -3.969517     2.105781 
C       2.322355    -1.372804    -4.765524 
H       1.907990    -0.996590    -5.707344 
H       3.311502    -0.909408    -4.651487 
C       2.491314    -2.894378    -4.852781 
H       3.127905    -3.166664    -5.700230 
H       2.953515    -3.299222    -3.947109 
H       1.521401    -3.384957    -4.983722 
O      -0.557398     0.029821    -2.831866 
C      -1.362769     1.174744    -3.093534 
H      -1.960403     1.014888    -4.001076 
H      -2.046061     1.238772    -2.242697 
C      -0.553074     2.444242    -3.222791 
C      -0.717388     3.281360    -4.320049 
C       0.364347     2.792884    -2.231712 
C       0.015187     4.459742    -4.428701 
H      -1.424173     3.012013    -5.100829 
C       1.098716     3.964976    -2.340304 
H       0.500498     2.140548    -1.374507 
C       0.924525     4.803253    -3.438234 
H      -0.125132     5.105595    -5.289813 
H       1.810921     4.228988    -1.564597 
H       1.499189     5.720612    -3.519246 
C       0.020735    -1.772598     1.131983 
O      -1.157789    -2.244105     0.698263 
C      -2.132686    -1.559754     1.365100 
N      -0.205587    -0.002898     0.303338 
N      -1.292501     0.287897     0.422123 
C      -3.540443    -1.801778     1.050064 
O      -4.381127    -1.650575     1.909913 
O      -3.934620    -2.180388    -0.178111 
C      -3.069174    -2.171717    -1.319503 
H      -2.420358    -3.049089    -1.322105 
H      -3.738989    -2.208354    -2.178704 
H      -2.467718    -1.263059    -1.365441 
74
     -1835.269928     -1834.734208   8.10  10.24
C      -1.340857    -3.203421     0.848648 
C      -0.974565    -2.632781    -0.380802 
C       0.030787    -3.196976    -1.127103 
C       0.680244    -4.352071    -0.677802 
C       0.287038    -4.925659     0.528961 
C      -0.728684    -4.357616     1.306064 
C      -2.765900    -1.383720     0.620518 
C      -1.875157    -1.455055    -0.654821 
H       0.338261    -2.756190    -2.069900 
H       1.469924    -4.785243    -1.276019 
H      -0.992927    -4.826519     2.245727 
H      -3.837138    -1.481020     0.389621 
N      -2.326491    -2.473111     1.476846 
C      -3.204586    -3.048060     2.473111 
H      -3.872804    -2.271428     2.843441 
H      -3.798804    -3.881874     2.070984 
H      -2.616615    -3.418511     3.316953 
O       0.842226    -6.053386     1.050302 
C       1.878210    -6.682848     0.319165 
H       2.173805    -7.554324     0.904275 
H       1.528301    -7.009696    -0.667273 
H       2.741468    -6.017748     0.197460 
N      -0.953642     0.282866    -1.992511 
C      -0.181588     1.322085    -2.484225 
O      -0.049243     1.439834    -3.686171 
C       0.478231     2.267756    -1.506523 
H       0.293484     1.998529    -0.469385 
H       0.010062     3.242145    -1.678443 
C       1.992933     2.386232    -1.776500 
H       2.135117     2.442079    -2.859428 
H       2.321543     3.337573    -1.376149 
C       2.794339     1.227420    -1.224387 
C       3.602986     1.200728    -0.159974 
H       4.078853     0.259368     0.101563 
C      -2.550363    -1.470878    -2.044621 
H      -3.516201    -0.958575    -1.991009 
H      -2.713956    -2.483871    -2.414183 
C      -1.580991    -0.670418    -2.929281 
H      -0.817671    -1.298858    -3.394781 
H      -2.077428    -0.113926    -3.724413 
C       2.644353    -0.093106    -1.963116 
H       3.182735    -0.869451    -1.410809 
H       1.595260    -0.408656    -1.955558 
C       3.146904    -0.059847    -3.409747 
H       2.541436     0.602820    -4.033119 
H       4.186139     0.281596    -3.449552 
H       3.102055    -1.059650    -3.853573 
O       4.008710     2.118819     0.765619 
C       3.704998     3.495721     0.672218 
H       4.389863     3.968485     1.383972 
H       3.957377     3.880778    -0.322459 
C       2.279490     3.847415     1.045377 
C       1.736434     5.055348     0.613481 
C       1.508945     2.998820     1.832063 
C       0.436585     5.407290     0.952508 
H       2.333133     5.725238    -0.001372 
C       0.207917     3.350364     2.174336 
H       1.919444     2.053468     2.168799 
C      -0.331920     4.551852     1.733593 
H       0.024368     6.350556     0.607423 
H      -0.387772     2.673871     2.777622 
H      -1.349304     4.822495     1.996840 
C      -1.265190    -0.060089    -0.690532 
O      -2.023659     0.761624     0.047512 
C      -2.474551     0.030515     1.105730 
N       0.144518    -0.210647     0.664714 
N      -0.368318    -0.237302     1.676285 
C      -3.235344     0.711165     2.140788 
O      -3.965543     0.126360     2.914377 
O      -3.034463     2.039123     2.167932 
C      -3.750418     2.737760     3.193365 
H      -3.487843     3.788424     3.073556 
H      -4.826719     2.597744     3.073210 
H      -3.451813     2.378270     4.180594 
74
     -1835.264458     -1834.733722  11.53  10.55
C      -2.185031     3.933055     1.464942 
C      -1.199154     3.817832     0.472878 
C      -1.335065     4.497947    -0.712745 
C      -2.445795     5.320294    -0.930979 
C      -3.403781     5.446905     0.071834 
C      -3.283379     4.755369     1.282242 
C      -0.610677     2.502466     2.395272 
C      -0.089281     2.938768     0.992820 
H      -0.590193     4.405052    -1.496564 
H      -2.540258     5.847177    -1.870367 
H      -4.058055     4.869666     2.030123 
H       0.072599     2.786032     3.208611 
N      -1.903472     3.145842     2.562254 
C      -2.433642     3.443743     3.877029 
H      -2.136235     4.443569     4.225777 
H      -3.525594     3.396087     3.856355 
H      -2.075234     2.692414     4.579033 
O      -4.514389     6.227101    -0.032642 
C      -4.703936     6.954781    -1.231882 
H      -4.791377     6.284749    -2.095481 
H      -5.636797     7.505561    -1.106400 
H      -3.884334     7.662941    -1.402524 
N       1.152104     1.713095    -0.629934 
C       1.535897     0.825822    -1.621659 
O       2.429594     1.140906    -2.380567 
C       0.773397    -0.478397    -1.743326 
H      -0.007746    -0.276285    -2.486182 
H       0.262228    -0.738063    -0.817891 
C       1.652619    -1.650277    -2.218924 
H       1.020543    -2.326508    -2.800040 
H       2.421250    -1.262936    -2.892055 
C       2.290406    -2.448886    -1.100368 
C       1.582112    -3.355986    -0.433962 
H       2.013401    -3.966075     0.359294 
C       1.325565     3.549696     0.859850 
H       1.966302     3.178487     1.666204 
H       1.311124     4.639326     0.901483 
C       1.826624     3.019874    -0.494980 
H       1.557456     3.671988    -1.328917 
H       2.906035     2.870777    -0.528210 
C       3.744610    -2.244601    -0.749445 
H       4.057475    -3.040363    -0.064255 
H       4.350922    -2.360629    -1.657017 
C       4.053107    -0.882577    -0.113691 
H       5.088082    -0.853933     0.241678 
H       3.927535    -0.070748    -0.832106 
H       3.395841    -0.692572     0.741418 
O       0.246751    -3.562740    -0.674366 
C      -0.229153    -4.846345    -0.286815 
H      -0.011771    -5.026300     0.775012 
H      -1.315105    -4.793761    -0.403190 
C       0.344809    -5.966654    -1.124745 
C       0.921377    -7.080100    -0.524807 
C       0.292616    -5.896505    -2.516146 
C       1.430719    -8.117987    -1.299819 
H       0.975931    -7.140098     0.559065 
C       0.802847    -6.926874    -3.291675 
H      -0.148578    -5.025161    -2.990471 
C       1.371665    -8.043222    -2.684326 
H       1.875916    -8.982954    -0.818305 
H       0.757452    -6.861227    -4.374249 
H       1.769260    -8.850221    -3.291630 
C       0.160338     1.597038     0.322560 
O       0.258784     0.652497     1.269938 
C      -0.618007     0.981598     2.259540 
N      -1.677812     1.062202    -0.210155 
N      -2.221340     0.778001     0.741027 
C      -0.779985     0.096232     3.416077 
O      -1.083972     0.566211     4.490304 
O      -0.608124    -1.231104     3.313763 
C      -0.486923    -1.909055     2.056694 
H       0.511527    -1.787461     1.637800 
H      -0.664930    -2.958568     2.290082 
H      -1.237696    -1.565921     1.342860 
74
     -1835.265059     -1834.733279  11.15  10.82
C      -3.556880    -1.795353     1.009239 
C      -2.555899    -1.361947     1.877918 
C      -2.839674    -0.410957     2.839546 
C      -4.126018     0.097605     2.950571 
C      -5.129739    -0.360528     2.093793 
C      -4.861549    -1.313713     1.110900 
C      -1.688495    -3.006211     0.360715 
C      -1.290977    -2.126543     1.583530 
H      -2.066664    -0.049239     3.509878 
H      -4.378092     0.844682     3.693183 
H      -5.627947    -1.662363     0.432969 
H      -1.553929    -4.080572     0.550658 
N      -3.084379    -2.705512     0.085021 
C      -3.947053    -3.675821    -0.557013 
H      -4.704096    -3.163705    -1.157149 
H      -3.345756    -4.289043    -1.226605 
H      -4.458334    -4.322275     0.171346 
O      -6.358651     0.190374     2.289421 
C      -7.416383    -0.222984     1.445696 
H      -7.610525    -1.297668     1.546409 
H      -8.296159     0.334308     1.768777 
H      -7.203856     0.011368     0.395626 
N       0.769743    -1.038796     2.079468 
C       1.901599    -0.243148     2.072568 
O       2.551557    -0.126161     3.092426 
C       2.290532     0.475713     0.799806 
H       2.244274     1.540243     1.046439 
H       1.591956     0.301567    -0.014921 
C       3.726008     0.105786     0.371794 
H       4.306530    -0.139959     1.264572 
H       3.688891    -0.797912    -0.244210 
C       4.417081     1.222415    -0.376037 
C       4.108289     1.531956    -1.629947 
H       4.591517     2.351608    -2.159524 
C      -0.643921    -2.793421     2.819443 
H      -0.118307    -3.704214     2.515264 
H      -1.380093    -3.053620     3.580686 
C       0.366677    -1.744987     3.313114 
H      -0.070238    -1.040730     4.024777 
H       1.251662    -2.179289     3.777765 
C       5.453103     2.024561     0.371631 
H       6.246816     1.346480     0.712126 
H       5.925201     2.742605    -0.308020 
C       4.874953     2.765997     1.583596 
H       4.101082     3.474024     1.268585 
H       4.426098     2.073100     2.301813 
H       5.656844     3.327730     2.103872 
O       3.181296     0.830340    -2.357295 
C       2.663591     1.545604    -3.476412 
H       3.485334     1.858118    -4.134310 
H       2.054560     0.820825    -4.022383 
C       1.834852     2.744349    -3.073979 
C       0.780241     2.592529    -2.174261 
C       2.105751     4.004868    -3.592208 
C       0.008751     3.683367    -1.803916 
H       0.560136     1.613934    -1.761843 
C       1.330581     5.101939    -3.226185 
H       2.930574     4.134997    -4.288186 
C       0.281418     4.942655    -2.331731 
H      -0.809186     3.549180    -1.103127 
H       1.551264     6.080869    -3.640031 
H      -0.323702     5.796596    -2.043625 
C      -0.082299    -1.375144     1.046817 
O       0.397422    -2.029523    -0.020091 
C      -0.673788    -2.553110    -0.685513 
N      -0.948742     0.040704    -0.042195 
N      -1.380628    -0.471768    -0.955717 
C      -0.458316    -3.306375    -1.924301 
O      -1.218953    -4.201695    -2.219933 
O       0.566417    -3.027853    -2.746605 
C       1.344492    -1.830334    -2.640739 
H       2.081704    -1.904239    -1.842553 
H       1.852459    -1.738157    -3.600308 
H       0.707973    -0.958137    -2.480885 
74
     -1835.266703     -1834.731333  10.12  12.04
C       1.784374     3.307975    -0.149689 
C       1.599804     2.547666    -1.314561 
C       0.918549     3.080685    -2.381704 
C       0.424346     4.388209    -2.321701 
C       0.640847     5.143163    -1.171671 
C       1.324132     4.611341    -0.072684 
C       2.828316     1.289672     0.321758 
C       2.299996     1.222055    -1.146266 
H       0.750466     2.498922    -3.282268 
H      -0.111454     4.793057    -3.169146 
H       1.456701     5.226679     0.808501 
H       3.918475     1.156652     0.382141 
N       2.442854     2.594876     0.831709 
C       3.216894     3.251131     1.865661 
H       4.032753     3.860288     1.448889 
H       2.567833     3.901969     2.457094 
H       3.628336     2.492567     2.529605 
O       0.214777     6.426509    -1.013692 
C      -0.486812     7.029209    -2.085160 
H       0.132338     7.080362    -2.988724 
H      -1.413772     6.488085    -2.309573 
H      -0.729640     8.040194    -1.756084 
N       1.431906    -0.630396    -2.371063 
C       0.686348    -1.711547    -2.813737 
O       0.766373    -2.055478    -3.975199 
C      -0.205626    -2.425395    -1.821890 
H       0.085316    -2.235642    -0.791083 
H      -0.069813    -3.491532    -2.021920 
C      -1.687328    -2.050839    -2.013012 
H      -1.826218    -0.992901    -1.778461 
H      -1.950601    -2.195238    -3.064555 
C      -2.566547    -2.903133    -1.129774 
C      -2.901028    -2.521528     0.100677 
H      -3.521409    -3.145820     0.742036 
C       3.266550     0.865733    -2.300853 
H       4.084245     0.244200    -1.921864 
H       3.691790     1.751761    -2.773405 
C       2.390403     0.046778    -3.265972 
H       1.860590     0.671840    -3.988397 
H       2.946431    -0.705914    -3.825178 
C      -3.033854    -4.234524    -1.664389 
H      -2.170720    -4.792750    -2.051477 
H      -3.444873    -4.834440    -0.844994 
C      -4.086311    -4.106985    -2.772326 
H      -4.970044    -3.576513    -2.404462 
H      -3.698989    -3.553730    -3.632852 
H      -4.401519    -5.093797    -3.125604 
O      -2.490938    -1.336335     0.638055 
C      -3.083553    -0.960472     1.884036 
H      -3.103097     0.131041     1.872558 
H      -4.118244    -1.322355     1.923239 
C      -2.301808    -1.449317     3.080731 
C      -1.306657    -0.647512     3.637326 
C      -2.548194    -2.701678     3.639007 
C      -0.559551    -1.093885     4.719413 
H      -1.104368     0.328947     3.208298 
C      -1.807388    -3.150875     4.726018 
H      -3.333394    -3.331905     3.230420 
C      -0.809083    -2.347286     5.265715 
H       0.228223    -0.467338     5.124291 
H      -2.011422    -4.128292     5.152123 
H      -0.225850    -2.698261     6.111429 
C       1.474135    -0.053659    -1.119315 
O       1.849743    -0.789739    -0.064112 
C       2.139802     0.079360     0.946621 
N      -0.198106     0.566967    -0.305781 
N       0.019189     0.768224     0.785147 
C       2.457688    -0.424134     2.280231 
O       3.124169     0.255406     3.032385 
O       2.018732    -1.617612     2.711980 
C       1.073889    -2.428251     2.000513 
H       0.683425    -3.122738     2.743345 
H       0.248356    -1.836280     1.607436 
H       1.569118    -2.975500     1.196217 
74
     -1835.264493     -1834.730899  11.51  12.32
C      -3.258607     2.247598     0.161652 
C      -2.718717     1.966495    -1.102032 
C      -3.540362     1.568745    -2.128648 
C      -4.920460     1.461748    -1.925901 
C      -5.448321     1.772467    -0.675108 
C      -4.622975     2.169639     0.382666 
C      -0.985473     2.645562     0.417041 
C      -1.236753     2.240323    -1.066539 
H      -3.133559     1.328831    -3.105811 
H      -5.554624     1.145787    -2.742703 
H      -5.072827     2.386547     1.343513 
H      -0.552789     3.652205     0.510146 
N      -2.280618     2.583618     1.078256 
C      -2.576599     3.430946     2.216972 
H      -2.971340     4.411336     1.911124 
H      -3.318317     2.944864     2.855750 
H      -1.667293     3.567614     2.798981 
O      -6.774791     1.713842    -0.374260 
C      -7.669930     1.316398    -1.396189 
H      -8.665296     1.339134    -0.951147 
H      -7.636606     2.007700    -2.246699 
H      -7.451370     0.299994    -1.744853 
N       0.104669     0.970289    -2.566952 
C       0.773773    -0.054701    -3.220401 
O       1.019643     0.056938    -4.404136 
C       1.199540    -1.251249    -2.402900 
H       1.078511    -2.128234    -3.042027 
H       0.574459    -1.384645    -1.525739 
C       2.676200    -1.099978    -2.009841 
H       3.252674    -0.941379    -2.928350 
H       2.795011    -0.181678    -1.423363 
C       3.295701    -2.263084    -1.262134 
C       2.673474    -3.066579    -0.401445 
H       3.218143    -3.874301     0.084713 
C      -0.729027     3.161080    -2.201201 
H       0.140573     3.728779    -1.854893 
H      -1.492336     3.864735    -2.535315 
C      -0.309120     2.178874    -3.308285 
H      -1.126629     1.940084    -3.992456 
H       0.529251     2.533407    -3.908298 
C       4.777341    -2.464925    -1.485249 
H       5.101413    -3.391714    -1.000005 
H       4.965285    -2.590863    -2.559527 
C       5.622084    -1.298035    -0.958802 
H       5.363448    -0.358193    -1.456018 
H       5.463809    -1.163165     0.116212 
H       6.688253    -1.479575    -1.125519 
O       1.352531    -2.980464    -0.061701 
C       0.936559    -3.841478     1.004272 
H      -0.150543    -3.884978     0.919693 
H       1.337628    -4.849296     0.838367 
C       1.341664    -3.321350     2.362812 
C       0.564349    -2.354025     2.997688 
C       2.507669    -3.762673     2.982609 
C       0.957759    -1.819379     4.216282 
H      -0.347833    -2.002597     2.525171 
C       2.903121    -3.234482     4.206679 
H       3.114112    -4.530436     2.509627 
C       2.130674    -2.256611     4.821702 
H       0.354531    -1.049835     4.686118 
H       3.815598    -3.586315     4.677808 
H       2.440688    -1.836913     5.773619 
C      -0.272967     1.079477    -1.243011 
O       0.669244     1.156077    -0.287670 
C       0.059210     1.613889     0.841831 
N      -1.261121    -0.396164    -0.337495 
N      -1.200295    -0.184832     0.772908 
C       0.778900     1.715961     2.114163 
O       0.372012     2.491012     2.953470 
O       1.846978     0.961833     2.407778 
C       2.417727    -0.005403     1.518044 
H       3.020483     0.495061     0.758101 
H       3.051315    -0.629562     2.147310 
H       1.661498    -0.629800     1.049547 
