24
      -531.412581      -531.259129   0.00   0.00
C       0.173028    -0.065711     1.820102
C       0.834914    -1.440489     1.910268
C       1.097904     1.050234     2.329455
H       1.768118    -1.441260     1.345233
H       1.045986    -1.666338     2.958547
H       0.182268    -2.216563     1.506387
H       1.376858     0.859113     3.367961
H       2.002049     1.069669     1.715295
H       0.602369     2.020833     2.266843
C      -1.075673    -0.060932     2.614525
N      -2.034552    -0.064375     3.246237
C      -0.172570     0.076951    -1.817089
C      -0.840714     1.448718    -1.906503
C      -1.090961    -1.042520    -2.330284
H      -1.774606     1.444454    -1.342580
H      -0.192265     2.227394    -1.500918
H      -1.051629     1.674741    -2.954779
H      -1.368026    -0.851422    -3.369303
H      -0.591137    -2.010902    -2.267519
H      -1.996675    -1.066926    -1.718619
C       1.078033     0.079378    -2.608549
N       2.038624     0.088360    -3.237602
N      -0.239336     0.350669     0.443919
N       0.238991    -0.339724    -0.440746
24
      -531.412249      -531.258701   0.21   0.27
C      -1.423038     0.301534     1.133948
C      -1.417272    -1.027947     1.888447
C      -1.027767     1.478031     2.038814
H      -1.644137    -1.858490     1.217751
H      -0.436289    -1.199234     2.333990
H      -2.171815    -0.993110     2.678280
H      -1.722863     1.552324     2.878017
H      -0.020287     1.306980     2.427158
H      -1.042316     2.416383     1.481286
C      -2.772435     0.552453     0.579721
N      -3.827520     0.745905     0.169978
C       1.275029    -0.442875    -1.218226
C       2.631994    -0.069712    -0.602924
C       0.862535     0.526991    -2.325499
H       2.908287    -0.776730     0.181513
H       3.404903    -0.075013    -1.374625
H       2.565838     0.933838    -0.174445
H      -0.128333     0.280746    -2.711059
H       0.841176     1.546821    -1.938646
H       1.586570     0.465201    -3.141794
C       1.355521    -1.816021    -1.765013
N       1.432744    -2.874321    -2.203822
N      -0.503148     0.363756    -0.044609
N       0.317610    -0.538321    -0.072241
24
      -531.412389      -531.258599   0.12   0.33
C      -0.844394     1.419652     0.825447
C      -1.220082     2.668796     0.017512
C      -2.033544     0.883046     1.633514
H      -0.360978     3.029785    -0.552924
H      -2.024829     2.415524    -0.676200
H      -1.557045     3.463017     0.687262
H      -1.744450    -0.008162     2.195603
H      -2.385427     1.642973     2.334635
H      -2.842235     0.622525     0.947111
C       0.264336     1.749193     1.747712
N       1.066640     2.069768     2.504469
C       0.976036    -1.138862    -1.047355
C       1.351837    -2.387981    -0.239414
C       2.165101    -0.602220    -1.855501
H       2.156603    -2.134649     0.454254
H       0.492777    -2.748999     0.331071
H       1.688805    -3.182197    -0.909166
H       2.973834    -0.341668    -1.169159
H       2.516962    -1.362144    -2.556638
H       1.875941     0.288972    -2.417580
C      -0.132738    -1.468475    -1.969540
N      -0.935106    -1.789141    -2.726191
N      -0.498129     0.366674    -0.162112
N       0.629784    -0.085887    -0.059789
24
      -531.411956      -531.258597   0.39   0.33
C      -1.471032     0.235615     1.077175
C      -1.812319    -1.122517     1.706885
C      -1.603176     1.382729     2.084129
H      -2.847724    -1.123994     2.054161
H      -1.684003    -1.923216     0.974836
H      -1.148420    -1.303835     2.555368
H      -0.921285     1.206310     2.919090
H      -1.349207     2.336918     1.616718
H      -2.626388     1.437962     2.462105
C      -2.376538     0.485348    -0.065275
N      -3.148670     0.689834    -0.890358
C       1.580773    -0.110629    -0.907304
C       2.576905    -0.142836     0.252086
C       1.816903     1.089958    -1.835865
H       2.375339    -0.981743     0.920388
H       3.587808    -0.246333    -0.150321
H       2.511940     0.783406     0.825540
H       1.087800     1.095260    -2.647982
H       1.713370     2.012454    -1.258396
H       2.823314     1.044845    -2.257782
C       1.694749    -1.360541    -1.691708
N       1.805638    -2.329150    -2.298482
N      -0.038509     0.162223     0.678181
N       0.141479    -0.033621    -0.512370
24
      -531.411956      -531.258594   0.39   0.34
C      -0.942929    -0.594912     1.411296
C      -2.192541    -1.466313     1.249527
C       0.011677    -1.152989     2.476585
H      -2.740419    -1.520374     2.192813
H      -2.852812    -1.054673     0.482688
H      -1.890722    -2.473041     0.951756
H      -0.485598    -1.176547     3.448603
H       0.307885    -2.167487     2.199768
H       0.904279    -0.527570     2.551347
C      -1.351854     0.774761     1.791627
N      -1.718198     1.800235     2.156271
C       1.003897     0.377253    -1.527346
C       0.198151     1.248000    -2.503065
C       1.252538    -1.025368    -2.082582
H       0.737833     1.350195    -3.447103
H      -0.766379     0.769936    -2.693650
H       0.026072     2.239048    -2.079566
H       1.843000    -0.945586    -2.998855
H       1.796337    -1.641708    -1.364647
H       0.301748    -1.510707    -2.309379
C       2.300008     1.034788    -1.247044
N       3.313712     1.536462    -1.048538
N      -0.201894    -0.642581     0.120783
N       0.257361     0.430470    -0.233906
