37
      -880.931838      -880.684861   0.00   0.00
C      -1.145388     0.141647     0.900092
C      -0.403861     0.214996    -0.289516
C       0.739281     1.018291    -0.380645
C       1.152796     1.741189     0.729862
C       0.443534     1.652705     1.918094
C      -0.697511     0.867236     2.001002
C      -2.371311    -0.692681     1.011416
C      -3.401753    -0.589461     0.077080
C      -4.548959    -1.359519     0.208096
C      -4.682353    -2.240224     1.274860
C      -3.661282    -2.347041     2.211862
C      -2.513548    -1.576828     2.081567
H       2.034874     2.367353     0.655201
H       0.775786     2.215195     2.784687
H      -1.263767     0.824230     2.924818
H      -3.309358     0.101424    -0.754045
H      -5.342096    -1.270415    -0.527142
H      -5.579648    -2.842357     1.375695
H      -3.757433    -3.034551     3.046264
H      -1.711590    -1.672592     2.807043
C      -0.759546    -0.592640    -1.428775
N      -1.019823    -1.231599    -2.348842
C       2.806773     0.912794    -1.692515
O       3.461178     1.390018    -2.600102
C       3.460860     0.031770    -0.661227
C       2.931737    -1.146156    -0.349913
H       3.443762    -1.829616     0.321000
H       1.993024    -1.484853    -0.775648
C       4.791582     0.517536    -0.160689
H       5.456882     0.711244    -1.006276
H       4.688183     1.461399     0.386810
H       5.248477    -0.220058     0.502253
N       1.443724     1.106216    -1.611884
C       0.812835     1.860703    -2.697134
H      -0.267833     1.728274    -2.639867
H       1.054680     2.926518    -2.628625
H       1.171860     1.481862    -3.652934
37
      -880.931838      -880.684451  -0.00   0.26
C      -0.735501     0.887981     0.915571
C      -0.190119     0.397279    -0.281167
C       1.192594     0.402406    -0.501289
C       2.036942     0.887204     0.488085
C       1.509711     1.347216     1.685243
C       0.137879     1.354540     1.894648
C      -2.202043     0.906193     1.161145
C      -2.712717     0.382242     2.349361
C      -4.077300     0.411142     2.603482
C      -4.947774     0.967234     1.673427
C      -4.446014     1.493715     0.489164
C      -3.082020     1.464908     0.234360
H       3.106981     0.895903     0.313006
H       2.175605     1.718803     2.457435
H      -0.269965     1.741644     2.821873
H      -2.036576    -0.065418     3.071203
H      -4.462243    -0.004151     3.529491
H      -6.014687     0.989723     1.871074
H      -5.119446     1.929859    -0.241485
H      -2.698008     1.885442    -0.688848
C      -1.036267    -0.192622    -1.287515
N      -1.689753    -0.673343    -2.102621
C       2.723343    -0.994726    -1.809796
O       3.445474    -1.075013    -2.785396
C       2.870112    -1.967432    -0.669644
C       1.807692    -2.599790    -0.184079
H       1.913536    -3.371597     0.572574
H       0.804458    -2.397765    -0.544441
C       4.285961    -2.260851    -0.261466
H       4.315457    -3.046805     0.495962
H       4.865934    -2.572044    -1.134369
H       4.774358    -1.367438     0.144247
N       1.711629    -0.060154    -1.740847
C       1.508263     0.789496    -2.916365
H       1.502347     0.168577    -3.811056
H       0.548495     1.298492    -2.824532
H       2.308203     1.531493    -3.009078
37
      -880.931838      -880.684365  -0.00   0.31
C      -1.091326     0.195293     0.993925
C      -0.386193     0.190138    -0.219820
C       0.766358     0.966733    -0.389810
C       1.225923     1.741921     0.665985
C       0.552756     1.731295     1.878212
C      -0.597664     0.971997     2.038953
C      -2.326471    -0.609715     1.188243
C      -3.383722    -0.539528     0.281189
C      -4.538541    -1.280712     0.489205
C      -4.652809    -2.099123     1.606600
C      -3.604901    -2.172586     2.516797
C      -2.449525    -1.431218     2.309474
H       2.115199     2.347262     0.530116
H       0.920908     2.334406     2.701919
H      -1.135421     0.989768     2.980459
H      -3.306142     0.103021    -0.589293
H      -5.352658    -1.217934    -0.225537
H      -5.556109    -2.678763     1.767652
H      -3.686074    -2.811518     3.390478
H      -1.627005    -1.501339     3.014573
C      -0.790180    -0.672198    -1.301420
N      -1.089110    -1.355741    -2.176603
C       2.789690     0.752062    -1.756388
O       3.422480     1.165564    -2.709442
C       3.461993    -0.081226    -0.697487
C       2.924468    -1.230462    -0.304156
H       3.446565    -1.884204     0.388269
H       1.967544    -1.575929    -0.681122
C       4.815329     0.408410    -0.266130
H       4.744127     1.383061     0.230170
H       5.281265    -0.298855     0.423052
H       5.456571     0.542894    -1.141282
N       1.433311     0.974471    -1.644772
C       0.780392     1.677359    -2.751463
H       1.098239     1.235210    -3.694611
H      -0.300055     1.572365    -2.650221
H       1.045778     2.739723    -2.754508
37
      -880.931840      -880.684299  -0.00   0.35
C      -1.052028     0.382231     0.924212
C      -0.416172    -0.290538    -0.131063
C       0.802662    -0.951432     0.063294
C       1.397022    -0.927149     1.317440
C       0.790916    -0.241374     2.359191
C      -0.424171     0.400712     2.167057
C      -2.354405     1.076566     0.741987
C      -3.444583     0.425898     0.164422
C      -4.659608     1.081430     0.022194
C      -4.801671     2.393734     0.457056
C      -3.720948     3.048384     1.036212
C      -2.505308     2.393148     1.179046
H       2.337985    -1.444840     1.467100
H       1.264071    -0.220653     3.335647
H      -0.907133     0.911919     2.992502
H      -3.344752    -0.601056    -0.170268
H      -5.499007     0.563759    -0.430582
H      -5.752147     2.905403     0.344529
H      -3.823789     4.074132     1.375927
H      -1.658873     2.911530     1.618877
C      -0.967517    -0.255879    -1.462047
N      -1.385801    -0.235389    -2.533107
C       2.718527    -1.464538    -1.373797
O       3.355673    -2.324198    -1.952047
C       3.333425    -0.118760    -1.093261
C       2.683156     0.996282    -1.406697
H       3.154466     1.968414    -1.296053
H       1.678133     0.979809    -1.815076
C       4.751025    -0.157523    -0.597068
H       5.160093     0.851563    -0.515163
H       4.813781    -0.639654     0.385232
H       5.366780    -0.747407    -1.281209
N       1.401819    -1.662887    -1.012249
C       0.784612    -2.933897    -1.396355
H      -0.300223    -2.831903    -1.350432
H       1.081682    -3.178619    -2.414751
H       1.103847    -3.745139    -0.733023
37
      -880.931823      -880.684045   0.01   0.51
C      -1.206939    -0.710594    -0.205823
C      -0.322722     0.370978    -0.070028
C       0.323543     0.628054     1.144826
C       0.095343    -0.210211     2.227275
C      -0.754696    -1.297957     2.095336
C      -1.404347    -1.542127     0.893690
C      -1.915412    -0.990509    -1.483045
C      -1.891301    -2.277513    -2.021691
C      -2.566027    -2.560624    -3.201567
C      -3.275557    -1.560407    -3.855852
C      -3.306754    -0.277050    -3.323441
C      -2.632529     0.006639    -2.143966
H       0.592275    -0.005118     3.169022
H      -0.923354    -1.953766     2.943427
H      -2.089058    -2.378261     0.804177
H      -1.326266    -3.057232    -1.520257
H      -2.535272    -3.564721    -3.612668
H      -3.802379    -1.780620    -4.778809
H      -3.859064     0.508855    -3.828322
H      -2.669717     1.008799    -1.730468
C      -0.000901     1.203139    -1.201747
N       0.275611     1.875363    -2.092911
C       2.466380     1.646249     1.748406
O       3.040835     2.585813     2.264126
C       3.175257     0.330881     1.556921
C       3.171081    -0.268622     0.371699
H       3.756829    -1.166360     0.197161
H       2.616397     0.129232    -0.471692
C       3.982559    -0.133961     2.735552
H       4.565009    -1.021580     2.480176
H       4.655191     0.663839     3.061376
H       3.336023    -0.375526     3.587254
N       1.177333     1.759029     1.268123
C       0.529415     3.067916     1.366202
H      -0.264705     3.131417     0.620892
H       0.106992     3.227045     2.364612
H       1.270592     3.841100     1.172418
37
      -880.931710      -880.684026   0.08   0.52
C      -0.117147    -0.749791    -1.382204
C      -0.433904    -0.127389    -0.164591
C       0.163721    -0.537838     1.033006
C       1.086079    -1.574765     1.013026
C       1.412756    -2.190178    -0.185954
C       0.812750    -1.786443    -1.370197
C      -0.734073    -0.328179    -2.668523
C      -0.718635     1.005662    -3.075788
C      -1.277186     1.375659    -4.291299
C      -1.855122     0.418176    -5.116248
C      -1.871025    -0.913852    -4.719581
C      -1.312333    -1.284696    -3.503867
H       1.543485    -1.893321     1.943210
H       2.139565    -2.996043    -0.195948
H       1.079202    -2.263406    -2.306964
H      -0.261908     1.758520    -2.442675
H      -1.260106     2.417417    -4.594634
H      -2.292164     0.709159    -6.066090
H      -2.322122    -1.666989    -5.357887
H      -1.337053    -2.323900    -3.190538
C      -1.390496     0.949269    -0.115161
N      -2.151206     1.809445    -0.052115
C       0.734522     0.596242     3.126370
O       0.509479     0.712824     4.315964
C       2.038674     1.078389     2.547211
C       2.051064     1.854321     1.469245
H       2.977474     2.283686     1.099461
H       1.140536     2.116981     0.941125
C       3.257453     0.744736     3.359789
H       3.121919     1.088450     4.388680
H       3.419476    -0.338343     3.403718
H       4.147255     1.211838     2.932740
N      -0.206996     0.080079     2.260025
C      -1.505518    -0.292613     2.825504
H      -1.446415    -1.250494     3.353960
H      -1.817720     0.475935     3.530559
H      -2.238363    -0.364970     2.021352
37
      -880.931710      -880.684012   0.08   0.53
C      -1.069788     0.025130     0.875291
C      -0.291191    -0.199998    -0.270744
C       0.779985    -1.101128    -0.250295
C       1.076785    -1.779114     0.923846
C       0.319439    -1.557018     2.064064
C      -0.746658    -0.669199     2.038473
C      -2.209203     0.981518     0.880493
C      -3.452804     0.572143     1.363165
C      -4.521566     1.457634     1.398958
C      -4.358528     2.764759     0.955415
C      -3.121697     3.180656     0.477284
C      -2.052905     2.295947     0.441079
H       1.904216    -2.479956     0.934816
H       0.560594    -2.085343     2.980845
H      -1.329499    -0.490662     2.935381
H      -3.585897    -0.451845     1.698521
H      -5.485060     1.125179     1.772177
H      -5.193533     3.457518     0.982388
H      -2.986464     4.199875     0.130200
H      -1.089064     2.632005     0.074606
C      -0.579671     0.488260    -1.503543
N      -0.792208     1.025682    -2.497808
C       2.902578    -1.249385    -1.461342
O       3.568647    -1.855029    -2.279213
C       3.563925    -0.316055    -0.481431
C       3.102822     0.917727    -0.309973
H       3.627017     1.628177     0.322329
H       2.212553     1.273067    -0.818023
C       4.830809    -0.835990     0.136393
H       5.522756    -1.152453    -0.648579
H       5.303902    -0.069061     0.753085
H       4.634553    -1.714184     0.762091
N       1.526396    -1.344258    -1.437130
C       0.893729    -2.180077    -2.459845
H       0.983631    -3.243588    -2.212526
H      -0.160359    -1.912414    -2.538785
H       1.384217    -2.001532    -3.415230
37
      -880.931710      -880.684010   0.08   0.53
C      -1.317789     0.589183     0.464215
C      -0.223874    -0.264626     0.252886
C       1.060821     0.087861     0.683214
C       1.253913     1.302752     1.325960
C       0.181447     2.157486     1.531478
C      -1.092147     1.801759     1.110931
C      -2.691101     0.239950     0.011425
C      -2.943462    -0.143157    -1.305686
C      -4.235662    -0.440783    -1.715529
C      -5.291903    -0.356594    -0.816308
C      -5.049471     0.028339     0.497062
C      -3.757106     0.326355     0.907681
H       2.249504     1.570475     1.662212
H       0.340046     3.108929     2.028844
H      -1.925958     2.477986     1.264226
H      -2.126757    -0.203027    -2.016767
H      -4.417247    -0.739649    -2.742792
H      -6.301691    -0.590384    -1.138093
H      -5.869187     0.094718     1.205439
H      -3.568473     0.614735     1.937237
C      -0.397106    -1.532971    -0.408927
N      -0.512262    -2.549654    -0.933953
C       3.320553    -0.420868    -0.109741
O       4.371823    -0.992636     0.107691
C       3.258416     0.705024    -1.108350
C       2.324036     0.717373    -2.052284
H       2.327045     1.472456    -2.832777
H       1.548864    -0.039994    -2.101924
C       4.396810     1.682717    -1.036200
H       4.337389     2.406928    -1.851242
H       4.391104     2.227279    -0.085065
H       5.348490     1.147534    -1.091046
N       2.145106    -0.814412     0.495996
C       2.206354    -1.973258     1.389379
H       2.836513    -2.736311     0.935658
H       2.630450    -1.700686     2.362084
H       1.200659    -2.370788     1.529106
37
      -880.931710      -880.684004   0.08   0.54
C      -1.179831     0.719054     0.160384
C      -0.160863    -0.246052     0.184585
C       1.158834     0.104938     0.492912
C       1.462564     1.429381     0.775714
C       0.464882     2.392035     0.745531
C      -0.843724     2.039710     0.447420
C      -2.588250     0.372252    -0.169848
C      -2.906876    -0.334534    -1.329231
C      -4.229279    -0.626731    -1.632892
C      -5.249730    -0.214246    -0.784444
C      -4.940966     0.494074     0.370907
C      -3.618349     0.786844     0.675206
H       2.484948     1.696920     1.018808
H       0.709922     3.427031     0.961189
H      -1.618683     2.797586     0.414498
H      -2.117900    -0.652783    -2.001882
H      -4.462601    -1.179284    -2.537220
H      -6.283255    -0.444157    -1.022862
H      -5.732526     0.818067     1.039190
H      -3.378737     1.329396     1.584576
C      -0.449438    -1.628554    -0.101980
N      -0.656994    -2.737170    -0.326587
C       3.349381    -0.783265    -0.144693
O       4.359743    -1.357275     0.214535
C       3.344726     0.027804    -1.413887
C       2.387276    -0.142507    -2.318606
H       2.425505     0.367518    -3.276595
H       1.555431    -0.818940    -2.152980
C       4.556054     0.892024    -1.620861
H       4.619305     1.674497    -0.856025
H       5.462117     0.286691    -1.532852
H       4.528690     1.368109    -2.603154
N       2.165201    -0.899235     0.553694
C       2.163425    -1.770537     1.730823
H       2.634538    -1.277607     2.588370
H       1.134767    -2.031862     1.980924
H       2.720512    -2.677026     1.500300
37
      -880.931710      -880.683997   0.08   0.54
C      -1.152595     0.204642     0.879945
C      -0.410636     0.151111    -0.310406
C       0.699150     0.981434    -0.507379
C       1.071583     1.868569     0.492948
C       0.350740     1.922796     1.676348
C      -0.753598     1.104177     1.865405
C      -2.331930    -0.670975     1.115404
C      -3.536305    -0.108635     1.540090
C      -4.640782    -0.912313     1.788808
C      -4.553072    -2.289030     1.618972
C      -3.355563    -2.856473     1.200269
C      -2.251107    -2.053645     0.951308
H       1.928867     2.513617     0.335089
H       0.650884     2.613969     2.457350
H      -1.307920     1.142420     2.796688
H      -3.610853     0.967675     1.661451
H      -5.573242    -0.461841     2.113974
H      -5.416061    -2.918051     1.812514
H      -3.279132    -3.930623     1.066394
H      -1.318193    -2.506281     0.633472
C      -0.777541    -0.758487    -1.366208
N      -1.052611    -1.475865    -2.221932
C       2.776846     0.770699    -1.785131
O       3.436353     1.162085    -2.729180
C       3.434356     0.023935    -0.654316
C       2.926329    -1.123748    -0.219615
H       3.443102    -1.716398     0.529412
H       2.001966    -1.529033    -0.617428
C       4.746263     0.593196    -0.194024
H       4.613721     1.589334     0.243447
H       5.208904    -0.055221     0.552851
H       5.420122     0.707188    -1.047279
N       1.408195     0.938884    -1.740386
C       0.773238     1.580296    -2.893734
H       0.918407     2.666010    -2.871988
H       1.218434     1.187139    -3.806110
H      -0.293682     1.355340    -2.885746
37
      -880.931710      -880.683976   0.08   0.56
C      -1.119643     0.141529     0.964071
C      -0.428106    -0.148278    -0.222569
C       0.715925    -0.955099    -0.212844
C       1.173419    -1.472898     0.990879
C       0.502721    -1.185112     2.170002
C      -0.635547    -0.391649     2.156072
C      -2.333985     1.000647     0.980679
C      -3.489431     0.551567     1.621284
C      -4.624737     1.349350     1.668695
C      -4.617090     2.607805     1.078679
C      -3.468536     3.063320     0.442552
C      -2.333306     2.266268     0.394647
H       2.057121    -2.101392     0.994086
H       0.869203    -1.587637     3.108850
H      -1.150691    -0.160452     3.081921
H      -3.501807    -0.436054     2.072041
H      -5.518652     0.986194     2.165860
H      -5.504254     3.231922     1.114642
H      -3.454641     4.045086    -0.019513
H      -1.438775     2.633760    -0.096257
C      -0.883429     0.374075    -1.486112
N      -1.229247     0.779544    -2.505213
C       2.728659    -1.071059    -1.601802
O       3.371437    -1.710412    -2.412615
C       3.388265     0.015049    -0.793079
C       2.836702     1.220317    -0.707363
H       3.349407     2.035955    -0.206169
H       1.877439     1.445680    -1.161215
C       4.745389    -0.331549    -0.249870
H       5.200879     0.534199     0.235223
H       4.683197    -1.147103     0.479673
H       5.391248    -0.678309    -1.060886
N       1.373649    -1.270038    -1.434800
C       0.729826    -2.262220    -2.298428
H       0.931628    -3.280863    -1.949157
H      -0.346252    -2.086101    -2.305322
H       1.119646    -2.156611    -3.309413
37
      -880.932301      -880.683799  -0.29   0.67
C      -1.266892     0.791355     0.021742
C      -0.069317     0.289411    -0.509569
C       0.909722     1.147608    -1.026968
C       0.663213     2.513386    -1.061273
C      -0.531983     3.016770    -0.568853
C      -1.482179     2.166618    -0.022103
C      -2.298852    -0.102323     0.611821
C      -3.632134     0.021305     0.219293
C      -4.609883    -0.789828     0.779150
C      -4.266533    -1.732639     1.741012
C      -2.941165    -1.859428     2.139262
C      -1.963322    -1.049152     1.579583
H       1.423007     3.175257    -1.462796
H      -0.715771     4.085853    -0.596037
H      -2.400226     2.568968     0.391679
H      -3.901069     0.747477    -0.541617
H      -5.642668    -0.686916     0.461601
H      -5.030286    -2.367338     2.178843
H      -2.665838    -2.592695     2.890334
H      -0.932420    -1.148327     1.902171
C       0.157862    -1.129625    -0.592761
N       0.367714    -2.256608    -0.681855
C       3.001007    -0.175995    -0.888540
O       3.847017    -0.807847    -1.491101
C       2.950676    -0.220146     0.616356
C       2.799813     0.890678     1.330897
H       2.861277     0.866757     2.414912
H       2.644985     1.860170     0.870952
C       3.250649    -1.563985     1.218118
H       4.215364    -1.922220     0.849714
H       3.278955    -1.497533     2.307782
H       2.498901    -2.301874     0.923585
N       2.121003     0.643608    -1.568473
C       2.290771     0.727694    -3.020725
H       1.708874     1.570950    -3.395237
H       3.344831     0.872765    -3.256141
H       1.950349    -0.192090    -3.507143
37
      -880.932301      -880.683798  -0.29   0.67
C      -0.931525     0.593089     0.985728
C       0.197076    -0.067496     0.477517
C       1.487796     0.432816     0.693162
C       1.651281     1.572499     1.468839
C       0.543859     2.214244     2.003778
C      -0.734856     1.737085     1.755298
C      -2.310826     0.098224     0.731900
C      -2.743756    -0.196109    -0.560993
C      -4.041543    -0.633548    -0.785389
C      -4.923707    -0.780340     0.278340
C      -4.501205    -0.486676     1.569543
C      -3.203188    -0.048594     1.794505
H       2.651856     1.957274     1.634302
H       0.679683     3.106524     2.606140
H      -1.598649     2.261843     2.148233
H      -2.063934    -0.075761    -1.397659
H      -4.364668    -0.860097    -1.796259
H      -5.938158    -1.123213     0.101759
H      -5.184067    -0.601301     2.405385
H      -2.871791     0.167021     2.805603
C       0.060510    -1.314336    -0.228825
N      -0.012151    -2.315447    -0.789684
C       2.826457    -0.549828    -1.147175
O       3.661805    -1.371546    -1.471199
C       2.044281     0.191473    -2.199727
C       1.859478     1.505480    -2.119132
H       1.379799     2.049784    -2.927263
H       2.203481     2.089180    -1.272735
C       1.656259    -0.633067    -3.394532
H       0.980353    -1.443967    -3.108306
H       1.168836    -0.010001    -4.147388
H       2.548547    -1.094401    -3.825503
N       2.632285    -0.234283     0.183711
C       3.499262    -0.909543     1.151817
H       3.413259    -0.403925     2.114572
H       3.211851    -1.959613     1.266975
H       4.531598    -0.870378     0.805065
37
      -880.932301      -880.683798  -0.29   0.67
C      -0.393247     0.432034     1.368495
C      -0.064208    -0.361141     0.258978
C       0.989408    -1.282869     0.314103
C       1.682134    -1.448810     1.505696
C       1.342663    -0.693070     2.618342
C       0.323957     0.245982     2.547741
C      -1.481884     1.443839     1.314455
C      -2.455857     1.470978     2.313275
C      -3.464251     2.424871     2.288786
C      -3.509084     3.365538     1.266485
C      -2.540697     3.346708     0.269916
C      -1.532726     2.393085     0.293682
H       2.497158    -2.163473     1.545356
H       1.891140    -0.826121     3.545126
H       0.085138     0.857405     3.410898
H      -2.431129     0.729032     3.105449
H      -4.218642     2.432142     3.069117
H      -4.297308     4.111300     1.246483
H      -2.568838     4.078534    -0.530856
H      -0.775564     2.390546    -0.483077
C      -0.843670    -0.291171    -0.949219
N      -1.450059    -0.266349    -1.925817
C       1.633999    -1.599080    -2.058460
O       1.612764    -2.329800    -3.029873
C       2.074088    -0.165196    -2.198088
C       2.920064     0.380702    -1.329998
H       3.309694     1.381974    -1.488371
H       3.280093    -0.151937    -0.457008
C       1.622104     0.513021    -3.460521
H       0.531293     0.584192    -3.498200
H       2.048618     1.515952    -3.529817
H       1.936500    -0.077192    -4.325122
N       1.323205    -2.089562    -0.804942
C       1.008915    -3.517348    -0.717977
H       1.021988    -3.817775     0.330604
H       0.021621    -3.726018    -1.142487
H       1.751625    -4.088039    -1.274925
37
      -880.932301      -880.683793  -0.29   0.67
C      -0.618818     1.090856     0.871500
C       0.099012     0.527182    -0.194065
C       1.437329     0.869380    -0.427559
C       2.043009     1.822990     0.379321
C       1.331479     2.410841     1.414945
C       0.018413     2.040434     1.666390
C      -2.027140     0.708403     1.158130
C      -2.400312    -0.630570     1.274417
C      -3.713407    -0.971689     1.566633
C      -4.669606     0.020215     1.748533
C      -4.305623     1.357023     1.637037
C      -2.992091     1.698805     1.345181
H       3.079215     2.086051     0.195864
H       1.813008     3.152894     2.043391
H      -0.522161     2.478833     2.497954
H      -1.658047    -1.410508     1.142509
H      -3.990092    -2.017432     1.653026
H      -5.696344    -0.247732     1.976289
H      -5.047671     2.136941     1.775489
H      -2.713527     2.743341     1.245247
C      -0.542756    -0.374244    -1.114800
N      -1.026632    -1.090434    -1.873090
C       2.331303    -1.051789    -1.713717
O       2.695423    -1.470891    -2.795294
C       2.128983    -2.001242    -0.561841
C       2.594881    -1.718336     0.650661
H       2.532424    -2.446632     1.453860
H       3.080728    -0.776807     0.880693
C       1.527420    -3.326625    -0.935308
H       1.491211    -3.988511    -0.067448
H       0.515928    -3.200102    -1.331844
H       2.126468    -3.790885    -1.722923
N       2.165949     0.303999    -1.506447
C       2.482725     1.183689    -2.633734
H       1.712401     1.117547    -3.408835
H       2.544162     2.211092    -2.272365
H       3.436750     0.887721    -3.069287
37
      -880.931815      -880.682677   0.01   1.37
C      -1.124905     0.732010     0.637268
C      -0.226490    -0.281270     0.266779
C       1.149535    -0.143560     0.487332
C       1.632065     1.021971     1.066793
C       0.755696     2.040611     1.408357
C      -0.609062     1.894901     1.203269
C      -2.590716     0.597389     0.427111
C      -3.298439     1.623378    -0.200290
C      -4.670676     1.522485    -0.385169
C      -5.352623     0.395468     0.058249
C      -4.654878    -0.628974     0.686745
C      -3.282992    -0.529086     0.871336
H       2.697170     1.123472     1.242111
H       1.140000     2.951956     1.854916
H      -1.291975     2.683520     1.499143
H      -2.766152     2.498365    -0.560259
H      -5.208670     2.325360    -0.879128
H      -6.425284     0.315792    -0.086036
H      -5.180607    -1.511649     1.035981
H      -2.747351    -1.329759     1.369828
C      -0.690686    -1.460444    -0.418810
N      -1.036044    -2.407765    -0.971863
C       3.161328    -1.005755    -0.619789
O       4.098607    -1.779815    -0.567992
C       3.184100     0.155969    -1.577333
C       2.148492     0.390530    -2.375423
H       2.191089     1.166329    -3.134060
H       1.239641    -0.199746    -2.325644
C       4.491350     0.892223    -1.654417
H       5.300640     0.188740    -1.867351
H       4.458739     1.657944    -2.432102
H       4.730850     1.374647    -0.699955
N       2.029314    -1.203572     0.140948
C       1.979886    -2.424324     0.949637
H       2.193734    -3.287402     0.320010
H       2.717590    -2.387680     1.757292
H       0.980999    -2.527167     1.373543
37
      -880.930031      -880.681902   1.13   1.86
C      -0.887754     0.873894     0.665554
C      -0.166712     0.287044    -0.385163
C       1.218352     0.469477    -0.502315
C       1.886225     1.237687     0.442064
C       1.182453     1.810572     1.491568
C      -0.189841     1.638084     1.598131
C      -2.357145     0.693778     0.813827
C      -2.934267    -0.575859     0.819375
C      -4.304353    -0.723937     0.984730
C      -5.114125     0.393340     1.149637
C      -4.546244     1.661913     1.149321
C      -3.175756     1.810783     0.984097
H       2.956005     1.382334     0.348201
H       1.711076     2.404354     2.230241
H      -0.733208     2.082190     2.424896
H      -2.309392    -1.454145     0.699571
H      -4.740432    -1.717608     0.984675
H      -6.185383     0.275922     1.278026
H      -5.172631     2.539257     1.275874
H      -2.735966     2.803346     0.971792
C      -0.833945    -0.523758    -1.371680
N      -1.346617    -1.174092    -2.169641
C       3.074777    -0.838438    -1.417833
O       3.885833    -0.951676    -2.315557
C       3.255886    -1.537026    -0.092777
C       4.464780    -1.493061     0.455430
H       4.680652    -1.994549     1.394109
H       5.275120    -0.957485    -0.028299
C       2.100231    -2.309066     0.494146
H       1.561987    -2.857700    -0.284913
H       2.472189    -3.027369     1.227686
H       1.377972    -1.659114     0.994791
N       1.915066    -0.108455    -1.596888
C       1.709182     0.490061    -2.918617
H       1.853171    -0.269779    -3.685511
H       0.691981     0.876263    -2.980821
H       2.420990     1.303383    -3.093117
37
      -880.930031      -880.681893   1.13   1.86
C      -1.323585     0.338344     0.327964
C      -0.224940    -0.135412    -0.404727
C       0.754507     0.742992    -0.888977
C       0.637050     2.102440    -0.631774
C      -0.439520     2.577403     0.103318
C      -1.413320     1.707164     0.570967
C      -2.375037    -0.572862     0.854929
C      -3.718980    -0.294188     0.603971
C      -4.716027    -1.118378     1.108254
C      -4.380791    -2.229662     1.872739
C      -3.044452    -2.510990     2.130189
C      -2.047207    -1.687588     1.626284
H       1.391857     2.781407    -1.010500
H      -0.522246     3.640145     0.306770
H      -2.248483     2.083546     1.151362
H      -3.982674     0.566304    -0.003289
H      -5.757547    -0.893323     0.901624
H      -5.159374    -2.874935     2.266816
H      -2.775053    -3.376384     2.726902
H      -1.007460    -1.910602     1.839353
C      -0.073646    -1.542375    -0.675612
N       0.066269    -2.660912    -0.903223
C       3.146973     0.580220    -1.383656
O       3.999525     0.528359    -2.247949
C       3.481953     0.954501     0.039126
C       4.293563     1.990377     0.218402
H       4.602557     2.303888     1.211097
H       4.677325     2.548809    -0.629163
C       2.957662     0.099413     1.166066
H       1.915470     0.323663     1.407497
H       3.012703    -0.962638     0.907882
H       3.555301     0.267535     2.064373
N       1.836564     0.237261    -1.657689
C       1.542799    -0.210932    -3.021653
H       0.532262    -0.617767    -3.053628
H       1.626056     0.618969    -3.730846
H       2.252161    -0.986341    -3.307587
37
      -880.930298      -880.681608   0.97   2.04
C      -1.187895     0.502798     0.526061
C       0.029823    -0.165587     0.329826
C       1.242072     0.536629     0.282198
C       1.233422     1.919109     0.411936
C       0.030088     2.590592     0.574178
C      -1.166175     1.891067     0.639958
C      -2.481841    -0.226627     0.597201
C      -3.561152     0.198524    -0.178245
C      -4.782045    -0.458678    -0.107766
C      -4.939124    -1.547676     0.741528
C      -3.869359    -1.974937     1.518975
C      -2.648529    -1.318540     1.448805
H       2.170939     2.461555     0.380682
H       0.028820     3.671685     0.668506
H      -2.099285     2.420467     0.798043
H      -3.437496     1.040019    -0.852930
H      -5.612396    -0.120924    -0.719787
H      -5.892984    -2.062397     0.796871
H      -3.984654    -2.824199     2.184563
H      -1.821134    -1.653610     2.065070
C       0.057721    -1.585278     0.086184
N       0.105249    -2.715592    -0.120178
C       3.404053     0.198088    -0.817471
O       4.574157    -0.097379    -0.676208
C       2.909249     0.919191    -2.046676
C       3.635307     1.941815    -2.483728
H       3.359137     2.492715    -3.377854
H       4.533541     2.249984    -1.958659
C       1.682655     0.400490    -2.756293
H       1.676488     0.757548    -3.788212
H       1.670820    -0.693677    -2.768550
H       0.756434     0.731874    -2.279669
N       2.459587    -0.174874     0.119945
C       2.929350    -0.976037     1.252634
H       2.067360    -1.365034     1.794928
H       3.527517    -1.807694     0.882881
H       3.545535    -0.374170     1.928437
37
      -880.930298      -880.681605   0.97   2.04
C      -0.590562     0.581480     1.156956
C      -0.284139    -0.269852     0.084841
C       0.926434    -0.975361     0.043286
C       1.844971    -0.812300     1.071781
C       1.563061     0.052464     2.119619
C       0.356025     0.734706     2.167523
C      -1.876905     1.324306     1.227388
C      -3.097637     0.670187     1.062373
C      -4.290059     1.374623     1.152429
C      -4.278185     2.740116     1.410613
C      -3.065976     3.398985     1.578949
C      -1.872823     2.694859     1.489238
H       2.778451    -1.361777     1.042537
H       2.287447     0.180864     2.917392
H       0.130171     1.384884     3.005502
H      -3.116280    -0.396927     0.868578
H      -5.232639     0.853463     1.020199
H      -5.211383     3.289824     1.480007
H      -3.048892     4.465792     1.778362
H      -0.927168     3.214869     1.607261
C      -1.170632    -0.375681    -1.045876
N      -1.856806    -0.469657    -1.963912
C       2.381538    -1.825421    -1.733852
O       2.784314    -2.806170    -2.327410
C       3.117646    -0.509511    -1.781762
C       4.437812    -0.547229    -1.641567
H       5.039863     0.355084    -1.692490
H       4.952557    -1.488551    -1.478952
C       2.342470     0.753547    -2.066292
H       1.848922     1.147254    -1.173943
H       3.019198     1.522995    -2.443625
H       1.566850     0.576035    -2.817551
N       1.188154    -1.857352    -1.037695
C       0.421001    -3.103951    -1.092619
H       0.918952    -3.894932    -0.522512
H      -0.572873    -2.928417    -0.680510
H       0.329429    -3.425835    -2.129047
37
      -880.927469      -880.680256   2.74   2.89
C      -0.532359    -0.762299    -1.590737
C      -0.272977    -0.228083    -0.319298
C       0.200153    -1.035325     0.719327
C       0.434824    -2.381167     0.495458
C       0.195985    -2.917406    -0.762196
C      -0.286089    -2.118837    -1.790092
C      -1.044278     0.072917    -2.709092
C      -0.419608     0.019857    -3.955984
C      -0.896884     0.777243    -5.017037
C      -2.006990     1.595924    -4.845419
C      -2.636181     1.651949    -3.607609
C      -2.159492     0.894937    -2.546449
H       0.822068    -2.991310     1.302759
H       0.384070    -3.970967    -0.941660
H      -0.490066    -2.550968    -2.763773
H       0.456280    -0.607670    -4.088556
H      -0.398637     0.730039    -5.980226
H      -2.380386     2.188845    -5.674213
H      -3.503883     2.288043    -3.465889
H      -2.662352     0.937796    -1.586379
C      -0.438231     1.178378    -0.050386
N      -0.563291     2.291017     0.212854
C       1.720913    -0.179943     2.365582
O       2.665283    -0.588849     1.715930
C       1.956958     0.679373     3.579796
C       1.408045     1.886792     3.651782
H       1.647567     2.560802     4.469356
H       0.731276     2.254841     2.886578
C       2.957825     0.137996     4.560739
H       3.161317     0.866576     5.348296
H       2.595954    -0.786510     5.024812
H       3.887931    -0.106013     4.040101
N       0.422517    -0.450340     2.002616
C      -0.756419    -0.211732     2.831646
H      -1.435668    -1.061411     2.722971
H      -0.460463    -0.133621     3.876229
H      -1.283515     0.704128     2.546428
37
      -880.927469      -880.680255   2.74   2.89
C      -1.361901     0.695007     0.892469
C      -0.411579     0.302747    -0.062653
C       0.618479     1.164300    -0.451128
C       0.720445     2.420601     0.121374
C      -0.205138     2.813738     1.077948
C      -1.235568     1.963376     1.454489
C      -2.471799    -0.198967     1.315912
C      -3.295602    -0.823088     0.379056
C      -4.340223    -1.637834     0.792950
C      -4.577235    -1.837789     2.147588
C      -3.763025    -1.217395     3.087907
C      -2.717983    -0.402379     2.674509
H       1.536045     3.070474    -0.172627
H      -0.124368     3.796013     1.532023
H      -1.966783     2.287123     2.187232
H      -3.123636    -0.665268    -0.680170
H      -4.971963    -2.118005     0.052715
H      -5.394045    -2.475615     2.469891
H      -3.940409    -1.370686     4.147741
H      -2.074524     0.069421     3.410656
C      -0.433293    -1.016922    -0.642094
N      -0.415705    -2.054979    -1.137098
C       2.789924     0.323835    -1.027935
O       3.169789     0.501446     0.114548
C       3.675478    -0.391627    -2.014019
C       3.235573    -1.486511    -2.623992
H       3.892685    -2.073533    -3.259368
H       2.222082    -1.850982    -2.486075
C       5.083762     0.124583    -2.099624
H       5.106921     1.145097    -2.498418
H       5.523751     0.160014    -1.099194
H       5.692080    -0.514665    -2.742891
N       1.544579     0.729113    -1.446875
C       1.090814     0.776066    -2.834650
H       1.951057     0.794055    -3.501354
H       0.463711    -0.082881    -3.093388
H       0.515034     1.693723    -2.981458
37
      -880.927469      -880.680253   2.74   2.89
C      -1.539387     0.635980     0.496232
C      -0.276131     0.067284     0.272604
C       0.889657     0.709073     0.700673
C       0.808006     1.933082     1.342222
C      -0.435160     2.512125     1.555613
C      -1.593682     1.869023     1.142173
C      -2.794358    -0.030523     0.058982
C      -3.746819     0.690406    -0.662717
C      -4.933358     0.089851    -1.061117
C      -5.183882    -1.239268    -0.740643
C      -4.241606    -1.962908    -0.019766
C      -3.055188    -1.363014     0.378845
H       1.720302     2.430246     1.649662
H      -0.501558     3.473969     2.053628
H      -2.562123     2.318952     1.332138
H      -3.547145     1.724312    -0.926757
H      -5.663470     0.660854    -1.626010
H      -6.110942    -1.709732    -1.052255
H      -4.430186    -3.000754     0.235028
H      -2.329451    -1.932663     0.949148
C      -0.130364    -1.172971    -0.447305
N       0.034281    -2.163284    -1.008619
C       2.927290     0.552152    -0.555370
O       2.657218     1.587074    -1.135981
C       4.117242    -0.264885    -0.985385
C       3.952907    -1.532781    -1.345646
H       4.778447    -2.108035    -1.755111
H       2.988933    -2.027672    -1.275944
C       5.401330     0.502051    -1.126787
H       5.241680     1.370559    -1.771698
H       5.745008     0.879360    -0.156970
H       6.184384    -0.128941    -1.552416
N       2.149512     0.076660     0.474004
C       2.512790    -1.011915     1.377919
H       2.208219    -0.738514     2.391653
H       2.030167    -1.955161     1.103413
H       3.591793    -1.154793     1.364867
37
      -880.926077      -880.679784   3.62   3.19
C      -1.434186    -0.639050     0.723704
C      -0.180872    -0.365296     0.154900
C       0.983406    -0.393778     0.929288
C       0.903879    -0.665502     2.284524
C      -0.333252    -0.914995     2.861477
C      -1.486444    -0.910455     2.088880
C      -2.683069    -0.632731    -0.082571
C      -2.776330    -1.350399    -1.275163
C      -3.956290    -1.350455    -2.005849
C      -5.059120    -0.635864    -1.553687
C      -4.975763     0.079683    -0.364948
C      -3.795715     0.080071     0.366343
H       1.810836    -0.663806     2.877633
H      -0.397566    -1.124124     3.924347
H      -2.445993    -1.132116     2.543244
H      -1.923164    -1.918130    -1.630646
H      -4.013747    -1.912140    -2.932588
H      -5.981117    -0.636105    -2.126220
H      -5.832181     0.642234    -0.006760
H      -3.728484     0.651679     1.286816
C      -0.055707     0.015622    -1.229552
N       0.096265     0.322576    -2.327607
C       2.809954     1.098313     0.507832
O       2.296084     1.943944     1.213518
C       4.097990     1.383765    -0.221526
C       5.232511     0.806464     0.152053
H       6.175600     1.056282    -0.325111
H       5.264946     0.085205     0.963305
C       3.972502     2.421907    -1.300250
H       3.569647     3.346821    -0.876888
H       4.940985     2.627299    -1.761053
H       3.273120     2.092060    -2.077115
N       2.242213    -0.136361     0.308803
C       2.757005    -1.113055    -0.653155
H       1.977325    -1.852558    -0.838654
H       3.007396    -0.637987    -1.603305
H       3.638985    -1.629330    -0.264763
37
      -880.926926      -880.679562   3.08   3.33
C      -1.273870     1.103368     0.550148
C      -0.216269     0.437564    -0.081044
C       0.949473     1.119469    -0.446133
C       1.060232     2.475762    -0.203177
C       0.008370     3.152052     0.404546
C      -1.140650     2.473149     0.779231
C      -2.510116     0.393550     0.971642
C      -3.761201     0.916536     0.642127
C      -4.922991     0.273227     1.046939
C      -4.847906    -0.899840     1.788878
C      -3.605382    -1.424689     2.123765
C      -2.443399    -0.782246     1.719566
H       1.973008     2.991161    -0.481336
H       0.093744     4.216256     0.598829
H      -1.946175     3.001804     1.277298
H      -3.822646     1.824708     0.050393
H      -5.889987     0.687753     0.779874
H      -5.755704    -1.403644     2.105112
H      -3.538947    -2.339387     2.703910
H      -1.477002    -1.191977     1.993252
C      -0.299336    -0.959108    -0.423120
N      -0.315502    -2.064226    -0.740231
C       2.722886    -0.481357    -0.341526
O       2.543701    -0.588879     0.855799
C       3.735945    -1.353126    -1.038354
C       4.902538    -0.855762    -1.428687
H       5.667714    -1.491162    -1.864876
H       5.142280     0.196539    -1.306708
C       3.334301    -2.797202    -1.133261
H       3.132195    -3.189925    -0.132434
H       2.408025    -2.905794    -1.708231
H       4.120499    -3.392016    -1.602636
N       2.006909     0.415980    -1.100521
C       1.984013     0.440697    -2.560242
H       1.124862    -0.116622    -2.951757
H       1.917486     1.477398    -2.901174
H       2.899073     0.001567    -2.951024
37
      -880.926926      -880.679553   3.08   3.33
C      -1.548546     0.764729    -0.318205
C      -0.268415     0.202798    -0.242730
C       0.821737     0.804436    -0.880570
C       0.638795     1.960236    -1.616412
C      -0.631578     2.516490    -1.715691
C      -1.708784     1.928053    -1.071560
C      -2.715698     0.157981     0.374187
C      -2.649419    -0.188372     1.723996
C      -3.752653    -0.735913     2.363827
C      -4.936191    -0.941680     1.664986
C      -5.011527    -0.595964     0.320739
C      -3.908462    -0.048247    -0.320142
H       1.493480     2.422959    -2.097632
H      -0.777525     3.425249    -2.290514
H      -2.691850     2.382430    -1.131046
H      -1.732060    -0.021034     2.278214
H      -3.686821    -1.002113     3.413806
H      -5.797893    -1.370514     2.166475
H      -5.931963    -0.755854    -0.231953
H      -3.965473     0.207425    -1.373746
C      -0.026782    -1.036453     0.450433
N       0.223552    -2.031760     0.968898
C       2.748820     0.252752     0.423462
O       2.287401     0.881456     1.355704
C       4.037572    -0.511482     0.587546
C       5.166021    -0.057331     0.057440
H       6.112333    -0.561023     0.231434
H       5.187992     0.843263    -0.549306
C       3.919550    -1.723016     1.467299
H       3.534227    -1.429849     2.448270
H       3.204235    -2.439271     1.048144
H       4.887663    -2.212547     1.591128
N       2.113931     0.200781    -0.796425
C       2.464605    -0.713125    -1.879824
H       2.316434    -0.208092    -2.838141
H       3.509451    -1.002776    -1.794472
H       1.840887    -1.614436    -1.854411
