11
      -210.895075      -210.838121   0.00   0.00
C       0.312389    -0.007515    -0.001953
C       1.028600    -0.037973     1.310043
C       1.090273    -0.009392    -1.278710
H       1.658890    -0.933567     1.379972
H       1.696034     0.828393     1.400613
H       0.335936    -0.033218     2.152490
H       1.761438     0.857931    -1.317884
H       1.722999    -0.903999    -1.338681
H       0.438523     0.015123    -2.152863
C      -1.083359     0.022805    -0.034871
N      -2.244354     0.048223    -0.062230
