48
     -1091.864253     -1091.531138   0.00   0.00
C      -1.128278    -0.168375    -0.982445
C      -0.410101     0.016283     0.208701
C      -0.423472    -0.951011     1.224548
C      -1.137845    -2.126835     1.028676
C      -1.826648    -2.329735    -0.158214
C      -1.832323    -1.357865    -1.149332
C      -1.134607     0.859129    -2.057164
C      -1.425758     2.193652    -1.775192
C      -1.445958     3.138445    -2.791556
C      -1.178011     2.761243    -4.102079
C      -0.889374     1.432793    -4.391842
C      -0.869001     0.487331    -3.375324
H      -1.153477    -2.874606     1.813909
H      -2.380804    -3.251430    -0.304226
H      -2.398247    -1.511209    -2.061485
H      -1.644238     2.493849    -0.755865
H      -1.672238     4.173672    -2.557858
H      -1.193473     3.501034    -4.896052
H      -0.676564     1.131581    -5.412670
H      -0.628487    -0.546875    -3.601502
C       0.453219     1.156531     0.372150
N       1.174570     2.040646     0.519223
C       0.992646    -1.754437     3.037196
O       1.003770    -1.877145     4.254150
C       1.789231    -2.645661     2.184442
C       2.399263    -2.188071     0.897566
H       1.771647    -1.453022     0.393560
H       2.503906    -3.043148     0.220138
C       2.218955    -3.938562     2.793274
H       1.433189    -4.357277     3.426268
H       2.501613    -4.661193     2.022927
H       3.095913    -3.791176     3.438556
N       0.282935    -0.714041     2.432178
C      -0.312567     0.270893     3.338834
H      -0.618728     1.146406     2.764634
H      -1.180249    -0.144652     3.863169
H       0.428839     0.568099     4.079271
C       3.802063    -1.512323     1.043301
C       3.779429    -0.378737     2.080964
C       4.227534    -0.965566    -0.330320
H       3.535192    -0.755008     3.077088
H       4.757140     0.107806     2.129378
H       3.034998     0.368291     1.793347
H       4.234044    -1.757230    -1.084702
H       3.525274    -0.186830    -0.642125
H       5.228029    -0.528799    -0.279512
C       4.789074    -2.526124     1.463470
N       5.562925    -3.315916     1.777818
48
     -1091.864253     -1091.531137   0.00   0.00
C      -1.062934    -0.369209    -1.139656
C      -0.488857    -0.143753     0.120628
C      -0.451033    -1.152544     1.094637
C      -0.965022    -2.406918     0.788660
C      -1.507861    -2.646434    -0.465245
C      -1.567333    -1.637065    -1.416307
C      -1.123739     0.699237    -2.171912
C      -0.689852     0.435327    -3.471304
C      -0.757670     1.417766    -4.449995
C      -1.262577     2.675390    -4.140959
C      -1.698885     2.944689    -2.849191
C      -1.631320     1.962894    -1.870645
H      -0.940991    -3.187523     1.541040
H      -1.905699    -3.629249    -0.697041
H      -2.020921    -1.823787    -2.383364
H      -0.281152    -0.541459    -3.710972
H      -0.412694     1.201274    -5.456091
H      -1.315297     3.444112    -4.905295
H      -2.094385     3.924136    -2.600647
H      -1.981601     2.177650    -0.866623
C       0.179990     1.098291     0.407281
N       0.747972     2.067728     0.654721
C       0.899863    -1.835409     3.003915
O       0.820099    -2.015828     4.211078
C       1.891381    -2.560378     2.199340
C       2.540301    -1.956883     0.994236
H       1.859324    -1.294547     0.459631
H       2.829210    -2.753438     0.299221
C       2.449760    -3.807607     2.798971
H       2.902850    -4.443279     2.033362
H       3.234527    -3.569158     3.530032
H       1.680463    -4.365029     3.338318
N       0.102295    -0.877884     2.372101
C      -0.709638    -0.034274     3.252919
H      -1.550415    -0.594822     3.676426
H      -0.088900     0.328234     4.071169
H      -1.088227     0.816216     2.684326
C       3.810252    -1.096258     1.297985
C       3.529151    -0.030684     2.369344
C       4.272028    -0.426581    -0.007809
H       3.254679    -0.487163     3.323172
H       4.416742     0.587187     2.528731
H       2.712001     0.616054     2.039272
H       4.461841    -1.170588    -0.786456
H       3.493945     0.258722    -0.356761
H       5.189144     0.145212     0.154333
C       4.893625    -1.978760     1.773400
N       5.743627    -2.664914     2.131338
48
     -1091.863777     -1091.530979   0.30   0.10
C      -1.125910     0.578060     0.683125
C      -0.353753    -0.565865     0.935453
C       0.681373    -0.550067     1.882006
C       0.957302     0.628842     2.563673
C       0.205100     1.767061     2.313095
C      -0.832371     1.740390     1.391331
C      -2.226191     0.581970    -0.318568
C      -2.010355     0.167116    -1.632293
C      -3.043050     0.199919    -2.558901
C      -4.303211     0.651122    -2.185201
C      -4.525501     1.071198    -0.879073
C      -3.492415     1.038265     0.048034
H       1.756536     0.641503     3.296613
H       0.427036     2.684497     2.848772
H      -1.411913     2.635533     1.194432
H      -1.027607    -0.177348    -1.934905
H      -2.861115    -0.128414    -3.577050
H      -5.110466     0.675747    -2.910201
H      -5.507361     1.423869    -0.579748
H      -3.670814     1.355591     1.070884
C      -0.578924    -1.783515     0.201413
N      -0.716431    -2.764229    -0.384172
C       2.803934    -1.663017     2.311863
O       3.367047    -2.344849     3.156940
C       3.575221    -0.809867     1.398666
C       3.139506    -0.543404    -0.007221
H       3.528436     0.428548    -0.331294
H       2.053398    -0.499420    -0.090155
C       4.962122    -0.462245     1.825987
H       5.652019    -1.291465     1.617123
H       5.333124     0.411942     1.284050
H       5.009832    -0.280861     2.902197
N       1.418831    -1.735671     2.143008
C       0.727220    -2.751431     2.941611
H       0.680253    -2.463237     3.997763
H      -0.283755    -2.884417     2.554500
H       1.268073    -3.693642     2.864430
C       3.595882    -1.618069    -1.047626
C       2.952909    -1.289445    -2.406063
C       3.203313    -3.036682    -0.605295
H       3.290188    -1.990298    -3.173738
H       1.865226    -1.370001    -2.318343
H       3.206793    -0.275633    -2.727802
H       3.488004    -3.763169    -1.370921
H       3.696797    -3.313553     0.329156
H       2.120840    -3.090992    -0.461481
C       5.062124    -1.553305    -1.203331
N       6.202338    -1.496532    -1.337685
48
     -1091.863777     -1091.530962   0.30   0.11
C      -1.341264     0.275255     0.803665
C      -0.434478    -0.794521     0.761444
C       0.505407    -0.991711     1.783907
C       0.549520    -0.095512     2.844814
C      -0.336898     0.970515     2.889324
C      -1.279557     1.148813     1.886171
C      -2.343699     0.502650    -0.272178
C      -3.688769     0.664841     0.060092
C      -4.635355     0.901057    -0.927864
C      -4.247015     0.981225    -2.260010
C      -2.908076     0.825557    -2.598017
C      -1.961853     0.589590    -1.610534
H       1.274960    -0.248058     3.636397
H      -0.295888     1.666947     3.720705
H      -1.964832     1.988437     1.922860
H      -3.995454     0.590725     1.098935
H      -5.679432     1.020588    -0.656505
H      -4.986470     1.164961    -3.032887
H      -2.596694     0.888170    -3.635635
H      -0.917823     0.478936    -1.882158
C      -0.418635    -1.703407    -0.354741
N      -0.363124    -2.432656    -1.242846
C       2.724325    -1.946462     2.089807
O       3.308651    -2.811266     2.727640
C       3.436269    -0.753197     1.614493
C       3.084485    -0.069569     0.331421
H       3.353378     0.990750     0.397778
H       2.014185    -0.118265     0.130082
C       4.717521    -0.424483     2.305351
H       5.535741    -1.051185     1.924637
H       5.000869     0.617500     2.133510
H       4.648934    -0.619496     3.378044
N       1.383352    -2.107095     1.731642
C       0.783182    -3.404089     2.056395
H       1.459639    -4.197773     1.742205
H       0.607999    -3.502954     3.133543
H      -0.162384    -3.505166     1.522267
C       3.777007    -0.665482    -0.937794
C       3.208109     0.037492    -2.182360
C       3.559478    -2.183449    -1.041160
H       3.706202    -0.316272    -3.088469
H       2.140190    -0.185898    -2.265307
H       3.337797     1.121335    -2.117153
H       4.008699    -2.708841    -0.195261
H       2.488236    -2.401108    -1.062297
H       4.009288    -2.567525    -1.960493
C       5.226072    -0.392293    -0.875465
N       6.353097    -0.169302    -0.837356
48
     -1091.863277     -1091.529716   0.61   0.89
C      -0.613671     0.786929     1.403953
C      -0.262842    -0.552669     1.168965
C      -0.568478    -1.177991    -0.050883
C      -1.304892    -0.480162    -1.003131
C      -1.691574     0.827660    -0.756272
C      -1.335282     1.463650     0.425553
C      -0.243773     1.481672     2.665827
C       1.070337     1.470459     3.133593
C       1.408521     2.141911     4.299946
C       0.437909     2.835633     5.012769
C      -0.873469     2.854682     4.552227
C      -1.211523     2.183050     3.385168
H      -1.537439    -0.961328    -1.945739
H      -2.258412     1.366480    -1.508648
H      -1.608189     2.499612     0.593597
H       1.834363     0.937365     2.577764
H       2.434634     2.122444     4.652605
H       0.702382     3.360095     5.925418
H      -1.637150     3.392680     5.104838
H      -2.238974     2.187848     3.034495
C       0.358082    -1.328784     2.210316
N       0.833455    -1.963486     3.043595
C       1.120747    -2.964657    -0.130764
O       1.371186    -4.161267    -0.133598
C       2.224177    -1.991743     0.011435
C       2.395852    -0.812116    -0.899902
H       3.263528    -0.238610    -0.556642
H       1.538680    -0.132441    -0.866368
C       3.364458    -2.393091     0.889038
H       3.102906    -3.249040     1.509838
H       4.253893    -2.650640     0.297413
H       3.647511    -1.559327     1.543624
N      -0.174413    -2.505947    -0.303144
C      -1.184696    -3.447075    -0.786514
H      -0.931841    -4.437699    -0.411716
H      -2.161620    -3.146481    -0.403547
H      -1.208775    -3.475337    -1.880272
C       2.657974    -1.160562    -2.398256
C       3.757546    -2.221536    -2.553886
C       3.033741     0.126360    -3.152749
H       3.946288    -2.422246    -3.611802
H       4.684087    -1.857056    -2.100415
H       3.472593    -3.158217    -2.069433
H       2.258119     0.888290    -3.036256
H       3.973587     0.521298    -2.756409
H       3.163366    -0.073185    -4.219467
C       1.416872    -1.683623    -3.003390
N       0.452793    -2.071244    -3.494384
48
     -1091.861656     -1091.529421   1.63   1.08
C      -0.397418     1.077972    -0.727385
C      -0.497768    -0.076348     0.068010
C      -0.308424    -0.013404     1.457339
C      -0.068540     1.222918     2.049517
C       0.014006     2.367521     1.272866
C      -0.133581     2.294368    -0.105274
C      -0.573311     1.035033    -2.204724
C       0.404185     1.591483    -3.030233
C       0.249007     1.585718    -4.409996
C      -0.888150     1.025598    -4.979997
C      -1.867934     0.473541    -4.163472
C      -1.713483     0.479083    -2.784076
H       0.079445     1.271147     3.123014
H       0.206496     3.324743     1.746545
H      -0.071024     3.191368    -0.711403
H       1.298265     2.018898    -2.586611
H       1.019060     2.017764    -5.041237
H      -1.010558     1.019528    -6.058398
H      -2.758636     0.035110    -4.601496
H      -2.486575     0.053447    -2.153959
C      -0.804403    -1.343067    -0.544778
N      -1.071065    -2.349067    -1.034102
C       0.263413    -2.366702     1.965581
O      -0.166237    -3.417013     2.420449
C       1.487745    -2.349776     1.149824
C       2.511911    -1.262893     1.242456
H       2.057841    -0.293842     1.455647
H       3.031893    -1.172432     0.282114
C       1.814143    -3.622402     0.441859
H       2.566206    -3.457784    -0.334129
H       2.216301    -4.365901     1.142763
H       0.917106    -4.056740    -0.004851
N      -0.371440    -1.166250     2.276135
C      -1.487765    -1.249558     3.219175
H      -1.195154    -1.856433     4.075679
H      -1.748982    -0.243748     3.551823
H      -2.362060    -1.713478     2.750512
C       3.586686    -1.471132     2.357586
C       2.926865    -1.680735     3.729905
C       4.512851    -0.242866     2.389004
H       3.686189    -1.758563     4.512441
H       2.279764    -0.827872     3.956658
H       2.320524    -2.588939     3.745341
H       3.929706     0.647363     2.642999
H       5.298136    -0.367894     3.138750
H       4.986404    -0.083408     1.416595
C       4.414448    -2.651959     2.043417
N       5.083506    -3.555676     1.805735
48
     -1091.861452     -1091.527909   1.76   2.03
C      -0.978300     0.784202     0.768892
C      -0.476378    -0.512487     0.579523
C       0.235107    -1.171118     1.593272
C       0.441240    -0.521546     2.804772
C      -0.050523     0.760625     2.999125
C      -0.758142     1.406169     1.994593
C      -1.711180     1.505500    -0.306063
C      -1.153041     1.664024    -1.574440
C      -1.839053     2.359520    -2.560341
C      -3.087297     2.907602    -2.289859
C      -3.647062     2.758669    -1.026410
C      -2.961528     2.062940    -0.039509
H       0.981337    -1.032540     3.594269
H       0.117770     1.260561     3.947630
H      -1.129353     2.413674     2.146540
H      -0.174266     1.248804    -1.789649
H      -1.395478     2.473694    -3.544073
H      -3.622796     3.450482    -3.062155
H      -4.621743     3.183608    -0.808608
H      -3.404383     1.936965     0.943761
C      -0.672538    -1.193158    -0.673852
N      -0.812377    -1.759525    -1.665196
C       1.986540    -2.842717     1.850821
O       2.192248    -3.961889     2.301500
C       3.086505    -1.871800     1.743371
C       3.182254    -0.856943     0.647078
H       3.787470    -0.012228     0.993752
H       2.202182    -0.458909     0.380923
C       4.230802    -2.089953     2.681935
H       4.701614    -3.064826     2.506940
H       4.985510    -1.306642     2.582583
H       3.882864    -2.113683     3.721362
N       0.723742    -2.487613     1.378952
C      -0.278967    -3.557652     1.369809
H       0.147300    -4.442436     0.898824
H      -0.585256    -3.819140     2.388553
H      -1.148419    -3.231181     0.799447
C       3.825005    -1.393216    -0.676553
C       2.987974    -2.528338    -1.287261
C       5.278009    -1.847220    -0.469627
H       2.990836    -3.390677    -0.615098
H       1.954586    -2.217637    -1.453921
H       3.413210    -2.839653    -2.244971
H       5.729801    -2.120283    -1.426781
H       5.881549    -1.053760    -0.020352
H       5.304795    -2.722074     0.183291
C       3.831330    -0.255434    -1.621185
N       3.839940     0.635409    -2.347452
48
     -1091.861452     -1091.527906   1.76   2.03
C      -1.244351     0.422762     0.625056
C      -0.477818    -0.750822     0.690644
C       0.370210    -1.004551     1.778846
C       0.445968    -0.072554     2.807339
C      -0.307472     1.090425     2.749137
C      -1.148801     1.334543     1.672520
C      -2.127427     0.718057    -0.535076
C      -3.465185     1.049833    -0.321824
C      -4.295504     1.350220    -1.393420
C      -3.795387     1.325691    -2.689991
C      -2.461733     1.001511    -2.908964
C      -1.631011     0.701219    -1.838426
H       1.092303    -0.271191     3.655231
H      -0.239551     1.813319     3.555817
H      -1.726002     2.251356     1.625147
H      -3.859274     1.057844     0.689828
H      -5.336151     1.601941    -1.215363
H      -4.443874     1.559470    -3.528282
H      -2.064408     0.982312    -3.918562
H      -0.588427     0.460161    -2.016283
C      -0.537601    -1.719718    -0.372563
N      -0.563877    -2.509550    -1.208365
C       2.442669    -2.176975     2.287238
O       2.889118    -3.099802     2.955855
C       3.307139    -1.048643     1.908152
C       3.169934    -0.306958     0.615077
H       3.583544     0.700290     0.735060
H       2.124228    -0.190003     0.327635
C       4.482413    -0.810182     2.802448
H       5.149448    -1.680574     2.814488
H       5.050188     0.069755     2.491999
H       4.159788    -0.672430     3.841182
N       1.127716    -2.205336     1.825141
C       0.378203    -3.434059     2.106174
H       0.979037    -4.293868     1.812742
H       0.147092    -3.519025     3.173597
H      -0.547653    -3.430251     1.531177
C       3.897481    -0.980409    -0.597297
C       3.316698    -2.371148    -0.898363
C       5.416381    -1.066195    -0.383408
H       3.787811    -2.793652    -1.789706
H       3.512355    -3.041870    -0.057356
H       2.238856    -2.326078    -1.066964
H       5.840629    -0.085243    -0.152252
H       5.637979    -1.748210     0.440086
H       5.905139    -1.446609    -1.284089
C       3.648387    -0.106227    -1.763774
N       3.457120     0.581941    -2.664320
48
     -1091.861068     -1091.527568   2.00   2.24
C      -0.961872     0.734503    -0.363261
C       0.218421     0.595839     0.383879
C       0.236126    -0.121733     1.589690
C      -0.936826    -0.722286     2.033585
C      -2.098846    -0.616684     1.284319
C      -2.115743     0.110660     0.102257
C      -0.997134     1.510276    -1.631499
C      -1.557334     0.943284    -2.776470
C      -1.615201     1.662295    -3.962750
C      -1.115574     2.958245    -4.016963
C      -0.558715     3.530518    -2.879444
C      -0.500754     2.812143    -1.693447
H      -0.932450    -1.266278     2.971611
H      -3.007794    -1.093229     1.637423
H      -3.035223     0.214645    -0.462982
H      -1.934755    -0.073984    -2.739793
H      -2.049338     1.208207    -4.847864
H      -1.159758     3.520740    -4.944093
H      -0.166767     4.541778    -2.914199
H      -0.072193     3.268227    -0.807403
C       1.462035     1.115421    -0.121962
N       2.470479     1.511092    -0.508819
C       1.749267    -1.402008     3.005775
O       2.288444    -1.377301     4.104001
C       1.478411    -2.684262     2.338608
C       1.549184    -2.864407     0.854350
H       1.168534    -1.989230     0.325069
H       0.919427    -3.713248     0.566764
C       1.331354    -3.864535     3.245809
H       0.538539    -3.692142     3.983590
H       1.096921    -4.773105     2.686890
H       2.245563    -4.027735     3.828802
N       1.436330    -0.216749     2.340851
C       1.899452     1.015995     2.986297
H       2.953879     0.913332     3.239493
H       1.775612     1.851336     2.297334
H       1.338217     1.213030     3.905950
C       2.992021    -3.132097     0.306932
C       3.602180    -4.415463     0.891454
C       3.919193    -1.932631     0.559551
H       4.562662    -4.628762     0.415294
H       3.771441    -4.292255     1.963164
H       2.944622    -5.274952     0.734926
H       4.899699    -2.110925     0.110436
H       3.508516    -1.013854     0.136151
H       4.056344    -1.793206     1.635306
C       2.853036    -3.319248    -1.153274
N       2.739835    -3.476907    -2.286093
48
     -1091.861068     -1091.527568   2.00   2.24
C      -1.475912    -0.168103    -0.306532
C      -0.418648     0.136035     0.565385
C      -0.093642    -0.709118     1.637433
C      -0.823340    -1.878879     1.818353
C      -1.848116    -2.201841     0.941788
C      -2.178344    -1.352769    -0.105408
C      -1.842690     0.730646    -1.433130
C      -2.065833     2.091588    -1.225444
C      -2.426836     2.913898    -2.283504
C      -2.571938     2.386306    -3.561053
C      -2.354246     1.030383    -3.775845
C      -1.993018     0.207428    -2.717615
H      -0.585772    -2.528811     2.653211
H      -2.408353    -3.119649     1.089195
H      -3.000663    -1.596527    -0.768828
H      -1.962477     2.508805    -0.229452
H      -2.595231     3.971442    -2.108229
H      -2.853635     3.030460    -4.387876
H      -2.463456     0.611967    -4.771384
H      -1.809141    -0.848564    -2.889939
C       0.415388     1.283696     0.321103
N       1.103620     2.187793     0.141885
C       1.796488    -1.349634     3.034252
O       2.203058    -1.288578     4.186810
C       2.235415    -2.437292     2.147141
C       2.449759    -2.256753     0.676783
H       1.703518    -1.590206     0.241119
H       2.344805    -3.226521     0.178421
C       2.663581    -3.695664     2.833344
H       1.861738    -4.082053     3.473911
H       2.940477    -4.470003     2.114615
H       3.511123    -3.508455     3.503379
N       0.958701    -0.358987     2.522728
C       0.711628     0.784254     3.407432
H       0.089036     0.493911     4.260454
H       1.662963     1.157557     3.784351
H       0.214012     1.573836     2.844634
C       3.853253    -1.673743     0.298097
C       5.000491    -2.587355     0.756520
C       4.040300    -0.254315     0.857040
H       4.871291    -3.606097     0.380916
H       5.957148    -2.206587     0.389679
H       5.039498    -2.616642     1.847396
H       4.995513     0.160506     0.524810
H       3.241762     0.413431     0.527607
H       4.043246    -0.286214     1.949960
C       3.888926    -1.605760    -1.178605
N       3.918228    -1.566236    -2.326877
48
     -1091.860125     -1091.527152   2.59   2.50
C      -0.223311     1.409338     0.760965
C       0.674632     0.670587    -0.028002
C       0.210385    -0.209761    -1.017276
C      -1.158473    -0.308883    -1.243262
C      -2.049228     0.429078    -0.479703
C      -1.587375     1.270025     0.523001
C       0.242780     2.336751     1.827512
C       1.169511     3.343687     1.559150
C       1.570353     4.213989     2.563396
C       1.048537     4.091373     3.845628
C       0.121023     3.093237     4.119914
C      -0.280365     2.222276     3.115850
H      -1.517514    -0.990462    -2.006683
H      -3.115171     0.339667    -0.662529
H      -2.285685     1.849501     1.116734
H       1.575374     3.451571     0.559357
H       2.294250     4.991381     2.341896
H       1.363901     4.772426     4.629641
H      -0.290015     2.990571     5.119215
H      -0.996025     1.435469     3.334090
C       2.093060     0.816480     0.172405
N       3.226187     0.948475     0.318968
C       2.151255    -1.722114    -1.286997
O       3.114452    -1.989923    -1.991935
C       2.067429    -2.242674     0.088983
C       0.791691    -2.721563     0.710355
H      -0.053148    -2.080503     0.453813
H       0.894846    -2.693176     1.800128
C       3.380403    -2.499809     0.756505
H       3.970103    -1.578200     0.809493
H       3.243974    -2.888402     1.768105
H       3.979615    -3.210236     0.174732
N       1.097364    -0.980128    -1.808772
C       1.184300    -0.636821    -3.229137
H       1.458230    -1.522643    -3.801832
H       0.214578    -0.266083    -3.564917
H       1.944453     0.132774    -3.399726
C       0.389229    -4.180534     0.308047
C       1.430087    -5.212522     0.767689
C       0.150950    -4.299559    -1.205904
H       2.370633    -5.050650     0.237279
H       1.615482    -5.135009     1.842312
H       1.082319    -6.226170     0.551834
H      -0.583772    -3.566061    -1.547602
H       1.087952    -4.131429    -1.742911
H      -0.215708    -5.298402    -1.456849
C      -0.883847    -4.468605     1.002067
N      -1.872923    -4.689953     1.543982
48
     -1091.860125     -1091.527141   2.59   2.51
C      -0.783184     0.672497     1.365698
C      -0.267900    -0.615995     1.144843
C      -0.534484    -1.305109    -0.048155
C      -1.360581    -0.713897    -0.998267
C      -1.885519     0.550162    -0.780020
C      -1.588477     1.243564     0.384826
C      -0.501562     1.431065     2.614740
C      -0.004270     2.732032     2.532413
C       0.241331     3.467323     3.684303
C      -0.010970     2.910346     4.932465
C      -0.510624     1.616584     5.021715
C      -0.756428     0.880963     3.870609
H      -1.565352    -1.245674    -1.921063
H      -2.525058     1.002739    -1.530896
H      -2.003334     2.230846     0.555451
H       0.204391     3.163776     1.558289
H       0.632686     4.476735     3.606705
H       0.181280     3.483568     5.833806
H      -0.710686     1.175658     5.992789
H      -1.154182    -0.124817     3.948985
C       0.542770    -1.246914     2.153885
N       1.173457    -1.758459     2.968399
C       1.327068    -2.935445    -0.106710
O       1.634973    -4.102504     0.092285
C       2.368287    -1.898454    -0.215142
C       2.300029    -0.763700    -1.190104
H       2.947112     0.046498    -0.838070
H       1.291889    -0.354050    -1.269808
C       3.629313    -2.177285     0.538306
H       4.356558    -1.372532     0.410060
H       3.418893    -2.295282     1.606811
H       4.076513    -3.123376     0.210975
N      -0.007279    -2.595511    -0.300280
C      -0.962324    -3.704344    -0.335872
H      -0.582209    -4.491396    -0.986796
H      -1.110376    -4.125344     0.664162
H      -1.916826    -3.338926    -0.717921
C       2.751367    -1.136620    -2.642564
C       1.848771    -2.223185    -3.248908
C       4.222818    -1.574617    -2.693832
H       2.120739    -2.406699    -4.291718
H       1.967288    -3.156445    -2.692492
H       0.797416    -1.926581    -3.213294
H       4.876789    -0.814162    -2.258835
H       4.351026    -2.506089    -2.138779
H       4.533933    -1.743701    -3.728061
C       2.607057     0.091561    -3.452600
N       2.494986     1.048373    -4.079406
48
     -1091.860125     -1091.527137   2.59   2.51
C      -0.406344     1.224071     0.785384
C       0.534155     0.591798    -0.045437
C       0.132951    -0.358104    -0.997201
C      -1.222244    -0.634960    -1.143891
C      -2.156908    -0.003061    -0.338845
C      -1.752256     0.907716     0.626916
C      -0.005125     2.222270     1.813718
C      -0.437671     2.065169     3.130847
C      -0.096750     2.998036     4.101077
C       0.678593     4.101178     3.763862
C       1.109110     4.266301     2.452823
C       0.768633     3.334150     1.482370
H      -1.532302    -1.370338    -1.878302
H      -3.211007    -0.230908    -0.459734
H      -2.485405     1.403957     1.253161
H      -1.033397     1.197593     3.397841
H      -0.435694     2.861736     5.123152
H       0.946592     4.830811     4.521340
H       1.714039     5.125522     2.182217
H       1.101733     3.474995     0.460043
C       1.931029     0.920811     0.072418
N       3.044190     1.198738     0.153102
C       2.233970    -1.615259    -1.360696
O       3.183602    -1.769981    -2.116127
C       2.293173    -2.118256     0.023071
C       1.125255    -2.744785     0.720462
H       0.192425    -2.221447     0.504926
H       1.283067    -2.683890     1.802340
C       3.662874    -2.194481     0.617763
H       4.315228    -2.833141     0.010496
H       4.131817    -1.204572     0.627475
H       3.633009    -2.579277     1.639523
N       1.066436    -1.023213    -1.829598
C       1.030705    -0.696105    -3.256016
H       0.004132    -0.460149    -3.540684
H       1.673616     0.162491    -3.476691
H       1.386380    -1.548739    -3.834090
C       0.892078    -4.250128     0.357253
C       2.079862    -5.132740     0.769354
C       0.589652    -4.425690    -1.139649
H       2.961918    -4.862091     0.185508
H       2.311532    -5.012866     1.831029
H       1.853654    -6.186139     0.584433
H      -0.250448    -3.798064    -1.447733
H       1.466968    -4.149084    -1.729924
H       0.341138    -5.467453    -1.358881
C      -0.294266    -4.685498     1.124364
N      -1.216099    -5.021281     1.723039
48
     -1091.860509     -1091.527051   2.35   2.56
C      -0.474641    -0.638709    -1.079870
C      -0.290533     0.101597     0.097303
C      -0.296799    -0.521859     1.355723
C      -0.467427    -1.896669     1.428012
C      -0.622739    -2.639754     0.266384
C      -0.635796    -2.018348    -0.972833
C      -0.471736     0.007589    -2.419074
C       0.330858    -0.510075    -3.436190
C       0.335000     0.070892    -4.696992
C      -0.466605     1.176327    -4.956607
C      -1.271202     1.695751    -3.949403
C      -1.275098     1.115043    -2.688926
H      -0.466014    -2.384370     2.395931
H      -0.729960    -3.716559     0.335526
H      -0.780077    -2.603085    -1.874534
H       0.966691    -1.366269    -3.232758
H       0.967356    -0.339608    -5.477853
H      -0.464055     1.632072    -5.941590
H      -1.899590     2.558628    -4.144487
H      -1.910899     1.521955    -1.909907
C       0.006795     1.508727     0.035010
N       0.258664     2.630821     0.007428
C       0.651433    -0.184595     3.586444
O       0.327339     0.055018     4.741987
C       1.924906    -0.860615     3.287376
C       2.708448    -0.534086     2.053006
H       3.503480     0.172648     2.338568
H       2.087134     0.007690     1.341828
C       2.577999    -1.596587     4.410044
H       1.911440    -1.663383     5.268697
H       2.865650    -2.609960     4.107684
H       3.496085    -1.080781     4.725175
N      -0.141566     0.262117     2.529553
C      -1.286143     1.099240     2.897282
H      -1.687998     1.568100     1.998576
H      -2.069240     0.507026     3.383075
H      -0.956650     1.872901     3.589117
C       3.418747    -1.709120     1.305441
C       4.849729    -1.935105     1.828986
C       3.465623    -1.385210    -0.199334
H       5.446452    -1.035559     1.651829
H       4.860722    -2.153193     2.897991
H       5.318740    -2.771901     1.304583
H       4.000135    -2.164680    -0.748793
H       2.456658    -1.299810    -0.610047
H       3.983343    -0.432987    -0.350254
C       2.673706    -2.970775     1.478056
N       2.131466    -3.974814     1.614734
48
     -1091.860509     -1091.527041   2.35   2.57
C       0.014624     1.003345     1.233859
C       0.777275     0.738984     0.086616
C       0.294026    -0.102432    -0.928697
C      -0.950747    -0.696214    -0.778989
C      -1.699568    -0.461585     0.365519
C      -1.227860     0.385286     1.356619
C       0.512352     1.893127     2.316328
C       0.476449     1.458435     3.641623
C       0.922681     2.281273     4.666795
C       1.408270     3.551338     4.378538
C       1.444220     3.992622     3.061110
C       0.998323     3.169869     2.036273
H      -1.325967    -1.352191    -1.555922
H      -2.659780    -0.951869     0.481278
H      -1.828648     0.581335     2.237764
H       0.108540     0.462455     3.868342
H       0.892895     1.928776     5.692948
H       1.758084     4.195623     5.178806
H       1.822076     4.982819     2.828255
H       1.023159     3.523939     1.011231
C       2.118190     1.249217    -0.031330
N       3.196262     1.635582    -0.139854
C       1.168239    -1.590986    -2.663345
O       1.234309    -1.714895    -3.879082
C       1.279187    -2.764373    -1.780732
C       1.934404    -2.668552    -0.436958
H       2.028358    -1.626942    -0.134390
H       2.968471    -3.032873    -0.542179
C       1.053589    -4.101682    -2.404658
H       0.666901    -3.996078    -3.417260
H       1.994816    -4.667453    -2.451928
H       0.347172    -4.700359    -1.818437
N       1.077591    -0.321566    -2.092555
C       1.174211     0.806629    -3.022032
H       2.026590     0.654801    -3.682449
H       0.269717     0.893424    -3.633837
H       1.319389     1.725505    -2.453201
C       1.305509    -3.478952     0.742793
C       1.550434    -2.714968     2.057252
C       1.908408    -4.892565     0.848060
H       1.061740    -1.737880     2.035632
H       1.165661    -3.277622     2.911975
H       2.625374    -2.562259     2.194086
H       1.768445    -5.462660    -0.071643
H       2.980942    -4.814828     1.048746
H       1.440906    -5.445267     1.667304
C      -0.151682    -3.625156     0.564225
N      -1.283923    -3.779425     0.441613
48
     -1091.860509     -1091.527037   2.35   2.57
C      -0.335440     0.897813     0.906249
C       0.765030     0.202267     1.428616
C       0.675075    -1.161278     1.752692
C      -0.519051    -1.831423     1.530386
C      -1.603966    -1.157083     0.988261
C      -1.517531     0.193619     0.688074
C      -0.255663     2.341686     0.559774
C       0.224823     3.278846     1.473850
C       0.277435     4.624570     1.138743
C      -0.151192     5.051313    -0.112580
C      -0.634272     4.124226    -1.028603
C      -0.687092     2.778158    -0.693229
H      -0.592383    -2.885479     1.771858
H      -2.523449    -1.698752     0.796088
H      -2.376608     0.718813     0.285636
H       0.554781     2.954328     2.454925
H       0.655956     5.342409     1.859101
H      -0.108664     6.103948    -0.373449
H      -0.969349     4.449414    -2.008453
H      -1.053933     2.054643    -1.414817
C       2.044569     0.849872     1.553877
N       3.078940     1.344037     1.649649
C       2.133369    -3.120146     1.911345
O       2.588580    -3.915810     2.722167
C       2.021104    -3.478603     0.487593
C       2.209647    -2.455194    -0.590048
H       3.241601    -2.548719    -0.963438
H       2.146642    -1.450925    -0.174358
C       2.077357    -4.931984     0.151309
H       3.013913    -5.169213    -0.372930
H       2.026900    -5.540198     1.053294
H       1.254677    -5.218861    -0.513513
N       1.798221    -1.826705     2.311532
C       2.124333    -1.480599     3.697155
H       1.457711    -1.992253     4.399842
H       3.149195    -1.780926     3.909797
H       2.031757    -0.401823     3.826189
C       1.283190    -2.537114    -1.846642
C       1.896436    -3.420000    -2.949968
C       1.056756    -1.114582    -2.391235
H       2.086510    -4.435168    -2.598176
H       1.223403    -3.476555    -3.809635
H       2.843967    -2.983110    -3.278537
H       2.022816    -0.656896    -2.625315
H       0.451325    -1.137964    -3.301229
H       0.548505    -0.491560    -1.651292
C      -0.031856    -3.106597    -1.495908
N      -1.056603    -3.570924    -1.261184
48
     -1091.860509     -1091.527024   2.35   2.58
C       0.551978     0.937842    -0.865249
C      -0.295240     0.043805    -0.193979
C      -0.279536    -0.058921     1.206581
C       0.606184     0.724633     1.931826
C       1.466828     1.591561     1.273490
C       1.434650     1.704714    -0.107861
C       0.545571     1.058693    -2.347317
C      -0.641602     1.258861    -3.051039
C      -0.626712     1.385118    -4.433021
C       0.574204     1.315224    -5.129120
C       1.762436     1.118846    -4.435222
C       1.747480     0.992804    -3.052815
H       0.627895     0.644577     3.012492
H       2.171584     2.179746     1.850674
H       2.094691     2.400792    -0.613452
H      -1.582090     1.321345    -2.514132
H      -1.558414     1.538099    -4.967824
H       0.584118     1.413335    -6.209942
H       2.704199     1.061514    -4.971809
H       2.675691     0.827793    -2.514364
C      -1.134388    -0.861483    -0.934643
N      -1.802640    -1.602604    -1.506895
C      -0.753479    -1.720072     2.940084
O      -1.521142    -1.951566     3.864662
C       0.588484    -2.325248     2.907367
C       1.235029    -2.715661     1.613619
H       0.723651    -2.243325     0.776532
H       1.078638    -3.796974     1.474326
C       1.117740    -2.862954     4.195515
H       1.164276    -3.960695     4.163628
H       2.134652    -2.503091     4.389184
H       0.478884    -2.571783     5.028059
N      -1.174520    -0.949675     1.856284
C      -2.583843    -0.549906     1.864134
H      -3.201744    -1.419438     2.082915
H      -2.773896     0.213961     2.625931
H      -2.848737    -0.158785     0.881364
C       2.772395    -2.475401     1.462537
C       3.086680    -2.179943    -0.015766
C       3.588339    -3.695804     1.929141
H       4.162029    -2.054341    -0.167517
H       2.740970    -3.013670    -0.634573
H       2.580174    -1.269909    -0.346343
H       3.336250    -4.559406     1.306816
H       4.658949    -3.497491     1.830829
H       3.382239    -3.947288     2.970641
C       3.205636    -1.313982     2.262584
N       3.580153    -0.430564     2.895126
48
     -1091.859704     -1091.526655   2.85   2.81
C      -0.414460     1.011107     0.465801
C       0.549999     0.443852    -0.382957
C       0.179400    -0.412018    -1.432002
C      -1.168364    -0.674995    -1.645085
C      -2.129278    -0.107630    -0.820945
C      -1.756027     0.720449     0.227879
C      -0.047417     1.920635     1.585028
C      -0.713825     3.138413     1.727662
C      -0.406415     3.993277     2.777244
C       0.570979     3.640104     3.700121
C       1.238327     2.428896     3.565980
C       0.931402     1.573981     2.516428
H      -1.451513    -1.334530    -2.458450
H      -3.179168    -0.321425    -0.993677
H      -2.509051     1.143346     0.883581
H      -1.467215     3.424625     1.000276
H      -0.930070     4.939104     2.872762
H       0.812681     4.308001     4.520724
H       2.004133     2.146612     4.281101
H       1.457092     0.631021     2.424390
C       1.941321     0.780828    -0.228173
N       3.056193     1.040719    -0.119875
C       2.293777    -1.596194    -1.863304
O       3.309200    -1.597840    -2.538833
C       2.227656    -2.334314    -0.584071
C       1.085089    -3.282904    -0.358798
H       1.358510    -4.248879    -0.814133
H       0.201352    -2.938855    -0.901519
C       3.519608    -2.494479     0.145614
H       4.235764    -1.736938    -0.171499
H       3.384554    -2.422407     1.229401
H       3.954151    -3.485757    -0.045345
N       1.143092    -0.959407    -2.318615
C       1.204748    -0.368018    -3.655686
H       1.796058     0.554302    -3.655079
H       1.672167    -1.075999    -4.338951
H       0.190254    -0.146747    -3.992503
C       0.638097    -3.569959     1.098928
C      -0.643244    -4.423848     1.058159
C       0.378811    -2.275455     1.882327
H      -1.444027    -3.855869     0.575621
H      -0.481988    -5.347231     0.495390
H      -0.964730    -4.687412     2.068867
H      -0.424835    -1.713940     1.399151
H       0.076284    -2.500027     2.908677
H       1.271836    -1.649146     1.913274
C       1.665305    -4.367003     1.801076
N       2.434100    -5.016305     2.356350
48
     -1091.859371     -1091.525524   3.06   3.52
C      -0.913087     1.599489    -0.727789
C       0.117081     0.727088    -0.344385
C       0.723085    -0.125718    -1.273090
C       0.282694    -0.128892    -2.586617
C      -0.750871     0.713059    -2.971554
C      -1.336933     1.573353    -2.053905
C      -1.557611     2.525744     0.240557
C      -2.948898     2.575209     0.333490
C      -3.565882     3.447975     1.219546
C      -2.798667     4.284269     2.022122
C      -1.412408     4.242982     1.932969
C      -0.795415     3.370616     1.047258
H       0.748024    -0.803720    -3.296121
H      -1.096261     0.703767    -4.000260
H      -2.127474     2.247420    -2.365471
H      -3.549084     1.912308    -0.282040
H      -4.649038     3.473070     1.285273
H      -3.280300     4.966265     2.715573
H      -0.806569     4.892952     2.555913
H       0.286772     3.349662     0.977108
C       0.532169     0.641533     1.031761
N       0.890118     0.555773     2.121438
C       1.457849    -2.303896    -0.596199
O       0.286796    -2.658086    -0.548522
C       2.549481    -3.274521    -0.402583
C       2.276414    -4.437722     0.495883
H       2.879912    -5.295900     0.182343
H       1.219192    -4.709884     0.421105
C       3.802584    -3.246025    -1.216335
H       3.763905    -2.497590    -2.009411
H       4.689152    -3.052852    -0.597641
H       3.955970    -4.226590    -1.682689
N       1.787526    -0.989252    -0.876880
C       3.065001    -0.372564    -0.528167
H       3.699751    -0.222409    -1.407843
H       2.883679     0.599260    -0.064484
H       3.595692    -0.992501     0.195059
C       2.570036    -4.162442     2.001791
C       2.423460    -5.469773     2.796286
C       1.637140    -3.081250     2.569761
H       1.396801    -5.835497     2.703029
H       3.102937    -6.238713     2.419011
H       2.638469    -5.307878     3.855711
H       0.596856    -3.376786     2.413426
H       1.812381    -2.953121     3.641075
H       1.792300    -2.114020     2.088521
C       3.962021    -3.685788     2.118210
N       5.044217    -3.302601     2.178604
48
     -1091.857203     -1091.525138   4.42   3.77
C      -1.345403     1.552203    -0.191142
C      -0.111174     0.908009    -0.008013
C      -0.048595    -0.429972     0.390013
C      -1.216329    -1.147392     0.600209
C      -2.439380    -0.523909     0.402652
C      -2.503842     0.809212     0.016238
C      -1.436335     2.977725    -0.603170
C      -0.721962     3.970422     0.067633
C      -0.831544     5.299176    -0.317837
C      -1.658707     5.654270    -1.376584
C      -2.377115     4.672081    -2.048382
C      -2.267270     3.342881    -1.663127
H      -1.147245    -2.185695     0.902120
H      -3.356599    -1.082828     0.557882
H      -3.466657     1.291902    -0.112769
H      -0.081002     3.702093     0.900504
H      -0.267583     6.059790     0.212266
H      -1.743317     6.693557    -1.677743
H      -3.023742     4.941158    -2.877656
H      -2.817718     2.575410    -2.198380
C       1.134379     1.583957    -0.270004
N       2.151608     2.087448    -0.457537
C       1.616316    -2.061232    -0.212080
O       0.861885    -2.540037    -1.046155
C       3.006153    -2.556084    -0.085497
C       3.200340    -4.021480    -0.308085
H       4.215298    -4.229380    -0.663766
H       2.490352    -4.348694    -1.074099
C       4.164261    -1.612399    -0.048931
H       4.828274    -1.799300     0.805627
H       4.776537    -1.745081    -0.950980
H       3.844822    -0.568851    -0.017374
N       1.229366    -1.021561     0.605050
C       1.885864    -0.694302     1.867887
H       2.390286     0.276130     1.827137
H       1.139389    -0.677358     2.666913
H       2.616314    -1.466226     2.107812
C       2.972681    -4.890964     0.965453
C       4.094560    -4.668125     1.992718
C       2.885954    -6.374250     0.574763
H       5.056167    -4.945725     1.551136
H       4.143965    -3.622089     2.303319
H       3.931788    -5.281464     2.882911
H       3.817620    -6.677663     0.087816
H       2.734730    -7.002245     1.456714
H       2.059439    -6.545896    -0.118921
C       1.696145    -4.489176     1.590832
N       0.714931    -4.152284     2.085277
48
     -1091.858878     -1091.525108   3.37   3.78
C      -1.136978     1.347643     0.977323
C      -0.252290     0.260454     0.912867
C       0.696883     0.035303     1.916368
C       0.781025     0.908860     2.989605
C      -0.086628     1.989234     3.060478
C      -1.038617     2.202049     2.071918
C      -2.148080     1.605068    -0.081911
C      -3.479945     1.827423     0.269440
C      -4.432387     2.088785    -0.706318
C      -4.063740     2.133918    -2.045778
C      -2.738246     1.917872    -2.403072
C      -1.785789     1.656695    -1.427872
H       1.534506     0.740958     3.748668
H      -0.016992     2.677128     3.896908
H      -1.702768     3.057617     2.130678
H      -3.772049     1.779525     1.313944
H      -5.466001     2.255226    -0.419792
H      -4.807897     2.337401    -2.809179
H      -2.442316     1.953307    -3.446510
H      -0.751272     1.500119    -1.713834
C      -0.294160    -0.671794    -0.184631
N      -0.283734    -1.442265    -1.039107
C       2.898127    -0.957040     1.697978
O       3.437774     0.121309     1.899656
C       3.682869    -2.118545     1.239064
C       3.172481    -2.965823     0.115209
H       2.082451    -2.931233     0.070149
H       3.470820    -4.010875     0.262570
C       5.118281    -2.172884     1.641854
H       5.736364    -1.549155     0.981222
H       5.258200    -1.792778     2.656282
H       5.506182    -3.193226     1.573174
N       1.525123    -1.119486     1.816339
C       0.909280    -2.384229     2.216648
H       1.689862    -3.127920     2.380889
H       0.366265    -2.243760     3.157216
H       0.213877    -2.759131     1.459582
C       3.656964    -2.521685    -1.303861
C       3.469200    -1.010889    -1.514216
C       2.861008    -3.309000    -2.359488
H       2.416437    -0.753725    -1.367834
H       4.072602    -0.428016    -0.815434
H       3.752593    -0.732429    -2.532679
H       3.212234    -3.068895    -3.366186
H       2.965686    -4.386665    -2.205596
H       1.803377    -3.041597    -2.284467
C       5.086124    -2.855099    -1.459829
N       6.195045    -3.128152    -1.590601
48
     -1091.858878     -1091.525108   3.37   3.78
C      -1.652631    -1.197018    -1.095845
C      -0.694735    -0.750958    -0.172675
C      -0.751390    -1.129159     1.173571
C      -1.761639    -1.973904     1.606951
C      -2.711380    -2.423713     0.701008
C      -2.662863    -2.034550    -0.631287
C      -1.605159    -0.809567    -2.530489
C      -0.440807    -0.966997    -3.282175
C      -0.418552    -0.619112    -4.625634
C      -1.559852    -0.112722    -5.235777
C      -2.725676     0.043014    -4.495043
C      -2.748272    -0.304737    -3.151124
H      -1.783562    -2.280992     2.644889
H      -3.498634    -3.090216     1.038153
H      -3.402757    -2.403237    -1.333548
H       0.450926    -1.371959    -2.815982
H       0.494903    -0.745362    -5.197696
H      -1.541219     0.159645    -6.286216
H      -3.620612     0.439127    -4.964450
H      -3.655911    -0.170098    -2.570889
C       0.378589     0.122207    -0.573835
N       1.255800     0.816548    -0.842636
C       1.091604    -1.458773     2.713963
O       0.912414    -2.668151     2.717469
C       2.294737    -0.873154     3.334419
C       3.070642     0.180645     2.607180
H       3.503842     0.892423     3.320308
H       2.422264     0.738011     1.928699
C       2.906512    -1.619520     4.472092
H       3.538665    -0.962909     5.076703
H       2.139993    -2.075942     5.102363
H       3.546161    -2.435812     4.108782
N       0.220250    -0.593767     2.067312
C      -0.013541     0.777717     2.518456
H      -1.065061     0.894247     2.801268
H       0.600484     0.976452     3.397572
H       0.227242     1.510931     1.742756
C       4.228439    -0.368729     1.710820
C       4.760051     0.783488     0.840446
C       3.749791    -1.528378     0.823062
H       5.611476     0.452879     0.240258
H       3.966767     1.120224     0.167376
H       5.080865     1.626092     1.459392
H       4.554980    -1.854113     0.159222
H       3.424051    -2.384136     1.417793
H       2.912034    -1.189934     0.207036
C       5.329799    -0.844041     2.570524
N       6.196258    -1.200106     3.236731
48
     -1091.858878     -1091.525107   3.37   3.78
C      -1.381812     1.307893     0.853342
C      -0.568404     0.166946     0.779901
C      -0.049094    -0.430937     1.933793
C      -0.326441     0.119161     3.175763
C      -1.126497     1.249689     3.258721
C      -1.654116     1.832342     2.113751
C      -1.937859     1.959159    -0.362075
C      -1.116358     2.305941    -1.434647
C      -1.647637     2.931517    -2.553931
C      -3.005420     3.221409    -2.614470
C      -3.830315     2.883350    -1.548002
C      -3.299254     2.257444    -0.428279
H       0.099566    -0.335490     4.061150
H      -1.338625     1.684680     4.230034
H      -2.267179     2.723949     2.189489
H      -0.053704     2.093048    -1.390333
H      -0.996860     3.193969    -3.381701
H      -3.419998     3.710006    -3.490458
H      -4.892005     3.105431    -1.588679
H      -3.947257     1.982267     0.398147
C      -0.244902    -0.438791    -0.486507
N       0.045631    -0.958807    -1.470903
C       2.051234    -1.614745     2.189226
O       2.517652    -0.704862     2.859525
C       2.910113    -2.712484     1.706741
C       2.808306    -3.168498     0.284382
H       1.808200    -2.980589    -0.110417
H       3.000319    -4.246207     0.217122
C       4.103668    -3.057071     2.532759
H       4.455720    -4.068335     2.309774
H       4.937915    -2.373144     2.323604
H       3.884040    -2.970020     3.599201
N       0.722224    -1.620043     1.790127
C      -0.036732    -2.852764     1.581574
H      -0.426951    -2.926225     0.561954
H       0.608855    -3.709703     1.777126
H      -0.875494    -2.887905     2.284783
C       3.782254    -2.442908    -0.700877
C       3.731043    -0.917567    -0.519968
C       3.391385    -2.821555    -2.140189
H       4.368686    -0.427021    -1.260167
H       2.704431    -0.570534    -0.666589
H       4.063280    -0.617872     0.475992
H       3.399335    -3.906728    -2.275601
H       2.386054    -2.445829    -2.349598
H       4.086873    -2.379548    -2.858090
C       5.161151    -2.909916    -0.458928
N       6.234083    -3.283586    -0.284129
48
     -1091.858878     -1091.525105   3.37   3.79
C      -1.205914     1.452445     0.336124
C      -0.127610     0.615307     0.660546
C      -0.182819    -0.247556     1.761016
C      -1.328423    -0.292944     2.540471
C      -2.401699     0.528012     2.225555
C      -2.339114     1.395266     1.142606
C      -1.166767     2.371470    -0.831967
C      -1.511210     3.713883    -0.670593
C      -1.498790     4.580338    -1.755336
C      -1.144418     4.113952    -3.015888
C      -0.804410     2.777171    -3.185272
C      -0.816857     1.910653    -2.101117
H      -1.371675    -0.981099     3.375141
H      -3.301231     0.488273     2.831301
H      -3.189331     2.022682     0.897603
H      -1.775489     4.082779     0.315654
H      -1.764286     5.623415    -1.615107
H      -1.133717     4.790881    -3.864185
H      -0.528416     2.405114    -4.166596
H      -0.560946     0.866269    -2.243574
C       1.082182     0.619511    -0.121597
N       2.067772     0.581999    -0.714107
C       0.878715    -2.411911     2.019357
O      -0.199471    -2.983582     1.945578
C       2.140565    -3.174618     1.980478
C       3.266412    -2.709083     1.110328
H       4.229846    -2.948730     1.576390
H       3.222319    -1.627807     0.967888
C       2.107541    -4.573138     2.498818
H       1.450981    -4.656562     3.367775
H       1.718398    -5.265376     1.739315
H       3.112021    -4.917708     2.760743
N       0.969250    -1.028014     2.066259
C       2.049062    -0.328508     2.761821
H       2.612396     0.326468     2.090291
H       1.629237     0.274262     3.574026
H       2.729951    -1.060890     3.196992
C       3.264775    -3.314123    -0.331792
C       4.307162    -2.561776    -1.177475
C       1.876619    -3.210125    -0.983114
H       4.006205    -1.514569    -1.269643
H       5.295606    -2.606612    -0.711676
H       4.377835    -2.995084    -2.178327
H       1.129286    -3.787213    -0.434844
H       1.564783    -2.162179    -1.003887
H       1.912635    -3.578450    -2.011782
C       3.660640    -4.734380    -0.267349
N       3.984462    -5.836424    -0.222551
48
     -1091.858655     -1091.524823   3.51   3.96
C      -1.263099    -0.417338    -0.695686
C      -0.384641    -0.133804     0.362102
C      -0.130315    -1.078648     1.368926
C      -0.750174    -2.322064     1.295961
C      -1.611053    -2.612723     0.248839
C      -1.874108    -1.667454    -0.732846
C      -1.541951     0.568031    -1.775671
C      -0.508202     1.159593    -2.500839
C      -0.788968     2.056469    -3.522051
C      -2.106280     2.370772    -3.833852
C      -3.142794     1.782069    -3.119105
C      -2.861813     0.884847    -2.097345
H      -0.561951    -3.051989     2.075805
H      -2.087979    -3.586538     0.202419
H      -2.541817    -1.901943    -1.554415
H       0.522175     0.913752    -2.269102
H       0.026008     2.511375    -4.075551
H      -2.324904     3.072844    -4.632096
H      -4.174113     2.023390    -3.356102
H      -3.672209     0.434638    -1.532271
C       0.302804     1.130027     0.414491
N       0.870555     2.129401     0.452885
C       1.600472    -1.755974     2.923879
O       1.762805    -1.925587     4.122751
C       2.360948    -2.544527     1.943914
C       2.752887    -1.983058     0.613525
H       1.948476    -1.385373     0.183194
H       2.955037    -2.800845    -0.087404
C       2.942139    -3.826951     2.443603
H       3.669804    -3.637728     3.242866
H       2.167848    -4.457236     2.895088
H       3.431699    -4.385484     1.642183
N       0.741935    -0.765101     2.440779
C       0.254212     0.195897     3.433737
H      -0.242770     1.018753     2.920115
H      -0.443338    -0.276800     4.133146
H       1.105041     0.587619     3.989789
C       4.031916    -1.083565     0.629997
C       4.163149    -0.378246    -0.730174
C       5.294695    -1.904314     0.935879
H       4.248532    -1.126376    -1.524281
H       3.290098     0.248627    -0.929184
H       5.052571     0.256312    -0.753055
H       5.241002    -2.364409     1.923769
H       5.411023    -2.693059     0.186519
H       6.180328    -1.264358     0.905873
C       3.896247    -0.049318     1.675019
N       3.821076     0.757175     2.489557
48
     -1091.859068     -1091.524167   3.25   4.37
C      -0.253306     1.068994     0.781962
C      -0.531679    -0.199069     0.245316
C      -0.580942    -0.402333    -1.143256
C      -0.406749     0.689690    -1.989060
C      -0.150876     1.947022    -1.464863
C      -0.058947     2.133947    -0.092170
C      -0.151571     1.295547     2.249583
C       0.988992     1.904883     2.773768
C       1.098226     2.143688     4.137345
C       0.065011     1.779691     4.992486
C      -1.076115     1.176835     4.476599
C      -1.185309     0.936240     3.114030
H      -0.458649     0.538505    -3.061713
H      -0.013986     2.789304    -2.135538
H       0.141792     3.118765     0.314963
H       1.800948     2.184097     2.109420
H       1.992832     2.614662     4.532221
H       0.148569     1.965757     6.058507
H      -1.887209     0.890359     5.138045
H      -2.082005     0.471312     2.719565
C      -0.773544    -1.312007     1.126269
N      -0.984506    -2.193613     1.834014
C      -0.219356    -2.842056    -1.293331
O      -0.726237    -3.932442    -1.499014
C       1.124506    -2.743904    -0.682088
C       2.183264    -1.946444    -1.390625
H       1.731210    -1.101182    -1.916724
H       2.614397    -2.589485    -2.175724
C       1.491566    -3.837560     0.265075
H       2.166720    -4.560254    -0.212771
H       2.021074    -3.447924     1.140439
H       0.601177    -4.362673     0.607363
N      -0.861205    -1.671078    -1.692013
C      -2.004179    -1.775762    -2.597854
H      -2.775775    -1.063007    -2.298630
H      -1.716104    -1.577018    -3.636486
H      -2.395615    -2.789424    -2.531543
C       3.368189    -1.379585    -0.564537
C       2.892179    -0.527382     0.620804
C       4.243952    -0.522980    -1.499818
H       2.232447    -1.085583     1.288164
H       3.746977    -0.167399     1.200040
H       2.346443     0.337660     0.237157
H       3.657909     0.319752    -1.878173
H       5.111614    -0.130035    -0.963985
H       4.600569    -1.110071    -2.350358
C       4.224948    -2.475990    -0.067530
N       4.932933    -3.304084     0.298460
48
     -1091.859068     -1091.524159   3.25   4.38
C      -0.388468     1.005049     0.386671
C       0.537540     0.405708    -0.483244
C       0.110300    -0.390600    -1.558064
C      -1.255387    -0.532735    -1.788107
C      -2.173817     0.072125    -0.944434
C      -1.746077     0.821776     0.143100
C       0.044735     1.814790     1.558098
C       0.911027     2.898021     1.412729
C       1.284146     3.651203     2.517221
C       0.796522     3.333280     3.779319
C      -0.069702     2.257362     3.932128
C      -0.444841     1.504391     2.827316
H      -1.588334    -1.135296    -2.626082
H      -3.235692    -0.049253    -1.133310
H      -2.467019     1.293432     0.801662
H       1.291276     3.157312     0.430892
H       1.960435     4.490198     2.390034
H       1.090649     3.923043     4.641685
H      -0.454762     2.002285     4.914334
H      -1.116138     0.660241     2.951255
C       1.948164     0.608183    -0.277425
N       3.073084     0.788191    -0.119988
C       2.137623    -1.728437    -2.011477
O       3.090305    -1.908385    -2.751879
C       2.104545    -2.349200    -0.668798
C       0.916700    -3.188922    -0.290864
H       1.067167    -4.191852    -0.723587
H       0.011280    -2.796936    -0.762206
C       3.429100    -2.551955    -0.011242
H       3.746052    -3.601192    -0.082613
H       4.187592    -1.924045    -0.476125
H       3.387248    -2.310876     1.055808
N       1.031873    -0.995344    -2.438069
C       0.907929    -0.684312    -3.861371
H       1.894558    -0.771776    -4.313079
H       0.226136    -1.376675    -4.368355
H       0.536644     0.335634    -3.982935
C       0.590689    -3.386106     1.213347
C      -0.720048    -4.189492     1.322986
C       0.439924    -2.048993     1.953120
H      -1.536276    -3.619954     0.868897
H      -0.635831    -5.150131     0.807863
H      -0.969785    -4.380198     2.369705
H      -0.404822    -1.502965     1.527013
H       0.240524    -2.220145     3.014596
H       1.334050    -1.428569     1.864714
C       1.639499    -4.194002     1.869438
N       2.417657    -4.854146     2.398221
48
     -1091.856510     -1091.522964   4.86   5.13
C      -1.160356     1.591902     0.994884
C      -0.347879     0.650116     0.350504
C      -0.710083     0.101244    -0.888288
C      -1.868608     0.546889    -1.508489
C      -2.660448     1.507905    -0.892850
C      -2.320430     2.016619     0.350434
C      -0.807119     2.139577     2.330979
C      -0.829215     3.517092     2.550086
C      -0.519292     4.036799     3.799677
C      -0.186853     3.184161     4.845965
C      -0.166624     1.810336     4.635976
C      -0.475918     1.290415     3.386985
H      -2.165331     0.130320    -2.463480
H      -3.566845     1.846568    -1.384525
H      -2.962588     2.739322     0.841521
H      -1.074969     4.184901     1.730163
H      -0.535196     5.110802     3.956138
H       0.056066     3.589785     5.822937
H       0.091265     1.138696     5.448393
H      -0.467379     0.217032     3.230033
C       0.924970     0.281795     0.908178
N       1.961569    -0.004574     1.314242
C       0.252482    -2.099876    -0.821442
O      -0.434318    -2.359324     0.152814
C       1.251571    -3.060053    -1.316247
C       2.627379    -2.602019    -1.696261
H       2.682881    -1.512141    -1.621206
H       2.845072    -2.874072    -2.739762
C       0.913738    -4.509619    -1.205741
H      -0.165671    -4.654054    -1.138051
H       1.305919    -5.065710    -2.063743
H       1.360073    -4.967583    -0.313141
N       0.130486    -0.871270    -1.490411
C       0.258422    -0.821191    -2.945341
H       0.420042     0.213481    -3.254092
H       1.111731    -1.414337    -3.265312
H      -0.631199    -1.207997    -3.457660
C       3.792564    -3.161134    -0.822877
C       3.514949    -2.996777     0.678817
C       5.085008    -2.416232    -1.205097
H       3.384328    -1.938428     0.912735
H       2.609638    -3.525514     0.982442
H       4.353363    -3.387791     1.261663
H       4.978616    -1.357007    -0.955648
H       5.939214    -2.818266    -0.654584
H       5.290686    -2.506777    -2.275463
C       4.002485    -4.590177    -1.129139
N       4.192462    -5.695825    -1.379395
48
     -1091.857611     -1091.522198   4.17   5.61
C      -0.658512    -0.947272    -0.944958
C      -0.409539    -0.147233     0.180424
C      -0.434555    -0.686607     1.472845
C      -0.734763    -2.033120     1.641835
C      -1.004487    -2.827458     0.536399
C      -0.966168    -2.290530    -0.743621
C      -0.573908    -0.399691    -2.325052
C       0.578546     0.254568    -2.761339
C       0.655903     0.738658    -4.059706
C      -0.411648     0.573888    -4.934077
C      -1.560496    -0.081454    -4.505876
C      -1.639949    -0.568258    -3.207849
H      -0.766325    -2.443948     2.645357
H      -1.241956    -3.877531     0.674186
H      -1.153810    -2.919607    -1.606942
H       1.424903     0.376734    -2.093915
H       1.557942     1.244843    -4.387055
H      -0.348830     0.954402    -5.948690
H      -2.397947    -0.212987    -5.183658
H      -2.541314    -1.070933    -2.870165
C      -0.131602     1.258807     0.034960
N       0.082195     2.385799    -0.046036
C       0.682917    -0.266410     3.590809
O       0.442400    -0.062430     4.771738
C       1.960401    -0.879521     3.167325
C       2.686493    -0.319452     1.977352
H       3.407402     0.424194     2.352886
H       1.991247     0.246190     1.356542
C       2.678963    -1.690738     4.197075
H       3.635518    -1.224265     4.467512
H       2.074081    -1.785733     5.098397
H       2.910766    -2.698058     3.829888
N      -0.202583     0.151973     2.600241
C      -1.347583     0.953818     3.035992
H      -1.776874     1.458041     2.168628
H      -2.112714     0.334086     3.517433
H      -1.004557     1.699718     3.751362
C       3.482869    -1.296828     1.058103
C       2.658364    -2.533364     0.667377
C       4.839530    -1.712485     1.654545
H       1.751851    -2.247405     0.132186
H       3.244942    -3.190674     0.019620
H       2.369554    -3.092323     1.560306
H       5.419499    -2.269134     0.913621
H       5.419228    -0.835241     1.954180
H       4.699966    -2.352821     2.525865
C       3.765670    -0.542989    -0.183885
N       3.975175     0.037464    -1.153589
48
     -1091.857611     -1091.522196   4.17   5.61
C      -0.238867     0.917005     1.054751
C       0.595670     0.613413    -0.031438
C       0.132042    -0.150223    -1.110286
C      -1.185220    -0.593526    -1.112963
C      -2.024800    -0.279249    -0.053657
C      -1.556574     0.467560     1.019268
C       0.260091     1.673722     2.233781
C      -0.423665     2.805941     2.675067
C       0.021023     3.504944     3.789433
C       1.150904     3.074466     4.475541
C       1.831971     1.942843     4.043210
C       1.390688     1.243275     2.928775
H      -1.544299    -1.173266    -1.956646
H      -3.053639    -0.624856    -0.062498
H      -2.208462     0.690893     1.856785
H      -1.300125     3.148147     2.132957
H      -0.515118     4.388231     4.121650
H       1.498843     3.620284     5.346860
H       2.711952     1.597365     4.575501
H       1.922911     0.353035     2.611120
C       1.954135     1.091406    -0.069948
N       3.039012     1.466905    -0.136438
C       1.077636    -1.724450    -2.703621
O       1.153351    -1.935220    -3.905238
C       1.166945    -2.832038    -1.727715
C       1.995281    -2.654281    -0.487055
H       2.136333    -1.591342    -0.289672
H       3.002742    -3.042319    -0.706647
C       0.828926    -4.195017    -2.240293
H       1.709612    -4.850640    -2.223817
H       0.061514    -4.680438    -1.624911
H       0.460582    -4.137239    -3.264151
N       0.991903    -0.423907    -2.211952
C       1.131973     0.659414    -3.186957
H       0.222947     0.780321    -3.787227
H       1.346290     1.588082    -2.655445
H       1.960617     0.428689    -3.854721
C       1.524217    -3.340800     0.832488
C       1.838843    -4.846917     0.872516
C       0.036669    -3.087679     1.123529
H       1.224795    -5.390315     0.153919
H       2.891826    -5.031831     0.643541
H       1.629905    -5.246714     1.868357
H      -0.255428    -3.577032     2.056763
H      -0.168337    -2.020543     1.219194
H      -0.579547    -3.485816     0.314252
C       2.302122    -2.704120     1.918932
N       2.897010    -2.201688     2.764400
48
     -1091.856337     -1091.522036   4.97   5.71
C      -0.031963     1.121236     0.630455
C       0.871397     0.493135    -0.241637
C       0.422768    -0.180389    -1.388596
C      -0.937046    -0.207521    -1.668792
C      -1.836447     0.420392    -0.819061
C      -1.389361     1.074862     0.319386
C       0.418142     1.840442     1.852816
C      -0.048574     3.131539     2.102781
C       0.338934     3.812873     3.248464
C       1.197049     3.210408     4.160882
C       1.664748     1.924352     3.920322
C       1.277467     1.242930     2.774821
H      -1.281428    -0.734360    -2.552022
H      -2.897778     0.387620    -1.042582
H      -2.098116     1.545955     0.991494
H      -0.707181     3.610876     1.385062
H      -0.028433     4.818303     3.427568
H       1.501214     3.742655     5.056470
H       2.336145     1.447430     4.626940
H       1.645847     0.238811     2.599700
C       2.289107     0.569767    -0.001433
N       3.425019     0.613866     0.172518
C       2.334789    -1.642050    -1.880828
O       3.375623    -1.744244    -2.508016
C       2.064573    -2.495949    -0.699708
C       0.787665    -3.289153    -0.687062
H       0.985339    -4.245218    -1.198633
H       0.041938    -2.778884    -1.300490
C       3.260583    -2.893699     0.103238
H       4.143146    -2.359172    -0.246861
H       3.127746    -2.656390     1.165818
H       3.450453    -3.972689     0.032361
N       1.335793    -0.774018    -2.301116
C       1.570626    -0.047972    -3.549503
H       2.295413     0.761504    -3.408246
H       1.964926    -0.737425    -4.295028
H       0.624627     0.370061    -3.898847
C       0.126464    -3.635083     0.679916
C      -0.052604    -2.390833     1.562549
C       0.865583    -4.745942     1.447441
H       0.923986    -1.960935     1.795104
H      -0.656495    -1.634883     1.057515
H      -0.546904    -2.655728     2.501175
H       1.032007    -5.617478     0.808522
H       1.829870    -4.389664     1.809983
H       0.273489    -5.062148     2.310363
C      -1.219278    -4.156717     0.351276
N      -2.262327    -4.563607     0.091457
48
     -1091.854249     -1091.521992   6.28   5.74
C      -0.536841     1.821968     1.560805
C       0.035570     0.548273     1.442430
C       1.114351     0.321233     0.580919
C       1.620286     1.364002    -0.174337
C       1.053581     2.628862    -0.074308
C      -0.010421     2.854114     0.784961
C      -1.679062     2.089464     2.474443
C      -2.806965     2.758088     1.997103
C      -3.874390     3.032112     2.841444
C      -3.825928     2.642741     4.174913
C      -2.704643     1.979164     4.658394
C      -1.637255     1.705354     3.814695
H       2.451447     1.176164    -0.844866
H       1.450481     3.444769    -0.669603
H      -0.437920     3.846918     0.874938
H      -2.852740     3.049550     0.952337
H      -4.747753     3.548748     2.456103
H      -4.660392     2.855739     4.835411
H      -2.659180     1.671905     5.698127
H      -0.762377     1.193878     4.201061
C      -0.497349    -0.576128     2.167437
N      -0.882747    -1.492488     2.745480
C       1.080468    -1.877928    -0.369163
O       0.037941    -1.589600    -0.938485
C       1.744619    -3.170393    -0.632628
C       3.213200    -3.225629    -0.917719
H       3.625594    -4.182666    -0.577204
H       3.739878    -2.428662    -0.387288
C       0.857078    -4.320440    -0.975429
H       1.384496    -5.271662    -0.863137
H      -0.039269    -4.321630    -0.350244
H       0.515414    -4.256714    -2.017443
N       1.701101    -0.979249     0.483882
C       2.552685    -1.389583     1.598144
H       2.614814    -2.477818     1.631657
H       3.561145    -0.971514     1.507418
H       2.118775    -1.051448     2.543310
C       3.594587    -3.046437    -2.422623
C       5.127501    -2.989149    -2.542498
C       2.960697    -1.774583    -3.008077
H       5.431999    -2.914686    -3.589367
H       5.503467    -2.110955    -2.009306
H       5.588189    -3.882214    -2.111844
H       1.870606    -1.832417    -3.008934
H       3.260411    -0.910852    -2.405930
H       3.301834    -1.615331    -4.034419
C       3.127209    -4.214224    -3.194191
N       2.788074    -5.128923    -3.801536
48
     -1091.854650     -1091.520664   6.03   6.57
C      -1.627691    -0.926635    -1.249070
C      -0.634291    -0.547879    -0.331091
C      -0.643592    -1.024402     0.985217
C      -1.648723    -1.892229     1.389284
C      -2.629984    -2.275222     0.487584
C      -2.624612    -1.794168    -0.814959
C      -1.630622    -0.436426    -2.653100
C      -0.500932    -0.556435    -3.462256
C      -0.527545    -0.113478    -4.777317
C      -1.683903     0.451646    -5.301606
C      -2.815622     0.570654    -4.503455
C      -2.789203     0.127760    -3.187839
H      -1.645013    -2.269564     2.403394
H      -3.408830    -2.960678     0.805677
H      -3.388836    -2.109448    -1.517074
H       0.402137    -1.005185    -3.062656
H       0.359648    -0.210973    -5.394545
H      -1.703368     0.798360    -6.329896
H      -3.722037     1.012103    -4.905589
H      -3.669840     0.232856    -2.561717
C       0.410208     0.362643    -0.722964
N       1.251162     1.096001    -1.003139
C       1.119980    -1.496214     2.575825
O       0.907006    -2.697212     2.487030
C       2.257775    -1.005667     3.387291
C       3.254561    -0.041898     2.822030
H       3.776648     0.460600     3.643278
H       2.763488     0.728273     2.222461
C       2.526881    -1.751525     4.655577
H       1.680713    -1.662633     5.348879
H       2.645494    -2.823743     4.460637
H       3.421030    -1.376237     5.157861
N       0.353339    -0.565388     1.898020
C       0.219077     0.821852     2.353052
H       0.696728     0.927485     3.327939
H       0.666811     1.532974     1.653932
H      -0.842756     1.059191     2.466533
C       4.336794    -0.697955     1.898162
C       3.710738    -1.239601     0.603480
C       5.121254    -1.803967     2.620280
H       3.023897    -2.057214     0.835458
H       3.163817    -0.456331     0.074216
H       4.488940    -1.625561    -0.060249
H       5.932575    -2.168162     1.984651
H       5.556905    -1.439013     3.554441
H       4.457635    -2.642071     2.843205
C       5.285182     0.380338     1.545955
N       6.025267     1.220247     1.285624
48
     -1091.854650     -1091.520661   6.03   6.57
C      -1.480054     1.275910     0.509249
C      -0.634265     0.156124     0.570075
C      -0.015054    -0.220783     1.767719
C      -0.235225     0.529197     2.914774
C      -1.064496     1.639209     2.861816
C      -1.685378     2.006120     1.675249
C      -2.141051     1.695761    -0.755036
C      -1.406056     1.889093    -1.924541
C      -2.035465     2.302194    -3.090515
C      -3.406251     2.530717    -3.101994
C      -4.145424     2.344998    -1.939615
C      -3.516047     1.931596    -0.773131
H       0.255951     0.243195     3.835516
H      -1.226714     2.227446     3.759199
H      -2.322071     2.883504     1.640248
H      -0.334328     1.721839    -1.920542
H      -1.451361     2.446204    -3.993661
H      -3.897526     2.853044    -4.014532
H      -5.216612     2.520300    -1.941212
H      -4.096507     1.774697     0.130774
C      -0.402246    -0.645698    -0.603314
N      -0.205622    -1.311412    -1.520745
C       2.089247    -1.313627     2.258057
O       2.539050    -0.280155     2.732662
C       2.959916    -2.503954     2.121152
C       3.076504    -3.233514     0.818803
H       2.103721    -3.328104     0.330393
H       3.453690    -4.244906     1.004132
C       3.931628    -2.735671     3.234412
H       3.406306    -2.928643     4.178533
H       4.582985    -3.587005     3.025607
H       4.546405    -1.844837     3.408175
N       0.789030    -1.399993     1.793745
C       0.066317    -2.673235     1.715921
H       0.664363    -3.454593     2.186594
H      -0.873719    -2.584536     2.268337
H      -0.155982    -2.961783     0.685264
C       4.028963    -2.551511    -0.221800
C       5.449870    -2.362263     0.330745
C       3.456697    -1.210120    -0.706269
H       6.111474    -1.980533    -0.451217
H       5.434510    -1.640061     1.149702
H       5.863869    -3.305345     0.697953
H       4.095704    -0.785508    -1.485033
H       2.452243    -1.336770    -1.115886
H       3.414430    -0.501353     0.124344
C       4.105556    -3.473507    -1.375172
N       4.170250    -4.200013    -2.263399
48
     -1091.854650     -1091.520659   6.03   6.58
C      -0.377235     1.661128    -1.006094
C      -0.124089     0.474310    -0.298734
C      -0.225115     0.426193     1.096725
C      -0.575268     1.573497     1.795126
C      -0.821482     2.750462     1.104651
C      -0.730058     2.794048    -0.280196
C      -0.268290     1.733432    -2.487482
C      -1.318681     2.267517    -3.234470
C      -1.224483     2.362299    -4.616441
C      -0.076622     1.926739    -5.268127
C       0.975672     1.397811    -4.530345
C       0.881817     1.303106    -3.148851
H      -0.638865     1.536272     2.874656
H      -1.086473     3.646992     1.655691
H      -0.911700     3.722376    -0.810874
H      -2.220796     2.596355    -2.727865
H      -2.050958     2.775381    -5.186072
H      -0.002437     1.999659    -6.348474
H       1.875591     1.056791    -5.031780
H       1.710876     0.898011    -2.578630
C       0.226515    -0.732096    -1.002475
N       0.498473    -1.713877    -1.536947
C       0.919174    -0.879847     2.784233
O       1.502857     0.115865     3.188592
C       1.244270    -2.208501     3.352278
C       1.577092    -3.369588     2.467366
H       0.921890    -3.401019     1.593570
H       1.431260    -4.301326     3.024255
C       1.526710    -2.241165     4.820757
H       1.826406    -3.239035     5.147965
H       2.312920    -1.523806     5.083459
H       0.641205    -1.942525     5.396301
N      -0.015786    -0.816852     1.766642
C      -1.076067    -1.817530     1.611855
H      -1.062119    -2.490704     2.469965
H      -2.045293    -1.310656     1.592335
H      -0.964724    -2.401439     0.694477
C       3.044931    -3.365307     1.919105
C       4.085140    -3.332477     3.049140
C       3.272616    -2.199746     0.943832
H       4.025181    -2.379350     3.578718
H       3.924267    -4.144978     3.763003
H       5.092874    -3.433913     2.637938
H       3.180421    -1.247997     1.472728
H       4.276648    -2.256028     0.515053
H       2.547530    -2.223519     0.127476
C       3.211708    -4.635251     1.180435
N       3.338595    -5.629415     0.617868
48
     -1091.855962     -1091.520409   5.20   6.73
C      -0.318981     0.932091     0.690445
C      -0.360618    -0.452907     0.910981
C       0.410906    -1.051255     1.916225
C       1.212558    -0.250879     2.721841
C       1.243053     1.122419     2.525835
C       0.485259     1.708575     1.520714
C      -1.083926     1.567827    -0.415248
C      -0.931161     1.127011    -1.730170
C      -1.630400     1.744407    -2.757779
C      -2.484991     2.805881    -2.485182
C      -2.636925     3.252245    -1.177389
C      -1.937258     2.637460    -0.147473
H       1.795154    -0.715477     3.509830
H       1.867903     1.741698     3.161507
H       0.529418     2.779454     1.354844
H      -0.255508     0.309698    -1.958759
H      -1.502287     1.392949    -3.776164
H      -3.031440     3.286254    -3.290665
H      -3.303015     4.080582    -0.957868
H      -2.063527     2.979393     0.875419
C      -1.208794    -1.297785     0.109889
N      -1.878870    -2.004263    -0.501987
C       1.484185    -3.218545     2.225497
O       1.545789    -4.210423     2.936699
C       2.623125    -2.853259     1.348038
C       2.345092    -2.558656    -0.099760
H       1.308102    -2.240686    -0.214696
H       2.415546    -3.511618    -0.648553
C       3.973643    -3.311369     1.798669
H       4.362557    -4.099992     1.140224
H       4.705478    -2.494896     1.782511
H       3.924493    -3.708042     2.812566
N       0.330722    -2.450010     2.149552
C      -0.898009    -2.957432     2.769391
H      -1.559825    -3.402924     2.021502
H      -0.626588    -3.711719     3.506943
H      -1.420782    -2.136004     3.264218
C       3.255107    -1.536969    -0.847980
C       4.612119    -2.132556    -1.263377
C       3.450590    -0.237498    -0.051592
H       5.231778    -2.331356    -0.388588
H       4.475677    -3.066690    -1.814913
H       5.148425    -1.430210    -1.907048
H       2.494617     0.251527     0.140453
H       3.927409    -0.450501     0.907661
H       4.084716     0.457163    -0.609380
C       2.532288    -1.187760    -2.091684
N       1.964284    -0.906248    -3.050501
48
     -1091.855262     -1091.520068   5.64   6.95
C      -1.357743    -0.361429    -1.287475
C      -0.578583    -0.352371    -0.121944
C      -0.646773    -1.399698     0.804934
C      -1.520436    -2.453314     0.582111
C      -2.312209    -2.457993    -0.558039
C      -2.231784    -1.426527    -1.483448
C      -1.230222     0.703186    -2.315943
C       0.022536     1.043120    -2.828211
C       0.135256     2.022129    -3.805716
C      -0.998522     2.668073    -4.284910
C      -2.249799     2.328918    -3.783065
C      -2.364802     1.349887    -2.805171
H      -1.556139    -3.268167     1.292785
H      -2.989859    -3.287190    -0.733238
H      -2.831336    -1.454791    -2.387009
H       0.907576     0.530983    -2.464715
H       1.114506     2.280709    -4.195639
H      -0.907470     3.433764    -5.048836
H      -3.139227     2.829467    -4.152699
H      -3.340720     1.092626    -2.404762
C       0.300844     0.752723     0.161175
N       0.988968     1.630565     0.441002
C       1.099447    -2.367665     2.183702
O       0.991986    -3.469728     1.670484
C       2.270861    -2.044028     3.022366
C       2.966621    -0.729598     2.850078
H       3.572987    -0.507731     3.735546
H       2.245637     0.081604     2.728685
C       2.911624    -3.183594     3.745904
H       3.765840    -2.850666     4.340488
H       2.194093    -3.679360     4.409820
H       3.245042    -3.953588     3.039165
N       0.191418    -1.340427     1.953518
C      -0.205370    -0.416027     3.015891
H      -1.269222    -0.550783     3.239964
H       0.364388    -0.645052     3.917576
H      -0.031163     0.627951     2.742235
C       3.931722    -0.646091     1.621119
C       5.118129    -1.612021     1.757511
C       4.425461     0.803905     1.480339
H       4.786660    -2.650959     1.784294
H       5.801393    -1.494363     0.912416
H       5.666696    -1.393274     2.678660
H       3.583885     1.484762     1.333358
H       4.966483     1.093778     2.386228
H       5.101135     0.899654     0.626689
C       3.188815    -0.995656     0.393532
N       2.619846    -1.253707    -0.570733
48
     -1091.855262     -1091.520058   5.64   6.95
C      -0.788365     1.108694     1.671831
C       0.226299     0.186480     1.379224
C       0.192084    -1.116780     1.890097
C      -0.849175    -1.496723     2.723443
C      -1.845335    -0.582135     3.036590
C      -1.817876     0.704560     2.516561
C      -0.803411     2.465666     1.067009
C      -0.974687     3.593100     1.869751
C      -1.012190     4.860518     1.303844
C      -0.883081     5.012784    -0.071915
C      -0.718724     3.892049    -0.877683
C      -0.680998     2.624156    -0.314031
H      -0.879628    -2.510039     3.101042
H      -2.662562    -0.884382     3.683320
H      -2.617490     1.402226     2.741425
H      -1.064107     3.474487     2.945326
H      -1.140654     5.731416     1.938899
H      -0.911541     6.003156    -0.515209
H      -0.620146     4.004451    -1.952616
H      -0.565533     1.749593    -0.946102
C       1.346213     0.567727     0.557505
N       2.273252     0.841727    -0.065349
C       0.925459    -3.198403     0.882007
O      -0.193058    -3.686114     0.905310
C       1.995135    -3.818245     0.074603
C       2.884448    -2.956093    -0.766408
H       3.799783    -3.500867    -1.023977
H       3.175744    -2.051903    -0.227710
C       1.905491    -5.294991    -0.134883
H       1.905126    -5.827397     0.823223
H       0.960141    -5.560812    -0.623952
H       2.736904    -5.664681    -0.739975
N       1.240187    -2.010244     1.531574
C       2.530236    -1.817690     2.194360
H       2.375278    -1.713668     3.273857
H       3.152849    -2.696896     2.022711
H       3.056668    -0.933254     1.825895
C       2.258867    -2.478428    -2.118894
C       1.976250    -3.653876    -3.066333
C       3.216847    -1.469916    -2.775595
H       1.241122    -4.340106    -2.643656
H       1.589900    -3.286654    -4.020669
H       2.902834    -4.203751    -3.257047
H       2.808259    -1.111607    -3.723799
H       3.378231    -0.609912    -2.121549
H       4.177579    -1.955381    -2.972264
C       0.983303    -1.785226    -1.847824
N      -0.004661    -1.233010    -1.650062
48
     -1091.853753     -1091.519660   6.59   7.20
C      -2.180954     0.405107     0.845757
C      -0.849429    -0.019340     0.717747
C       0.026738    -0.000813     1.809713
C      -0.417765     0.465157     3.037836
C      -1.730195     0.894812     3.171487
C      -2.603756     0.856970     2.092666
C      -3.127668     0.389726    -0.300715
C      -2.795560     0.979336    -1.520346
C      -3.699109     0.972386    -2.573930
C      -4.946851     0.379816    -2.421572
C      -5.287675    -0.205773    -1.207893
C      -4.384040    -0.199386    -0.153916
H       0.273049     0.497974     3.870438
H      -2.076065     1.265662     4.130894
H      -3.624576     1.205697     2.205726
H      -1.827603     1.452818    -1.643885
H      -3.425910     1.432839    -3.517807
H      -5.652251     0.374481    -3.246409
H      -6.259852    -0.671748    -1.081632
H      -4.646663    -0.669012     0.788993
C      -0.337461    -0.500996    -0.540249
N       0.120535    -0.897798    -1.518400
C       2.428013     0.339902     1.812314
O       2.311904     1.425494     2.362323
C       3.724960    -0.081750     1.240921
C       3.748281    -0.598518    -0.167661
H       4.018501     0.238031    -0.831481
H       2.740635    -0.891568    -0.466607
C       4.963955     0.425812     1.900748
H       4.718867     0.956667     2.820738
H       5.645205    -0.398450     2.147185
H       5.511475     1.112968     1.241403
N       1.345445    -0.504814     1.628403
C       1.484916    -1.959419     1.548338
H       2.498317    -2.240564     1.831763
H       0.793073    -2.421609     2.258352
H       1.270589    -2.347064     0.548488
C       4.726492    -1.759695    -0.515339
C       6.154374    -1.261048    -0.802200
C       4.185323    -2.501347    -1.751542
H       6.804989    -2.103144    -1.052593
H       6.132840    -0.574598    -1.653657
H       6.586153    -0.740337     0.052655
H       4.103211    -1.798601    -2.585922
H       4.856024    -3.313388    -2.043991
H       3.194889    -2.918855    -1.556254
C       4.789548    -2.715165     0.606180
N       4.848497    -3.460507     1.479021
48
     -1091.853753     -1091.519660   6.59   7.20
C      -1.830172     0.906762     1.065072
C      -0.628270     0.222617     0.826590
C       0.425342     0.263026     1.747822
C       0.292692     1.009170     2.909144
C      -0.888825     1.695720     3.149159
C      -1.940530     1.638406     2.244158
C      -2.961757     0.873327     0.101069
C      -4.246472     0.566648     0.551105
C      -5.317859     0.549701    -0.331680
C      -5.118010     0.842230    -1.675771
C      -3.842148     1.152921    -2.130585
C      -2.770826     1.170360    -1.248282
H       1.121066     1.053751     3.604370
H      -0.990042     2.284953     4.054795
H      -2.855572     2.188027     2.436722
H      -4.401940     0.324782     1.597970
H      -6.311231     0.304792     0.030859
H      -5.954797     0.828306    -2.366832
H      -3.678034     1.383754    -3.178125
H      -1.779869     1.423785    -1.609067
C      -0.438113    -0.556603    -0.370623
N      -0.235693    -1.195372    -1.306033
C       2.809463     0.138814     1.320336
O       2.968293     1.305002     1.650911
C       3.896847    -0.612484     0.657384
C       3.579686    -1.359147    -0.604995
H       3.851417    -0.715889    -1.456977
H       2.500980    -1.503426    -0.683558
C       5.300001    -0.242391     1.007085
H       5.818176     0.204757     0.147870
H       5.314470     0.475668     1.827109
H       5.876844    -1.125575     1.309540
N       1.592523    -0.504787     1.475745
C       1.484674    -1.951162     1.670951
H       0.871115    -2.144837     2.555497
H       1.032208    -2.457627     0.813822
H       2.475926    -2.365749     1.849531
C       4.282692    -2.726552    -0.854191
C       5.693918    -2.563902    -1.447290
C       3.414089    -3.554187    -1.819415
H       5.624509    -2.042918    -2.406673
H       6.351648    -1.994873    -0.790063
H       6.147014    -3.544140    -1.617471
H       3.883669    -4.516417    -2.039386
H       2.423278    -3.736880    -1.397127
H       3.291596    -3.003055    -2.756449
C       4.399735    -3.468934     0.414618
N       4.500073    -4.050221     1.400974
48
     -1091.853753     -1091.519659   6.59   7.20
C      -1.910332     0.981248    -0.004068
C      -0.733565     0.259049     0.247222
C      -0.626964    -0.593560     1.352706
C      -1.708713    -0.748032     2.206495
C      -2.879069    -0.044527     1.960963
C      -2.976506     0.816175     0.875562
C      -2.041952     1.894209    -1.170294
C      -1.732833     1.466686    -2.461457
C      -1.879821     2.326602    -3.541009
C      -2.340753     3.622898    -3.345129
C      -2.655673     4.055459    -2.062238
C      -2.508417     3.195771    -0.982090
H      -1.625352    -1.427191     3.045138
H      -3.727775    -0.170557     2.625367
H      -3.900073     1.352734     0.686898
H      -1.382227     0.453229    -2.623832
H      -1.633073     1.980842    -4.539569
H      -2.454643     4.294545    -4.190049
H      -3.015001     5.066948    -1.901069
H      -2.742000     3.539447     0.020866
C       0.413322     0.377041    -0.617295
N       1.357834     0.437369    -1.271702
C       0.670429    -2.631429     1.567322
O      -0.341159    -3.316791     1.605715
C       2.000897    -3.257713     1.412456
C       2.921205    -2.722459     0.354989
H       2.595223    -1.724649     0.057151
H       2.805322    -3.348371    -0.544063
C       2.187381    -4.624595     1.982508
H       1.312606    -4.921717     2.561079
H       2.344449    -5.367420     1.188634
H       3.065960    -4.661341     2.639007
N       0.615604    -1.247253     1.586350
C       1.697887    -0.422532     2.125086
H       1.280259     0.279789     2.852215
H       2.413339    -1.059965     2.642930
H       2.218432     0.145732     1.349192
C       4.448806    -2.676295     0.655682
C       5.090595    -1.598492    -0.237377
C       5.140021    -4.028376     0.402931
H       4.659979    -0.614853    -0.036297
H       6.170131    -1.548108    -0.073537
H       4.907877    -1.845085    -1.287420
H       6.209845    -3.950560     0.613988
H       4.727543    -4.822321     1.025718
H       5.013356    -4.307918    -0.647054
C       4.671574    -2.302062     2.064593
N       4.852363    -2.017228     3.163249
48
     -1091.853505     -1091.519463   6.74   7.33
C      -0.112662     1.858048     1.997802
C       0.349941     0.695879     1.362194
C       0.192603    -0.564998     1.950815
C      -0.452741    -0.676356     3.172871
C      -0.921358     0.466897     3.804461
C      -0.745485     1.718734     3.230050
C       0.048698     3.206019     1.391437
C       0.589523     4.245983     2.148401
C       0.729866     5.515414     1.604061
C       0.328196     5.761158     0.296254
C      -0.215451     4.731465    -0.462295
C      -0.356330     3.462275     0.081587
H      -0.592070    -1.657627     3.608049
H      -1.432080     0.379462     4.757954
H      -1.125270     2.604617     3.727498
H       0.916201     4.052427     3.165460
H       1.156596     6.314325     2.202245
H       0.438427     6.753009    -0.130407
H      -0.532749     4.915658    -1.483538
H      -0.791160     2.666437    -0.513394
C       1.013907     0.757171     0.084560
N       1.554125     0.745857    -0.931488
C      -0.101619    -2.711091     0.852104
O      -1.254107    -2.801794     1.246412
C       0.423693    -3.639125    -0.174905
C       1.049397    -3.033801    -1.399594
H       1.435677    -2.037628    -1.171789
H       0.243125    -2.873011    -2.133086
C      -0.170684    -5.008323    -0.216280
H      -0.890253    -5.096429    -1.042084
H       0.590884    -5.775304    -0.394350
H      -0.691485    -5.233780     0.714504
N       0.739892    -1.696770     1.283319
C       2.192124    -1.850282     1.331746
H       2.439122    -2.901174     1.184033
H       2.706521    -1.249509     0.575736
H       2.550524    -1.550367     2.320911
C       2.179543    -3.809953    -2.124228
C       3.307351    -4.222539    -1.165549
C       2.740452    -2.909316    -3.241033
H       3.783734    -3.327600    -0.756899
H       2.925882    -4.827123    -0.339355
H       4.068133    -4.802020    -1.694769
H       3.152854    -1.997923    -2.798987
H       3.532018    -3.422108    -3.793316
H       1.954097    -2.626087    -3.945363
C       1.638050    -5.024191    -2.767403
N       1.235766    -5.963017    -3.294120
48
     -1091.854022     -1091.518862   6.42   7.70
C      -1.312710     1.173426     0.440295
C      -0.365181     0.207318     0.811164
C       0.756296     0.546209     1.581578
C       0.944119     1.865727     1.967760
C       0.023135     2.830138     1.583656
C      -1.094819     2.490022     0.835054
C      -2.514012     0.829075    -0.365418
C      -3.359525    -0.215759     0.007133
C      -4.487502    -0.511258    -0.745571
C      -4.787038     0.234821    -1.879177
C      -3.951470     1.279725    -2.256263
C      -2.823140     1.575220    -1.503237
H       1.819148     2.126504     2.546547
H       0.178782     3.862254     1.880447
H      -1.820198     3.248392     0.561004
H      -3.136691    -0.797107     0.895230
H      -5.134662    -1.328523    -0.444141
H      -5.668994     0.002551    -2.467567
H      -4.177250     1.865718    -3.141630
H      -2.163462     2.382135    -1.806884
C      -0.495631    -1.152906     0.357038
N      -0.580972    -2.252585     0.031579
C       3.015707    -0.360332     1.692466
O       3.548729     0.715062     1.473734
C       3.795570    -1.611174     1.607918
C       3.209649    -2.812823     0.933470
H       2.159563    -2.940283     1.204110
H       3.746769    -3.716318     1.243470
C       5.259252    -1.504735     1.888721
H       5.437625    -1.091025     2.887770
H       5.751885    -2.477561     1.818683
H       5.738754    -0.809306     1.188599
N       1.654743    -0.490464     1.954709
C       1.169155    -1.444836     2.954053
H       2.013866    -2.017676     3.338796
H       0.716422    -0.900392     3.789954
H       0.430886    -2.137138     2.541460
C       3.257558    -2.779975    -0.630335
C       2.443399    -3.965590    -1.174914
C       4.699046    -2.823820    -1.159251
H       2.881396    -4.902657    -0.817683
H       1.405071    -3.906241    -0.840797
H       2.455446    -3.971440    -2.267742
H       4.701097    -2.849083    -2.252079
H       5.269712    -1.951117    -0.838659
H       5.198341    -3.725549    -0.791793
C       2.627381    -1.531235    -1.103090
N       2.136737    -0.560653    -1.473695
