48
     -1091.874882     -1091.533566   0.00   0.00
C      -1.927235     0.435578     1.187409
C      -0.632880     0.747771     0.761647
C       0.403657     0.914837     1.690668
C       0.135114     0.775856     3.050485
C      -1.156160     0.490981     3.469950
C      -2.180913     0.323134     2.551997
C      -3.037024     0.197748     0.224867
C      -2.949445    -0.813010    -0.731312
C      -3.996529    -1.044451    -1.610823
C      -5.148706    -0.268906    -1.542089
C      -5.247520     0.734335    -0.586188
C      -4.198140     0.963389     0.294871
H       0.923764     0.881493     3.783082
H      -1.358388     0.389605     4.531262
H      -3.183968     0.080603     2.885004
H      -2.054480    -1.424644    -0.782542
H      -3.912621    -1.831477    -2.353550
H      -5.967603    -0.447029    -2.231899
H      -6.144252     1.343190    -0.526660
H      -4.269462     1.755080     1.034293
C      -0.268939     0.944275    -0.667754
N      -1.038365     1.464577    -1.501545
C       2.129781     1.090343    -0.037918
O       3.253803     1.392238    -0.386754
C       1.143625     0.467991    -1.037407
C       1.116946    -1.085460    -0.901282
H       0.628012    -1.466988    -1.804218
H       0.466111    -1.348928    -0.062462
C       1.497870     0.920240    -2.455980
H       1.437804     2.007589    -2.532137
H       2.508424     0.621732    -2.723914
H       0.786893     0.490745    -3.165615
N       1.695923     1.269499     1.253425
C       2.659466     1.774215     2.228690
H       3.495751     2.199195     1.679548
H       2.190929     2.548144     2.840768
H       3.030348     0.962478     2.860636
C       2.422577    -1.902130    -0.706578
C       3.524124    -1.622380    -1.741709
C       2.041183    -3.396488    -0.754120
H       4.347485    -2.327415    -1.598888
H       3.124199    -1.761201    -2.750131
H       3.918531    -0.611176    -1.643903
H       2.909087    -4.020659    -0.528252
H       1.254275    -3.626567    -0.030797
H       1.681868    -3.650457    -1.755577
C       2.962834    -1.645291     0.645280
N       3.367638    -1.474265     1.707169
48
     -1091.874882     -1091.533561  -0.00   0.00
C      -0.609751     1.522931    -1.448167
C       0.351695     0.896679    -0.649718
C       0.931859     1.573168     0.432495
C       0.549871     2.884531     0.706229
C      -0.386016     3.510644    -0.104080
C      -0.961863     2.841725    -1.172661
C      -1.284446     0.814894    -2.569832
C      -1.220549     1.332185    -3.861199
C      -1.864790     0.689120    -4.910646
C      -2.586354    -0.474851    -4.677129
C      -2.663385    -0.991238    -3.388286
C      -2.018097    -0.348534    -2.342329
H       0.970413     3.418343     1.547667
H      -0.674336     4.534140     0.112447
H      -1.707740     3.329766    -1.790171
H      -0.646382     2.235106    -4.044696
H      -1.800873     1.097962    -5.914208
H      -3.088357    -0.978662    -5.497082
H      -3.226876    -1.899075    -3.197492
H      -2.086032    -0.749821    -1.336328
C       0.837572    -0.488695    -0.892368
N       0.973000    -0.973167    -2.034682
C       2.115863    -0.414237     1.236618
O       2.975250    -0.930959     1.922697
C       1.177086    -1.277563     0.380945
C      -0.181880    -1.513890     1.108802
H      -0.671926    -2.343555     0.587818
H      -0.815008    -0.635178     0.955038
C       1.876520    -2.589423     0.017372
H       2.156154    -3.146854     0.907986
H       1.215070    -3.197059    -0.604557
H       2.786059    -2.387757    -0.551668
N       1.929839     0.946769     1.206169
C       2.758677     1.764408     2.088659
H       2.190857     2.080595     2.968114
H       3.597308     1.154775     2.415136
H       3.128400     2.634976     1.542271
C      -0.241123    -1.827089     2.627984
C       0.652000    -2.991274     3.086440
C      -1.711434    -2.140509     2.975503
H       0.425035    -3.883037     2.495365
H       1.709677    -2.748755     2.985642
H       0.449701    -3.215297     4.137291
H      -1.829546    -2.277169     4.053109
H      -2.373878    -1.331289     2.656619
H      -2.017392    -3.062593     2.472835
C       0.126021    -0.615671     3.391556
N       0.378239     0.333102     3.989001
48
     -1091.874349     -1091.533432   0.33   0.08
C      -0.265327     1.273488    -1.858337
C       0.292839     1.215337    -0.580395
C       1.406800     1.994056    -0.247911
C       1.955468     2.849086    -1.201258
C       1.383671     2.923607    -2.464362
C       0.285540     2.144979    -2.795129
C      -1.416564     0.412053    -2.239772
C      -1.319635    -0.976023    -2.155514
C      -2.391561    -1.781632    -2.510740
C      -3.574971    -1.206774    -2.961059
C      -3.675203     0.175465    -3.059546
C      -2.600121     0.980341    -2.703189
H       2.822480     3.454397    -0.971151
H       1.812854     3.594574    -3.201215
H      -0.143222     2.193202    -3.790106
H      -0.390629    -1.423481    -1.816712
H      -2.304063    -2.861325    -2.437309
H      -4.415620    -1.835437    -3.236957
H      -4.595766     0.630383    -3.411698
H      -2.683395     2.060993    -2.765284
C      -0.265833     0.395658     0.532019
N      -1.489554     0.370731     0.769682
C       1.677372     0.904508     1.941083
O       2.157184     0.890856     3.054799
C       0.799825    -0.257741     1.418379
C       0.206495    -0.993570     2.633543
H      -0.592602    -0.369426     3.043676
H       0.989946    -1.033069     3.392438
C       1.739285    -1.138029     0.567510
H       1.197581    -1.964786     0.105374
H       2.208508    -0.555458    -0.227933
H       2.523433    -1.562663     1.197431
N       1.933734     1.936401     1.059886
C       2.819115     3.006822     1.508709
H       2.387184     3.976519     1.250610
H       2.921374     2.928413     2.588087
H       3.810814     2.918809     1.052944
C      -0.369011    -2.427193     2.485704
C      -1.397045    -2.616454     1.357368
C      -1.032019    -2.788707     3.832256
H      -0.978287    -2.409670     0.372597
H      -1.759188    -3.648732     1.360944
H      -2.242318    -1.943086     1.509114
H      -1.387437    -3.822252     3.822770
H      -0.327472    -2.672529     4.659896
H      -1.886056    -2.128201     4.004615
C       0.726877    -3.400053     2.287065
N       1.559291    -4.182322     2.157339
48
     -1091.873070     -1091.532793   1.14   0.49
C      -1.032459     1.943954     0.697737
C       0.090032     1.218744     0.287772
C       1.273222     1.254733     1.040106
C       1.328698     2.025544     2.199327
C       0.217847     2.758919     2.590931
C      -0.952286     2.722975     1.849596
C      -2.317972     1.896588    -0.051033
C      -3.007263     0.695843    -0.212016
C      -4.215859     0.662568    -0.891865
C      -4.752696     1.833306    -1.415988
C      -4.076463     3.035694    -1.251035
C      -2.867045     3.067099    -0.568376
H       2.228620     2.060666     2.799140
H       0.270020     3.360673     3.492373
H      -1.823072     3.285233     2.168075
H      -2.594358    -0.216854     0.205017
H      -4.739952    -0.280001    -1.014290
H      -5.696834     1.808052    -1.950894
H      -4.490753     3.953314    -1.656911
H      -2.331870     4.004076    -0.448762
C       0.122802     0.400968    -0.956539
N      -0.486646     0.713044    -1.999107
C       2.381993    -0.395479    -0.404164
O       3.398446    -0.844662    -0.890104
C       0.992228    -0.865234    -0.860695
C       0.306055    -1.743027     0.226478
H      -0.753732    -1.801842    -0.043205
H       0.351254    -1.211826     1.182160
C       1.099090    -1.560643    -2.213591
H       1.770852    -2.416725    -2.159117
H       0.113981    -1.900284    -2.538536
H       1.492920    -0.871012    -2.961655
N       2.416694     0.556347     0.596421
C       3.723040     0.947203     1.118499
H       3.839340     2.032903     1.066850
H       3.845920     0.621424     2.156264
H       4.483005     0.470609     0.504402
C       0.787243    -3.188677     0.510264
C       0.008518    -3.696793     1.742692
C       2.296387    -3.298517     0.781530
H       0.280786    -3.100791     2.618652
H      -1.070998    -3.617952     1.587614
H       0.251592    -4.742468     1.945620
H       2.576115    -2.600273     1.576979
H       2.539740    -4.311356     1.112802
H       2.893757    -3.066669    -0.099299
C       0.431840    -4.087429    -0.607611
N       0.135043    -4.823254    -1.439007
48
     -1091.871957     -1091.531418   1.84   1.35
C      -0.272568     1.071162    -1.861915
C       0.426724     0.815673    -0.679327
C       0.559369     1.809679     0.298512
C       0.006663     3.069243     0.080280
C      -0.660227     3.328486    -1.108989
C      -0.801682     2.342394    -2.072317
C      -0.489453     0.016360    -2.888737
C      -0.052352     0.213101    -4.196045
C      -0.268247    -0.759061    -5.164665
C      -0.930746    -1.935118    -4.836017
C      -1.379532    -2.133323    -3.534891
C      -1.161735    -1.162518    -2.568391
H       0.089567     3.849187     0.825810
H      -1.083475     4.313547    -1.276063
H      -1.343785     2.543465    -2.989705
H       0.476301     1.127104    -4.448646
H       0.084232    -0.597826    -6.178630
H      -1.098093    -2.695783    -5.592024
H      -1.900186    -3.048567    -3.271501
H      -1.521804    -1.316649    -1.556350
C       1.082840    -0.487046    -0.383160
N       1.636294    -1.184317    -1.257467
C       1.577885     0.274635     1.922048
O       2.215745     0.083888     2.939128
C       1.040620    -0.900013     1.096949
C      -0.464068    -1.176355     1.401685
H      -0.685631    -2.145316     0.942425
H      -1.067549    -0.439818     0.863720
C       1.921364    -2.130841     1.324094
H       2.944154    -1.926613     1.001756
H       1.950574    -2.407643     2.374961
H       1.540190    -2.967198     0.733914
N       1.289031     1.545156     1.478978
C       1.757989     2.668826     2.284084
H       2.493386     2.291743     2.990497
H       2.220570     3.419095     1.638798
H       0.934762     3.129309     2.840904
C      -1.010211    -1.195837     2.858707
C      -1.107581     0.213414     3.478481
C      -0.261688    -2.140815     3.813413
H      -1.725700     0.179484     4.379432
H      -0.119071     0.574660     3.763956
H      -1.560601     0.920617     2.778102
H       0.732769    -1.744939     4.025671
H      -0.809500    -2.219076     4.756290
H      -0.169594    -3.143230     3.388200
C      -2.395544    -1.703911     2.723320
N      -3.469280    -2.098004     2.610759
48
     -1091.871447     -1091.530415   2.16   1.98
C      -0.893152     2.372087     0.390588
C       0.003315     1.349253     0.710295
C       1.304685     1.647866     1.134145
C       1.700847     2.977442     1.257509
C       0.799423     3.991187     0.964158
C      -0.484288     3.696276     0.533554
C      -2.261918     2.086840    -0.117920
C      -3.373217     2.612670     0.536248
C      -4.654287     2.366451     0.058423
C      -4.836119     1.596439    -1.083470
C      -3.730411     1.075713    -1.746902
C      -2.452262     1.321392    -1.267610
H       2.703545     3.229920     1.576634
H       1.112611     5.025158     1.065289
H      -1.176692     4.492701     0.284133
H      -3.231429     3.203066     1.436272
H      -5.512901     2.775599     0.581656
H      -5.836847     1.402129    -1.456210
H      -3.864448     0.474095    -2.640370
H      -1.591056     0.918823    -1.790947
C      -0.348870    -0.096756     0.656731
N      -1.464955    -0.525359     1.012593
C       1.977228    -0.716026     1.130297
O       2.694048    -1.603334     1.544515
C       0.803019    -1.001960     0.180669
C       0.362702    -2.479425     0.266321
H      -0.706556    -2.498321     0.039063
H       0.460689    -2.797565     1.307066
C       1.187639    -0.542799    -1.241458
H       2.037191    -1.109082    -1.624403
H       0.349365    -0.696047    -1.923716
H       1.454365     0.515534    -1.252235
N       2.189067     0.603106     1.477037
C       3.350965     0.910959     2.305672
H       4.116504     1.441272     1.730350
H       3.049545     1.525593     3.157470
H       3.765113    -0.028644     2.662694
C       1.012389    -3.585997    -0.609620
C       0.361894    -4.921816    -0.185373
C       2.540167    -3.730372    -0.505822
H       0.631802    -5.143535     0.850729
H      -0.727485    -4.871314    -0.260120
H       0.714459    -5.739713    -0.818803
H       2.819399    -3.930965     0.528515
H       2.867581    -4.562015    -1.136468
H       3.070193    -2.831212    -0.819491
C       0.651967    -3.385609    -2.029852
N       0.361767    -3.266933    -3.135876
48
     -1091.871447     -1091.530414   2.16   1.98
C      -0.927171     1.845933    -1.440603
C      -0.198962     1.401005    -0.334346
C       0.946113     2.087912     0.089139
C       1.349622     3.236787    -0.587030
C       0.608973     3.690698    -1.669483
C      -0.517119     3.004949    -2.096063
C      -2.112964     1.105832    -1.950121
C      -2.010851    -0.230750    -2.333597
C      -3.116019    -0.908907    -2.825988
C      -4.338521    -0.256794    -2.944830
C      -4.446454     1.077086    -2.571982
C      -3.338053     1.755160    -2.080307
H       2.234919     3.778404    -0.280619
H       0.926233     4.588173    -2.190341
H      -1.078599     3.351916    -2.956459
H      -1.056721    -0.740542    -2.247771
H      -3.023622    -1.950713    -3.116328
H      -5.204594    -0.787655    -3.327259
H      -5.397784     1.592205    -2.661524
H      -3.425306     2.793702    -1.776116
C      -0.584568     0.214008     0.478176
N      -1.772923    -0.052486     0.747954
C       1.491043     0.384432     1.774823
O       2.026528     0.075831     2.819210
C       0.613924    -0.605844     0.992303
C       0.103870    -1.741949     1.905116
H      -0.860691    -2.057495     1.498461
H      -0.103436    -1.313007     2.888477
C       1.396114    -1.096866    -0.243937
H       1.700778    -0.258314    -0.872697
H       2.293195    -1.644465     0.046651
H       0.773324    -1.767787    -0.838631
N       1.655370     1.639124     1.223501
C       2.555051     2.567925     1.901232
H       3.471903     2.721693     1.323293
H       2.056662     3.529074     2.049525
H       2.813494     2.138749     2.866040
C       0.922082    -3.041614     2.140204
C       0.122771    -3.887175     3.156899
C       2.353956    -2.860672     2.671919
H       0.601123    -4.857788     3.310466
H       0.085972    -3.362366     4.115406
H      -0.900280    -4.056594     2.811143
H       2.806804    -3.843703     2.830416
H       2.988239    -2.295645     1.989105
H       2.327500    -2.319510     3.617702
C       0.977240    -3.838434     0.895554
N       1.009441    -4.488831    -0.051830
48
     -1091.868939     -1091.528027   3.73   3.48
C       1.408432     1.836274     0.121329
C       1.367897     0.454781    -0.075476
C       2.383306    -0.199577    -0.781175
C       3.453871     0.536494    -1.284193
C       3.503584     1.907167    -1.068442
C       2.493583     2.555287    -0.374487
C       0.313802     2.549875     0.832477
C      -0.998022     2.481359     0.366049
C      -2.019543     3.144886     1.029602
C      -1.739229     3.891991     2.168440
C      -0.432409     3.975627     2.632648
C       0.588985     3.309985     1.966155
H       4.246048     0.054738    -1.842240
H       4.342046     2.474643    -1.458738
H       2.529938     3.628989    -0.226145
H      -1.213167     1.909848    -0.531166
H      -3.037458     3.080327     0.657512
H      -2.537542     4.409695     2.690653
H      -0.206706     4.558339     3.520291
H       1.607628     3.362197     2.337947
C       0.311870    -0.431909     0.489028
N      -0.076086    -0.308440     1.667510
C       1.179699    -2.345523    -0.787031
O       1.174345    -3.545286    -0.964244
C      -0.116280    -1.567842    -0.446780
C      -1.097882    -2.554483     0.215694
H      -0.732229    -2.735363     1.229637
H      -1.001078    -3.502263    -0.316317
C      -0.603322    -0.989281    -1.792038
H      -1.454529    -0.321984    -1.650380
H       0.188154    -0.416124    -2.279512
H      -0.899716    -1.801024    -2.460263
N       2.332473    -1.601691    -0.938078
C       3.549954    -2.310512    -1.321976
H       3.389942    -3.372060    -1.151210
H       3.783317    -2.154912    -2.380407
H       4.386728    -1.963054    -0.711774
C      -2.621415    -2.235042     0.307472
C      -3.372201    -2.460660    -1.022947
C      -2.974744    -0.852006     0.883612
H      -4.450239    -2.477177    -0.841798
H      -3.165756    -1.660174    -1.733152
H      -3.087356    -3.413711    -1.476089
H      -2.611212    -0.055203     0.232752
H      -4.061656    -0.756217     0.961452
H      -2.536728    -0.705585     1.870944
C      -3.155641    -3.246392     1.250249
N      -3.580117    -4.033486     1.972350
