48
     -1091.874882     -1091.533568   0.00   0.00
C      -1.564474     1.128570    -1.110008
C      -1.145678     0.012102    -0.380487
C      -1.846728    -0.398432     0.762062
C      -2.975633     0.310768     1.165947
C      -3.402290     1.402910     0.424528
C      -2.708351     1.810902    -0.703699
C      -0.811589     1.622935    -2.294677
C      -1.447390     1.736671    -3.528421
C      -0.758087     2.216872    -4.634854
C       0.573283     2.595543    -4.516237
C       1.211492     2.494788    -3.284880
C       0.521925     2.013606    -2.181953
H      -3.520040     0.023106     2.055160
H      -4.285739     1.946880     0.742601
H      -3.035210     2.677556    -1.267536
H      -2.484262     1.429114    -3.622816
H      -1.262573     2.293361    -5.592988
H       1.112793     2.969058    -5.380859
H       2.250901     2.790579    -3.183736
H       1.020472     1.943010    -1.220627
C       0.029291    -0.817852    -0.761116
N       0.348754    -1.043948    -1.946332
C      -0.182011    -2.092012     1.361086
O       0.148365    -3.077824     1.989791
C       0.815827    -1.392276     0.426475
C       1.475592    -0.167216     1.130976
H       0.788093     0.681248     1.067133
H       2.352776     0.099298     0.531450
C       1.851658    -2.404770    -0.067760
H       2.396009    -2.848628     0.762173
H       1.360564    -3.210761    -0.616339
H       2.552164    -1.911047    -0.745304
N      -1.439884    -1.549376     1.466838
C      -2.361889    -2.156114     2.423954
H      -2.429359    -1.550623     3.332061
H      -3.347522    -2.264574     1.965821
H      -1.970946    -3.135968     2.685863
C       1.936158    -0.238029     2.611647
C       2.663591     1.084891     2.930319
C       2.856625    -1.421966     2.949609
H       2.034929     1.947959     2.695255
H       2.928657     1.130771     3.989327
H       3.581838     1.148795     2.339335
H       3.225421    -1.317538     3.973564
H       2.331201    -2.373449     2.870427
H       3.716263    -1.423444     2.273488
C       0.748966    -0.291508     3.490887
N      -0.171318    -0.299205     4.179175
48
     -1091.874882     -1091.533563   0.00   0.00
C      -0.504641     0.329453    -1.981572
C      -0.884410    -0.115742    -0.712056
C      -1.935335     0.505046    -0.022424
C      -2.610293     1.569881    -0.614944
C      -2.246611     1.991959    -1.885411
C      -1.206153     1.380382    -2.566835
C       0.641297    -0.271480    -2.716668
C       1.923554    -0.265434    -2.169540
C       2.991516    -0.806820    -2.869431
C       2.790719    -1.358475    -4.130011
C       1.517624    -1.360243    -4.686104
C       0.449589    -0.815947    -3.983991
H      -3.411151     2.075646    -0.092779
H      -2.780821     2.818606    -2.342391
H      -0.913358     1.728008    -3.551346
H       2.084594     0.170950    -1.189071
H       3.983564    -0.799857    -2.429107
H       3.625178    -1.785285    -4.677429
H       1.353843    -1.788838    -5.669901
H      -0.547822    -0.827753    -4.412519
C      -0.237204    -1.264637    -0.022577
N       0.184697    -2.272168    -0.626577
C      -1.538251    -0.764549     2.033959
O      -1.902825    -1.157094     3.124485
C      -0.141629    -1.120828     1.503560
C       0.865397     0.042610     1.757977
H       0.734823     0.792316     0.972152
H       1.866922    -0.379137     1.620168
C       0.323385    -2.438038     2.128929
H       0.364266    -2.366717     3.213069
H      -0.367241    -3.243300     1.871392
H       1.310058    -2.700031     1.739866
N      -2.336868     0.022196     1.239535
C      -3.628575     0.440131     1.779091
H      -4.400238     0.324684     1.014677
H      -3.856392    -0.199743     2.627739
H      -3.586072     1.477422     2.122685
C       0.876693     0.822602     3.099990
C       2.077113     1.791148     3.058407
C       0.970000    -0.053549     4.359685
H       2.080253     2.435322     3.940956
H       3.008811     1.218234     3.043226
H       2.041779     2.426108     2.169062
H       1.839228    -0.713052     4.284712
H       1.097129     0.583295     5.239268
H       0.070601    -0.653141     4.498348
C      -0.339399     1.658305     3.189952
N      -1.266712     2.334614     3.248442
48
     -1091.871957     -1091.531422   1.84   1.35
C      -0.631125     0.553225    -1.927017
C      -0.889580    -0.084723    -0.710873
C      -1.974739     0.308048     0.082837
C      -2.814441     1.329459    -0.354443
C      -2.572516     1.939403    -1.577455
C      -1.492678     1.559188    -2.358335
C       0.552226     0.205654    -2.759421
C       1.843783     0.328514    -2.248427
C       2.944117     0.023089    -3.035837
C       2.766266    -0.405546    -4.346658
C       1.482741    -0.521557    -4.865444
C       0.381729    -0.213662    -4.076210
H      -3.653348     1.654801     0.246713
H      -3.233704     2.730444    -1.915801
H      -1.294877     2.054996    -3.302237
H       1.986911     0.671768    -1.228954
H       3.944084     0.118572    -2.624647
H       3.626776    -0.647713    -4.962321
H       1.336937    -0.855154    -5.888095
H      -0.622268    -0.315962    -4.476467
C      -0.068673    -1.210899    -0.188254
N       0.436660    -2.082985    -0.923797
C      -1.306490    -1.131306     1.956667
O      -1.570454    -1.700202     2.998004
C       0.093664    -1.225564     1.340285
C       0.954178     0.032480     1.672276
H       0.647900     0.846613     1.009358
H       1.978547    -0.225579     1.384227
C       0.762474    -2.528346     1.784900
H       0.180301    -3.386203     1.443042
H       1.759161    -2.596945     1.343305
H       0.837298    -2.584785     2.867957
N      -2.238243    -0.361284     1.298746
C      -3.560173    -0.229221     1.903557
H      -3.689482     0.756111     2.364203
H      -4.331264    -0.375730     1.143798
H      -3.655423    -0.992410     2.671992
C       0.993025     0.638255     3.105136
C       1.357988    -0.360624     4.215891
C      -0.305232     1.386091     3.472365
H       1.526664     0.177665     5.152390
H       0.538594    -1.065159     4.367344
H       2.269106    -0.911701     3.970330
H      -1.102303     0.678217     3.702011
H      -0.138557     2.003225     4.359100
H      -0.627639     2.038462     2.656055
C       2.072053     1.651980     3.044547
N       2.909787     2.436918     2.990133
48
     -1091.871957     -1091.531417   1.84   1.35
C      -0.864503     0.671619    -1.811099
C      -0.557587    -0.309359    -0.864387
C      -1.571158    -1.087791    -0.291217
C      -2.893391    -0.895480    -0.684066
C      -3.190429     0.058483    -1.647411
C      -2.189740     0.836910    -2.206933
C       0.180618     1.560432    -2.387091
C       0.377121     1.606724    -3.764798
C       1.337945     2.448215    -4.311271
C       2.106822     3.257634    -3.484406
C       1.908263     3.224316    -2.108515
C       0.949733     2.382344    -1.564143
H      -3.693187    -1.479601    -0.248038
H      -4.221682     0.199664    -1.953976
H      -2.430322     1.596753    -2.942230
H      -0.215662     0.964501    -4.408875
H       1.487569     2.469719    -5.386217
H       2.858911     3.913970    -3.910727
H       2.503499     3.855824    -1.456579
H       0.791136     2.366020    -0.490727
C       0.830550    -0.608769    -0.418558
N       1.815855    -0.559694    -1.182564
C      -0.047655    -2.133564     1.325851
O       0.203693    -3.017885     2.121158
C       0.953357    -1.003244     1.062044
C       0.588416     0.286210     1.860499
H      -0.224598     0.798600     1.338442
H       1.462252     0.941062     1.779984
C       2.371810    -1.495559     1.358445
H       2.623392    -2.333920     0.706090
H       3.085471    -0.690984     1.167534
H       2.466481    -1.832227     2.387760
N      -1.244204    -2.091928     0.647249
C      -2.221507    -3.139307     0.927631
H      -3.041888    -2.761347     1.547237
H      -2.627104    -3.527743    -0.009333
H      -1.713805    -3.937157     1.463996
C       0.165857     0.225873     3.356948
C       1.156935    -0.507644     4.275892
C      -1.255566    -0.340298     3.553399
H       1.137448    -1.578245     4.065785
H       2.174108    -0.130793     4.143726
H       0.869957    -0.356462     5.319936
H      -1.959035     0.109225     2.847032
H      -1.257492    -1.422805     3.421787
H      -1.602831    -0.124782     4.567251
C       0.127697     1.644334     3.783722
N       0.099621     2.746693     4.107609
48
     -1091.872603     -1091.531218   1.43   1.47
C       2.066470     0.347821    -0.865321
C       0.773706     0.852234    -0.690191
C       0.222107     1.730137    -1.633749
C       0.959412     2.089107    -2.759610
C       2.243118     1.589971    -2.926675
C       2.794486     0.731928    -1.989754
C       2.694158    -0.588407     0.104976
C       2.086214    -1.796264     0.436100
C       2.690662    -2.667549     1.330334
C       3.918635    -2.344402     1.894728
C       4.537887    -1.144903     1.561988
C       3.928454    -0.271845     0.670809
H       0.543159     2.751347    -3.507096
H       2.814385     1.875035    -3.804037
H       3.793585     0.334503    -2.129773
H       1.127858    -2.056792     0.002234
H       2.185902    -3.589537     1.595592
H       4.390995    -3.023886     2.597350
H       5.496049    -0.885708     2.001759
H       4.402702     0.672791     0.422448
C      -0.076179     0.559229     0.498014
N       0.386796     0.472605     1.653778
C      -1.980695     1.761259    -0.543616
O      -3.080272     2.257813    -0.405614
C      -1.579646     0.470175     0.201038
C      -2.410743     0.395699     1.494255
H      -3.410897     0.763548     1.258344
H      -1.973914     1.114023     2.191312
C      -1.849392    -0.678489    -0.793288
H      -1.564392    -1.642192    -0.368495
H      -2.910344    -0.701329    -1.054188
H      -1.275378    -0.536050    -1.711850
N      -1.057661     2.288280    -1.418146
C      -1.446551     3.472579    -2.178876
H      -0.635215     4.203839    -2.164813
H      -1.687110     3.217507    -3.216151
H      -2.329873     3.898107    -1.709489
C      -2.600963    -0.953016     2.241702
C      -3.840987    -1.714538     1.727202
C      -2.789865    -0.646638     3.740785
H      -4.728041    -1.088531     1.856663
H      -3.751636    -1.974552     0.671859
H      -3.980932    -2.638974     2.293809
H      -1.894408    -0.177995     4.155573
H      -3.633784     0.038049     3.866679
H      -2.995535    -1.562657     4.300683
C      -1.456525    -1.877029     2.130395
N      -0.635082    -2.676990     2.063795
48
     -1091.871447     -1091.530416   2.16   1.98
C      -1.014023     0.581070    -2.164957
C      -1.211053     0.188428    -0.838645
C      -2.262857    -0.671853    -0.498083
C      -3.132118    -1.122752    -1.488554
C      -2.949074    -0.709830    -2.800906
C      -1.901732     0.131753    -3.140225
C       0.127667     1.446140    -2.567048
C       1.441995     1.064915    -2.300313
C       2.502276     1.867089    -2.695353
C       2.261317     3.060921    -3.366620
C       0.954835     3.443952    -3.642812
C      -0.105892     2.638495    -3.247604
H      -3.946815    -1.793150    -1.248093
H      -3.631390    -1.061678    -3.567755
H      -1.750516     0.432642    -4.171014
H       1.633414     0.130874    -1.782105
H       3.520396     1.560581    -2.476996
H       3.090399     3.690704    -3.673449
H       0.759380     4.374835    -4.165923
H      -1.127567     2.944115    -3.451293
C      -0.363604     0.660688     0.291251
N       0.061350     1.831286     0.362709
C      -1.509652    -0.864818     1.833390
O      -1.758310    -1.078898     3.001754
C      -0.116304    -0.406748     1.373973
C       0.677834     0.220550     2.540162
H      -0.026575     0.777435     3.162779
H       1.347589     0.961957     2.096253
C       0.599471    -1.591923     0.692603
H       1.574764    -1.275025     0.318391
H       0.761239    -2.412392     1.392408
H       0.013674    -1.973208    -0.145727
N      -2.462479    -1.038296     0.849918
C      -3.766795    -1.558080     1.249918
H      -4.560621    -0.923997     0.847463
H      -3.908588    -2.583756     0.894733
H      -3.810364    -1.551255     2.336145
C       1.551646    -0.635574     3.497966
C       0.841475    -1.794046     4.218589
C       2.117306     0.332430     4.561239
H       0.007243    -1.405310     4.802545
H       0.440344    -2.536201     3.528588
H       1.550067    -2.291444     4.887197
H       1.295306     0.732922     5.160772
H       2.810383    -0.188948     5.226297
H       2.647744     1.165911     4.093448
C       2.720297    -1.176665     2.770916
N       3.651487    -1.584739     2.234306
48
     -1091.865852     -1091.524904   5.67   5.44
C      -0.007015     2.351962    -1.008365
C      -0.682303     1.318172    -0.353328
C      -2.046771     1.101007    -0.584453
C      -2.738649     1.933671    -1.461198
C      -2.070244     2.974559    -2.089815
C      -0.718326     3.184584    -1.869184
C       1.453121     2.575568    -0.829689
C       2.371223     1.572702    -1.137027
C       3.732460     1.793031    -0.987787
C       4.193192     3.023403    -0.532066
C       3.284889     4.030951    -0.232209
C       1.921936     3.808705    -0.383900
H      -3.790830     1.777768    -1.659757
H      -2.615587     3.622286    -2.768405
H      -0.196148     3.986481    -2.379313
H       2.013568     0.615158    -1.501661
H       4.436225     1.001834    -1.226400
H       5.258014     3.196166    -0.411835
H       3.638021     4.993809     0.123645
H       1.211015     4.591344    -0.137434
C      -0.033520     0.415314     0.637940
N       0.827186     0.822286     1.444272
C      -2.077419    -0.954014     0.764948
O      -2.690909    -1.766441     1.424498
C      -0.550344    -1.037250     0.602424
C       0.090362    -1.827481     1.767142
H      -0.458613    -1.563292     2.673550
H       1.096934    -1.421616     1.898640
C      -0.242478    -1.589960    -0.804357
H      -0.664810    -0.944133    -1.576633
H       0.838006    -1.639958    -0.957281
H      -0.662730    -2.587624    -0.936512
N      -2.722244     0.071711     0.104929
C      -4.179821     0.117331     0.181211
H      -4.497563    -0.597642     0.935889
H      -4.506600     1.120385     0.466017
H      -4.633921    -0.152403    -0.777597
C       0.258083    -3.379743     1.748160
C       1.361189    -3.864494     0.781401
C      -1.025315    -4.202970     1.539279
H       1.639214    -4.893397     1.024751
H       1.013332    -3.850243    -0.251293
H       2.256491    -3.241925     0.861048
H      -1.785578    -3.945598     2.274971
H      -1.449189    -4.022589     0.550220
H      -0.787382    -5.267305     1.625055
C       0.749460    -3.696231     3.111414
N       1.139592    -3.947077     4.163049
