48
     -1091.890123     -1091.547357   0.00   0.00
C      -0.712344    -0.231482    -1.944375
C      -0.177807     0.594260    -0.935197
C      -0.772116     1.826853    -0.630527
C      -1.890653     2.232990    -1.357202
C      -2.405741     1.418698    -2.360014
C      -1.836219     0.195299    -2.658117
C      -0.057208    -1.508835    -2.173046
C       1.370139    -1.595116    -1.710253
C       1.917681    -2.990181    -1.698256
C       1.275829    -4.011780    -2.300468
C      -0.008067    -3.819296    -2.898644
C      -0.651803    -2.585583    -2.796351
H      -2.381243     3.170771    -1.138630
H      -3.276496     1.755794    -2.913409
H      -2.245319    -0.414122    -3.455125
H       1.972523    -1.037220    -2.459233
H       2.881843    -3.122654    -1.219020
H       1.723180    -5.000969    -2.317268
H      -0.506160    -4.648713    -3.388280
H      -1.665363    -2.491771    -3.173223
C       0.950952     0.099487    -0.142562
N       1.652225    -0.919266    -0.444005
C       0.619009     2.177819     1.342931
O       0.896839     2.842467     2.321644
C       1.297136     0.816391     1.150441
C       0.985923    -0.065022     2.387047
H       1.277484     0.526246     3.258693
H       1.643926    -0.937557     2.335395
C       2.814039     1.106478     1.167092
H       3.362880     0.169502     1.070285
H       3.090341     1.751451     0.327241
H       3.084315     1.611735     2.094951
N      -0.256459     2.642054     0.387104
C      -0.861871     3.949045     0.621381
H      -0.875854     4.522501    -0.308056
H      -1.878435     3.838472     1.010542
H      -0.256937     4.468074     1.359871
C      -0.447292    -0.605807     2.631148
C      -0.520525    -1.103169     4.088996
C      -0.833081    -1.761308     1.686336
H      -1.514344    -1.498811     4.313294
H       0.213312    -1.900800     4.238088
H      -0.303789    -0.294185     4.790879
H      -1.775729    -2.208538     2.014236
H      -0.962701    -1.431962     0.656117
H      -0.053866    -2.527781     1.705474
C      -1.455766     0.462681     2.480778
N      -2.260353     1.275367     2.362929
48
     -1091.889093     -1091.546482   0.65   0.55
C      -0.430383     0.273937    -2.038456
C      -0.128688     0.879892    -0.803993
C      -0.827904     2.016809    -0.376771
C      -1.810373     2.559537    -1.202656
C      -2.094457     1.964128    -2.428909
C      -1.426419     0.830986    -2.848938
C       0.311716    -0.921441    -2.393199
C       1.632188    -1.102345    -1.699722
C       2.198790    -2.483524    -1.833114
C       1.713146    -3.364317    -2.729018
C       0.569085    -3.044417    -3.525952
C      -0.115486    -1.849609    -3.319958
H      -2.370682     3.433650    -0.900935
H      -2.861946     2.401601    -3.059411
H      -1.655725     0.392590    -3.812816
H       2.349193    -0.432438    -2.222249
H       3.047769    -2.717614    -1.200035
H       2.174044    -4.341402    -2.836023
H       0.195852    -3.762764    -4.247077
H      -1.044110    -1.680898    -3.855029
C       0.884236     0.264684     0.056657
N       1.679088    -0.656890    -0.309393
C       0.150798     1.948193     1.865271
O       0.166375     2.369234     3.006666
C       0.995811     0.726508     1.500526
C       0.680288    -0.436766     2.470801
H       0.778353    -0.042459     3.486127
H       1.458648    -1.189737     2.321720
C       2.454828     1.167469     1.763115
H       2.721560     2.013474     1.121844
H       2.570362     1.470405     2.804994
H       3.126123     0.339707     1.532691
N      -0.560019     2.595806     0.878342
C      -1.227348     3.840552     1.242160
H      -2.303393     3.690679     1.380677
H      -0.798549     4.189068     2.178108
H      -1.063974     4.589013     0.463293
C      -0.690609    -1.151228     2.397292
C      -1.889764    -0.194206     2.525695
C      -0.741322    -2.189295     3.536619
H      -2.815313    -0.768624     2.619035
H      -1.771273     0.433926     3.412074
H      -1.992513     0.450165     1.650357
H      -1.666241    -2.769425     3.489707
H       0.102744    -2.880878     3.472920
H      -0.700277    -1.674963     4.500897
C      -0.836453    -1.898638     1.131142
N      -0.991193    -2.506913     0.168139
48
     -1091.886971     -1091.544087   1.98   2.05
C      -0.538809     0.483582    -2.041381
C      -0.146848     0.943942    -0.768275
C      -0.764151     2.064537    -0.195011
C      -1.750556     2.737710    -0.914976
C      -2.120306     2.286965    -2.178435
C      -1.535918     1.169669    -2.742953
C       0.120592    -0.706947    -2.550333
C       1.464794    -1.010624    -1.950608
C       1.969619    -2.386010    -2.267903
C       1.403787    -3.146217    -3.226821
C       0.230958    -2.704769    -3.915177
C      -0.395381    -1.515757    -3.541298
H      -2.247037     3.604023    -0.500457
H      -2.888411     2.826122    -2.723683
H      -1.830004     0.846323    -3.734409
H       2.182242    -0.307191    -2.425865
H       2.846208    -2.713661    -1.719307
H       1.824898    -4.116808    -3.470787
H      -0.204406    -3.322782    -4.692541
H      -1.339589    -1.253460    -4.008071
C       0.863288     0.187046    -0.021374
N       1.586260    -0.732640    -0.520208
C       0.325084     1.730793     1.972382
O       0.436955     2.050913     3.139252
C       1.078537     0.505398     1.448997
C       0.782293    -0.717564     2.351889
H       1.002761    -0.405285     3.375559
H       1.501555    -1.493286     2.077029
C       2.572495     0.863446     1.643959
H       2.836774     1.743610     1.049143
H       2.768155     1.081103     2.694837
H       3.187919     0.027812     1.309700
N      -0.412503     2.498393     1.094233
C      -0.991447     3.734125     1.610232
H      -0.504595     3.962223     2.554649
H      -0.817809     4.548464     0.902900
H      -2.067454     3.627439     1.783361
C      -0.631172    -1.362070     2.346687
C      -0.957555    -2.133503     1.052949
C      -1.760808    -0.363544     2.659829
H      -1.155181    -1.443341     0.231015
H      -0.132947    -2.787137     0.760887
H      -1.853599    -2.742751     1.202229
H      -1.541990     0.220195     3.556188
H      -1.903837     0.321154     1.819390
H      -2.701219    -0.900466     2.811226
C      -0.602948    -2.354076     3.446314
N      -0.584466    -3.125112     4.298572
48
     -1091.887449     -1091.543229   1.68   2.59
C      -1.245438    -0.478255    -1.941767
C      -0.584811     0.349982    -1.017261
C      -1.235608     1.442571    -0.432957
C      -2.570566     1.683334    -0.751224
C      -3.229899     0.845562    -1.646946
C      -2.586802    -0.221919    -2.247302
C      -0.462479    -1.553531    -2.527213
C       1.030203    -1.366035    -2.461973
C       1.807873    -2.585698    -2.849963
C       1.221292    -3.650570    -3.433039
C      -0.193935    -3.692111    -3.630126
C      -0.999828    -2.658316    -3.152891
H      -3.104514     2.508408    -0.299281
H      -4.270015     1.046451    -1.883428
H      -3.114322    -0.837347    -2.966454
H       1.278498    -0.587086    -3.214110
H       2.877333    -2.549628    -2.671018
H       1.822018    -4.500517    -3.742082
H      -0.647439    -4.551920    -4.110515
H      -2.077886    -2.751978    -3.238911
C       0.767334    -0.009062    -0.578557
N       1.525879    -0.824763    -1.190132
C       0.678560     1.969721     0.984546
O       1.302934     2.760500     1.663631
C       1.193966     0.538862     0.777793
C       0.506174    -0.420021     1.805722
H       1.080223    -1.351938     1.778429
H      -0.491625    -0.665511     1.427300
C       2.719774     0.525660     0.898990
H       3.163072     1.090386     0.075278
H       3.048337     0.979793     1.829807
H       3.081926    -0.500939     0.830700
N      -0.534998     2.302906     0.425391
C      -1.105647     3.608568     0.743828
H      -1.426798     4.105622    -0.174917
H      -1.947656     3.502406     1.432737
H      -0.331885     4.199598     1.226961
C       0.322309    -0.030382     3.295933
C       1.597362     0.452151     4.006057
C      -0.232122    -1.271486     4.026739
H       1.400794     0.565190     5.075819
H       2.390915    -0.289359     3.878496
H       1.933441     1.412363     3.616062
H      -0.474682    -1.029001     5.064323
H      -1.136900    -1.644912     3.539570
H       0.521090    -2.064609     4.021671
C      -0.713077     1.019268     3.406289
N      -1.545588     1.805754     3.502944
48
     -1091.884498     -1091.540605   3.53   4.24
C      -0.782103     0.629511    -1.848859
C      -0.242189     1.052068    -0.620839
C      -0.750594     2.176301     0.039884
C      -1.841195     2.848352    -0.509542
C      -2.398786     2.401473    -1.704596
C      -1.882256     1.310766    -2.380522
C      -0.130508    -0.500182    -2.491646
C       1.289302    -0.750665    -2.053477
C       1.846834    -2.052606    -2.542433
C       1.217130    -2.794313    -3.476162
C      -0.061673    -2.406426    -3.983339
C      -0.711394    -1.286163    -3.463377
H      -2.265086     3.712457    -0.015385
H      -3.249404     2.934392    -2.117482
H      -2.309728     1.009141    -3.329579
H       1.906449     0.049472    -2.512957
H       2.807120    -2.346715    -2.132196
H       1.672220    -3.711074    -3.838570
H      -0.548260    -3.009533    -4.741744
H      -1.717743    -1.059683    -3.802131
C       0.812935     0.251153     0.006866
N       1.517503    -0.610120    -0.608804
C       0.786880     1.893954     1.919557
O       1.361665     2.350889     2.884858
C       0.983694     0.422833     1.504871
C      -0.162798    -0.291964     2.299150
H      -1.078666     0.299443     2.193795
H       0.122617    -0.224979     3.353322
C       2.377578    -0.008570     1.967435
H       3.133572     0.641954     1.520675
H       2.455524     0.078540     3.051485
H       2.594070    -1.026238     1.655092
N      -0.137686     2.640602     1.214062
C      -0.444457     3.984030     1.692084
H      -0.348035     4.704373     0.875657
H      -1.459219     4.033425     2.099512
H       0.265405     4.227888     2.478497
C      -0.564275    -1.765658     2.000051
C       0.610418    -2.758052     1.975158
C      -1.406662    -1.917249     0.718421
H       1.230974    -2.662418     2.869377
H       0.225768    -3.780854     1.933182
H       1.222684    -2.582885     1.088775
H      -2.210404    -1.176967     0.682183
H      -0.781476    -1.805880    -0.166705
H      -1.857102    -2.913172     0.688247
C      -1.440488    -2.145874     3.133500
N      -2.120322    -2.440597     4.012387
48
     -1091.883758     -1091.540174   3.99   4.51
C      -0.893386     0.970743    -1.970448
C      -0.189045     0.992579    -0.753961
C      -0.516092     1.908349     0.251445
C      -1.578392     2.786539     0.050602
C      -2.291750     2.744417    -1.145310
C      -1.961490     1.857083    -2.153154
C      -0.440195     0.015772    -2.967439
C       0.974596    -0.469448    -2.790541
C       1.330241    -1.622074    -3.678379
C       0.537238    -2.008924    -4.697862
C      -0.727453    -1.381808    -4.923361
C      -1.193591    -0.406085    -4.042129
H      -1.861660     3.498581     0.814593
H      -3.117653     3.434108    -1.287582
H      -2.511677     1.868786    -3.086651
H       1.633433     0.371928    -3.093423
H       2.281327    -2.104830    -3.479777
H       0.846995    -2.820364    -5.349353
H      -1.347142    -1.698648    -5.754784
H      -2.192415    -0.005490    -4.184891
C       0.825987    -0.035199    -0.499348
N       1.355307    -0.756181    -1.401030
C       1.146861     0.974648     1.781787
O       1.880484     1.103130     2.742495
C       1.129637    -0.322115     0.967388
C      -0.068707    -1.222074     1.422340
H       0.093336    -2.186329     0.931000
H      -0.986142    -0.813300     0.986657
C       2.481123    -1.027801     1.098596
H       3.256939    -0.436413     0.606726
H       2.766162    -1.153887     2.139353
H       2.436017    -1.996829     0.600045
N       0.251695     1.962720     1.428206
C       0.158930     3.144873     2.277857
H       0.973835     3.105453     2.996498
H       0.249990     4.049878     1.671877
H      -0.793848     3.166964     2.816946
C      -0.379691    -1.484944     2.924311
C      -1.024061    -0.272721     3.628221
C       0.812878    -1.998511     3.748715
H      -1.448612    -0.584346     4.586240
H      -0.276959     0.496129     3.826539
H      -1.826955     0.153262     3.020195
H       1.537879    -1.196375     3.893573
H       0.465087    -2.329969     4.730904
H       1.301320    -2.842563     3.255950
C      -1.399791    -2.559570     2.906403
N      -2.191582    -3.392662     2.894070
