48
     -1091.891864     -1091.548165   0.00   0.00
C       0.053102     1.876566    -1.605487
C       0.314320     1.267225    -0.365266
C       0.687571     2.032525     0.745513
C       0.818151     3.412508     0.601576
C       0.578607     4.009350    -0.633053
C       0.198459     3.262095    -1.732266
C      -0.374457     1.004704    -2.687757
C      -0.960092    -0.310057    -2.253075
C      -1.175533    -1.275868    -3.376764
C      -1.078272    -0.900892    -4.668362
C      -0.680003     0.426121    -5.018519
C      -0.316564     1.335304    -4.024280
H       1.113849     4.030126     1.438948
H       0.686640     5.085310    -0.725505
H      -0.013593     3.752568    -2.674935
H      -1.965634    -0.079250    -1.841144
H      -1.453242    -2.287002    -3.097924
H      -1.284549    -1.616022    -5.458871
H      -0.616063     0.713507    -6.062053
H       0.061889     2.309256    -4.318249
C       0.269165    -0.193003    -0.269649
N      -0.254816    -0.956254    -1.141337
C       1.016450     0.064836     2.154112
O       1.195498    -0.434491     3.249262
C       0.997646    -0.820171     0.904491
C       0.427217    -2.202874     1.257587
H       1.066210    -2.636103     2.028272
H       0.511157    -2.813915     0.358161
C       2.479132    -0.985876     0.488084
H       2.536379    -1.633871    -0.390139
H       2.923780    -0.019322     0.232655
H       3.051759    -1.430513     1.305787
N       0.908154     1.425408     1.992679
C       0.972854     2.260921     3.186347
H       0.115113     2.937444     3.213773
H       0.947124     1.605103     4.052629
H       1.898068     2.845349     3.208283
C      -1.052776    -2.268799     1.761785
C      -1.114223    -2.733660     3.230077
C      -1.875778    -3.228693     0.881650
H      -0.534196    -2.069744     3.872188
H      -2.149904    -2.759924     3.580746
H      -0.699972    -3.743807     3.302972
H      -2.914261    -3.271908     1.222045
H      -1.853895    -2.905487    -0.160889
H      -1.447184    -4.233309     0.947874
C      -1.694779    -0.941830     1.691010
N      -2.187768     0.096058     1.632922
48
     -1091.890050     -1091.547400   1.14   0.48
C      -1.693108    -0.010643    -1.590820
C      -0.852021     0.591276    -0.632614
C      -1.195551     1.823190    -0.057562
C      -2.398954     2.427444    -0.416577
C      -3.234482     1.817551    -1.348333
C      -2.893996     0.618036    -1.940921
C      -1.249213    -1.262332    -2.178321
C      -0.223455    -2.024088    -1.391446
C       0.421560    -3.140157    -2.151237
C      -0.081869    -3.585226    -3.319976
C      -1.201336    -2.935858    -3.928418
C      -1.737068    -1.780956    -3.361332
H      -2.693593     3.376403     0.009312
H      -4.168314     2.303247    -1.612846
H      -3.566364     0.156013    -2.653764
H      -0.771113    -2.509757    -0.555357
H       1.280590    -3.606957    -1.681354
H       0.373166    -4.433783    -3.821692
H      -1.601765    -3.312926    -4.862910
H      -2.522335    -1.254225    -3.893854
C       0.428493    -0.044506    -0.319404
N       0.774045    -1.203914    -0.711497
C       0.946360     2.031025     1.119807
O       1.689415     2.671171     1.840004
C       1.458645     0.747580     0.466566
C       2.141493    -0.132967     1.538162
H       2.921749     0.473248     2.005846
H       2.620670    -0.956585     1.004950
C       2.547165     1.205821    -0.533491
H       2.979415     0.328284    -1.018213
H       2.115293     1.848798    -1.307136
H       3.324540     1.764678    -0.009007
N      -0.339127     2.454928     0.864004
C      -0.785961     3.679659     1.519488
H      -0.035973     3.955821     2.255955
H      -0.892510     4.494708     0.796793
H      -1.744644     3.511935     2.017355
C       1.310649    -0.740537     2.696978
C       0.606114     0.309428     3.578351
C       2.274772    -1.569300     3.571206
H      -0.206386     0.807786     3.045730
H       0.173509    -0.179613     4.455468
H       1.322407     1.065976     3.905107
H       1.734335    -2.059227     4.384963
H       2.777530    -2.337971     2.978677
H       3.032511    -0.909600     4.003374
C       0.266903    -1.669369     2.216445
N      -0.568405    -2.404149     1.926197
48
     -1091.886675     -1091.543365   3.26   3.01
C      -0.357398     1.416120    -1.749989
C       0.033168     1.115087    -0.428835
C       0.119880     2.130404     0.535040
C      -0.230117     3.433025     0.182103
C      -0.637097     3.717277    -1.117813
C      -0.695192     2.732236    -2.084011
C      -0.372501     0.324498    -2.707751
C      -0.466481    -1.054139    -2.119093
C      -0.179102    -2.151595    -3.097672
C      -0.129916    -1.922554    -4.425066
C      -0.255336    -0.596368    -4.944389
C      -0.343002     0.491777    -4.076818
H      -0.176230     4.237285     0.902405
H      -0.906379     4.737509    -1.372059
H      -1.025612     2.975470    -3.086729
H      -1.530218    -1.187689    -1.821865
H      -0.061058    -3.147290    -2.683514
H       0.028039    -2.746517    -5.114210
H      -0.225605    -0.430792    -6.015595
H      -0.334860     1.493667    -4.493936
C       0.436451    -0.256341    -0.105286
N       0.282359    -1.253894    -0.879807
C       1.148998     0.655502     2.200083
O       1.663738     0.513091     3.291657
C       1.163628    -0.505714     1.204929
C       0.664698    -1.788052     1.913868
H       1.326317    -1.956783     2.766659
H       0.808306    -2.609564     1.208931
C       2.656335    -0.718957     0.851961
H       3.065853     0.166273     0.354664
H       3.230593    -0.906130     1.760880
H       2.745055    -1.567755     0.171217
N       0.566727     1.852578     1.838529
C       0.549604     2.917921     2.835752
H      -0.453987     3.344076     2.912104
H       0.835804     2.485274     3.790700
H       1.260039     3.709668     2.577848
C      -0.797832    -1.869563     2.438652
C      -1.868642    -1.806121     1.333560
C      -1.131002    -0.834523     3.530495
H      -2.850596    -2.029002     1.760740
H      -1.907443    -0.803483     0.899656
H      -1.658742    -2.521017     0.536153
H      -1.211458     0.164630     3.094971
H      -2.095815    -1.077861     3.984260
H      -0.367740    -0.812807     4.309800
C      -0.899397    -3.208281     3.065013
N      -0.981814    -4.246478     3.551315
48
     -1091.882475     -1091.538687   5.89   5.95
C      -0.840054     1.506685    -1.731541
C      -0.242320     1.039802    -0.543213
C      -0.218801     1.847437     0.604383
C      -0.909330     3.059611     0.591788
C      -1.555021     3.482204    -0.565343
C      -1.506345     2.737049    -1.727910
C      -0.688333     0.689320    -2.921918
C      -0.379371    -0.763481    -2.702533
C       0.161150    -1.459229    -3.914950
C       0.028543    -0.926540    -5.146078
C      -0.528146     0.379220    -5.319825
C      -0.834673     1.165142    -4.210020
H      -0.939306     3.685446     1.472503
H      -2.087265     4.428102    -0.553751
H      -2.006012     3.092655    -2.620940
H      -1.362501    -1.249635    -2.509683
H       0.598910    -2.438556    -3.753828
H       0.365970    -1.477529    -6.018577
H      -0.645492     0.787615    -6.317480
H      -1.135232     2.195611    -4.368840
C       0.398472    -0.277821    -0.535353
N       0.393380    -1.093632    -1.511122
C       1.302445     0.338271     1.772876
O       2.151632     0.176923     2.626483
C       0.979277    -0.780410     0.783349
C      -0.190040    -1.640429     1.372440
H      -0.235128    -2.542623     0.754941
H      -1.124976    -1.098640     1.189435
C       2.244050    -1.603614     0.513475
H       2.966049    -1.001313    -0.045265
H       2.718141    -1.916089     1.439890
H       1.991064    -2.471130    -0.096515
N       0.536425     1.484052     1.729515
C       0.679932     2.437514     2.826208
H      -0.288170     2.609815     3.301262
H       1.352390     2.000844     3.558620
H       1.096770     3.381688     2.463184
C      -0.228679    -2.086402     2.856933
C       1.043401    -2.787572     3.359617
C      -1.431462    -3.042099     3.010608
H       1.883278    -2.096810     3.418963
H       0.865826    -3.200765     4.356407
H       1.296963    -3.611015     2.686051
H      -1.569984    -3.317782     4.058937
H      -2.353769    -2.577200     2.651994
H      -1.250110    -3.952510     2.432135
C      -0.512438    -0.918968     3.718757
N      -0.781699    -0.025748     4.390076
48
     -1091.882273     -1091.538544   6.02   6.04
C      -0.517119     1.688023    -1.331762
C       0.215339     1.190659    -0.234162
C       0.677425     2.066282     0.759939
C       0.280857     3.402314     0.726552
C      -0.515432     3.867010    -0.316267
C      -0.893455     3.036893    -1.351796
C      -0.794261     0.775609    -2.424284
C      -0.725597    -0.688872    -2.113707
C      -0.590862    -1.563055    -3.321824
C      -0.888513    -1.103540    -4.553437
C      -1.222356     0.272756    -4.755961
C      -1.129864     1.179707    -3.703499
H       0.594582     4.093793     1.495966
H      -0.818674     4.909094    -0.321856
H      -1.497672     3.424072    -2.163152
H      -1.722600    -0.940790    -1.690729
H      -0.318298    -2.597750    -3.143249
H      -0.855610    -1.771287    -5.408865
H      -1.478708     0.625150    -5.748939
H      -1.263870     2.235525    -3.913700
C       0.550579    -0.234504    -0.185997
N       0.189660    -1.090786    -1.055748
C       2.078677     0.341094     1.784769
O       3.017949     0.049376     2.497384
C       1.318532    -0.752285     1.022946
C       0.340720    -1.254441     2.141777
H      -0.080837    -0.374282     2.640537
H       0.963480    -1.760189     2.886553
C       2.332517    -1.824135     0.604249
H       1.845760    -2.617807     0.044008
H       3.094115    -1.380971    -0.043865
H       2.833296    -2.230061     1.483496
N       1.580316     1.627781     1.745243
C       2.174112     2.609618     2.646691
H       2.882116     2.088580     3.285700
H       2.700735     3.385911     2.083438
H       1.401278     3.074370     3.265102
C      -0.856637    -2.188841     1.840238
C      -1.494785    -2.556480     3.198422
C      -0.498224    -3.479552     1.087576
H      -0.787198    -3.147953     3.786541
H      -1.759238    -1.660484     3.766249
H      -2.401437    -3.147525     3.047736
H      -0.182623    -3.267256     0.067305
H       0.306846    -3.997906     1.616248
H      -1.368757    -4.140681     1.052665
C      -1.890239    -1.450690     1.086619
N      -2.731089    -0.880492     0.548478
48
     -1091.882144     -1091.538373   6.10   6.14
C      -1.718896     1.902546    -0.826190
C      -0.608463     1.462021    -0.084939
C       0.440555     2.335122     0.222913
C       0.391564     3.647668    -0.241633
C      -0.696117     4.071416    -1.001226
C      -1.747384     3.221714    -1.293250
C      -2.782776     0.936165    -1.042087
C      -2.807678    -0.207584    -0.063644
C      -3.760763    -1.300301    -0.440038
C      -4.666403    -1.148646    -1.427375
C      -4.701366     0.042751    -2.216265
C      -3.747506     1.042169    -2.020284
H       1.193558     4.341107    -0.025191
H      -0.719040     5.096010    -1.358635
H      -2.598665     3.586287    -1.855978
H      -3.173178     0.210479     0.897951
H      -3.707446    -2.209194     0.150008
H      -5.370339    -1.945948    -1.645396
H      -5.443266     0.150616    -2.999573
H      -3.742855     1.900142    -2.685377
C      -0.505103     0.039131     0.267585
N      -1.485959    -0.766852     0.249789
C       1.687966     0.563355     1.349108
O       2.466751     0.230154     2.218010
C       0.918469    -0.468845     0.511779
C       0.885548    -1.835326     1.230273
H      -0.035064    -2.324328     0.910019
H       0.779695    -1.646777     2.302242
C       1.579823    -0.513032    -0.889356
H       2.619947    -0.836140    -0.832439
H       1.036187    -1.208948    -1.530461
H       1.556612     0.474266    -1.355821
N       1.502034     1.895455     1.029420
C       2.352625     2.886271     1.679323
H       2.964941     2.369175     2.413833
H       3.004576     3.378120     0.950893
H       1.740066     3.640278     2.181081
C       2.019227    -2.887089     1.073395
C       1.640219    -4.077768     1.983095
C       3.441817    -2.429451     1.439515
H       0.642847    -4.455308     1.742854
H       2.356705    -4.895077     1.866774
H       1.649176    -3.753914     3.027534
H       3.793709    -1.608378     0.815197
H       3.462059    -2.086465     2.473992
H       4.131435    -3.270998     1.324463
C       2.042708    -3.419956    -0.306310
N       2.072196    -3.876982    -1.360914
48
     -1091.880831     -1091.537212   6.92   6.87
C      -1.690279     0.323071    -1.844322
C      -1.064587     0.901952    -0.728137
C      -1.010282     2.289332    -0.565119
C      -1.540002     3.106675    -1.561416
C      -2.121573     2.531318    -2.689552
C      -2.209520     1.158960    -2.839774
C      -1.763910    -1.129015    -1.863148
C      -1.641789    -1.795312    -0.516477
C      -1.459135    -3.280077    -0.596675
C      -1.652548    -3.960738    -1.743843
C      -1.963345    -3.277500    -2.960069
C      -1.985518    -1.882783    -2.995490
H      -1.501312     4.184463    -1.473687
H      -2.527065     3.181448    -3.458285
H      -2.703340     0.738843    -3.708181
H      -2.608837    -1.626180     0.002996
H      -1.184392    -3.781239     0.324830
H      -1.547465    -5.040978    -1.757687
H      -2.129930    -3.842926    -3.870208
H      -2.132459    -1.384582    -3.948876
C      -0.398805     0.032009     0.244329
N      -0.631350    -1.208906     0.371024
C       0.274953     2.097931     1.511826
O       0.658492     2.582259     2.556795
C       0.697036     0.680917     1.073073
C       1.010901    -0.153952     2.330273
H       0.057244    -0.544934     2.689694
H       1.377572     0.530999     3.096670
C       1.916568     0.931103     0.148974
H       2.315012    -0.009298    -0.233346
H       1.622732     1.540965    -0.709015
H       2.699005     1.465070     0.693166
N      -0.469833     2.836133     0.611971
C      -0.740879     4.234565     0.927925
H      -1.809906     4.440601     0.830723
H      -0.427647     4.413254     1.953335
H      -0.182684     4.901644     0.263304
C       2.025473    -1.331928     2.291878
C       1.643406    -2.309573     3.422752
C       3.471069    -0.844353     2.528576
H       0.653580    -2.737507     3.245792
H       2.367993    -3.125054     3.492185
H       1.626820    -1.773475     4.376402
H       4.156646    -1.695252     2.566345
H       3.811047    -0.172893     1.739808
H       3.522226    -0.313053     3.483007
C       2.043156    -2.119280     1.041758
N       2.177003    -2.785268     0.114452
48
     -1091.878674     -1091.535451   8.28   7.98
C      -0.595962     1.190982    -2.084107
C      -0.185256     0.958755    -0.755874
C      -0.397520     1.931902     0.231729
C      -1.140204     3.068960    -0.083987
C      -1.605933     3.256570    -1.381990
C      -1.320992     2.350338    -2.384525
C      -0.194534     0.221903    -3.087041
C       0.163426    -1.150019    -2.591856
C       0.956540    -1.960603    -3.571951
C       1.004366    -1.629336    -4.877523
C       0.397476    -0.422143    -5.346850
C      -0.147896     0.486702    -4.441952
H      -1.349833     3.820700     0.664271
H      -2.183607     4.146945    -1.609125
H      -1.681222     2.525449    -3.391101
H      -0.804368    -1.691515    -2.491829
H       1.425570    -2.859603    -3.186637
H       1.526410    -2.267488    -5.583891
H       0.427235    -0.178165    -6.402993
H      -0.483581     1.450353    -4.810961
C       0.512577    -0.288402    -0.429649
N       0.728123    -1.234978    -1.250147
C       0.993635     0.738270     1.849907
O       1.715700     0.785248     2.826661
C       0.861108    -0.544016     1.035185
C      -0.391788    -1.339831     1.541415
H      -0.333923    -2.307823     1.035719
H      -1.284029    -0.844908     1.141686
C       2.161057    -1.349787     1.127997
H       2.955946    -0.831851     0.584208
H       2.483816    -1.466045     2.158921
H       2.020013    -2.325038     0.661803
N       0.186764     1.804571     1.505270
C       0.150739     2.947162     2.412362
H       0.749717     2.700039     3.284900
H       0.568720     3.836554     1.931851
H      -0.877110     3.154871     2.723332
C      -0.671443    -1.592340     3.051115
C      -1.197097    -0.344371     3.790634
C       0.503766    -2.211079     3.826853
H      -1.622361    -0.638059     4.753967
H      -0.385554     0.357380     3.981026
H      -1.977464     0.155513     3.210293
H       1.294442    -1.470992     3.955321
H       0.164753    -2.529515     4.816409
H       0.906086    -3.083257     3.305875
C      -1.773265    -2.583377     3.055580
N      -2.628973    -3.350793     3.059642
48
     -1091.877176     -1091.533917   9.22   8.94
C      -0.206867     1.921217    -1.574248
C      -0.004727     1.505960    -0.246399
C       0.618867     2.344044     0.682167
C       1.084081     3.590153     0.265890
C       0.914957     3.983075    -1.059480
C       0.274391     3.171232    -1.978217
C      -0.937105     1.005965    -2.436014
C      -1.809160     0.017417    -1.709026
C      -2.375596    -1.048833    -2.595813
C      -2.289915    -0.981047    -3.939687
C      -1.581288     0.083592    -4.578458
C      -0.906402     1.035615    -3.813000
H       1.583564     4.254691     0.958349
H       1.285082     4.955336    -1.368997
H       0.121051     3.516596    -2.993968
H      -2.673034     0.591548    -1.313122
H      -2.893438    -1.863021    -2.099553
H      -2.747331    -1.751702    -4.552684
H      -1.531903     0.126770    -5.660747
H      -0.308590     1.787941    -4.318425
C      -0.378162     0.139954     0.137229
N      -1.182929    -0.586013    -0.524696
C       0.548746     0.635971     2.435432
O       0.631814     0.337627     3.608867
C       0.355368    -0.439722     1.338781
C      -0.402801    -1.632442     1.973616
H      -1.469097    -1.444082     1.830673
H      -0.221047    -1.581954     3.047492
C       1.807637    -0.740252     0.884425
H       2.403962    -1.107109     1.721731
H       1.816560    -1.476060     0.079765
H       2.277324     0.170296     0.503426
N       0.735547     1.940155     2.021886
C       1.065260     2.938903     3.033781
H       2.114172     3.243148     2.958303
H       0.424833     3.816169     2.913709
H       0.895837     2.495342     4.011371
C      -0.137543    -3.116398     1.569042
C       1.235497    -3.649490     2.034053
C      -0.368327    -3.471378     0.089098
H       1.230543    -4.742878     2.023572
H       2.031627    -3.314695     1.369691
H       1.462089    -3.318723     3.051154
H      -1.382041    -3.219369    -0.220270
H       0.318032    -2.924088    -0.557961
H      -0.206901    -4.543999    -0.055127
C      -1.149355    -3.874130     2.345791
N      -1.926799    -4.468268     2.949080
48
     -1091.876681     -1091.533426   9.53   9.25
C      -2.154770     0.504499     0.544364
C      -0.805087     0.862740     0.343097
C      -0.266850     1.982522     0.995943
C      -1.021067     2.622334     1.978778
C      -2.316879     2.192249     2.249984
C      -2.899126     1.169716     1.527937
C      -2.724362    -0.484733    -0.347843
C      -1.770446    -1.366406    -1.101639
C      -2.349241    -1.956637    -2.352978
C      -3.682594    -2.050323    -2.519198
C      -4.576663    -1.461494    -1.568609
C      -4.083576    -0.660282    -0.543423
H      -0.617828     3.462689     2.526780
H      -2.887245     2.698112     3.022555
H      -3.921156     0.876427     1.734511
H      -1.608190    -2.248457    -0.439849
H      -1.643789    -2.375305    -3.062580
H      -4.092410    -2.552735    -3.389930
H      -5.647991    -1.567391    -1.699570
H      -4.789246    -0.105967     0.066198
C       0.006468     0.104383    -0.612208
N      -0.422385    -0.863917    -1.318289
C       1.762008     1.923665    -0.366500
O       2.708644     2.507666    -0.849599
C       1.485730     0.451312    -0.704591
C       2.337412    -0.259564     0.410279
H       2.177480     0.270324     1.355079
H       3.380387    -0.076606     0.135240
C       2.028336     0.173061    -2.109354
H       1.859029    -0.862799    -2.391026
H       1.512063     0.803449    -2.838300
H       3.092028     0.407665    -2.152043
N       0.978611     2.506636     0.613347
C       1.376562     3.819637     1.109815
H       2.302440     4.095938     0.612058
H       0.608785     4.565958     0.885697
H       1.543256     3.787365     2.190296
C       2.185708    -1.771145     0.741378
C       2.260885    -2.706454    -0.476599
C       0.930149    -2.067345     1.583525
H       1.378311    -2.571259    -1.103392
H       3.156958    -2.507302    -1.069542
H       2.297688    -3.746741    -0.141348
H       0.881705    -1.410700     2.456249
H       0.028093    -1.923092     0.991698
H       0.948105    -3.102992     1.933640
C       3.351748    -2.080005     1.603345
N       4.254673    -2.319823     2.273116
