48
     -1091.891864     -1091.548166   0.00   0.00
C      -1.461975     1.027849    -1.514239
C      -1.201509     0.372633    -0.297468
C      -2.212751     0.198566     0.654334
C      -3.494311     0.667171     0.371249
C      -3.752744     1.296948    -0.843041
C      -2.756975     1.483059    -1.783773
C      -0.337200     1.203219    -2.418886
C       1.017975     1.131891    -1.771641
C       2.151652     1.083133    -2.748512
C       1.971979     1.325970    -4.062683
C       0.665786     1.559682    -4.593172
C      -0.454317     1.469465    -3.765857
H      -4.299171     0.539750     1.082614
H      -4.757434     1.654000    -1.045575
H      -2.974487     2.004463    -2.708424
H       1.137400     2.076857    -1.199932
H       3.135025     0.880184    -2.337349
H       2.823259     1.326339    -4.736616
H       0.540468     1.762681    -5.650871
H      -1.440912     1.568391    -4.207523
C       0.127001    -0.199327    -0.070821
N       1.158406     0.078778    -0.760613
C      -0.771479    -1.098447     2.139123
O      -0.556548    -1.614594     3.219926
C       0.231510    -1.274073     0.995307
C       1.654980    -1.375857     1.565668
H       2.315293    -1.579493     0.721926
H       1.680404    -2.235150     2.237177
C      -0.132022    -2.620761     0.324540
H       0.568997    -2.818403    -0.490296
H      -0.077588    -3.431333     1.055465
H      -1.143654    -2.589814    -0.091182
N      -1.939520    -0.420075     1.885309
C      -2.906861    -0.298539     2.970014
H      -3.190543     0.748759     3.099810
H      -3.801780    -0.895609     2.768315
H      -2.434726    -0.663124     3.878514
C       2.214715    -0.137632     2.341835
C       3.542612     0.330456     1.716575
C       2.434835    -0.473817     3.829877
H       3.401047     0.585958     0.664670
H       3.934664     1.202369     2.247843
H       4.277190    -0.477496     1.786864
H       2.808845     0.401130     4.369207
H       1.507050    -0.811849     4.292988
H       3.178997    -1.272029     3.909844
C       1.271464     0.995689     2.279550
N       0.530541     1.874227     2.226388
48
     -1091.890050     -1091.547392   1.14   0.49
C      -2.073944     0.092651    -0.915082
C      -1.204657    -0.260525     0.137295
C      -1.716087    -0.625437     1.390927
C      -3.094304    -0.597428     1.595692
C      -3.945833    -0.228071     0.558042
C      -3.455321     0.107298    -0.688094
C      -1.474823     0.412501    -2.198701
C      -0.026882     0.804648    -2.162550
C       0.628635     0.838823    -3.507194
C      -0.090358     0.801212    -4.646979
C      -1.509230     0.626298    -4.610946
C      -2.159765     0.409582    -3.397591
H      -3.520379    -0.871745     2.550641
H      -5.015907    -0.210530     0.738446
H      -4.136628     0.403967    -1.476444
H       0.002311     1.851057    -1.789692
H       1.707308     0.953117    -3.512446
H       0.407156     0.884715    -5.608401
H      -2.074752     0.609585    -5.535990
H      -3.221184     0.183848    -3.407793
C       0.232828    -0.330706    -0.128691
N       0.790453     0.078035    -1.196098
C       0.485392    -1.272582     2.258028
O       1.166015    -1.723603     3.160211
C       1.128772    -1.000488     0.898462
C       2.436904    -0.202557     1.103538
H       2.933940    -0.164841     0.132041
H       3.064157    -0.779918     1.787814
C       1.506558    -2.393603     0.340352
H       0.611555    -3.006360     0.192166
H       2.001580    -2.269764    -0.624782
H       2.170142    -2.907914     1.038103
N      -0.858502    -1.025792     2.433090
C      -1.424327    -1.290698     3.751784
H      -2.084359    -2.163450     3.727104
H      -0.601438    -1.488800     4.433503
H      -1.988693    -0.421894     4.100704
C       2.392863     1.240361     1.667761
C       3.845926     1.755170     1.732873
C       1.757052     1.344857     3.067916
H       4.421207     1.134728     2.425869
H       4.320593     1.712612     0.749210
H       3.874215     2.789223     2.085343
H       2.221871     0.625580     3.745260
H       1.901186     2.354959     3.461060
H       0.682551     1.152614     3.041609
C       1.651787     2.167854     0.788207
N       1.091939     2.952904     0.161986
48
     -1091.886675     -1091.543365   3.26   3.01
C      -1.947999     0.149382    -1.178191
C      -1.276714     0.075960     0.059788
C      -1.919038     0.475770     1.240897
C      -3.212794     0.990484     1.169132
C      -3.859371     1.081424    -0.059640
C      -3.249608     0.660700    -1.225144
C      -1.240868    -0.332461    -2.351635
C       0.255511    -0.383345    -2.232261
C       0.924730    -1.155786    -3.327749
C       0.265716    -1.512089    -4.448286
C      -1.132182    -1.248002    -4.590886
C      -1.853467    -0.694972    -3.533373
H      -3.734089     1.309355     2.060841
H      -4.865913     1.486027    -0.094221
H      -3.768809     0.751503    -2.171702
H       0.607089     0.665959    -2.346593
H       1.979400    -1.369885    -3.190992
H       0.790194    -2.025466    -5.248379
H      -1.644776    -1.530367    -5.503738
H      -2.930137    -0.598682    -3.630042
C       0.065310    -0.511595     0.103240
N       0.761713    -0.793042    -0.923673
C      -0.112321    -0.357565     2.672020
O       0.319630    -0.575320     3.786817
C       0.644013    -0.892496     1.455147
C       2.138855    -0.510120     1.578239
H       2.657553    -1.013789     0.759880
H       2.498811    -0.936048     2.517644
C       0.546888    -2.434338     1.562474
H       0.953196    -2.767113     2.519089
H      -0.495503    -2.761494     1.491535
H       1.105744    -2.885879     0.740566
N      -1.282105     0.349799     2.487648
C      -1.947711     0.866865     3.678999
H      -1.261661     0.763563     4.515470
H      -2.200303     1.921111     3.539731
H      -2.859789     0.302127     3.896441
C       2.565035     0.986154     1.554336
C       1.997195     1.818723     2.720021
C       2.269623     1.704670     0.224542
H       2.142328     1.318792     3.678855
H       2.491340     2.793896     2.748946
H       0.927693     1.992528     2.577130
H       1.192367     1.840597     0.097633
H       2.737898     2.693147     0.229527
H       2.649965     1.136854    -0.626291
C       4.037422     0.961252     1.716397
N       5.179904     0.945513     1.841386
48
     -1091.882475     -1091.538690   5.89   5.95
C      -0.660285     1.584797    -1.661356
C      -0.664604     0.906259    -0.425652
C      -1.167888     1.531434     0.725721
C      -1.538868     2.874610     0.657859
C      -1.467229     3.557464    -0.551701
C      -1.060008     2.924785    -1.710610
C      -0.276639     0.826790    -2.838768
C       0.547928    -0.405628    -2.603282
C       0.570092    -1.352583    -3.764734
C       0.197400    -0.957362    -4.998383
C      -0.345411     0.348149    -5.213205
C      -0.603618     1.187961    -4.130950
H      -1.895545     3.392455     1.536976
H      -1.759807     4.602249    -0.582705
H      -1.024587     3.473595    -2.643976
H       1.597660    -0.046168    -2.508743
H       0.965195    -2.344065    -3.571000
H       0.285175    -1.638129    -5.839543
H      -0.623997     0.658895    -6.214053
H      -1.131317     2.119238    -4.308935
C      -0.184425    -0.476824    -0.368083
N       0.324145    -1.110301    -1.346728
C      -1.087689    -0.536027     2.020444
O      -1.509499    -1.195826     2.949158
C      -0.141935    -1.160658     0.995539
C       1.331735    -0.910008     1.463930
H       1.593622     0.120371     1.197735
H       1.955922    -1.554322     0.837399
C      -0.470213    -2.650010     0.839984
H      -0.515560    -3.148211     1.804548
H      -1.444725    -2.766251     0.357233
H       0.276328    -3.123083     0.201580
N      -1.360779     0.811454     1.914316
C      -2.055591     1.452195     3.027467
H      -1.461191     2.284549     3.410176
H      -3.042480     1.804836     2.713307
H      -2.167205     0.714584     3.816630
C       1.782351    -1.107734     2.934296
C       3.315432    -0.927908     2.965252
C       1.419046    -2.468678     3.549416
H       3.788821    -1.735101     2.398936
H       3.609981     0.028434     2.524758
H       3.684230    -0.961473     3.993378
H       1.908685    -2.575105     4.521412
H       0.344136    -2.567507     3.693864
H       1.773263    -3.271012     2.896094
C       1.220100    -0.029316     3.775171
N       0.827471     0.833297     4.425366
48
     -1091.882273     -1091.538544   6.02   6.04
C      -0.741297     1.034393    -1.639454
C      -0.992541     0.412227    -0.399139
C      -2.193542     0.659069     0.282878
C      -3.064136     1.632615    -0.204608
C      -2.766243     2.305118    -1.386338
C      -1.636279     1.999861    -2.117312
C       0.416668     0.591457    -2.391688
C       1.495873    -0.105436    -1.619970
C       2.434619    -0.904571    -2.469694
C       2.521124    -0.698675    -3.798891
C       1.626544     0.204249    -4.455452
C       0.579980     0.792450    -3.750073
H      -3.981777     1.867588     0.316242
H      -3.453532     3.063768    -1.746908
H      -1.433435     2.522450    -3.044156
H       2.120952     0.711195    -1.197140
H       3.089309    -1.595982    -1.949978
H       3.258400    -1.234995    -4.388394
H       1.719612     0.375437    -5.522194
H      -0.156985     1.369572    -4.298440
C      -0.020808    -0.549057     0.127599
N       1.080552    -0.845332    -0.437370
C      -1.779250    -1.138530     1.891333
O      -2.211645    -1.920812     2.713660
C      -0.301561    -1.186935     1.481735
C       0.345516    -0.355749     2.643830
H       0.245883    -0.965844     3.547249
H      -0.272194     0.535070     2.805187
C       0.140710    -2.655474     1.492730
H       1.181045    -2.747332     1.192759
H      -0.009596    -3.084659     2.483606
H      -0.460449    -3.229032     0.781311
N      -2.554634    -0.103783     1.408043
C      -3.888483     0.062388     1.975886
H      -3.994453    -0.650362     2.789420
H      -4.012784     1.077033     2.364148
H      -4.658383    -0.132782     1.223305
C       1.810219     0.143876     2.591903
C       2.857962    -0.946690     2.320241
C       2.110017     0.803986     3.956256
H       2.726034    -1.764537     3.034416
H       2.770866    -1.334467     1.306499
H       3.862562    -0.534462     2.450565
H       1.379752     1.584217     4.186740
H       2.074146     0.046506     4.744506
H       3.105146     1.255389     3.952512
C       1.939032     1.212653     1.580842
N       2.050007     2.083867     0.838938
48
     -1091.882144     -1091.538375   6.10   6.14
C      -1.097775     0.202285    -2.259678
C      -1.163285     0.128590    -0.857232
C      -2.309281    -0.355674    -0.217155
C      -3.382730    -0.798150    -0.987156
C      -3.301723    -0.751457    -2.376707
C      -2.181474    -0.255425    -3.018134
C       0.111877     0.775338    -2.825980
C       0.898225     1.650164    -1.886583
C       2.245240     2.039986    -2.413518
C       2.601510     1.819082    -3.695037
C       1.730510     1.125183    -4.591061
C       0.521807     0.602064    -4.130106
H      -4.277503    -1.185318    -0.517710
H      -4.144782    -1.102291    -2.963416
H      -2.157778    -0.196878    -4.099923
H       0.319595     2.591507    -1.776615
H       2.906828     2.543634    -1.716577
H       3.570085     2.152947    -4.054404
H       2.030225     0.965497    -5.620766
H      -0.084570     0.008231    -4.806980
C       0.032025     0.459282    -0.068911
N       1.016256     1.121795    -0.520983
C      -1.281799    -0.101981     1.983626
O      -1.405602     0.120561     3.170077
C       0.098373    -0.190588     1.315827
C       1.168149     0.505268     2.185280
H       0.709759     1.390954     2.633958
H       1.930891     0.867845     1.495370
C       0.386655    -1.689722     1.047482
H      -0.390351    -2.122275     0.413412
H       1.345041    -1.793764     0.536083
H       0.425472    -2.263339     1.974280
N      -2.382832    -0.348185     1.184642
C      -3.689774    -0.452539     1.823866
H      -4.389911     0.255168     1.371675
H      -4.090374    -1.466447     1.728598
H      -3.565030    -0.216014     2.877582
C       1.922909    -0.231696     3.326886
C       1.057956    -0.867260     4.429225
C       2.855938     0.813138     3.980107
H       0.437292    -0.102047     4.895505
H       0.392385    -1.641586     4.048178
H       1.710031    -1.313857     5.185772
H       2.252827     1.594732     4.450408
H       3.479553     0.346844     4.747277
H       3.510256     1.276331     3.236922
C       2.808843    -1.277235     2.770060
N       3.529469    -2.079380     2.371070
48
     -1091.880831     -1091.537213   6.92   6.87
C      -1.133599     0.428868    -2.009820
C      -1.298938     0.269973    -0.624223
C      -2.545600    -0.040647    -0.073136
C      -3.626913    -0.249984    -0.926486
C      -3.451382    -0.135079    -2.304142
C      -2.228414     0.206447    -2.853120
C       0.186845     0.838471    -2.460358
C       1.037374     1.520185    -1.419083
C       2.467490     1.691011    -1.831279
C       2.871374     1.492114    -3.101720
C       1.958735     1.027353    -4.098566
C       0.651025     0.688357    -3.749341
H      -4.602072    -0.506297    -0.533817
H      -4.302686    -0.304128    -2.955868
H      -2.130287     0.328644    -3.925465
H       0.621578     2.543084    -1.298952
H       3.157122     2.005646    -1.055888
H       3.908584     1.660670    -3.373633
H       2.298249     0.886964    -5.118777
H       0.003523     0.250789    -4.503010
C      -0.125433     0.365217     0.247311
N       0.964887     0.925822    -0.079682
C      -1.633774    -0.128796     2.199080
O      -1.804490    -0.091104     3.400359
C      -0.234928    -0.344390     1.586429
C       0.825342     0.173832     2.578066
H       0.423253     0.048006     3.584775
H       0.911704     1.248465     2.407130
C      -0.178882    -1.872217     1.328719
H      -0.967027    -2.167828     0.631684
H       0.777243    -2.158282     0.889092
H      -0.329393    -2.418160     2.262939
N      -2.701828    -0.090884     1.323175
C      -4.048882    -0.056239     1.882776
H      -4.620909     0.759420     1.433103
H      -4.570407    -1.002569     1.707371
H      -3.962682     0.107152     2.953935
C       2.262065    -0.420138     2.616503
C       2.338919    -1.662085     3.530375
C       3.198180     0.667679     3.183056
H       1.997678    -1.394526     4.534268
H       1.720911    -2.480903     3.161320
H       3.369727    -2.020545     3.596817
H       2.829113     0.991445     4.160854
H       4.213950     0.281934     3.302505
H       3.230836     1.534214     2.518037
C       2.823017    -0.820367     1.309527
N       3.356662    -1.200076     0.364859
48
     -1091.878674     -1091.535449   8.28   7.98
C      -0.731398     0.661273    -2.124487
C      -0.790578     0.231755    -0.783284
C      -1.931983     0.484417    -0.008179
C      -2.946905     1.282741    -0.534269
C      -2.847642     1.764890    -1.836034
C      -1.772027     1.442939    -2.640350
C       0.400456     0.219956    -2.918390
C       1.626629    -0.206466    -2.163289
C       2.580875    -1.031542    -2.972810
C       2.517597    -1.055405    -4.318905
C       1.458784    -0.388409    -5.011675
C       0.412205     0.194393    -4.299436
H      -3.823579     1.523613     0.050854
H      -3.646602     2.386014    -2.228376
H      -1.724078     1.817325    -3.655811
H       2.180592     0.733592    -1.941336
H       3.361381    -1.545533    -2.422100
H       3.260393    -1.603132    -4.890718
H       1.431487    -0.399946    -6.095635
H      -0.440945     0.578198    -4.849257
C       0.332003    -0.527118    -0.224074
N       1.413594    -0.782809    -0.840894
C      -1.153795    -0.972323     1.794847
O      -1.429598    -1.697280     2.730797
C       0.271032    -0.896494     1.256600
C       1.005039     0.313637     1.931994
H       0.642169     1.231037     1.454996
H       2.051379     0.212485     1.630290
C       0.981215    -2.234160     1.489058
H       0.547625    -2.999925     0.839891
H       2.035804    -2.137226     1.230622
H       0.872489    -2.568446     2.517127
N      -2.090722    -0.113106     1.255654
C      -3.389763    -0.027852     1.915089
H      -3.608590     1.006854     2.194046
H      -4.182291    -0.399708     1.259164
H      -3.351180    -0.643343     2.809990
C       0.960744     0.571586     3.465833
C       1.356050    -0.636701     4.331570
C      -0.385227     1.151981     3.947630
H       1.483770    -0.319438     5.370119
H       0.569855    -1.391720     4.296289
H       2.295955    -1.077213     3.990246
H      -1.147344     0.373900     3.980378
H      -0.272491     1.556743     4.956873
H      -0.721684     1.958986     3.290976
C       1.979936     1.624526     3.686624
N       2.769148     2.442376     3.858224
48
     -1091.877482     -1091.534278   9.02   8.71
C      -0.868903     1.161179    -1.580512
C      -0.999810     0.301501    -0.470733
C      -2.243426     0.152579     0.163492
C      -3.291203     1.001964    -0.188081
C      -3.117292     1.932321    -1.209128
C      -1.938995     1.998361    -1.925653
C       0.348675     1.063956    -2.359538
C       1.530898     0.399494    -1.713569
C       2.534295    -0.137859    -2.689158
C       2.583722     0.322829    -3.953915
C       1.590488     1.235257    -4.434464
C       0.482631     1.543732    -3.651264
H      -4.247353     0.938181     0.313182
H      -3.940969     2.590860    -1.465928
H      -1.841856     2.705002    -2.740783
H       2.072986     1.223538    -1.194326
H       3.259966    -0.843308    -2.298952
H       3.364691    -0.012576    -4.629300
H       1.656907     1.619712    -5.446322
H      -0.323782     2.116292    -4.097037
C       0.147345    -0.504789    -0.039173
N       1.270191    -0.540670    -0.633977
C      -1.452248    -1.765193     1.453203
O      -1.696107    -2.810352     2.015746
C      -0.011993    -1.268474     1.270182
C       0.118791    -0.276941     2.480955
H      -0.365071    -0.757900     3.337925
H      -0.474985     0.613894     2.249579
C       0.943496    -2.453801     1.357192
H       1.975388    -2.122530     1.251339
H       0.820378    -2.973338     2.306831
H       0.734372    -3.158628     0.549019
N      -2.459371    -0.892493     1.076949
C      -3.826570    -1.222156     1.465002
H      -4.450688    -1.384232     0.581235
H      -3.792777    -2.135513     2.053519
H      -4.258989    -0.419317     2.069024
C       1.491047     0.237845     2.983965
C       1.202310     1.263330     4.102371
C       2.360314     0.902320     1.905535
H       0.580327     0.826383     4.888148
H       2.134766     1.610330     4.554150
H       0.678630     2.126524     3.680896
H       3.229793     1.373909     2.371788
H       2.701202     0.185627     1.160311
H       1.778525     1.676654     1.395143
C       2.262986    -0.855156     3.612338
N       2.879108    -1.665738     4.145449
48
     -1091.877176     -1091.533918   9.22   8.94
C      -1.574553     0.809794    -1.672221
C      -1.431873     0.493005    -0.309954
C      -2.548003     0.218542     0.485287
C      -3.813308     0.217124    -0.099095
C      -3.947210     0.495177    -1.457164
C      -2.850708     0.794924    -2.245408
C      -0.357981     1.157750    -2.388079
C       0.771526     1.635082    -1.514817
C       2.073721     1.776151    -2.241810
C       2.154055     1.700829    -3.585613
C       1.000096     1.404498    -4.375679
C      -0.218681     1.119934    -3.758145
H      -4.694428    -0.005832     0.487856
H      -4.938931     0.487604    -1.898204
H      -2.985998     1.045826    -3.291010
H       0.491956     2.651513    -1.166460
H       2.946746     1.980350    -1.630691
H       3.108525     1.848106    -4.081799
H       1.082275     1.358163    -5.455843
H      -1.061292     0.818958    -4.373165
C      -0.083470     0.365769     0.254150
N       0.958039     0.853082    -0.284931
C      -1.165754    -0.293721     2.440623
O      -1.069684    -0.460055     3.638939
C       0.041057    -0.507990     1.494658
C       1.331705    -0.210572     2.298515
H       1.082477    -0.347549     3.351091
H       1.550506     0.851450     2.167605
C      -0.132455    -1.979175     1.034931
H       0.650414    -2.258613     0.329240
H      -0.110020    -2.654641     1.891969
H      -1.092755    -2.102678     0.527551
N      -2.387339    -0.014109     1.860659
C      -3.559822     0.044273     2.727846
H      -4.201061    -0.830770     2.580908
H      -3.215045     0.060199     3.758384
H      -4.132511     0.951280     2.519224
C       2.666498    -0.988159     2.075237
C       3.267659    -0.918529     0.659870
C       2.617913    -2.454237     2.558883
H       3.430416     0.114398     0.354244
H       4.224007    -1.450122     0.646413
H       2.602275    -1.376705    -0.072687
H       2.113179    -3.090346     1.832318
H       3.634785    -2.835601     2.686032
H       2.100369    -2.535062     3.518498
C       3.624733    -0.297924     2.973359
N       4.371231     0.228314     3.671349
