48
     -1091.890123     -1091.547340   0.00   0.00
C      -0.266095     0.060197    -1.919889
C      -0.511454    -0.576457    -0.686764
C      -1.807942    -0.976773    -0.334272
C      -2.849709    -0.752792    -1.233500
C      -2.598584    -0.134858    -2.453814
C      -1.326823     0.276683    -2.804645
C       1.100137     0.474860    -2.192581
C       2.163101    -0.249758    -1.415386
C       3.516378     0.388259    -1.503724
C       3.792180     1.349464    -2.408288
C       2.769264     1.866454    -3.262550
C       1.449515     1.438384    -3.115210
H      -3.863058    -1.036330    -0.987307
H      -3.424751     0.028274    -3.138601
H      -1.153051     0.740903    -3.768113
H       2.265672    -1.249513    -1.889869
H       4.274132     0.000171    -0.831398
H       4.796214     1.756350    -2.480793
H       3.009886     2.631706    -3.992119
H       0.675744     1.915612    -3.708218
C       0.594244    -0.725073     0.263235
N       1.821079    -0.543677    -0.023984
C      -1.169373    -1.551800     1.949301
O      -1.487922    -1.918200     3.063355
C       0.269039    -1.082075     1.702845
C       0.569406     0.099082     2.660723
H       1.648353     0.276839     2.625739
H       0.318344    -0.255768     3.663428
C       1.166882    -2.261340     2.137255
H       2.214005    -1.980760     2.021773
H       0.955706    -2.525222     3.174090
H       0.978069    -3.138276     1.510346
N      -2.060283    -1.591596     0.900390
C      -3.411407    -2.057496     1.195426
H      -4.096495    -1.210873     1.300159
H      -3.755423    -2.722818     0.400505
H      -3.377695    -2.601206     2.135609
C      -0.112628     1.476884     2.454183
C       0.462702     2.270765     1.264480
C       0.081658     2.296426     3.745935
H       0.209528     1.824050     0.303755
H       0.065876     3.289870     1.272947
H       1.551976     2.315987     1.344844
H       1.151103     2.430109     3.934016
H      -0.380624     3.282305     3.651786
H      -0.362411     1.786762     4.604491
C      -1.566838     1.328486     2.243048
N      -2.699846     1.238963     2.069879
48
     -1091.886971     -1091.544085   1.98   2.04
C      -0.766493     0.943408    -1.682917
C      -0.976284     0.025728    -0.634006
C      -2.231244    -0.076523    -0.017527
C      -3.279341     0.720214    -0.477103
C      -3.068681     1.611907    -1.524347
C      -1.830134     1.738410    -2.123127
C       0.571805     1.018034    -2.243802
C       1.429281    -0.199409    -2.040492
C       2.877768     0.024051    -2.355395
C       3.298455     1.116049    -3.024848
C       2.384191     2.157525    -3.376539
C       1.056297     2.096840    -2.953631
H      -4.258570     0.666577    -0.022073
H      -3.897872     2.221479    -1.869071
H      -1.694041     2.429172    -2.946748
H       1.072835    -0.955392    -2.773196
H       3.560221    -0.765838    -2.060347
H       4.346974     1.224179    -3.285269
H       2.736538     3.023415    -3.925957
H       0.407886     2.946151    -3.144521
C       0.158697    -0.765686    -0.147580
N       1.277875    -0.858993    -0.744306
C      -1.397530    -1.547074     1.753859
O      -1.600493    -2.134093     2.798269
C       0.011143    -1.534668     1.154942
C       1.030159    -1.061675     2.221006
H       2.024931    -1.279571     1.824040
H       0.874554    -1.694610     3.098050
C       0.315795    -3.024884     0.864141
H       1.319587    -3.110789     0.447268
H       0.236741    -3.606417     1.783690
H      -0.394355    -3.426199     0.134092
N      -2.433206    -0.953757     1.061226
C      -3.778759    -1.118109     1.600615
H      -4.470885    -1.379963     0.796867
H      -3.749620    -1.921313     2.332046
H      -4.124454    -0.203199     2.093140
C       1.025924     0.417193     2.696642
C      -0.340980     0.885437     3.229103
C       1.544860     1.411395     1.639446
H      -1.052103     0.989687     2.405063
H      -0.748307     0.182868     3.958879
H      -0.240145     1.865472     3.703384
H       1.729806     2.383356     2.105759
H       2.472073     1.058598     1.183017
H       0.806661     1.554640     0.848562
C       1.977413     0.456511     3.831178
N       2.715433     0.490791     4.711709
48
     -1091.887449     -1091.543228   1.68   2.58
C       0.400562    -1.807521    -1.248823
C      -0.306235    -1.129052    -0.240244
C      -1.682066    -0.898611    -0.352877
C      -2.345943    -1.319837    -1.503185
C      -1.638085    -1.967977    -2.512022
C      -0.282957    -2.221136    -2.397753
C       1.815006    -2.039118    -1.008614
C       2.236994    -1.974975     0.435451
C       3.721988    -1.976884     0.629550
C       4.573028    -2.258801    -0.377556
C       4.090533    -2.487523    -1.703572
C       2.732352    -2.348919    -1.990075
H      -3.404986    -1.137093    -1.626203
H      -2.170069    -2.288878    -3.402043
H       0.236139    -2.757484    -3.183297
H       1.860457    -2.905852     0.910644
H       4.074390    -1.776569     1.635907
H       5.642110    -2.295083    -0.191722
H       4.788419    -2.723626    -2.499137
H       2.401634    -2.444263    -3.019597
C       0.435322    -0.558508     0.888580
N       1.620191    -0.888851     1.207550
C      -1.752501     0.382656     1.721884
O      -2.374789     0.834921     2.662386
C      -0.238087     0.604305     1.607125
C       0.043303     1.834234     0.681249
H      -0.043164     1.503901    -0.359173
H       1.096939     2.090225     0.833123
C       0.357487     0.779614     3.006235
H       0.266322    -0.152765     3.568629
H       1.419277     1.015145     2.923458
H      -0.158426     1.557009     3.563104
N      -2.382830    -0.291151     0.699603
C      -3.840433    -0.372574     0.723223
H      -4.155793    -1.404865     0.552292
H      -4.174764    -0.046850     1.704837
H      -4.274598     0.287451    -0.032232
C      -0.774871     3.147684     0.789848
C      -0.112565     4.176600    -0.150626
C      -0.873210     3.739764     2.204997
H      -0.020214     3.781213    -1.165782
H      -0.703369     5.095035    -0.191145
H       0.886228     4.421487     0.221989
H      -1.470652     3.108598     2.862070
H       0.129961     3.854150     2.624996
H      -1.341046     4.727032     2.157669
C      -2.140359     2.921610     0.269943
N      -3.190205     2.763552    -0.170302
48
     -1091.886322     -1091.542855   2.39   2.81
C      -1.185898    -0.198203    -1.562892
C      -0.975429    -0.728713    -0.277635
C      -2.053397    -1.139160     0.514598
C      -3.350313    -0.977150     0.031847
C      -3.555278    -0.419549    -1.227704
C      -2.495275    -0.035944    -2.027149
C      -0.004748     0.149088    -2.331666
C       1.266977    -0.526483    -1.897114
C       2.499604     0.053038    -2.521911
C       2.436149     0.921158    -3.550329
C       1.176526     1.392649    -4.037580
C      -0.004564     1.014059    -3.404803
H      -4.204701    -1.271745     0.626364
H      -4.571886    -0.296064    -1.587230
H      -2.679616     0.367908    -3.015296
H       1.203233    -1.576978    -2.251963
H       3.448133    -0.295731    -2.127210
H       3.349859     1.289897    -4.006677
H       1.145519     2.089835    -4.867230
H      -0.938427     1.462203    -3.727434
C       0.386897    -0.769380     0.259952
N       1.438055    -0.644133    -0.444838
C      -0.598753    -1.727912     2.392061
O      -0.422885    -2.299869     3.449091
C       0.523643    -0.877932     1.769811
C       0.296894     0.513472     2.448508
H       0.559500     0.388825     3.504057
H      -0.775345     0.738388     2.420580
C       1.857646    -1.518390     2.167474
H       1.959140    -1.529073     3.253096
H       1.890035    -2.553013     1.815923
H       2.693052    -0.993014     1.714056
N      -1.826306    -1.741806     1.764854
C      -2.923488    -2.441991     2.423239
H      -3.674277    -1.735886     2.792007
H      -3.395809    -3.138801     1.726091
H      -2.510526    -2.992107     3.265006
C       1.020723     1.787324     1.942577
C       2.544256     1.651706     1.789036
C       0.708018     2.917509     2.947342
H       2.976840     1.274150     2.719766
H       2.801392     0.979884     0.970569
H       2.979854     2.632437     1.578478
H      -0.370177     3.035442     3.085077
H       1.161412     2.682640     3.914739
H       1.114680     3.868071     2.593711
C       0.452331     2.214131     0.648016
N       0.001561     2.601715    -0.335643
48
     -1091.884498     -1091.540603   3.53   4.23
C      -0.784847    -1.083404    -1.419593
C      -0.926041    -0.806900    -0.047839
C      -2.190826    -0.623020     0.522627
C      -3.316153    -0.664790    -0.298840
C      -3.168198    -0.897718    -1.663623
C      -1.924723    -1.112520    -2.230135
C       0.565019    -1.337043    -1.896486
C       1.545982    -1.764255    -0.835446
C       2.968652    -1.779265    -1.305304
C       3.292347    -1.657783    -2.608734
C       2.286508    -1.424735    -3.597201
C       0.956118    -1.247515    -3.215026
H      -4.306108    -0.512858     0.110377
H      -4.054385    -0.924372    -2.289713
H      -1.841800    -1.332237    -3.288089
H       1.289237    -2.811743    -0.572650
H       3.723661    -1.933739    -0.541734
H       4.331584    -1.716793    -2.917602
H       2.564278    -1.340366    -4.641906
H       0.223431    -0.986775    -3.972634
C       0.276986    -0.630932     0.771027
N       1.436429    -1.027729     0.431209
C      -1.242281    -0.167487     2.729296
O      -1.368431    -0.098527     3.933583
C       0.104445     0.159084     2.055075
C      -0.041556     1.693247     1.770025
H      -0.024634     2.178353     2.750641
H      -1.039595     1.875922     1.357441
C       1.215598    -0.149476     3.061593
H       1.158748    -1.197570     3.365853
H       2.195623     0.012001     2.621647
H       1.095161     0.467426     3.952528
N      -2.319333    -0.444604     1.908838
C      -3.630774    -0.603899     2.527017
H      -3.490237    -0.628123     3.604738
H      -4.289193     0.232479     2.271783
H      -4.090628    -1.538871     2.196723
C       0.953841     2.447134     0.840895
C       0.705908     2.182071    -0.656905
C       2.438311     2.221781     1.173962
H       1.051707     1.186484    -0.932472
H      -0.355000     2.272025    -0.905330
H       1.260703     2.908361    -1.257220
H       3.053797     2.914844     0.593722
H       2.638373     2.392291     2.234509
H       2.724879     1.202117     0.910534
C       0.661056     3.881330     1.074107
N       0.433779     4.993626     1.254721
48
     -1091.883758     -1091.540171   3.99   4.50
C      -0.587558     0.853826    -1.969953
C      -0.847073     0.179455    -0.764013
C      -1.916815     0.554619     0.055341
C      -2.712428     1.634876    -0.318926
C      -2.436346     2.318211    -1.501167
C      -1.394243     1.940532    -2.327944
C       0.515390     0.351749    -2.771679
C       0.918054    -1.070852    -2.484560
C       2.198956    -1.478105    -3.145409
C       2.785073    -0.720195    -4.094035
C       2.246915     0.555012    -4.451528
C       1.144560     1.067827    -3.767626
H      -3.540139     1.955119     0.300160
H      -3.064192     3.158591    -1.779735
H      -1.222794     2.468480    -3.258609
H       0.124374    -1.714064    -2.920530
H       2.609465    -2.436701    -2.846017
H       3.689719    -1.066875    -4.584192
H       2.725416     1.146061    -5.224420
H       0.806383     2.073279    -3.998294
C       0.087555    -0.856247    -0.310986
N       0.941093    -1.425889    -1.059320
C      -1.321579    -1.095728     1.758632
O      -1.641328    -1.802587     2.694464
C       0.099373    -1.132436     1.188820
C       0.940025     0.052002     1.774778
H       0.643482     0.969368     1.256025
H       1.970963    -0.147314     1.466720
C       0.728937    -2.498731     1.469189
H       0.211222    -3.270007     0.894149
H       1.772161    -2.491329     1.151019
H       0.658977    -2.762179     2.520864
N      -2.203194    -0.183244     1.217564
C      -3.514354    -0.038845     1.840464
H      -3.603021     0.926692     2.349158
H      -4.299344    -0.120053     1.084335
H      -3.628394    -0.837250     2.569583
C       0.940635     0.391542     3.293475
C       1.262680    -0.794314     4.218488
C      -0.357354     1.084532     3.757350
H       1.424411    -0.432187     5.237422
H       0.425877    -1.494050     4.231231
H       2.165710    -1.316643     3.893644
H      -1.171608     0.363096     3.829053
H      -0.208485     1.523331     4.747526
H      -0.643645     1.883775     3.068114
C       2.031830     1.381956     3.448787
N       2.877519     2.150770     3.570696
