47
     -1091.360162     -1091.024151   0.00   0.00
C      -0.405681     0.715070    -2.112898
C       0.163891     0.855076    -0.837237
C       0.339207     2.137038    -0.259821
C      -0.009472     3.252869    -0.995773
C      -0.544632     3.106276    -2.282291
C      -0.752405     1.869440    -2.838229
C      -0.618040    -0.633591    -2.609183
C      -0.224961    -1.704350    -1.789133
C      -0.424678    -3.029693    -2.220365
C      -1.003518    -3.287982    -3.437887
C      -1.399496    -2.222540    -4.263510
C      -1.209650    -0.924219    -3.854619
H       0.115805     4.248143    -0.593219
H      -0.808962     3.998842    -2.840792
H      -1.180491     1.792094    -3.829210
H      -0.103933    -3.829808    -1.561976
H      -1.154105    -4.311958    -3.764151
H      -1.857603    -2.423740    -5.226517
H      -1.525646    -0.117454    -4.505239
C       0.558851    -0.325078    -0.120993
N       0.375935    -1.524955    -0.557812
C       1.195080     1.198851     1.829146
O       1.486839     1.334764     3.002961
C       1.334415    -0.172000     1.171436
C       0.978006    -1.266474     2.192110
H       1.662560    -1.154219     3.033073
H       1.176689    -2.225400     1.712756
C       2.836169    -0.308024     0.816966
H       3.443834    -0.202517     1.718631
H       3.012042    -1.288529     0.368809
H       3.138426     0.459277     0.097814
N       0.825111     2.269508     1.049288
C       0.768048     3.580558     1.687506
H      -0.257296     3.960212     1.673659
H       1.096750     3.463159     2.716388
H       1.426925     4.286440     1.174472
C      -0.481945    -1.289092     2.751861
C      -0.470587    -1.136914     4.285183
C      -1.196483    -2.596801     2.360630
H      -1.490191    -1.138489     4.680616
H       0.073455    -1.977537     4.726273
H       0.023159    -0.207169     4.574855
H      -0.661006    -3.444153     2.799372
H      -2.223088    -2.602754     2.737792
H      -1.214510    -2.717484     1.275737
C      -1.279417    -0.171246     2.210373
N      -1.900313     0.704268     1.797230
47
     -1091.358962     -1091.022716   0.75   0.90
C      -1.060888     0.836911    -1.696337
C      -0.150404     0.936571    -0.631281
C      -0.083385     2.114556     0.153804
C      -0.930764     3.164852    -0.140498
C      -1.837961     3.056588    -1.204153
C      -1.911694     1.923926    -1.972610
C      -1.071440    -0.396695    -2.459384
C      -0.162679    -1.402667    -2.091760
C      -0.134687    -2.618026    -2.802104
C      -0.989388    -2.830877    -3.854015
C      -1.901959    -1.829276    -4.227482
C      -1.940210    -0.639117    -3.542277
H      -0.913035     4.078770     0.436456
H      -2.493841     3.895216    -1.415862
H      -2.623402     1.873853    -2.786321
H       0.577504    -3.371176    -2.483989
H      -0.963714    -3.770252    -4.396777
H      -2.579973    -1.996016    -5.058318
H      -2.653816     0.117857    -3.844935
C       0.714425    -0.174753    -0.355268
N       0.724397    -1.263780    -1.045479
C       1.662812     1.185055     1.609019
O       2.396818     1.301980     2.572496
C       1.698142    -0.104866     0.795055
C       1.522925    -1.318760     1.738170
H       2.302321    -1.253397     2.502085
H       1.710772    -2.209077     1.133835
C       3.126504    -0.171653     0.203513
H       3.307400     0.679018    -0.460921
H       3.863379    -0.148767     1.007950
H       3.231416    -1.088859    -0.377605
N       0.831971     2.212018     1.216036
C       0.884325     3.451196     1.984970
H      -0.072333     3.638480     2.482149
H       1.664407     3.345249     2.733941
H       1.119881     4.293815     1.329351
C       0.184021    -1.527303     2.487888
C      -0.162911    -0.383635     3.460380
C       0.290326    -2.847585     3.277415
H      -1.023881    -0.668327     4.071286
H       0.687704    -0.177469     4.113886
H      -0.424895     0.535508     2.933081
H       1.088317    -2.764662     4.020902
H      -0.647197    -3.063806     3.795700
H       0.517657    -3.684750     2.612605
C      -0.949793    -1.671190     1.550644
N      -1.866002    -1.783952     0.866334
47
     -1091.357281     -1091.021533   1.81   1.64
C      -0.386403     1.230447    -1.831035
C       0.214325     1.072578    -0.569814
C       0.382533     2.185910     0.293095
C      -0.056139     3.427869    -0.123508
C      -0.654631     3.575141    -1.382506
C      -0.822334     2.508964    -2.227595
C      -0.523254     0.050212    -2.664099
C      -0.035574    -1.167750    -2.160912
C      -0.139544    -2.340226    -2.935696
C      -0.716323    -2.304901    -4.179753
C      -1.209058    -1.090615    -4.688773
C      -1.112753     0.060115    -3.945118
H       0.052536     4.299997     0.505614
H      -0.990129     4.561763    -1.686442
H      -1.286948     2.658928    -3.193406
H       0.251663    -3.260123    -2.515037
H      -0.793156    -3.211405    -4.771346
H      -1.666417    -1.061123    -5.672450
H      -1.499028     0.984606    -4.357597
C       0.657953    -0.234892    -0.172511
N       0.553310    -1.282430    -0.918956
C       1.416227     0.814726     2.048566
O       1.904203     0.730579     3.158420
C       1.329734    -0.431814     1.170569
C       0.692753    -1.591531     1.974021
H       1.294401    -1.712854     2.877609
H       0.809774    -2.494001     1.370008
C       2.803793    -0.820752     0.891552
H       2.826388    -1.727051     0.284776
H       3.314685    -0.024310     0.341322
H       3.327949    -0.986261     1.833983
N       0.985059     2.027394     1.550550
C       1.149064     3.200751     2.402994
H       1.762265     3.953083     1.899448
H       0.176277     3.635762     2.650786
H       1.644539     2.881879     3.315787
C      -0.796741    -1.507445     2.410036
C      -1.796027    -1.561467     1.238624
C      -1.113201    -0.294102     3.304254
H      -2.809481    -1.699265     1.626403
H      -1.776152    -0.627229     0.673696
H      -1.565276    -2.380681     0.555436
H      -1.083099     0.627705     2.717259
H      -2.121717    -0.391711     3.715513
H      -0.402382    -0.206295     4.127703
C      -1.021486    -2.722553     3.227585
N      -1.198422    -3.664642     3.861704
47
     -1091.355665     -1091.018672   2.82   3.44
C      -1.431558     0.371170    -1.885395
C      -0.611714     0.649628    -0.780549
C      -0.985126     1.633461     0.168377
C      -2.214506     2.251900     0.041952
C      -3.050004     1.930644    -1.035873
C      -2.672206     1.025259    -1.996443
C      -0.934242    -0.584270    -2.859564
C       0.307868    -1.192853    -2.608121
C       0.838990    -2.110929    -3.534191
C       0.155620    -2.416741    -4.684717
C      -1.086059    -1.812163    -4.942672
C      -1.616608    -0.914561    -4.047394
H      -2.542068     2.987878     0.762990
H      -4.012037     2.427546    -1.114264
H      -3.335633     0.814869    -2.825337
H       1.797742    -2.562640    -3.303719
H       0.571220    -3.125284    -5.393883
H      -1.627659    -2.052111    -5.851967
H      -2.572398    -0.454139    -4.268311
C       0.604097    -0.096872    -0.607223
N       1.043135    -0.957053    -1.461374
C       1.105456     1.365103     1.401490
O       1.934079     1.815428     2.167710
C       1.328155     0.011006     0.726366
C       0.656816    -1.109865     1.591803
H       1.043804    -2.058238     1.206629
H      -0.416087    -1.106392     1.371074
C       2.831037    -0.217578     0.532997
H       3.375304    -0.074761     1.462385
H       3.000976    -1.221590     0.143964
H       3.223894     0.494635    -0.197421
N      -0.090048     2.012337     1.176200
C      -0.391554     3.193283     1.980818
H      -1.255621     3.002529     2.621508
H       0.470745     3.393844     2.610291
H      -0.581743     4.051780     1.331044
C       0.781324    -1.146138     3.136817
C       2.217337    -1.062736     3.678427
C       0.131988    -2.462789     3.614079
H       2.833154    -1.830463     3.201629
H       2.656487    -0.082441     3.497979
H       2.213835    -1.245390     4.756580
H       0.718922    -3.311537     3.251476
H       0.102842    -2.501243     4.705796
H      -0.890450    -2.557986     3.238735
C      -0.020777    -0.049771     3.720765
N      -0.680694     0.771102     4.180467
47
     -1091.353923     -1091.017640   3.92   4.09
C      -1.213272     1.229948    -1.157175
C      -0.043050     1.136669    -0.389545
C       0.429430     2.250333     0.345085
C      -0.329035     3.404304     0.375891
C      -1.530254     3.468404    -0.344158
C      -1.965447     2.417556    -1.111404
C      -1.571865     0.082528    -1.970058
C      -0.735799    -1.044190    -1.919315
C      -1.026202    -2.170942    -2.710067
C      -2.125124    -2.181399    -3.532820
C      -2.969585    -1.060280    -3.584325
C      -2.694915     0.047454    -2.818498
H      -0.010665     4.268044     0.943403
H      -2.114655     4.382183    -0.301162
H      -2.888470     2.506930    -1.669033
H      -0.359319    -3.023424    -2.641384
H      -2.344932    -3.054297    -4.138915
H      -3.841052    -1.067070    -4.231086
H      -3.358132     0.902200    -2.873589
C       0.669236    -0.110677    -0.352965
N       0.364409    -1.125931    -1.086498
C       2.433261     1.039736     1.064354
O       3.557479     1.051808     1.524287
C       1.766741    -0.287068     0.678732
C       1.158116    -0.745409     2.049919
H       0.699324     0.128313     2.526421
H       2.002903    -1.034335     2.683186
C       2.861358    -1.234573     0.175674
H       2.439749    -2.188529    -0.128594
H       3.357281    -0.798961    -0.695983
H       3.612889    -1.381646     0.951575
N       1.680713     2.192892     0.979863
C       2.257239     3.423708     1.510156
H       1.673457     3.788168     2.360767
H       3.269489     3.202859     1.838628
H       2.284059     4.193895     0.734650
C       0.107712    -1.881088     2.135033
C      -0.174834    -2.126325     3.633188
C       0.533863    -3.204131     1.479089
H      -0.973462    -2.861960     3.755961
H       0.728022    -2.508081     4.118641
H      -0.478917    -1.203392     4.134121
H       0.594748    -3.108776     0.395948
H       1.507784    -3.509658     1.872445
H      -0.194444    -3.984468     1.716929
C      -1.168852    -1.430676     1.540200
N      -2.180513    -1.077145     1.125511
47
     -1091.351564     -1091.015014   5.40   5.73
C       1.213937     1.726831    -0.741553
C      -0.029132     1.092244    -0.605904
C      -1.012758     1.205537    -1.618835
C      -0.683891     1.833763    -2.804298
C       0.593548     2.388774    -2.967135
C       1.523851     2.364151    -1.957971
C       2.094662     1.710237     0.413248
C       1.641757     1.057983     1.573861
C       2.436893     1.062835     2.735816
C       3.654321     1.696869     2.746291
C       4.116581     2.343639     1.587852
C       3.349339     2.350452     0.447721
H      -1.402053     1.917531    -3.608958
H       0.834409     2.872656    -3.908540
H       2.487227     2.835230    -2.105422
H       2.055159     0.549152     3.611524
H       4.261895     1.695696     3.645425
H       5.079818     2.843457     1.593650
H       3.719837     2.862648    -0.432565
C      -0.305933     0.335549     0.586693
N       0.452631     0.353123     1.627677
C      -2.660392     0.046314    -0.233443
O      -3.818315    -0.160021     0.058468
C      -1.508451    -0.592374     0.556800
C      -1.195223    -1.855135    -0.320103
H      -0.736095    -1.511179    -1.253199
H      -2.159691    -2.297330    -0.591822
C      -1.995485    -0.944648     1.958499
H      -2.309810    -0.038971     2.481848
H      -2.845690    -1.623736     1.905712
H      -1.195918    -1.404450     2.537426
N      -2.318203     0.759058    -1.369920
C      -3.390216     1.177597    -2.266262
H      -4.333516     0.868368    -1.823177
H      -3.382546     2.264405    -2.386830
H      -3.280195     0.704979    -3.246898
C      -0.301841    -3.010203     0.197092
C       1.077873    -2.569415     0.710736
C      -0.114309    -3.994030    -0.978740
H       1.007302    -1.998696     1.634778
H       1.703303    -3.449405     0.884848
H       1.566230    -1.940426    -0.039662
H       0.440691    -4.877385    -0.653819
H      -1.078041    -4.320123    -1.379012
H       0.449780    -3.504861    -1.778349
C      -0.991296    -3.765332     1.265079
N      -1.510916    -4.400981     2.069227
47
     -1091.351530     -1091.014802   5.42   5.87
C      -0.446433     1.039397    -2.144736
C       0.060813     0.925073    -0.841469
C      -0.052325     1.998848     0.074578
C      -0.751280     3.129825    -0.299652
C      -1.302252     3.215087    -1.586062
C      -1.145272     2.207213    -2.504236
C      -0.205886    -0.068333    -3.052249
C       0.479516    -1.189641    -2.552613
C       0.754657    -2.278611    -3.401517
C       0.361310    -2.255653    -4.716415
C      -0.324244    -1.138581    -5.222426
C      -0.599680    -0.068532    -4.405279
H      -0.875553     3.960881     0.381359
H      -1.849895     4.111590    -1.859456
H      -1.567629     2.314519    -3.495024
H       1.281928    -3.127101    -2.979155
H       0.576750    -3.098732    -5.364860
H      -0.635622    -1.118528    -6.261828
H      -1.123327     0.786206    -4.817126
C       0.677849    -0.308972    -0.436610
N       0.883333    -1.299547    -1.234718
C       1.244043     0.795086     1.765376
O       1.958116     0.825531     2.748957
C       0.954731    -0.519731     1.045837
C      -0.397081    -1.117754     1.570639
H      -0.449546    -2.121928     1.140318
H      -1.215165    -0.551850     1.112266
C       2.138603    -1.474353     1.230639
H       3.004694    -1.100186     0.678711
H       2.420948    -1.558766     2.276178
H       1.884862    -2.454483     0.826833
N       0.599561     1.929494     1.316327
C       0.728310     3.148011     2.108976
H       1.395913     2.937477     2.940440
H       1.149063     3.952927     1.500545
H      -0.246339     3.460602     2.496118
C      -0.732709    -1.217023     3.086622
C      -1.110207     0.140910     3.713719
C       0.341320    -1.911946     3.940419
H      -1.578420    -0.019965     4.688404
H      -0.220934     0.752856     3.864808
H      -1.817748     0.682232     3.079671
H       1.215714    -1.266869     4.034767
H      -0.053960    -2.105813     4.941241
H       0.641169    -2.866047     3.500424
C      -1.950041    -2.060926     3.136027
N      -2.894926    -2.714103     3.174735
47
     -1091.350984     -1091.014385   5.76   6.13
C       0.860529     0.938367    -1.686292
C      -0.280755     0.612895    -0.937826
C      -1.496025     0.276373    -1.583491
C      -1.511050     0.152312    -2.959173
C      -0.344296     0.403391    -3.695174
C       0.817439     0.808772    -3.087315
C       2.020164     1.418419    -0.955296
C       1.923703     1.504961     0.444338
C       3.006830     2.004427     1.192964
C       4.159782     2.407819     0.567683
C       4.265510     2.319416    -0.830825
C       3.215666     1.836673    -1.573893
H      -2.414874    -0.125593    -3.484151
H      -0.376871     0.294773    -4.774770
H       1.690683     1.024094    -3.689548
H       2.896174     2.055743     2.270647
H       4.990653     2.791344     1.150865
H       5.177124     2.636796    -1.326610
H       3.314582     1.784783    -2.651810
C      -0.205897     0.631949     0.497731
N       0.814524     1.075256     1.150312
C      -2.688453     0.169918     0.549917
O      -3.731370     0.205512     1.168042
C      -1.345566     0.008461     1.278506
C      -1.218447    -1.556422     1.335427
H      -1.507710    -1.960921     0.359556
H      -1.988083    -1.885877     2.039601
C      -1.481696     0.633858     2.669569
H      -0.547979     0.563125     3.220657
H      -1.733455     1.693498     2.577203
H      -2.283700     0.143599     3.221477
N      -2.672850     0.150326    -0.832479
C      -3.952832     0.099655    -1.530644
H      -4.741311     0.148450    -0.784133
H      -4.044886     0.947248    -2.215152
H      -4.048383    -0.832631    -2.095284
C       0.114392    -2.263726     1.711557
C       0.746143    -1.779702     3.027273
C       1.155975    -2.238592     0.575145
H       0.017485    -1.787252     3.841706
H       1.574051    -2.439019     3.302314
H       1.135285    -0.768564     2.900377
H       1.599185    -1.248408     0.479457
H       1.958429    -2.948394     0.793666
H       0.702939    -2.518397    -0.379633
C      -0.268307    -3.683572     1.902858
N      -0.565877    -4.784108     2.049419
47
     -1091.348758     -1091.012466   7.16   7.33
C      -1.210284     1.362426    -1.222139
C      -0.101064     1.181816    -0.382909
C       0.296729     2.200361     0.517573
C      -0.500281     3.319691     0.657160
C      -1.657225     3.452923    -0.123948
C      -2.004179     2.514104    -1.063324
C      -1.447272     0.348160    -2.234217
C      -0.557098    -0.738624    -2.294812
C      -0.715016    -1.719292    -3.292725
C      -1.733796    -1.626260    -4.207938
C      -2.631482    -0.547064    -4.148764
C      -2.487119     0.419385    -3.182573
H      -0.240167     4.106204     1.352752
H      -2.273221     4.337381     0.005250
H      -2.884657     2.667006    -1.674143
H      -0.009724    -2.543207    -3.308207
H      -1.849668    -2.386260    -4.973817
H      -3.438711    -0.473123    -4.870285
H      -3.184752     1.248389    -3.159533
C       0.643918    -0.046876    -0.458657
N       0.462287    -0.929759    -1.379409
C       2.304733     0.954917     1.142243
O       3.439748     0.944576     1.569255
C       1.625313    -0.338086     0.664382
C       0.851441    -0.761993     1.963593
H       0.062728    -0.020138     2.124660
H       1.551953    -0.649066     2.797779
C       2.706473    -1.323912     0.228731
H       3.327559    -0.870625    -0.547426
H       3.351594    -1.580200     1.069205
H       2.255398    -2.219143    -0.194958
N       1.526709     2.096515     1.183771
C       2.074799     3.277391     1.842294
H       2.096972     4.122696     1.149097
H       1.475357     3.543839     2.717909
H       3.087389     3.041373     2.159508
C       0.192102    -2.161468     2.122579
C       1.207780    -3.299669     2.339084
C      -0.795928    -2.530801     1.003944
H       1.742119    -3.522650     1.416638
H       1.934974    -3.034209     3.111143
H       0.685994    -4.206079     2.657651
H      -1.365440    -3.417914     1.294837
H      -1.500604    -1.717321     0.812471
H      -0.259871    -2.741254     0.078997
C      -0.587282    -2.052007     3.379570
N      -1.187001    -1.967355     4.356424
47
     -1091.347859     -1091.011300   7.72   8.06
C       0.829875     2.399565    -0.093808
C      -0.153493     1.463097    -0.447731
C      -1.301442     1.856323    -1.175947
C      -1.494351     3.197386    -1.447190
C      -0.537590     4.136579    -1.036493
C       0.612306     3.758488    -0.389516
C       2.029693     1.894830     0.551018
C       2.118017     0.511224     0.783077
C       3.264982    -0.030084     1.393880
C       4.308180     0.785077     1.755980
C       4.231825     2.168435     1.520887
C       3.114602     2.709731     0.931593
H      -2.369444     3.539382    -1.982625
H      -0.710323     5.185216    -1.257610
H       1.341053     4.508084    -0.108978
H       3.280514    -1.098579     1.577472
H       5.190207     0.364395     2.227951
H       5.056968     2.812855     1.806689
H       3.076665     3.778812     0.758348
C       0.025391     0.088661    -0.070346
N       1.098841    -0.367930     0.472021
C      -2.089261    -0.459934    -1.357518
O      -2.804786    -1.279715    -1.897310
C      -1.148489    -0.860949    -0.211228
C      -0.650255    -2.305235    -0.458938
H       0.276412    -2.221214    -1.029879
H      -1.376780    -2.794358    -1.109663
C      -2.032803    -0.675839     1.051353
H      -2.322931     0.374156     1.149473
H      -2.943066    -1.272942     0.970657
H      -1.484614    -0.954998     1.951635
N      -2.187051     0.883242    -1.665052
C      -3.217729     1.290660    -2.615163
H      -3.717726     0.393900    -2.970804
H      -3.949893     1.943904    -2.131324
H      -2.767015     1.817207    -3.460775
C      -0.398791    -3.306814     0.702092
C       0.564590    -4.387678     0.166752
C      -1.701207    -3.993705     1.164193
H       0.134556    -4.850048    -0.726769
H       1.529301    -3.947129    -0.097005
H       0.730616    -5.164679     0.917404
H      -1.478438    -4.758331     1.913328
H      -2.405056    -3.287877     1.604756
H      -2.181053    -4.475170     0.307632
C       0.240743    -2.742229     1.909056
N       0.711488    -2.427334     2.909092
