47
     -1091.360162     -1091.024148   0.00   0.00
C      -0.615441     0.386174    -2.192863
C      -0.841918    -0.122645    -0.904035
C      -2.151567    -0.172519    -0.365607
C      -3.211251     0.237566    -1.151247
C      -2.980669     0.711146    -2.449527
C      -1.713986     0.797763    -2.969168
C       0.761176     0.470723    -2.649129
C       1.769676     0.023689    -1.779353
C       3.119931     0.100073    -2.170907
C       3.463151     0.610539    -3.397999
C       2.460356     1.059779    -4.273316
C       1.138531     0.990226    -3.903435
H      -4.225688     0.207994    -0.779304
H      -3.830462     1.025788    -3.047281
H      -1.570506     1.181336    -3.970938
H       3.869894    -0.259167    -1.474473
H       4.505855     0.666112    -3.693491
H       2.728774     1.464027    -5.244008
H       0.381308     1.345499    -4.592206
C       0.278749    -0.584368    -0.134137
N       1.502818    -0.514698    -0.534988
C      -1.353143    -1.023136     1.782835
O      -1.549668    -1.259251     2.960507
C       0.021861    -1.296589     1.178170
C       1.109055    -0.992126     2.222962
H       2.063116    -1.284895     1.783808
H       0.915223    -1.633970     3.082593
C       0.045544    -2.816539     0.880148
H      -0.720763    -3.082050     0.145618
H       1.022063    -3.087418     0.472485
H      -0.137930    -3.379997     1.797878
N      -2.364709    -0.597160     0.954028
C      -3.686473    -0.412136     1.543837
H      -3.981212     0.639049     1.481897
H      -4.426718    -1.030874     1.029234
H      -3.629110    -0.711062     2.586801
C       1.233234     0.480938     2.732882
C       2.606873     1.072536     2.363074
C       1.031762     0.538787     4.259405
H       3.393087     0.486924     2.849032
H       2.763030     1.040596     1.283031
H       2.685004     2.108546     2.704785
H       1.810684    -0.054299     4.747993
H       1.103933     1.568941     4.619298
H       0.056081     0.132494     4.533363
C       0.202335     1.345488     2.125789
N      -0.605852     2.019181     1.661377
47
     -1091.358962     -1091.022717   0.75   0.90
C      -0.860317     0.484883    -2.001928
C      -0.964022    -0.164921    -0.760857
C      -2.211084    -0.252138    -0.093228
C      -3.325659     0.315731    -0.678918
C      -3.213218     0.964161    -1.917056
C      -2.013729     1.053869    -2.574374
C       0.446607     0.532365    -2.629489
C       1.517093    -0.085362    -1.962071
C       2.804884    -0.066054    -2.531013
C       3.025986     0.552447    -3.735547
C       1.959991     1.173252    -4.409138
C       0.698682     1.162392    -3.864685
H      -4.293966     0.273679    -0.200325
H      -4.103182     1.402963    -2.357185
H      -1.962389     1.561328    -3.528842
H       3.605402    -0.549373    -1.982176
H       4.021120     0.564915    -4.168247
H       2.132852     1.664353    -5.361362
H      -0.107776     1.649909    -4.399286
C       0.215292    -0.743285    -0.183045
N       1.373943    -0.723617    -0.748385
C      -1.234932    -1.440563     1.821349
O      -1.367892    -1.946951     2.919810
C       0.140378    -1.439018     1.160893
C       1.185313    -0.851663     2.139070
H       2.163507    -1.016999     1.681935
H       1.135084    -1.437890     3.060543
C       0.487026    -2.931372     0.943371
H      -0.236443    -3.399511     0.268630
H       1.476711    -3.007340     0.490907
H       0.467170    -3.460442     1.897476
N      -2.311570    -0.906881     1.146501
C      -3.618713    -0.994082     1.789413
H      -4.003727     0.004008     2.019707
H      -4.327561    -1.511286     1.137214
H      -3.498826    -1.555237     2.712150
C       1.101389     0.637394     2.556079
C       2.310873     0.938104     3.464112
C      -0.195518     0.995407     3.307038
H       2.248702     0.326444     4.368791
H       3.250344     0.712202     2.953370
H       2.321846     1.991189     3.756023
H      -0.359515     0.292002     4.126457
H      -0.118249     2.007612     3.713234
H      -1.067398     0.971421     2.650718
C       1.200010     1.537796     1.388083
N       1.266882     2.281293     0.514484
47
     -1091.357281     -1091.021527   1.81   1.64
C      -1.191825     0.389711    -1.801786
C      -1.045272    -0.204711    -0.536233
C      -2.166750    -0.370941     0.316482
C      -3.405261     0.063774    -0.114237
C      -3.541207     0.656198    -1.377394
C      -2.467132     0.821658    -2.212845
C      -0.003787     0.524453    -2.624022
C       1.210018     0.041299    -2.106663
C       2.389789     0.143272    -2.870585
C       2.365582     0.713754    -4.117795
C       1.155485     1.201975    -4.640989
C      -0.002228     1.107526    -3.908041
H      -4.283329    -0.043380     0.506834
H      -4.525362     0.988665    -1.692448
H      -2.608384     1.281500    -3.182244
H       3.306174    -0.244327    -2.439070
H       3.277620     0.789118    -4.701011
H       1.134824     1.654346    -5.627195
H      -0.923303     1.490190    -4.331379
C       0.259059    -0.643889    -0.123936
N       1.313641    -0.541100    -0.860658
C      -0.810967    -1.393382     2.090379
O      -0.736839    -1.875729     3.203411
C       0.444181    -1.308038     1.224606
C       1.593915    -0.663402     2.036430
H       2.502765    -0.781081     1.442185
H       1.707748    -1.260027     2.944316
C       0.840193    -2.782367     0.957558
H       0.050887    -3.298571     0.402022
H       1.752677    -2.805599     0.360158
H       0.997589    -3.300994     1.904426
N      -2.019584    -0.967706     1.578054
C      -3.201142    -1.130792     2.419264
H      -3.640247    -0.157929     2.659468
H      -3.947342    -1.746924     1.910226
H      -2.890643    -1.622673     3.336875
C       1.501423     0.828097     2.463817
C       0.278332     1.145880     3.344167
C       1.564639     1.821446     1.287835
H      -0.637463     1.110257     2.748145
H       0.184205     0.439107     4.170394
H       0.369106     2.156761     3.751164
H       0.636199     1.796254     0.713654
H       1.695971     2.837253     1.671683
H       2.391291     1.589292     0.614146
C       2.707650     1.060399     3.292358
N       3.642826     1.243195     3.934987
47
     -1091.355665     -1091.018674   2.82   3.43
C       0.744879     1.554601    -1.650910
C      -0.100552     0.670012    -0.963081
C      -1.459004     0.999732    -0.731279
C      -1.918683     2.246482    -1.110921
C      -1.054148     3.144096    -1.751115
C       0.246941     2.812275    -2.037826
C       2.097322     1.103458    -1.927578
C       2.477275    -0.163987    -1.452539
C       3.772228    -0.651290    -1.713697
C       4.669295     0.099613    -2.431770
C       4.296381     1.366986    -2.909823
C       3.035902     1.855327    -2.662039
H      -2.942370     2.540529    -0.925284
H      -1.436286     4.118623    -2.038916
H       0.881360     3.524117    -2.549935
H       4.029812    -1.631624    -1.327744
H       5.665630    -0.282513    -2.629175
H       5.003913     1.961994    -3.478232
H       2.765768     2.832262    -3.045381
C       0.436552    -0.568742    -0.470661
N       1.640781    -0.967766    -0.700580
C      -1.903499    -1.171772     0.293512
O      -2.694466    -2.039876     0.605323
C      -0.403069    -1.376018     0.507956
C       0.000791    -0.784135     1.901739
H       0.101140     0.300778     1.788873
H       1.006408    -1.163042     2.108352
C      -0.072062    -2.867187     0.385008
H      -0.224757    -3.197532    -0.645837
H       0.976180    -3.030821     0.635390
H      -0.712193    -3.468171     1.024874
N      -2.329094     0.048367    -0.185161
C      -3.764158     0.319503    -0.189324
H      -4.096369     0.568203    -1.200848
H      -4.271543    -0.577967     0.152922
H      -3.995648     1.136102     0.498467
C      -0.855431    -1.010130     3.174410
C      -0.067519    -0.418728     4.362862
C      -1.203509    -2.476641     3.475470
H      -0.664599    -0.461824     5.277089
H       0.848045    -0.996802     4.517546
H       0.203658     0.624069     4.177499
H      -0.287939    -3.074574     3.488443
H      -1.674187    -2.547158     4.459987
H      -1.891818    -2.884152     2.736178
C      -2.105539    -0.227150     3.071701
N      -3.055791     0.416814     3.017110
47
     -1091.353923     -1091.017638   3.92   4.09
C      -0.354595     1.168128    -1.686835
C      -0.908361     0.510547    -0.578545
C      -2.065654     1.018455     0.058535
C      -2.588817     2.225104    -0.363564
C      -1.991695     2.908057    -1.432454
C      -0.908488     2.393530    -2.098986
C       0.763358     0.526838    -2.353818
C       1.223376    -0.694232    -1.835701
C       2.286668    -1.368138    -2.463759
C       2.883719    -0.840617    -3.581754
C       2.433026     0.383552    -4.102295
C       1.393349     1.050063    -3.499100
H      -3.459369     2.654739     0.112912
H      -2.414391     3.858070    -1.744173
H      -0.482920     2.938239    -2.931508
H       2.616524    -2.306962    -2.032507
H       3.704787    -1.364232    -4.060597
H       2.905476     0.804784    -4.983858
H       1.060075     1.992306    -3.916939
C      -0.279568    -0.686349    -0.092107
N       0.702044    -1.268485    -0.691512
C      -2.169531    -0.889663     1.590373
O      -2.795946    -1.568728     2.379058
C      -0.713740    -1.236301     1.252912
C       0.059628    -0.516220     2.412237
H      -0.154332    -1.080730     3.325319
H      -0.384385     0.475994     2.551156
C      -0.568392    -2.761052     1.307959
H      -1.240504    -3.224294     0.580528
H       0.444790    -3.063982     1.058837
H      -0.841367    -3.126249     2.298195
N      -2.699737     0.269721     1.063168
C      -4.020105     0.686373     1.523092
H      -4.700055     0.794390     0.673788
H      -4.396227    -0.080796     2.194884
H      -3.959313     1.637768     2.060050
C       1.592079    -0.295803     2.354162
C       2.418363    -1.570076     2.117964
C       2.010591     0.337370     3.698922
H       2.136174    -2.329702     2.852768
H       2.264241    -1.962830     1.113978
H       3.481837    -1.347798     2.242629
H       1.439672     1.247371     3.901786
H       1.834857    -0.375325     4.509931
H       3.072470     0.594826     3.685955
C       1.917749     0.697574     1.308477
N       2.180808     1.503798     0.533099
47
     -1091.351564     -1091.015014   5.40   5.73
C      -1.140610     1.129277    -1.531331
C      -1.166482     0.213105    -0.470068
C      -2.296379     0.122846     0.379385
C      -3.316939     1.042684     0.236209
C      -3.242213     2.014270    -0.772176
C      -2.194675     2.053760    -1.658509
C      -0.026826     1.035917    -2.458849
C       0.941327     0.043624    -2.223018
C       2.009689    -0.121346    -3.125121
C       2.117763     0.680782    -4.233792
C       1.158485     1.679458    -4.471295
C       0.108138     1.849206    -3.601488
H      -4.183851     1.018971     0.882856
H      -4.051479     2.731924    -0.864155
H      -2.188014     2.794489    -2.447830
H       2.737309    -0.896527    -2.910364
H       2.944423     0.548141    -4.924174
H       1.243604     2.316008    -5.346074
H      -0.626150     2.619233    -3.807390
C      -0.036142    -0.653009    -0.261089
N       0.931873    -0.768446    -1.103109
C      -1.360001    -1.827114     1.518971
O      -1.528719    -2.846995     2.151386
C       0.040378    -1.386508     1.067110
C       0.435361    -0.390152     2.212929
H       0.143661    -0.863374     3.156613
H      -0.185902     0.505893     2.108481
C       0.952466    -2.606803     0.996172
H       0.564502    -3.319426     0.265011
H       1.954461    -2.318232     0.682140
H       1.001406    -3.101313     1.965635
N      -2.398723    -0.942151     1.285362
C      -3.689919    -1.220645     1.904288
H      -4.468056    -1.302486     1.140382
H      -3.605682    -2.163472     2.438836
H      -3.958750    -0.428746     2.609800
C       1.888706     0.114451     2.394485
C       1.860334     1.169238     3.522440
C       2.509646     0.739323     1.135239
H       1.273766     2.034348     3.199364
H       1.412100     0.762536     4.432943
H       2.873026     1.505674     3.757344
H       3.454225     1.225738     1.394138
H       2.695561    -0.001531     0.359915
H       1.831696     1.494728     0.726628
C       2.765106    -0.977891     2.868699
N       3.468283    -1.790497     3.276032
47
     -1091.351530     -1091.014802   5.42   5.86
C      -0.966546     0.462476    -2.175276
C      -0.904413    -0.039235    -0.866345
C      -1.998227     0.115628     0.019391
C      -3.094830     0.848963    -0.389726
C      -3.126928     1.393540    -1.681276
C      -2.100366     1.196997    -2.570678
C       0.156725     0.179205    -3.050790
C       1.240736    -0.539380    -2.516656
C       2.342528    -0.856210    -3.333890
C       2.368211    -0.471429    -4.651271
C       1.288613     0.247133    -5.191660
C       0.206595     0.563411    -4.405658
H      -3.939406     1.005343     0.267623
H      -3.997025     1.968599    -1.982293
H      -2.166756     1.615796    -3.566549
H       3.161308    -1.408282    -2.885389
H       3.220897    -0.719081    -5.275187
H       1.307030     0.551804    -6.233077
H      -0.618832     1.112147    -4.843791
C       0.297068    -0.693864    -0.424283
N       1.301496    -0.937466    -1.193843
C      -0.884326    -1.208049     1.750144
O      -0.965048    -1.913897     2.736815
C       0.458354    -0.967240     1.065009
C       1.086430     0.367739     1.597741
H       0.560558     1.200824     1.119155
H       2.103071     0.384087     1.194664
C       1.367869    -2.180624     1.282926
H       0.980294    -3.037709     0.726214
H       2.366445    -1.962130     0.904506
H       1.414535    -2.458365     2.332058
N      -1.984165    -0.529608     1.266458
C      -3.227284    -0.612617     2.026338
H      -3.517690     0.374439     2.399056
H      -4.028976    -1.010672     1.398685
H      -3.061619    -1.281139     2.867163
C       1.155720     0.710453     3.113808
C       1.791382    -0.379898     3.992727
C      -0.205434     1.136803     3.701367
H       1.971094     0.015748     4.996042
H       1.115410    -1.231908     4.074772
H       2.746583    -0.714050     3.580727
H      -0.850339     0.269234     3.841124
H      -0.055561     1.606245     4.677213
H      -0.705710     1.857347     3.048527
C       2.037804     1.899660     3.178815
N       2.720609     2.822775     3.229590
47
     -1091.350984     -1091.014383   5.76   6.13
C       0.739294     0.548405    -1.892520
C      -0.359184     0.406640    -1.031176
C      -1.439378     1.321861    -1.081776
C      -1.342054     2.427326    -1.904328
C      -0.204613     2.603164    -2.705180
C       0.811887     1.681320    -2.724836
C       1.731025    -0.512713    -1.885119
C       1.530657    -1.591786    -1.006926
C       2.442583    -2.664769    -0.993897
C       3.529103    -2.666881    -1.832032
C       3.738833    -1.589112    -2.709099
C       2.855760    -0.537015    -2.734356
H      -2.137065     3.159088    -1.951372
H      -0.146312     3.481689    -3.340146
H       1.660981     1.833475    -3.378665
H       2.255787    -3.479222    -0.302484
H       4.228003    -3.496840    -1.816391
H       4.598322    -1.588737    -3.371556
H       3.031208     0.280092    -3.424238
C      -0.380839    -0.686461    -0.097659
N       0.487075    -1.640589    -0.100352
C      -2.719421     0.018475     0.545283
O      -3.785517    -0.276621     1.042655
C      -1.420299    -0.660583     1.005085
C      -0.987251     0.282204     2.184865
H      -1.718721     0.109154     2.979689
H      -1.127460     1.320313     1.865038
C      -1.766470    -2.073233     1.483935
H      -2.218304    -2.641832     0.667056
H      -0.874294    -2.605223     1.802584
H      -2.487826    -2.023682     2.299629
N      -2.612576     1.056139    -0.362178
C      -3.809776     1.837905    -0.651850
H      -3.681309     2.875392    -0.329014
H      -4.025555     1.817459    -1.723513
H      -4.637855     1.393120    -0.106129
C       0.433352     0.218595     2.814193
C       1.518899     0.860166     1.927102
C       0.871023    -1.184969     3.264693
H       2.431374     1.010670     2.510403
H       1.760704     0.213873     1.084552
H       1.192321     1.831706     1.546852
H       1.057759    -1.811836     2.391709
H       1.794724    -1.113583     3.845605
H       0.108372    -1.654707     3.890802
C       0.330414     1.059671     4.031162
N       0.249820     1.713042     4.973403
47
     -1091.348758     -1091.012465   7.16   7.33
C      -0.497540     0.975464    -1.902382
C      -0.947506     0.427617    -0.692139
C      -2.052695     0.993148    -0.010030
C      -2.597795     2.172057    -0.479762
C      -2.084439     2.761764    -1.643854
C      -1.072484     2.175346    -2.362356
C       0.523934     0.237493    -2.624318
C       0.990244    -0.962060    -2.057919
C       1.941452    -1.739055    -2.746366
C       2.421557    -1.334748    -3.967111
C       1.965677    -0.133500    -4.535603
C       1.034676     0.632972    -3.876705
H      -3.426740     2.644952     0.029482
H      -2.522933     3.691386    -1.993047
H      -0.725231     2.639834    -3.276351
H       2.278159    -2.657862    -2.278461
H       3.155098    -1.938473    -4.491545
H       2.345776     0.188623    -5.499677
H       0.689400     1.551655    -4.336351
C      -0.284069    -0.731423    -0.156511
N       0.593540    -1.410907    -0.811001
C      -2.054609    -0.821428     1.627266
O      -2.650032    -1.501024     2.436169
C      -0.582292    -1.101187     1.286921
C       0.140232    -0.104148     2.261804
H      -0.347461    -0.208753     3.236766
H      -0.087719     0.908299     1.913451
C      -0.289421    -2.573350     1.565328
H       0.722897    -2.824345     1.254468
H      -0.433406    -2.798833     2.622062
H      -0.974373    -3.200677     0.990057
N      -2.625423     0.308088     1.071696
C      -3.939544     0.720742     1.552664
H      -4.650148     0.767079     0.722935
H      -4.275131    -0.016800     2.277288
H      -3.883276     1.700998     2.035321
C       1.672450    -0.155854     2.522895
C       2.537706    -0.076386     1.254443
C       2.108393    -1.347992     3.396245
H       2.216273     0.742555     0.605600
H       3.581694     0.094038     1.531890
H       2.468202    -1.005401     0.689400
H       3.143128    -1.210181     3.721297
H       1.478650    -1.432802     4.285956
H       2.050398    -2.280188     2.836075
C       1.944032     1.066214     3.318031
N       2.152336     2.011164     3.938313
47
     -1091.347858     -1091.011297   7.72   8.06
C      -1.411468     0.498957    -1.992586
C      -1.377931     0.185920    -0.625057
C      -2.567821    -0.112660     0.080438
C      -3.757160    -0.193294    -0.618283
C      -3.774378     0.060242    -1.997256
C      -2.637797     0.417275    -2.678803
C      -0.163032     0.905301    -2.614206
C       0.988337     0.947574    -1.808856
C       2.220743     1.346456    -2.359934
C       2.305262     1.707515    -3.681433
C       1.157878     1.675622    -4.492156
C      -0.049552     1.281462    -3.967555
H      -4.683847    -0.439730    -0.118321
H      -4.719114    -0.011208    -2.527103
H      -2.692583     0.630032    -3.738710
H       3.088355     1.340018    -1.709674
H       3.257349     2.013104    -4.103152
H       1.224657     1.961686    -5.536919
H      -0.922210     1.265077    -4.609885
C      -0.114439     0.183823     0.058374
N       0.987637     0.572900    -0.479193
C      -1.368933    -0.267528     2.215235
O      -1.396545    -0.276107     3.429548
C      -0.044082    -0.411800     1.451173
C       1.080118     0.263638     2.273078
H       0.752290     0.291996     3.313388
H       1.135231     1.299413     1.932672
C       0.097400    -1.948200     1.278385
H      -0.730996    -2.330793     0.675334
H       1.025954    -2.195405     0.762996
H       0.067838    -2.445812     2.249534
N      -2.536052    -0.257293     1.476319
C      -3.801440    -0.316922     2.201742
H      -4.424579     0.545065     1.948500
H      -4.341034    -1.236961     1.958315
H      -3.578072    -0.303405     3.265030
C       2.528991    -0.296263     2.313974
C       2.675673    -1.444173     3.334968
C       3.451054     0.865037     2.743104
H       3.722447    -1.751311     3.408567
H       2.344211    -1.099554     4.318394
H       2.088309    -2.319321     3.057817
H       3.433025     1.665899     1.999724
H       3.108866     1.268298     3.700905
H       4.481744     0.519422     2.857120
C       3.060614    -0.794507     1.028029
N       3.583374    -1.231101     0.102318
