12
      -211.550888      -211.477182   0.00   0.00
H       1.498421    -0.007330     0.456681
C       0.406339    -0.002285     0.365041
C      -0.153771    -1.282641     1.000201
C      -0.144392     1.267639     1.028640
H       0.105138    -1.310850     2.062151
H      -1.243044    -1.311042     0.908572
H       0.255380    -2.173745     0.518694
H      -1.233422     1.306076     0.937787
H       0.114676     1.270200     2.090920
H       0.271323     2.166234     0.567095
C       0.112414     0.015031    -1.077680
N      -0.137025     0.027688    -2.199256
