48
     -1091.833978     -1091.500667   0.00   0.00
C      -2.079043    -0.374054     1.120706
C      -0.812268    -0.782686     0.685775
C       0.084708    -1.403043     1.562473
C      -0.285902    -1.637756     2.874160
C      -1.549420    -1.257349     3.310455
C      -2.432465    -0.630100     2.445277
C      -3.035765     0.313601     0.213734
C      -2.643318     1.422141    -0.536665
C      -3.551283     2.066818    -1.365163
C      -4.862626     1.614638    -1.451667
C      -5.262663     0.513146    -0.704060
C      -4.354787    -0.132479     0.124534
H       0.421074    -2.107183     3.549949
H      -1.840004    -1.440112     4.339897
H      -3.406809    -0.310445     2.798701
H      -1.623880     1.785884    -0.465896
H      -3.232120     2.926766    -1.945014
H      -5.571508     2.119332    -2.100338
H      -6.284717     0.153286    -0.768160
H      -4.665261    -1.001455     0.696540
C      -0.401110    -0.613265    -0.683980
N      -0.029484    -0.511887    -1.767432
C       2.269832    -0.832083     0.793580
O       1.970030     0.322075     1.033224
C       3.616431    -1.215012     0.138109
C       4.311685    -2.280941     0.930906
H       4.256387    -2.295072     2.013560
H       5.020054    -2.940449     0.442937
C       3.329045    -1.697921    -1.302465
H       4.267555    -1.804590    -1.851330
H       2.835117    -2.668869    -1.304318
H       2.683318    -0.996962    -1.833775
N       1.366743    -1.831793     1.094264
C       1.455459    -3.256631     0.793758
H       1.006369    -3.816302     1.618279
H       0.917636    -3.500924    -0.129407
H       2.493848    -3.570440     0.700102
C       4.577599     0.055383     0.079247
C       4.891884     0.638842     1.472052
C       4.090889     1.172898    -0.866330
H       3.991306     1.063469     1.912170
H       5.298112    -0.123177     2.140583
H       5.641763     1.427713     1.368987
H       3.126966     1.552318    -0.533052
H       4.817972     1.989630    -0.851799
H       4.005523     0.821736    -1.895581
C       5.863059    -0.434399    -0.469643
N       6.862882    -0.803268    -0.900506
48
     -1091.833978     -1091.500660  -0.00   0.00
C      -1.661832    -2.095140     0.279446
C      -0.692384    -1.109924     0.054925
C       0.031264    -1.071177    -1.142077
C      -0.223502    -2.004085    -2.130894
C      -1.199827    -2.972165    -1.928060
C      -1.906600    -3.018772    -0.736402
C      -2.420714    -2.172565     1.555724
C      -3.811632    -2.280451     1.533932
C      -4.530047    -2.373014     2.718393
C      -3.865413    -2.361353     3.939197
C      -2.479782    -2.257748     3.968548
C      -1.760961    -2.165656     2.784809
H       0.351839    -1.974302    -3.050116
H      -1.398985    -3.705092    -2.703139
H      -2.647867    -3.793463    -0.572661
H      -4.333570    -2.275044     0.581956
H      -5.612214    -2.451688     2.687949
H      -4.426373    -2.432754     4.865604
H      -1.954049    -2.249104     4.917830
H      -0.678958    -2.095019     2.813978
C      -0.431033    -0.082090     1.029218
N      -0.193001     0.766084     1.768268
C       2.155588    -0.126983    -0.605525
O       2.320748    -1.096327     0.110331
C       3.179160     1.029213    -0.676942
C       3.546958     1.328844    -2.099287
H       3.632223     0.534005    -2.831657
H       3.904138     2.316460    -2.367417
C       2.552353     2.268188     0.003589
H       2.134546     2.015174     0.979310
H       3.310776     3.044114     0.130749
H       1.749675     2.689203    -0.600684
N       1.003326    -0.044667    -1.361185
C       0.538663     1.061131    -2.191639
H       1.375412     1.665160    -2.538767
H       0.031604     0.650498    -3.068573
H      -0.166652     1.697639    -1.645240
C       4.512999     0.628449     0.098635
C       5.194422    -0.627295    -0.482634
C       4.336296     0.478061     1.623747
H       6.155520    -0.776735     0.016585
H       4.570191    -1.503383    -0.315724
H       5.386790    -0.517006    -1.551961
H       3.997300     1.407078     2.084148
H       3.623183    -0.314419     1.841988
H       5.301599     0.218778     2.067460
C       5.455866     1.751371    -0.110229
N       6.193010     2.620333    -0.261482
48
     -1091.833543     -1091.500441   0.27   0.14
C      -1.990413    -0.246423     1.190020
C      -0.746143    -0.756337     0.798119
C       0.229250    -1.081783     1.747150
C      -0.033722    -0.907288     3.093613
C      -1.266472    -0.406354     3.494127
C      -2.230513    -0.078194     2.553518
C      -3.041563     0.115177     0.201767
C      -3.665058     1.361186     0.280076
C      -4.662049     1.709272    -0.621236
C      -5.049604     0.814103    -1.611462
C      -4.435392    -0.429750    -1.694071
C      -3.438922    -0.778388    -0.792867
H       0.734286    -1.150543     3.820080
H      -1.473322    -0.268332     4.550413
H      -3.195347     0.301201     2.872228
H      -3.353397     2.067368     1.043496
H      -5.135529     2.683535    -0.551753
H      -5.828262     1.085542    -2.317149
H      -4.732963    -1.134307    -2.463884
H      -2.971350    -1.754748    -0.858817
C      -0.412073    -0.928184    -0.592246
N      -0.102426    -1.090864    -1.687614
C       2.356626    -0.735039     0.727160
O       2.055156     0.442139     0.680202
C       3.666778    -1.276593     0.111271
C       4.424621    -2.099438     1.109515
H       4.432964    -1.831731     2.160071
H       5.114345    -2.862318     0.767152
C       3.299721    -2.118275    -1.132855
H       2.821516    -3.055557    -0.850737
H       2.612115    -1.579203    -1.786470
H       4.204407    -2.365479    -1.693079
N       1.486407    -1.621916     1.327924
C       1.578963    -3.075124     1.410161
H       1.193116    -3.395460     2.381562
H       0.987502    -3.555521     0.622301
H       2.614313    -3.403600     1.334101
C       4.602611    -0.066421    -0.336579
C       4.992889     0.859083     0.834001
C       4.040988     0.766977    -1.506962
H       5.721718     1.594022     0.481942
H       4.114276     1.383476     1.205625
H       5.452383     0.296992     1.649826
H       4.755226     1.557990    -1.752133
H       3.896763     0.159990    -2.401788
H       3.094200     1.221774    -1.222713
C       5.859335    -0.683403    -0.819784
N       6.836424    -1.152845    -1.202239
48
     -1091.834274     -1091.500379  -0.19   0.18
C      -1.970339     0.050024     1.070192
C      -0.813104    -0.337245     0.383900
C      -0.303727     0.436723    -0.665482
C      -0.966397     1.586410    -1.057007
C      -2.130922     1.964889    -0.400031
C      -2.622573     1.210159     0.654017
C      -2.506641    -0.740337     2.209396
C      -3.858585    -1.083227     2.245333
C      -4.374302    -1.804928     3.313367
C      -3.544297    -2.190104     4.359754
C      -2.197250    -1.849065     4.332436
C      -1.681211    -1.127413     3.265146
H      -0.563309     2.187619    -1.864780
H      -2.650082     2.867678    -0.705190
H      -3.515150     1.528014     1.181814
H      -4.505268    -0.795965     1.421957
H      -5.426875    -2.069625     3.327178
H      -3.946655    -2.754993     5.194608
H      -1.543514    -2.145378     5.146332
H      -0.631179    -0.855562     3.254058
C      -0.125934    -1.563431     0.699045
N       0.457300    -2.535068     0.893882
C       2.049988     0.056180    -0.629418
O       2.043688     0.563841     0.475314
C       3.335092    -0.522454    -1.262355
C       3.078520    -1.891594    -1.818671
H       3.717878    -2.280117    -2.603259
H       2.394769    -2.568006    -1.318439
C       3.805453     0.450032    -2.367166
H       4.786888     0.145579    -2.738923
H       3.117485     0.454857    -3.212772
H       3.879792     1.470879    -1.986814
N       0.871853     0.002868    -1.348630
C       0.677432    -0.372663    -2.743893
H       1.492231    -1.006029    -3.090191
H      -0.250033    -0.944304    -2.828579
H       0.607702     0.508177    -3.392621
C       4.477235    -0.657262    -0.157195
C       4.067090    -1.573021     1.013310
C       5.007663     0.687736     0.381843
H       4.928239    -1.723061     1.669790
H       3.261804    -1.115200     1.585485
H       3.736512    -2.551251     0.660291
H       4.201064     1.249538     0.848800
H       5.778685     0.486533     1.130684
H       5.463013     1.289352    -0.406881
C       5.618458    -1.314241    -0.835390
N       6.515028    -1.806873    -1.359841
48
     -1091.834017     -1091.500355  -0.02   0.20
C      -1.908422    -0.263916     1.194768
C      -0.746797    -0.319674     0.415522
C      -0.144131     0.847890    -0.065597
C      -0.701529     2.080418     0.218620
C      -1.857205     2.148011     0.987753
C      -2.449981     0.991540     1.470950
C      -2.562614    -1.489880     1.724454
C      -2.860017    -2.568718     0.891785
C      -3.487240    -3.697625     1.400457
C      -3.827966    -3.762057     2.746172
C      -3.538256    -2.690066     3.582220
C      -2.910439    -1.560902     3.074042
H      -0.219842     2.979739    -0.149874
H      -2.296413     3.114171     1.214048
H      -3.358610     1.051539     2.060168
H      -2.606663    -2.522880    -0.161801
H      -3.711005    -4.530005     0.741198
H      -4.317947    -4.645568     3.142756
H      -3.799268    -2.734027     4.634887
H      -2.671464    -0.730995     3.731890
C      -0.101302    -1.568898     0.103002
N       0.458723    -2.528406    -0.193737
C       2.191498     0.414722    -0.207180
O       2.184944     0.401682     1.008786
C       3.472337     0.131239    -1.023703
C       3.188780    -0.788114    -2.172492
H       3.777624    -0.718573    -3.079582
H       2.512637    -1.626421    -2.052714
C       4.016652     1.488722    -1.518333
H       3.346711     1.944043    -2.249125
H       4.132451     2.190207    -0.690066
H       4.989443     1.349868    -1.996927
N       1.031187     0.749832    -0.875565
C       0.773782     0.777736    -2.311607
H       1.690497     0.916844    -2.877365
H       0.296504    -0.149039    -2.648066
H       0.103730     1.615303    -2.526414
C       4.565055    -0.573469    -0.100328
C       4.060339    -1.896344     0.508750
C       5.150372     0.328189     1.006706
H       3.266007    -1.699722     1.227252
H       3.681603    -2.574570    -0.257519
H       4.887306    -2.393697     1.022290
H       5.673386     1.191626     0.591707
H       4.359193     0.666816     1.672603
H       5.876100    -0.251441     1.583897
C       5.692207    -0.912621    -0.999712
N       6.581589    -1.159134    -1.685213
48
     -1091.834017     -1091.500353  -0.02   0.20
C      -1.891760    -0.993506     1.285101
C      -0.526629    -0.704637     1.172530
C       0.442384    -1.646523     1.535511
C       0.056964    -2.881048     2.023359
C      -1.295554    -3.177617     2.143627
C      -2.255697    -2.247152     1.776687
C      -2.940219    -0.012437     0.898112
C      -3.987963    -0.410711     0.066834
C      -4.985437     0.486563    -0.290039
C      -4.948546     1.793489     0.181826
C      -3.909911     2.196792     1.012354
C      -2.912690     1.299952     1.369869
H       0.816334    -3.607858     2.291116
H      -1.601471    -4.146504     2.524749
H      -3.309191    -2.481266     1.884980
H      -4.010548    -1.426720    -0.315047
H      -5.792256     0.164881    -0.940985
H      -5.727422     2.495884    -0.097364
H      -3.874675     3.215113     1.385624
H      -2.111216     1.620455     2.026564
C      -0.057127     0.552559     0.649158
N       0.387178     1.536054     0.252083
C       2.333319    -1.268237     0.141212
O       1.647004    -1.684815    -0.772142
C       3.774293    -0.757185    -0.082465
C       4.018527     0.517085     0.667147
H       3.251681     1.280993     0.718774
H       5.014156     0.752669     1.024369
C       4.738176    -1.870033     0.382505
H       4.686585    -2.016053     1.462418
H       4.497394    -2.821984    -0.094288
H       5.767517    -1.603310     0.129580
N       1.828044    -1.307699     1.425157
C       2.426099    -0.818565     2.663033
H       2.155752    -1.503766     3.471761
H       3.509321    -0.779459     2.593083
H       2.058934     0.182612     2.913532
C       4.015199    -0.459808    -1.630631
C       3.025776     0.578983    -2.194247
C       4.035364    -1.712716    -2.531142
H       3.023369     1.495980    -1.602882
H       3.318010     0.835729    -3.215833
H       2.017523     0.167772    -2.208463
H       4.195199    -1.398118    -3.566171
H       4.847596    -2.390949    -2.263618
H       3.084885    -2.238278    -2.464621
C       5.367873     0.137577    -1.718927
N       6.425560     0.580693    -1.800328
48
     -1091.832633     -1091.498960   0.84   1.07
C      -1.433927     1.148304     1.142775
C      -0.260960     0.682733     0.537829
C       0.996404     0.980320     1.075022
C       1.093608     1.766234     2.207835
C      -0.063695     2.253438     2.804623
C      -1.309919     1.944545     2.281383
C      -2.778785     0.814725     0.604649
C      -3.724303     1.822794     0.413597
C      -4.989212     1.519455    -0.071673
C      -5.324562     0.203714    -0.369361
C      -4.389109    -0.806181    -0.178089
C      -3.124604    -0.503638     0.307402
H       2.072475     1.981401     2.622768
H       0.009459     2.868288     3.695803
H      -2.209171     2.304805     2.769189
H      -3.459613     2.852913     0.631447
H      -5.714274     2.313370    -0.220463
H      -6.312989    -0.033834    -0.749548
H      -4.644331    -1.835832    -0.406725
H      -2.402488    -1.297633     0.465156
C      -0.287046    -0.085307    -0.680267
N      -0.223989    -0.688538    -1.657437
C       2.391562    -0.861051     0.504126
O       1.710062    -1.527267     1.255600
C       3.542477    -1.490109    -0.319077
C       3.485596    -1.037736    -1.744936
H       4.394949    -0.818486    -2.292638
H       2.537319    -0.973639    -2.265586
C       4.868654    -1.082681     0.359042
H       5.719935    -1.334969    -0.276070
H       4.904254    -0.009329     0.552332
H       4.985838    -1.593242     1.317566
N       2.173362     0.500895     0.419496
C       2.795093     1.464128    -0.483998
H       3.801042     1.159440    -0.759685
H       2.206461     1.594095    -1.398701
H       2.857889     2.426482     0.031814
C       3.388538    -3.070867    -0.296064
C       4.551447    -3.736313    -1.064344
C       2.062394    -3.551008    -0.913828
H       4.555667    -3.398586    -2.103398
H       5.522055    -3.519984    -0.615575
H       4.415299    -4.820536    -1.056162
H       1.996317    -4.638385    -0.823263
H       1.198358    -3.110511    -0.420536
H       2.036257    -3.297509    -1.975931
C       3.482530    -3.570207     1.093289
N       3.641451    -4.025963     2.136043
48
     -1091.832634     -1091.498598   0.84   1.30
C      -1.806180    -0.908818     1.415897
C      -0.473128    -0.637460     1.081123
C       0.571148    -1.401563     1.610800
C       0.291280    -2.430094     2.492836
C      -1.025537    -2.694589     2.848906
C      -2.061252    -1.944274     2.314000
C      -2.933646    -0.127935     0.841464
C      -3.047635     0.061724    -0.535802
C      -4.116117     0.775420    -1.060562
C      -5.085109     1.305280    -0.216829
C      -4.980895     1.117213     1.156492
C      -3.912147     0.403657     1.682096
H       1.106288    -3.026241     2.889459
H      -1.243910    -3.502371     3.539863
H      -3.089597    -2.170936     2.573851
H      -2.300022    -0.358156    -1.200136
H      -4.191722     0.917195    -2.133768
H      -5.919842     1.863675    -0.628435
H      -5.733038     1.529810     1.821504
H      -3.824765     0.269769     2.755948
C      -0.135702     0.456128     0.208453
N       0.175301     1.329403    -0.471713
C       2.352982    -1.483748     0.027813
O       1.546733    -1.976649    -0.737754
C       3.838294    -1.344756    -0.420040
C       4.823751    -1.436127     0.700849
H       5.769023    -0.908214     0.649343
H       4.740943    -2.259179     1.403119
C       4.113251    -2.569073    -1.333338
H       4.001110    -3.490086    -0.755881
H       3.407735    -2.611456    -2.161033
H       5.135018    -2.524781    -1.715955
N       1.933278    -1.104130     1.284973
C       2.638350    -0.347396     2.311782
H       2.651118    -0.908414     3.251616
H       3.665995    -0.157657     2.012792
H       2.135248     0.610816     2.482094
C       4.020234    -0.002381    -1.234350
C       3.830602     1.250452    -0.358358
C       3.090579     0.105744    -2.458040
H       4.511298     1.255556     0.495229
H       4.031838     2.143855    -0.954351
H       2.798429     1.311527    -0.007782
H       2.047464     0.127904    -2.141050
H       3.311631     1.035837    -2.988075
H       3.229512    -0.721963    -3.153369
C       5.414595     0.017623    -1.727986
N       6.500869     0.042870    -2.102260
48
     -1091.831389     -1091.498591   1.62   1.30
C      -0.661840    -2.831078     1.196183
C      -0.155697    -1.722976     0.506803
C       1.067673    -1.791645    -0.169514
C       1.789123    -2.970615    -0.173507
C       1.293185    -4.079255     0.502324
C       0.086116    -4.008464     1.180505
C      -1.953925    -2.780268     1.930739
C      -3.113825    -2.299822     1.322886
C      -4.314637    -2.276818     2.018671
C      -4.372881    -2.736088     3.328963
C      -3.222457    -3.219654     3.941146
C      -2.021042    -3.242342     3.245806
H       2.741785    -3.011014    -0.690717
H       1.858208    -5.005701     0.502086
H      -0.299973    -4.881038     1.696175
H      -3.079463    -1.948350     0.297413
H      -5.208574    -1.898589     1.533518
H      -5.312380    -2.717091     3.872051
H      -3.259569    -3.577916     4.965084
H      -1.120542    -3.606283     3.730856
C      -0.846957    -0.459123     0.488946
N      -1.346251     0.574733     0.423693
C       1.975621     0.400039    -0.083115
O       2.140673     0.200295     1.104994
C       2.254918     1.819770    -0.657897
C       1.487781     2.140741    -1.899028
H       0.406986     2.056531    -1.875737
H       1.944014     2.673933    -2.724695
C       1.756766     2.810656     0.426226
H       1.968578     3.836121     0.114874
H       0.676802     2.697946     0.548827
H       2.222231     2.609995     1.389545
N       1.542693    -0.641802    -0.876853
C       1.287697    -0.666475    -2.312724
H       1.917784     0.047692    -2.835266
H       1.521420    -1.668929    -2.681962
H       0.239761    -0.446164    -2.542409
C       3.809002     1.972425    -0.888510
C       4.333307     0.993005    -1.956348
C       4.647110     1.803202     0.393686
H       5.404074     1.149858    -2.107168
H       4.183920    -0.037801    -1.624622
H       3.833870     1.135129    -2.916878
H       5.702839     1.949855     0.150235
H       4.371425     2.529575     1.158067
H       4.512742     0.802945     0.806476
C       4.049986     3.341956    -1.391909
N       4.252901     4.399998    -1.791469
48
     -1091.831784     -1091.497885   1.38   1.75
C      -1.605804    -0.051603     0.282946
C      -0.400776    -0.267512    -0.398783
C       0.202320    -1.531878    -0.423566
C      -0.423935    -2.602600     0.193315
C      -1.619695    -2.398337     0.869784
C      -2.199582    -1.139744     0.920560
C      -2.251223     1.287005     0.341107
C      -2.654631     1.806738     1.571673
C      -3.277513     3.045357     1.644243
C      -3.506237     3.778702     0.485881
C      -3.109607     3.266342    -0.743557
C      -2.487314     2.027871    -0.816681
H       0.042769    -3.579423     0.157858
H      -2.102052    -3.235759     1.362770
H      -3.139461    -0.993059     1.441692
H      -2.464218     1.241602     2.478929
H      -3.582540     3.439883     2.608315
H      -3.992284     4.747526     0.541359
H      -3.285138     3.832923    -1.652221
H      -2.188673     1.631564    -1.781125
C       0.286547     0.819099    -1.049864
N       0.870706     1.661659    -1.570594
C       2.665748    -1.285119    -0.903979
O       3.464875    -1.185209    -1.816080
C       3.171009    -1.047177     0.550034
C       4.158879     0.076222     0.484422
H       4.358518     0.662939     1.373007
H       4.680696     0.301927    -0.433936
C       2.109029    -0.684439     1.601224
H       1.438818    -1.510972     1.841482
H       2.612364    -0.381269     2.521073
H       1.518274     0.171401     1.274763
N       1.393998    -1.736472    -1.183882
C       1.147091    -2.095707    -2.588226
H       0.203310    -2.640894    -2.639185
H       1.092440    -1.202783    -3.219060
H       1.956369    -2.728442    -2.950305
C       3.921232    -2.394482     0.991222
C       4.449361    -2.289227     2.436001
C       5.099370    -2.766259     0.071030
H       5.122292    -1.432852     2.521743
H       3.646072    -2.186291     3.165977
H       5.011924    -3.193241     2.681798
H       4.786652    -2.932047    -0.957902
H       5.834763    -1.958793     0.078735
H       5.575003    -3.675128     0.449447
C       2.960342    -3.515343     0.964257
N       2.241235    -4.412161     0.966597
48
     -1091.831784     -1091.497875   1.38   1.75
C      -0.918596    -0.069908     1.823934
C      -0.277153    -0.928331     0.921101
C       1.037434    -1.360646     1.140093
C       1.702922    -0.975782     2.292553
C       1.074172    -0.126660     3.194136
C      -0.215522     0.326155     2.960600
C      -2.304989     0.419264     1.599343
C      -3.347136    -0.463188     1.315960
C      -4.638223     0.010997     1.129828
C      -4.904901     1.371415     1.227225
C      -3.872558     2.257316     1.512453
C      -2.580869     1.783548     1.698215
H       2.714283    -1.325473     2.460249
H       1.601786     0.183489     4.089909
H      -0.701915     0.979807     3.676581
H      -3.149284    -1.527354     1.246682
H      -5.439098    -0.686718     0.907820
H      -5.914962     1.740614     1.080911
H      -4.072692     3.321441     1.588013
H      -1.773272     2.478460     1.907100
C      -0.930890    -1.349348    -0.292330
N      -1.413872    -1.697406    -1.276145
C       2.072438    -2.060425    -1.050521
O       2.174369    -3.005535    -1.810046
C       2.585661    -0.669806    -1.528889
C       2.237756    -0.558284    -2.981024
H       2.146803     0.421845    -3.433514
H       2.086258    -1.441740    -3.583656
C       2.016352     0.563559    -0.808421
H       2.323786     1.460781    -1.348658
H       0.926552     0.551239    -0.823078
H       2.359163     0.658121     0.222890
N       1.640126    -2.289557     0.237904
C       1.379973    -3.697022     0.574816
H       2.217895    -4.311004     0.247308
H       1.269733    -3.772993     1.657697
H       0.469913    -4.057323     0.084647
C       4.180632    -0.697557    -1.361315
C       4.807573     0.646085    -1.784366
C       4.859163    -1.822815    -2.165270
H       5.896107     0.572048    -1.723171
H       4.536904     0.870475    -2.818749
H       4.492028     1.471595    -1.145855
H       4.518789    -2.811637    -1.864671
H       4.638821    -1.693842    -3.227192
H       5.941484    -1.760410    -2.023305
C       4.514949    -0.899628     0.062682
N       4.816980    -1.044565     1.162307
48
     -1091.831090     -1091.496770   1.81   2.45
C      -2.068182    -0.456174    -0.218841
C      -0.674665    -0.384188    -0.337719
C       0.065813    -1.473581    -0.810265
C      -0.584163    -2.634770    -1.188126
C      -1.968954    -2.708246    -1.098076
C      -2.700596    -1.633996    -0.615427
C      -2.869437     0.678519     0.311260
C      -2.530750     1.295069     1.515875
C      -3.297766     2.340982     2.009939
C      -4.414069     2.781516     1.308947
C      -4.760705     2.169724     0.109868
C      -3.993589     1.123673    -0.385044
H      -0.001305    -3.480179    -1.538086
H      -2.478838    -3.619610    -1.393117
H      -3.778525    -1.707782    -0.520394
H      -1.666500     0.948955     2.072546
H      -3.021804     2.812953     2.947325
H      -5.012764     3.599881     1.696044
H      -5.630123     2.509826    -0.443887
H      -4.257526     0.656668    -1.328939
C       0.043339     0.821460    -0.014880
N       0.664868     1.760822     0.217068
C       2.196678    -1.314349     0.246014
O       1.610896    -1.477003     1.296897
C       3.719821    -1.015499     0.200869
C       4.409790    -2.018499    -0.673475
H       4.235720    -3.078598    -0.523889
H       5.191968    -1.713266    -1.359661
C       3.916198     0.423895    -0.314226
H       3.302239     1.133029     0.243161
H       4.963217     0.720883    -0.234037
H       3.637937     0.506767    -1.364363
N       1.485989    -1.372078    -0.936360
C       1.970751    -1.185054    -2.297963
H       1.439296    -1.876462    -2.957052
H       1.791908    -0.162148    -2.648967
H       3.033455    -1.411241    -2.364912
C       4.315665    -1.142582     1.669823
C       3.804057    -0.068890     2.649641
C       5.860344    -1.076832     1.643901
H       4.182162    -0.291563     3.651408
H       4.187549     0.911094     2.357729
H       2.717994    -0.037824     2.687823
H       6.289444    -1.863832     1.021256
H       6.202346    -0.107777     1.275678
H       6.241324    -1.203499     2.660535
C       3.989616    -2.485678     2.197036
N       3.833094    -3.548903     2.603482
48
     -1091.827150     -1091.492785   4.28   4.95
C      -1.855428    -0.918376     1.480430
C      -0.506828    -0.941195     1.094402
C       0.407012    -0.024698     1.620403
C      -0.016663     0.920474     2.538546
C      -1.347675     0.950584     2.929828
C      -2.255676     0.039357     2.408689
C      -2.848206    -1.872814     0.919993
C      -2.981019    -2.044831    -0.457884
C      -3.925857    -2.924169    -0.968331
C      -4.751837    -3.639133    -0.109151
C      -4.628930    -3.469836     1.265065
C      -3.683564    -2.590830     1.776318
H       0.698416     1.634935     2.930890
H      -1.680652     1.696156     3.644578
H      -3.298475     0.079097     2.704263
H      -2.346136    -1.481778    -1.133756
H      -4.016996    -3.050244    -2.042282
H      -5.489957    -4.326833    -0.509440
H      -5.269658    -4.026206     1.941913
H      -3.579314    -2.469992     2.850192
C      -0.017114    -1.930639     0.169597
N       0.417953    -2.712892    -0.552897
C       2.148831     0.823397     0.256470
O       1.277306     1.501010    -0.257105
C       3.622252     1.055301    -0.178138
C       3.775289     2.540100    -0.344944
H       4.774185     2.952377    -0.428739
H       2.915873     3.172852    -0.511376
C       4.698751     0.611736     0.831226
H       4.456211     0.985699     1.828578
H       4.843597    -0.465762     0.882128
H       5.654264     1.051252     0.539299
N       1.786299    -0.083590     1.230480
C       2.561742    -1.165889     1.838982
H       1.850793    -1.865283     2.281067
H       3.137376    -1.716820     1.097532
H       3.223045    -0.808378     2.631691
C       3.843276     0.341278    -1.589516
C       2.938190     0.913255    -2.697820
C       3.656605    -1.184673    -1.532286
H       3.226879     0.474992    -3.657089
H       1.894148     0.673484    -2.496641
H       3.034786     1.997479    -2.768946
H       3.827790    -1.607923    -2.525183
H       4.358554    -1.662321    -0.846374
H       2.634674    -1.434617    -1.238064
C       5.240397     0.616898    -1.983533
N       6.326728     0.830726    -2.291125
48
     -1091.827069     -1091.491955   4.34   5.47
C      -1.891147    -1.606410     0.280738
C      -0.678991    -0.942299     0.050377
C       0.214954    -1.398055    -0.923682
C      -0.099438    -2.514018    -1.678077
C      -1.300120    -3.178565    -1.460620
C      -2.183482    -2.730425    -0.490923
C      -2.856160    -1.147795     1.315561
C      -3.364273    -2.061313     2.240042
C      -4.281597    -1.656894     3.200507
C      -4.703973    -0.333442     3.246820
C      -4.204547     0.581522     2.327726
C      -3.287650     0.177654     1.367070
H       0.604809    -2.865099    -2.424945
H      -1.545317    -4.054509    -2.052375
H      -3.125386    -3.244104    -0.331994
H      -3.024368    -3.092071     2.214475
H      -4.665453    -2.376762     3.916499
H      -5.420437    -0.015981     3.997742
H      -4.530069     1.616279     2.357276
H      -2.909614     0.896174     0.648006
C      -0.300086     0.202355     0.836467
N       0.028380     1.125689     1.437594
C       2.446038    -0.922968    -0.252963
O       2.184420    -1.585860     0.732853
C       3.893391    -0.383028    -0.427956
C       4.800449    -1.430801     0.151439
H       4.428874    -2.162134     0.853401
H       5.863478    -1.362262    -0.047594
C       4.357015    -0.159984    -1.881544
H       3.944283     0.730249    -2.351892
H       5.443049    -0.050305    -1.887957
H       4.111871    -1.031511    -2.493341
N       1.441534    -0.698532    -1.173878
C       1.450140     0.104316    -2.396368
H       1.964708    -0.390373    -3.224826
H       0.409749     0.262290    -2.685275
H       1.894480     1.082731    -2.226475
C       4.036174     0.959233     0.426963
C       3.752762     0.737855     1.924834
C       3.151284     2.111518    -0.080130
H       2.698747     0.507114     2.081072
H       4.354014    -0.078980     2.325928
H       3.996210     1.651612     2.473443
H       2.096377     1.843402     0.005271
H       3.317104     2.992834     0.544466
H       3.382893     2.390921    -1.109777
C       5.446242     1.383304     0.298650
N       6.541077     1.715756     0.191648
