48
     -1091.833543     -1091.500450   0.00   0.00
C      -0.842085    -1.215543     2.041474
C       0.100843    -0.646070     1.176390
C       1.400205    -1.158261     1.090681
C       1.768811    -2.237313     1.873176
C       0.842804    -2.807446     2.738341
C      -0.446260    -2.303832     2.818690
C      -2.231855    -0.696021     2.146029
C      -3.308723    -1.579200     2.057864
C      -4.612487    -1.116005     2.172611
C      -4.855587     0.236877     2.379207
C      -3.788306     1.122164     2.471011
C      -2.484645     0.659454     2.356848
H       2.774777    -2.634491     1.789257
H       1.130955    -3.654723     3.352071
H      -1.161476    -2.745084     3.504389
H      -3.121434    -2.633958     1.881672
H      -5.440960    -1.813284     2.097548
H      -5.874445     0.600195     2.468142
H      -3.969963     2.179678     2.632953
H      -1.657361     1.355940     2.439022
C      -0.241702     0.459199     0.318901
N      -0.464661     1.346399    -0.377766
C       2.170925    -0.772253    -1.132663
O       1.291842    -1.534473    -1.486353
C       3.069044    -0.022686    -2.142983
C       4.518721    -0.215615    -1.812677
H       4.879511    -1.159803    -1.420581
H       5.246876     0.522436    -2.128875
C       2.688707     1.475543    -2.103455
H       3.173908     2.002879    -2.928018
H       3.016427     1.943649    -1.175962
H       1.608798     1.611855    -2.179770
N       2.355648    -0.548954     0.216689
C       3.261093     0.389931     0.869287
H       2.746365     1.321959     1.129471
H       4.113608     0.615552     0.230550
H       3.638220    -0.069102     1.786973
C       2.823769    -0.583351    -3.614850
C       3.138693    -2.087463    -3.747545
C       1.419576    -0.283807    -4.179015
H       2.427498    -2.671629    -3.166173
H       4.153420    -2.312850    -3.412619
H       3.060900    -2.378298    -4.798559
H       1.351743    -0.690056    -5.192082
H       1.228486     0.788597    -4.237181
H       0.658593    -0.753024    -3.558702
C       3.790585     0.125297    -4.484681
N       4.533457     0.674122    -5.168994
48
     -1091.833543     -1091.500447  -0.00   0.00
C      -0.760648     0.714093     1.836317
C       0.249623     0.302956     0.957609
C       1.143624    -0.712791     1.313955
C       1.039575    -1.319503     2.552357
C       0.043903    -0.916486     3.433966
C      -0.845595     0.085614     3.078442
C      -1.728834     1.785354     1.479481
C      -1.296895     3.021318     0.998365
C      -2.215017     4.015341     0.689105
C      -3.575515     3.788766     0.859285
C      -4.014339     2.561148     1.341426
C      -3.096413     1.566435     1.650417
H       1.729666    -2.114798     2.813208
H      -0.038968    -1.392623     4.405564
H      -1.613367     0.404531     3.775034
H      -0.236450     3.209883     0.871292
H      -1.864617     4.971361     0.313864
H      -4.292297     4.566768     0.616555
H      -5.075505     2.375880     1.474855
H      -3.441949     0.603146     2.012790
C       0.381420     0.881836    -0.354555
N       0.531924     1.319016    -1.407361
C       1.784292    -1.831674    -0.692026
O       0.621137    -2.175608    -0.779307
C       2.825246    -2.156187    -1.787576
C       4.040891    -2.801734    -1.193127
H       4.994566    -2.728105    -1.703030
H       3.954800    -3.488562    -0.358707
C       3.195354    -0.836477    -2.503381
H       3.792268    -0.190448    -1.860648
H       2.302778    -0.280531    -2.794675
H       3.788003    -1.052297    -3.395348
N       2.182581    -1.103788     0.410830
C       3.480897    -0.497134     0.681927
H       3.489617     0.562730     0.402751
H       4.272703    -1.017380     0.145247
H       3.687956    -0.578479     1.752262
C       2.204033    -3.168504    -2.850675
C       1.764392    -4.507153    -2.223084
C       1.055467    -2.574827    -3.692168
H       1.457316    -5.191810    -3.018207
H       0.923247    -4.347104    -1.550843
H       2.583181    -4.977662    -1.674579
H       1.383268    -1.708165    -4.267835
H       0.227820    -2.287541    -3.046789
H       0.707403    -3.332750    -4.399522
C       3.299964    -3.488107    -3.794232
N       4.142379    -3.738040    -4.535328
48
     -1091.834274     -1091.500377  -0.46   0.05
C      -0.788499     0.150742     2.099653
C       0.169564     0.099392     1.080023
C       0.224945     1.089296     0.091738
C      -0.656730     2.154661     0.134898
C      -1.593755     2.229087     1.158331
C      -1.662978     1.236653     2.124068
C      -0.885023    -0.909201     3.137576
C      -0.937357    -2.257284     2.783028
C      -1.046289    -3.237066     3.759935
C      -1.107414    -2.882255     5.102308
C      -1.059633    -1.540866     5.463679
C      -0.950417    -0.560330     4.486881
H      -0.615856     2.914703    -0.637821
H      -2.287029     3.063316     1.191632
H      -2.416634     1.285651     2.902464
H      -0.900022    -2.539655     1.736382
H      -1.084156    -4.282182     3.470284
H      -1.191986    -3.649329     5.865470
H      -1.104817    -1.256698     6.510281
H      -0.898455     0.485967     4.771889
C       1.159904    -0.945476     1.029691
N       1.983238    -1.743546     0.943633
C       1.078585    -0.013848    -1.842303
O       0.075363    -0.699768    -1.806914
C       2.193932    -0.239604    -2.887267
C       3.539449    -0.266488    -2.224889
H       4.426874    -0.037142    -2.803844
H       3.656527    -0.698224    -1.237377
C       2.108727     0.895204    -3.932510
H       1.095833     0.988848    -4.329501
H       2.789391     0.689802    -4.762337
H       2.391761     1.855666    -3.501493
N       1.223494     1.008527    -0.924774
C       2.226820     2.065938    -0.896313
H       2.512833     2.251888     0.141836
H       1.842872     2.997851    -1.327259
H       3.120705     1.764471    -1.439504
C       1.986653    -1.643658    -3.615076
C       2.005352    -2.831459    -2.632379
C       0.735576    -1.719096    -4.515108
H       2.907781    -2.830101    -2.018819
H       1.982501    -3.765958    -3.199166
H       1.135603    -2.793151    -1.978514
H       0.778220    -0.994394    -5.330189
H      -0.162709    -1.550467    -3.924417
H       0.683729    -2.715885    -4.961699
C       3.155174    -1.809837    -4.510014
N       4.049618    -1.937237    -5.220867
48
     -1091.834017     -1091.500361  -0.30   0.06
C      -0.630669    -0.309155     2.211909
C      -0.005154    -0.045356     0.987629
C      -0.753302     0.276584    -0.150133
C      -2.131565     0.347744    -0.073072
C      -2.763479     0.092054     1.138133
C      -2.022598    -0.234508     2.263635
C       0.141952    -0.661443     3.432761
C       1.221735     0.114266     3.854687
C       1.919911    -0.219791     5.006879
C       1.546694    -1.330756     5.753646
C       0.469768    -2.107266     5.342142
C      -0.228560    -1.773865     4.189494
H      -2.702447     0.587076    -0.963804
H      -3.845466     0.145482     1.201597
H      -2.522026    -0.420646     3.208257
H       1.513619     0.988767     3.283385
H       2.758902     0.391954     5.322177
H       2.093763    -1.591153     6.654125
H       0.173813    -2.977806     5.918977
H      -1.059849    -2.390391     3.861661
C       1.424653    -0.126030     0.832536
N       2.557862    -0.160615     0.640224
C       0.460755    -0.532429    -2.030138
O       0.183130    -1.647705    -1.632809
C       1.343271    -0.302054    -3.277411
C       2.356875     0.773788    -3.031477
H       2.865082     0.843497    -2.076940
H       2.705939     1.386864    -3.854083
C       0.405954     0.072816    -4.445571
H      -0.062311     1.044881    -4.284258
H      -0.389875    -0.665127    -4.562247
H       0.973131     0.125166    -5.378432
N      -0.077345     0.559302    -1.379028
C       0.149515     1.979514    -1.625617
H       0.913289     2.383004    -0.952005
H      -0.788794     2.514521    -1.452496
H       0.464538     2.160079    -2.649316
C       2.135782    -1.637352    -3.641039
C       3.027692    -2.129258    -2.484216
C       1.249852    -2.792478    -4.152816
H       2.411237    -2.465042    -1.651687
H       3.698992    -1.344960    -2.130902
H       3.638551    -2.966133    -2.832712
H       0.737113    -2.529765    -5.079839
H       0.517397    -3.067410    -3.396527
H       1.886433    -3.656889    -4.361061
C       3.036948    -1.277193    -4.760222
N       3.723081    -1.013214    -5.644088
48
     -1091.834017     -1091.500351  -0.30   0.06
C      -1.145422    -0.815004     1.834347
C      -0.203799    -0.302178     0.934320
C      -0.601845     0.456998    -0.171627
C      -1.942444     0.719100    -0.383015
C      -2.886186     0.218807     0.506244
C      -2.492309    -0.539896     1.597807
C      -0.747888    -1.631276     3.012135
C      -1.390145    -2.844737     3.261999
C      -1.044837    -3.611240     4.366827
C      -0.053748    -3.172557     5.237099
C       0.588396    -1.963853     4.996524
C       0.243168    -1.196891     3.892362
H      -2.240803     1.299064    -1.249739
H      -3.939578     0.421412     0.342249
H      -3.233631    -0.916493     2.294227
H      -2.153877    -3.196495     2.575270
H      -1.549228    -4.555342     4.546909
H       0.217480    -3.771547     6.100578
H       1.362431    -1.614112     5.671876
H       0.742504    -0.250046     3.717781
C       1.205965    -0.558274     1.082158
N       2.343707    -0.712920     1.145093
C       0.991738     0.060995    -1.893969
O       0.532961    -1.063583    -1.954256
C       2.183473     0.508839    -2.769638
C       3.180453     1.288992    -1.967938
H       3.426949     0.991014    -0.955653
H       3.778754     2.055570    -2.446240
C       1.614781     1.356687    -3.927852
H       2.407215     1.593422    -4.642459
H       1.199351     2.298157    -3.565570
H       0.820649     0.821990    -4.452221
N       0.391016     0.981072    -1.058529
C       0.786250     2.355960    -0.770912
H       1.377917     2.415403     0.149042
H      -0.119210     2.956715    -0.644977
H       1.370232     2.780002    -1.582673
C       2.934627    -0.765856    -3.364795
C       3.453517    -1.713290    -2.265338
C       2.123216    -1.562025    -4.408277
H       4.070177    -1.185476    -1.536133
H       4.065406    -2.494453    -2.723964
H       2.617345    -2.179310    -1.746184
H       2.721252    -2.414867    -4.741170
H       1.891560    -0.958551    -5.287734
H       1.199949    -1.929725    -3.965080
C       4.121206    -0.236637    -4.076369
N       5.032116     0.166129    -4.650566
48
     -1091.833015     -1091.499370   0.33   0.68
C      -2.063821    -0.265038    -0.206314
C      -0.708227    -0.516098     0.034273
C      -0.033024    -1.538752    -0.641107
C      -0.711926    -2.335502    -1.543467
C      -2.064399    -2.110600    -1.772673
C      -2.729558    -1.086234    -1.116468
C      -2.790222     0.837680     0.476691
C      -4.023949     0.592148     1.080418
C      -4.719475     1.618265     1.705563
C      -4.190515     2.903467     1.732367
C      -2.963881     3.156417     1.129987
C      -2.268328     2.131144     0.504405
H      -0.174468    -3.118390    -2.067800
H      -2.599566    -2.733150    -2.482371
H      -3.777790    -0.898707    -1.322494
H      -4.431905    -0.413936     1.073532
H      -5.676073     1.412918     2.175616
H      -4.733281     3.705919     2.221721
H      -2.545117     4.157417     1.145688
H      -1.316317     2.337214     0.027030
C       0.043939     0.234731     1.007043
N       0.706608     0.781577     1.771585
C       2.209198    -0.793487    -0.781864
O       1.795323     0.084129    -1.516136
C       3.711701    -0.766616    -0.352520
C       3.973430    -1.388779     0.979638
H       4.499482    -2.328670     1.093683
H       3.579017    -0.905386     1.866305
C       4.062780     0.734878    -0.222207
H       5.079076     0.855960     0.155625
H       3.376425     1.198151     0.490962
H       3.951379     1.259762    -1.169792
N       1.349035    -1.778723    -0.358414
C       1.604286    -2.886857     0.562727
H       0.805135    -3.617024     0.418243
H       1.586664    -2.558643     1.606336
H       2.545470    -3.381732     0.341701
C       4.576992    -1.448070    -1.484231
C       4.238556    -0.964731    -2.908323
C       6.082891    -1.237496    -1.227670
H       4.369182     0.115248    -2.984265
H       3.212510    -1.202335    -3.188878
H       4.916228    -1.448059    -3.617411
H       6.664208    -1.867029    -1.905968
H       6.357036    -1.491116    -0.201627
H       6.350386    -0.196371    -1.415268
C       4.334626    -2.905822    -1.460681
N       4.165888    -4.042711    -1.454619
48
     -1091.832552     -1091.498989   0.62   0.92
C      -2.119848    -0.378318    -0.178656
C      -0.754791    -0.598306     0.039796
C      -0.009201    -1.411920    -0.820306
C      -0.621095    -2.021631    -1.898855
C      -1.977140    -1.814671    -2.122707
C      -2.714805    -1.001726    -1.275683
C      -2.932119     0.488484     0.716051
C      -2.908113     0.322935     2.100925
C      -3.686448     1.129613     2.919480
C      -4.500998     2.109721     2.365340
C      -4.533654     2.279216     0.986095
C      -3.754854     1.472970     0.167064
H      -0.028205    -2.641381    -2.562864
H      -2.460826    -2.290934    -2.969378
H      -3.775222    -0.855063    -1.450048
H      -2.282567    -0.446001     2.541145
H      -3.655965     0.990369     3.995238
H      -5.108783     2.740180     3.006504
H      -5.165630     3.044100     0.545915
H      -3.770447     1.617195    -0.908842
C      -0.046787     0.025856     1.128469
N       0.581740     0.481379     1.977027
C       2.192215    -0.546175    -0.789167
O       1.740335     0.421036    -1.372634
C       3.686630    -0.517758    -0.332619
C       3.967677    -1.347098     0.876962
H       4.537213    -2.267499     0.836381
H       3.543777    -1.042270     1.827112
C       3.955316     0.954420     0.060814
H       3.822922     1.628805    -0.783826
H       4.960522     1.060938     0.471329
H       3.239125     1.250863     0.831191
N       1.380503    -1.630156    -0.554621
C       1.680869    -2.865256     0.170074
H       2.645566    -3.272936    -0.118281
H       0.917230    -3.595113    -0.107654
H       1.641798    -2.720721     1.253990
C       4.597861    -0.949414    -1.547923
C       4.250980    -0.243233    -2.873469
C       6.088151    -0.714092    -1.229364
H       4.959947    -0.563263    -3.641995
H       4.327962     0.838533    -2.759160
H       3.241325    -0.477127    -3.210698
H       6.363866    -1.129149    -0.257795
H       6.304056     0.355541    -1.228031
H       6.708237    -1.186675    -1.995200
C       4.429245    -2.399170    -1.780745
N       4.317749    -3.526763    -1.973406
48
     -1091.832634     -1091.498591   0.57   1.17
C      -1.828222     0.557317     0.467985
C      -0.513040     0.240534     0.103724
C      -0.012243     0.586861    -1.154917
C      -0.816659     1.268292    -2.050880
C      -2.115791     1.606811    -1.692519
C      -2.615513     1.252503    -0.448919
C      -2.390258     0.172613     1.789743
C      -3.039220     1.126218     2.574732
C      -3.586261     0.775125     3.801564
C      -3.493054    -0.534981     4.256734
C      -2.851327    -1.491029     3.478444
C      -2.304526    -1.140782     2.251769
H      -0.424563     1.522195    -3.030030
H      -2.746202     2.140209    -2.396569
H      -3.638628     1.495205    -0.182983
H      -3.100553     2.152933     2.227150
H      -4.084420     1.527379     4.405008
H      -3.919718    -0.810064     5.216052
H      -2.775946    -2.515980     3.826842
H      -1.813922    -1.893609     1.644215
C       0.372605    -0.421155     1.025213
N       1.114891    -0.934327     1.737690
C       1.605197    -1.034946    -1.819146
O       0.714621    -1.855541    -1.706984
C       2.995915    -1.492028    -2.351152
C       3.733762    -0.437461    -3.112289
H       4.817468    -0.416470    -3.117316
H       3.213171     0.099998    -3.898148
C       2.699396    -2.626293    -3.368108
H       3.636028    -3.023528    -3.764701
H       2.113696    -2.228690    -4.200673
H       2.120311    -3.426277    -2.910596
N       1.340360     0.282915    -1.512842
C       2.254138     1.412284    -1.396043
H       2.271829     1.773835    -0.361992
H       1.928707     2.229515    -2.047517
H       3.261319     1.124198    -1.685957
C       3.863762    -2.045185    -1.151572
C       4.251094    -0.944596    -0.145788
C       3.189538    -3.199006    -0.385093
H       3.358984    -0.558615     0.351378
H       4.788732    -0.125570    -0.627582
H       4.902062    -1.368119     0.622810
H       3.871380    -3.551651     0.393115
H       2.953036    -4.040894    -1.035607
H       2.271369    -2.852864     0.090529
C       5.120220    -2.567088    -1.732287
N       6.103085    -2.961781    -2.178273
48
     -1091.830417     -1091.497805   1.96   1.66
C      -1.727593     0.251125     0.796928
C      -0.421045     0.050342     0.326715
C       0.030348     0.691941    -0.828710
C      -0.812111     1.549719    -1.514212
C      -2.102453     1.766664    -1.050646
C      -2.554408     1.123213     0.092124
C      -2.241327    -0.439706     2.009518
C      -2.866764     0.295645     3.016893
C      -3.371046    -0.339553     4.143805
C      -3.258201    -1.718723     4.275410
C      -2.639805    -2.458200     3.274228
C      -2.135911    -1.823718     2.147370
H      -0.453649     2.033351    -2.416477
H      -2.763571     2.435770    -1.591782
H      -3.570558     1.276859     0.438905
H      -2.943549     1.374411     2.921785
H      -3.851234     0.244593     4.922512
H      -3.651351    -2.215917     5.156446
H      -2.548629    -3.535292     3.369624
H      -1.662493    -2.406961     1.364889
C       0.495631    -0.796356     1.046079
N       1.240511    -1.462916     1.614285
C       1.558087    -0.541618    -2.162268
O       0.613256    -1.256895    -2.441717
C       2.945185    -0.828422    -2.826542
C       3.719731     0.407803    -3.152371
H       3.275077     1.153936    -3.801534
H       4.738283     0.559796    -2.816994
C       2.612281    -1.514575    -4.175226
H       2.116655    -2.473833    -4.028977
H       3.519190    -1.650552    -4.765844
H       1.928858    -0.879995    -4.743562
N       1.374142     0.501200    -1.288867
C       2.332068     1.460104    -0.748882
H       3.316954     1.313336    -1.179135
H       2.416554     1.338808     0.334853
H       1.996963     2.477273    -0.975278
C       3.778425    -1.810606    -1.911824
C       2.936411    -2.960102    -1.327160
C       4.976280    -2.403386    -2.683396
H       2.165452    -2.597283    -0.647717
H       3.591326    -3.634163    -0.769006
H       2.456331    -3.524475    -2.127622
H       5.553917    -1.630739    -3.195597
H       4.626028    -3.127632    -3.420320
H       5.639691    -2.920039    -1.985609
C       4.350257    -1.061225    -0.772220
N       4.837942    -0.504198     0.106502
48
     -1091.831090     -1091.496766   1.54   2.31
C      -2.026331    -0.434136    -0.223394
C      -0.676592    -0.713680     0.024100
C      -0.121339    -1.950757    -0.321922
C      -0.917228    -2.924819    -0.897562
C      -2.263799    -2.667138    -1.124529
C      -2.809714    -1.435895    -0.795494
C      -2.627162     0.885050     0.107193
C      -2.027651     2.072243    -0.313640
C      -2.608374     3.296990    -0.015140
C      -3.796394     3.350920     0.704091
C      -4.402321     2.172298     1.123543
C      -3.821664     0.946869     0.825570
H      -0.475225    -3.875162    -1.177550
H      -2.887929    -3.430668    -1.577408
H      -3.854619    -1.230703    -1.001587
H      -1.105728     2.036147    -0.884042
H      -2.130291     4.212920    -0.346973
H      -4.249259     4.309296     0.937389
H      -5.329251     2.206928     1.687282
H      -4.288763     0.028020     1.166493
C       0.179368     0.243551     0.675547
N       0.903565     0.965080     1.202268
C       2.172320    -1.517902    -0.805072
O       1.777331    -0.829449    -1.723749
C       3.680126    -1.607682    -0.444843
C       4.119228    -3.040773    -0.445415
H       4.784423    -3.418863     0.322950
H       3.893732    -3.676410    -1.294885
C       3.889976    -0.945338     0.931025
H       3.444711     0.050185     0.965263
H       4.953832    -0.866669     1.161019
H       3.432102    -1.534772     1.724750
N       1.255503    -2.218563    -0.046823
C       1.496694    -3.078286     1.104972
H       2.508563    -3.479099     1.083587
H       0.801943    -3.921235     1.064459
H       1.336627    -2.539793     2.046207
C       4.522387    -0.828765    -1.546148
C       4.282685     0.693395    -1.559148
C       6.036786    -1.078161    -1.357927
H       4.680784     1.138370    -0.644732
H       3.227549     0.937955    -1.653154
H       4.819110     1.131313    -2.405648
H       6.379753    -0.684208    -0.399390
H       6.585908    -0.561610    -2.149365
H       6.282918    -2.140036    -1.412921
C       4.195247    -1.390026    -2.875112
N       4.033841    -1.859972    -3.911087
48
     -1091.828867     -1091.496331   2.93   2.58
C      -1.520697     1.149411     0.258086
C      -0.310873     0.446555     0.372819
C       0.756234     0.710027    -0.490095
C       0.620820     1.664097    -1.484820
C      -0.576775     2.350806    -1.618728
C      -1.633109     2.099398    -0.753579
C      -2.666463     0.898374     1.172086
C      -3.938236     0.673065     0.643980
C      -5.022543     0.457197     1.483701
C      -4.848669     0.466269     2.862738
C      -3.585589     0.692971     3.396237
C      -2.501469     0.909245     2.557074
H       1.449215     1.846445    -2.159866
H      -0.685990     3.093367    -2.402453
H      -2.559315     2.655639    -0.849293
H      -4.072964     0.651008    -0.433020
H      -6.005636     0.278589     1.059679
H      -5.695638     0.296669     3.519875
H      -3.441785     0.701827     4.471782
H      -1.520332     1.093705     2.981068
C      -0.148043    -0.595496     1.355608
N       0.019797    -1.421756     2.138031
C       2.251717    -0.989007    -1.242033
O       1.451469    -1.213039    -2.127843
C       3.584998    -1.775781    -1.134856
C       3.724090    -2.349193     0.243313
H       4.694946    -2.411697     0.722066
H       2.874801    -2.821280     0.724725
C       4.739202    -0.812398    -1.475581
H       5.691079    -1.345248    -1.515099
H       4.836069    -0.030467    -0.722550
H       4.574374    -0.327583    -2.440107
N       1.986529     0.000520    -0.319711
C       2.817344     0.468173     0.783606
H       2.191017     0.613817     1.666711
H       3.301717     1.419599     0.534437
H       3.574702    -0.269026     1.041763
C       3.572303    -2.977973    -2.177134
C       3.593624    -2.534911    -3.653667
C       4.772923    -3.923519    -1.940944
H       3.457058    -3.413370    -4.290334
H       4.564446    -2.096591    -3.896675
H       2.802569    -1.821828    -3.874417
H       4.725384    -4.747889    -2.657003
H       4.762333    -4.347531    -0.935616
H       5.718398    -3.399479    -2.094872
C       2.368689    -3.803130    -1.936012
N       1.493168    -4.519143    -1.734362
48
     -1091.827127     -1091.492501   4.03   4.99
C       2.035691     1.262365     1.584969
C       1.234648     0.657099     0.603548
C       1.699130     0.494310    -0.704232
C       2.974558     0.918543    -1.038866
C       3.782320     1.496986    -0.071606
C       3.315759     1.672598     1.224425
C       1.555907     1.459583     2.978582
C       0.333743     2.078639     3.240808
C      -0.090139     2.272561     4.548183
C       0.702719     1.853465     5.609841
C       1.923591     1.238775     5.357363
C       2.347749     1.044214     4.049771
H       3.331314     0.774461    -2.052358
H       4.784273     1.821403    -0.333172
H       3.943950     2.147556     1.970128
H      -0.286562     2.416847     2.417751
H      -1.044175     2.753804     4.737390
H       0.370025     2.005141     6.631732
H       2.547107     0.906800     6.181496
H       3.294693     0.550738     3.853990
C      -0.071785     0.145463     0.929923
N      -1.122709    -0.268131     1.148573
C       1.172549    -1.383362    -2.056707
O       2.063386    -1.947776    -1.448861
C       0.479196    -2.141254    -3.222897
C       1.564772    -2.903809    -3.927034
H       2.494729    -3.136275    -3.429346
H       1.349277    -3.334423    -4.898082
C      -0.205480    -1.265185    -4.289823
H      -0.423539    -1.884163    -5.161998
H       0.469071    -0.469096    -4.613163
H      -1.146377    -0.823915    -3.966663
N       0.846438    -0.091294    -1.696882
C      -0.278933     0.741385    -2.125676
H      -0.366616     1.560745    -1.411326
H      -1.219568     0.194288    -2.106440
H      -0.119621     1.173775    -3.115872
C      -0.562297    -3.173297    -2.588213
C       0.112038    -4.225404    -1.686419
C      -1.688876    -2.487293    -1.796337
H       0.519691    -3.753858    -0.792301
H       0.924117    -4.733468    -2.208260
H      -0.630695    -4.971055    -1.389861
H      -1.278810    -1.929734    -0.951227
H      -2.364086    -3.247216    -1.395270
H      -2.283066    -1.815899    -2.418818
C      -1.175040    -3.899589    -3.719630
N      -1.651810    -4.465651    -4.598659
48
     -1091.826076     -1091.492182   4.69   5.19
C       0.114310    -1.259176     2.379307
C       0.217544    -0.680433     1.109235
C      -0.330889    -1.306308    -0.015592
C      -1.011033    -2.501811     0.123604
C      -1.141155    -3.073158     1.383941
C      -0.581152    -2.462590     2.495577
C       0.719066    -0.625294     3.580299
C      -0.037886    -0.466706     4.741593
C       0.522082     0.107852     5.874680
C       1.846855     0.528548     5.860583
C       2.607969     0.370574     4.708499
C       2.048997    -0.204212     3.575593
H      -1.424397    -2.986321    -0.754597
H      -1.672101    -4.012981     1.495006
H      -0.661549    -2.929582     3.471180
H      -1.077084    -0.780846     4.749907
H      -0.078779     0.230015     6.770348
H       2.284913     0.978639     6.745742
H       3.643168     0.695566     4.690410
H       2.651167    -0.334158     2.682708
C       0.852222     0.596692     0.906492
N       1.332765     1.614232     0.669967
C       1.063131    -0.657254    -1.820045
O       1.904090    -1.368351    -1.302338
C       1.479186     0.230938    -3.023884
C       2.877233     0.698621    -2.735070
H       3.294199     1.489806    -3.346797
H       3.491577     0.208114    -1.995122
C       0.633616     1.501761    -3.241433
H       0.497366     2.022427    -2.290823
H      -0.339140     1.320661    -3.696112
H       1.177254     2.171908    -3.909553
N      -0.216027    -0.675031    -1.295704
C      -1.431062    -0.011734    -1.763577
H      -2.276833    -0.517336    -1.294217
H      -1.547422    -0.105781    -2.840662
H      -1.463464     1.044448    -1.481963
C       1.490119    -0.686960    -4.328960
C       2.522312    -1.827464    -4.241647
C       0.111025    -1.285135    -4.658987
H       2.247146    -2.528911    -3.453472
H       3.518111    -1.440267    -4.021758
H       2.557362    -2.357395    -5.197405
H      -0.638210    -0.515176    -4.852639
H      -0.228055    -1.920814    -3.836722
H       0.187102    -1.906254    -5.554972
C       1.889279     0.179061    -5.456746
N       2.197933     0.847039    -6.339106
