48
     -1091.786452     -1091.451345   0.00   0.00
C       1.228224     1.028076    -1.708148
C       1.370918     0.238922    -0.555496
C       0.443464     0.294937     0.492826
C      -0.648320     1.149008     0.380946
C      -0.810159     1.912934    -0.765391
C       0.116520     1.859583    -1.798527
C       2.218465     0.987251    -2.816424
C       3.584715     1.119379    -2.567672
C       4.496444     1.098019    -3.613650
C       4.055340     0.947560    -4.922887
C       2.695448     0.819168    -5.180664
C       1.783508     0.840407    -4.134130
H      -1.359627     1.220720     1.194612
H      -1.667158     2.573928    -0.847057
H      -0.007307     2.483414    -2.676952
H       3.936108     1.245091    -1.549308
H       5.556217     1.198944    -3.403297
H       4.769147     0.930200    -5.740330
H       2.342869     0.699509    -6.200273
H       0.723123     0.725795    -4.336658
C       2.445905    -0.712380    -0.444310
N       3.293028    -1.484062    -0.341954
C      -0.474295    -1.150434     2.229510
O      -1.227784    -0.348982     3.021597
C      -1.325092    -1.813479     1.126250
C      -0.750945    -2.468590     0.124392
H      -1.355507    -2.938845    -0.645703
H       0.325387    -2.546828     0.020165
C      -2.817695    -1.649129     1.222985
H      -3.306242    -2.208189     0.421619
H      -3.212438    -1.991500     2.182385
H      -3.094173    -0.594355     1.129222
N       0.700968    -0.507906     1.644598
C       1.612657     0.184365     2.567157
H       2.362371     0.706046     1.969992
H       1.094735     0.916109     3.198552
H       2.138467    -0.522554     3.207896
C      -0.026916    -2.302320     3.292433
C       1.107289    -3.172974     2.727303
C      -1.217526    -3.196170     3.682099
H       1.936889    -2.581533     2.343707
H       1.473580    -3.826768     3.523618
H       0.720741    -3.794834     1.919735
H      -0.877167    -3.916307     4.430561
H      -2.031451    -2.612523     4.111792
H      -1.576174    -3.744257     2.810283
C       0.434560    -1.659876     4.539311
N       0.791153    -1.237829     5.546490
48
     -1091.783403     -1091.449426   1.91   1.20
C       2.995985     0.168333    -0.332653
C       1.665318     0.260619     0.104455
C       1.215438    -0.426049     1.240578
C       2.117939    -1.190824     1.967392
C       3.435098    -1.289983     1.541631
C       3.871084    -0.621940     0.406822
C       3.483463     0.880392    -1.543473
C       4.647871     1.646348    -1.475058
C       5.129767     2.301960    -2.599818
C       4.454198     2.197631    -3.810137
C       3.296150     1.433465    -3.887994
C       2.814831     0.778014    -2.763455
H       1.788219    -1.711498     2.856513
H       4.130556    -1.904445     2.103587
H       4.898700    -0.722556     0.074711
H       5.169650     1.739489    -0.527642
H       6.034309     2.897863    -2.529998
H       4.829460     2.710494    -4.689990
H       2.762560     1.346113    -4.828836
H       1.914784     0.177400    -2.835524
C       0.717403     1.090393    -0.594291
N      -0.054901     1.739709    -1.146998
C      -0.988362    -1.347023     1.978442
O      -0.633036    -1.985150     3.132615
C      -2.427447    -0.795532     2.209813
C      -3.080016    -1.063991     3.335114
H      -4.071043    -0.650572     3.501184
H      -2.667157    -1.685515     4.120163
C      -3.031197     0.075801     1.135751
H      -3.808140     0.706695     1.572253
H      -2.282569     0.711648     0.659155
H      -3.502314    -0.527094     0.352634
N      -0.142334    -0.197685     1.643541
C      -0.172983     0.873663     2.652086
H       0.434323     1.704681     2.287095
H      -1.191883     1.233819     2.794836
H       0.225420     0.545464     3.621617
C      -1.018220    -2.459618     0.836565
C      -0.974226    -1.898101    -0.596966
C      -2.251205    -3.370849     1.009079
H      -1.696982    -1.096651    -0.735455
H       0.013504    -1.518479    -0.850941
H      -1.210123    -2.704429    -1.296468
H      -3.165234    -2.830280     0.760247
H      -2.156459    -4.223727     0.332722
H      -2.327512    -3.743291     2.030838
C       0.155405    -3.341480     1.007907
N       1.031204    -4.081899     1.080797
48
     -1091.783403     -1091.449410   1.91   1.21
C       2.894992     0.573898     0.147075
C       1.506783     0.372308     0.095979
C       0.779706    -0.025954     1.226130
C       1.446771    -0.193880     2.432187
C       2.819493     0.001014     2.491986
C       3.537005     0.378306     1.366353
C       3.680742     0.982921    -1.047073
C       3.574770     0.294371    -2.255622
C       4.331341     0.678029    -3.353924
C       5.206948     1.752931    -3.259099
C       5.322599     2.442391    -2.057674
C       4.565437     2.058478    -0.959286
H       0.894839    -0.483463     3.316428
H       3.337380    -0.150258     3.433222
H       4.612212     0.509398     1.422569
H       2.899989    -0.550695    -2.336572
H       4.234951     0.133819    -4.287774
H       5.797705     2.052719    -4.118823
H       6.003155     3.283964    -1.975427
H       4.647523     2.606243    -0.025616
C       0.775936     0.593663    -1.125583
N       0.178880     0.755223    -2.095617
C      -1.329333    -1.316786     1.592655
O      -1.346210    -1.409994     2.955255
C      -2.818105    -1.207263     1.144866
C      -3.799203    -1.299751     2.035441
H      -4.833085    -1.192164     1.718994
H      -3.622027    -1.477164     3.089089
C      -3.099476    -0.958192    -0.316655
H      -2.353327    -0.301654    -0.768462
H      -3.106822    -1.893704    -0.885368
H      -4.086209    -0.503535    -0.425513
N      -0.644247    -0.125520     1.081866
C      -1.262187     1.140654     1.507137
H      -0.723189     1.961701     1.029633
H      -2.302740     1.183964     1.185248
H      -1.222538     1.279312     2.595985
C      -0.705935    -2.680762     1.051687
C      -0.205818    -2.616233    -0.403658
C      -1.719538    -3.833009     1.211146
H      -0.948833    -2.172541    -1.063159
H       0.715312    -2.042943    -0.488158
H       0.002791    -3.632616    -0.747968
H      -1.213681    -4.778782     1.002685
H      -2.121197    -3.868654     2.224043
H      -2.544632    -3.718063     0.507163
C       0.445346    -3.043041     1.904826
N       1.340944    -3.404365     2.527654
48
     -1091.782427     -1091.448643   2.53   1.70
C      -1.204603    -0.245888    -0.708069
C      -0.226043    -0.721436     0.178029
C       0.870232    -1.471664    -0.266066
C       0.924007    -1.827842    -1.609264
C      -0.053610    -1.389882    -2.490601
C      -1.099800    -0.591981    -2.050433
C      -2.310402     0.632441    -0.246938
C      -3.631541     0.331641    -0.577061
C      -4.666148     1.161439    -0.166248
C      -4.388564     2.303896     0.575881
C      -3.072947     2.611916     0.902027
C      -2.037042     1.783921     0.492538
H       1.733272    -2.449110    -1.966288
H       0.009505    -1.665356    -3.538509
H      -1.840249    -0.221580    -2.751343
H      -3.848206    -0.567078    -1.146588
H      -5.691110     0.914469    -0.424520
H      -5.196406     2.953224     0.898407
H      -2.849251     3.503218     1.479209
H      -1.009354     2.031668     0.736445
C      -0.371292    -0.486262     1.591273
N      -0.502361    -0.330436     2.722951
C       3.230167    -1.437319     0.658224
O       4.048004    -2.263302     1.341234
C       3.796465    -1.339173    -0.778479
C       3.781604    -0.240729    -1.520509
H       4.181048    -0.267763    -2.530698
H       3.378923     0.707325    -1.188369
C       4.353474    -2.640635    -1.303054
H       4.580114    -2.552196    -2.368514
H       5.267465    -2.917624    -0.769068
H       3.646710    -3.465282    -1.163814
N       1.834118    -1.902946     0.696329
C       1.585490    -3.238921     1.228926
H       0.507911    -3.353426     1.374313
H       1.930239    -4.044875     0.564120
H       2.080548    -3.358219     2.193209
C       3.376578    -0.075757     1.525006
C       4.805686     0.487432     1.485241
C       2.975357    -0.353884     2.985559
H       4.843087     1.385846     2.106986
H       5.497440    -0.250228     1.893303
H       5.121832     0.750664     0.477575
H       2.918719     0.595928     3.523839
H       2.003969    -0.839187     3.048788
H       3.730930    -0.982328     3.459669
C       2.448294     0.936850     0.991550
N       1.734889     1.748765     0.600930
48
     -1091.783062     -1091.448432   2.13   1.83
C      -1.329742    -0.157080    -0.313154
C      -0.236903    -0.838597     0.247065
C       0.744631    -1.431961    -0.553834
C       0.564080    -1.441196    -1.933323
C      -0.529792    -0.802239    -2.497735
C      -1.456764    -0.146961    -1.697929
C      -2.316197     0.557988     0.536492
C      -1.886583     1.454511     1.516109
C      -2.813480     2.134213     2.293674
C      -4.174989     1.931367     2.101058
C      -4.608771     1.043519     1.122983
C      -3.683550     0.362060     0.343784
H       1.296291    -1.936528    -2.558428
H      -0.653380    -0.801076    -3.576038
H      -2.288197     0.385417    -2.147479
H      -0.824541     1.621984     1.661605
H      -2.467540     2.826209     3.054526
H      -4.897304     2.464139     2.711542
H      -5.670408     0.879233     0.967608
H      -4.021925    -0.341394    -0.410957
C      -0.155793    -1.011850     1.674733
N      -0.111764    -1.186264     2.810091
C       3.211695    -1.508131    -0.041446
O       4.150175    -2.466890     0.077009
C       3.469705    -0.747965    -1.373452
C       4.136659    -1.384360    -2.332223
H       4.320614    -0.900596    -3.287664
H       4.521718    -2.390049    -2.205984
C       2.980706     0.664825    -1.586626
H       3.087086     0.919454    -2.643069
H       1.937718     0.803061    -1.303143
H       3.561821     1.388651    -1.008946
N       1.852596    -2.077104     0.081558
C       1.773623    -3.535516    -0.014582
H       2.080400    -3.926446    -0.995811
H       2.403906    -3.995449     0.747198
H       0.736336    -3.829090     0.166950
C       3.544065    -0.591431     1.248115
C       4.961465    -0.003077     1.154950
C       3.403285    -1.423731     2.534236
H       5.118870     0.680377     1.993531
H       5.693030    -0.809078     1.215602
H       5.125115     0.545526     0.227438
H       2.422641    -1.891326     2.597771
H       4.178947    -2.190564     2.562322
H       3.527350    -0.764671     3.397549
C       2.572430     0.514479     1.327633
N       1.825730     1.382254     1.424217
48
     -1091.783062     -1091.448428   2.13   1.83
C      -0.440626    -1.287140    -1.357440
C      -0.211725    -0.656669    -0.123452
C       0.274058    -1.364146     0.981265
C       0.420443    -2.743848     0.877964
C       0.163661    -3.384206    -0.325107
C      -0.241609    -2.661021    -1.439166
C      -0.859962    -0.516655    -2.556120
C      -1.940339    -0.946536    -3.326291
C      -2.322907    -0.239775    -4.458414
C      -1.625536     0.902966    -4.833770
C      -0.544827     1.332748    -4.072647
C      -0.160223     0.628082    -2.940715
H       0.753866    -3.305622     1.741378
H       0.296323    -4.458803    -0.400314
H      -0.401847    -3.161688    -2.388091
H      -2.493163    -1.831342    -3.025484
H      -3.168548    -0.580772    -5.047324
H      -1.924151     1.456949    -5.718195
H       0.004700     2.223209    -4.359928
H       0.689828     0.959906    -2.353811
C      -0.560175     0.730400     0.048187
N      -0.876111     1.825433     0.198134
C       1.907052    -0.483884     2.687994
O       1.932703    -0.346583     4.027552
C       2.867649    -1.646295     2.307577
C       3.129816    -2.563473     3.234467
H       3.777589    -3.405586     3.006490
H       2.721820    -2.512060     4.237719
C       3.485809    -1.745381     0.933315
H       2.762371    -1.614024     0.129152
H       4.264296    -0.992884     0.781522
H       3.947379    -2.728865     0.824055
N       0.522441    -0.652910     2.197819
C      -0.473728    -0.952452     3.227579
H      -0.475908    -0.168398     3.985448
H      -1.456039    -0.977356     2.748469
H      -0.306359    -1.915961     3.730951
C       2.485657     0.951655     2.220645
C       3.919127     1.161638     2.735350
C       1.572018     2.078102     2.733485
H       4.310210     2.097410     2.327313
H       3.907111     1.229795     3.823335
H       4.589062     0.352241     2.445361
H       1.624393     2.126627     3.822233
H       1.917756     3.029582     2.320913
H       0.540652     1.923817     2.422308
C       2.492099     1.022357     0.748103
N       2.501576     1.113763    -0.397094
48
     -1091.782552     -1091.448161   2.45   2.00
C      -1.154696     0.583993    -0.363283
C      -0.137684     0.104201     0.474781
C       1.114036     0.734518     0.543361
C       1.322365     1.885342    -0.202972
C       0.316963     2.380530    -1.022775
C      -0.907231     1.735095    -1.107323
C      -2.466744    -0.105898    -0.480824
C      -2.540002    -1.473325    -0.747360
C      -3.770703    -2.100877    -0.877466
C      -4.945330    -1.369818    -0.746217
C      -4.882142    -0.005950    -0.485309
C      -3.650641     0.621541    -0.355363
H       2.286667     2.374487    -0.146559
H       0.498160     3.274880    -1.609675
H      -1.679618     2.110600    -1.769862
H      -1.627195    -2.048444    -0.859707
H      -3.811298    -3.165772    -1.082414
H      -5.907713    -1.861351    -0.847292
H      -5.795014     0.571767    -0.380442
H      -3.603049     1.684462    -0.139343
C      -0.360550    -1.048804     1.303259
N      -0.496720    -1.963725     1.986932
C       2.891684    -0.970914     1.141879
O       3.033070    -1.720883     2.241608
C       2.375429    -1.841055    -0.034994
C       2.178200    -1.363050    -1.257567
H       1.830908    -2.025134    -2.045647
H       2.344708    -0.330324    -1.535131
C       2.152208    -3.296947     0.284987
H       1.450800    -3.416206     1.113235
H       1.756284    -3.811478    -0.593947
H       3.085506    -3.784285     0.583372
N       2.149888     0.273615     1.410639
C       1.867828     0.564145     2.820945
H       1.531837     1.602767     2.886691
H       1.099508    -0.085989     3.255489
H       2.770556     0.453411     3.420031
C       4.464415    -0.579046     0.844383
C       5.283948    -1.813794     0.454341
C       5.097055     0.135034     2.048097
H       6.313317    -1.505604     0.253211
H       5.286364    -2.529345     1.277938
H       4.886481    -2.293567    -0.439798
H       4.564310     1.055782     2.283931
H       5.099301    -0.521295     2.919238
H       6.129327     0.393438     1.796597
C       4.473921     0.381796    -0.272467
N       4.526933     1.157220    -1.118879
48
     -1091.782552     -1091.448161   2.45   2.00
C      -0.369148     0.533222    -1.479872
C      -0.141391    -0.073668    -0.236214
C       0.517073     0.604470     0.800794
C       0.904201     1.920869     0.595712
C       0.668140     2.538680    -0.625233
C       0.043044     1.852055    -1.654893
C      -1.020882    -0.193955    -2.601355
C      -2.087431     0.390527    -3.284999
C      -2.690290    -0.267658    -4.348292
C      -2.231334    -1.518621    -4.744103
C      -1.166269    -2.105762    -4.071545
C      -0.564074    -1.447614    -3.008722
H       1.408142     2.445812     1.397460
H       0.986919     3.564857    -0.775205
H      -0.114540     2.330415    -2.615565
H      -2.454999     1.362064    -2.969172
H      -3.522261     0.197105    -4.867825
H      -2.702517    -2.034218    -5.574859
H      -0.801114    -3.081569    -4.375061
H       0.272396    -1.907951    -2.493924
C      -0.594628    -1.414489     0.013297
N      -0.944611    -2.482361     0.258646
C       1.718811    -1.067339     2.279927
O       1.231654    -2.064067     3.028902
C       2.385468    -1.638019     0.999840
C       2.983737    -0.875473     0.092823
H       3.447824    -1.334252    -0.775616
H       3.045975     0.203012     0.158396
C       2.355099    -3.139189     0.867777
H       1.331592    -3.517982     0.901441
H       2.813696    -3.435738    -0.078676
H       2.901156    -3.619618     1.685461
N       0.732980     0.009578     2.080290
C      -0.503546    -0.095237     2.863197
H      -1.175244    -0.888359     2.514491
H      -0.275572    -0.292894     3.909640
H      -1.023349     0.864552     2.795619
C       2.905897    -0.501310     3.272961
C       4.026329    -1.531936     3.448625
C       2.336910    -0.079525     4.635829
H       3.627097    -2.434031     3.914636
H       4.486560    -1.791198     2.495409
H       4.795470    -1.110044     4.100906
H       1.890766    -0.936822     5.141456
H       3.154625     0.307743     5.249816
H       1.592940     0.708748     4.524685
C       3.458252     0.713682     2.648960
N       3.897045     1.683244     2.215463
48
     -1091.782832     -1091.447917   2.27   2.15
C      -0.504247     1.453598    -0.873908
C       0.108337     0.224920    -0.566245
C       0.242361    -0.220346     0.759630
C      -0.220173     0.609346     1.785163
C      -0.809765     1.824762     1.487105
C      -0.965992     2.243162     0.169976
C      -0.649872     1.931857    -2.275333
C       0.448867     2.014578    -3.130480
C       0.297344     2.485200    -4.427425
C      -0.952761     2.883152    -4.886015
C      -2.052122     2.809960    -4.038524
C      -1.900389     2.339239    -2.741109
H      -0.134278     0.283554     2.813443
H      -1.161649     2.456227     2.296708
H      -1.423551     3.200779    -0.052582
H       1.428878     1.713622    -2.776833
H       1.161196     2.540170    -5.081932
H      -1.069995     3.250079    -5.900750
H      -3.032082     3.118757    -4.388799
H      -2.761205     2.272455    -2.082864
C       0.661409    -0.584905    -1.617304
N       1.126199    -1.245958    -2.436397
C       1.800563    -1.514142     2.109992
O       2.487436    -0.345989     2.152425
C       1.197203    -1.813912     3.509292
C       1.675418    -1.186928     4.579413
H       1.252341    -1.381177     5.560752
H       2.484915    -0.469669     4.518077
C       0.029492    -2.758966     3.624125
H      -0.821922    -2.398384     3.038450
H       0.271492    -3.767841     3.279901
H      -0.282746    -2.825570     4.667885
N       0.821972    -1.474470     1.027350
C       0.228268    -2.657685     0.408507
H      -0.656203    -2.341891    -0.146967
H       0.899310    -3.155604    -0.296189
H      -0.094240    -3.389222     1.149483
C       2.997113    -2.552610     1.753864
C       4.120436    -2.500889     2.805635
C       3.574401    -2.248450     0.362272
H       3.750395    -2.746512     3.800188
H       4.883516    -3.233114     2.528354
H       4.572876    -1.509580     2.823590
H       2.817440    -2.265434    -0.419181
H       4.040357    -1.262402     0.373043
H       4.336682    -2.995539     0.126708
C       2.473570    -3.932220     1.780126
N       2.107302    -5.020174     1.831952
48
     -1091.783230     -1091.447774   2.02   2.24
C      -1.209531    -0.572373    -1.157913
C      -0.197526    -0.143651    -0.283734
C       0.200142    -0.916519     0.818020
C      -0.436090    -2.133193     1.043657
C      -1.433160    -2.564695     0.181799
C      -1.821561    -1.795752    -0.906591
C      -1.629272     0.233659    -2.335423
C      -0.696236     0.708024    -3.257340
C      -1.107582     1.439260    -4.362723
C      -2.457057     1.703438    -4.563966
C      -3.394372     1.230720    -3.652892
C      -2.982463     0.499341    -2.547030
H      -0.154982    -2.735506     1.897427
H      -1.916663    -3.518678     0.366141
H      -2.592881    -2.149678    -1.581826
H       0.357916     0.499963    -3.110771
H      -0.368989     1.804631    -5.068772
H      -2.777702     2.276159    -5.428370
H      -4.450191     1.433701    -3.802057
H      -3.714485     0.141444    -1.829614
C       0.445777     1.126958    -0.495927
N       0.952545     2.145632    -0.662961
C       2.161542    -1.373189     2.199524
O       1.688719    -2.134492     3.214209
C       2.693800    -2.215934     1.025685
C       2.684689    -3.540791     1.102660
H       3.057001    -4.142970     0.279161
H       2.304293    -4.063182     1.973049
C       3.216336    -1.487804    -0.186108
H       2.454963    -0.846307    -0.633918
H       4.063809    -0.839498     0.054180
H       3.542330    -2.210471    -0.936681
N       1.213758    -0.387049     1.673519
C       0.668071     0.615839     2.594771
H       0.223260     0.159552     3.488987
H       1.433164     1.337552     2.881274
H      -0.112130     1.170034     2.072413
C       3.426462    -0.655433     2.947386
C       4.660729    -1.575875     2.939267
C       3.143097    -0.279037     4.418309
H       4.404941    -2.530990     3.399940
H       5.039186    -1.757410     1.934711
H       5.450993    -1.101077     3.526199
H       3.972322     0.338072     4.775801
H       2.219866     0.275914     4.554286
H       3.093692    -1.186701     5.019926
C       3.766464     0.571689     2.202202
N       4.084557     1.533878     1.661452
48
     -1091.781904     -1091.447752   2.85   2.25
C      -0.699312    -1.069892    -1.508772
C      -0.157148    -0.443258    -0.375178
C       0.519914    -1.169649     0.612800
C       0.661079    -2.544509     0.460497
C       0.151422    -3.167026    -0.669195
C      -0.524818    -2.443465    -1.643099
C      -1.435020    -0.307825    -2.552076
C      -1.115369    -0.484093    -3.898866
C      -1.806364     0.206848    -4.884988
C      -2.828923     1.081678    -4.536714
C      -3.155991     1.259993    -3.197856
C      -2.465281     0.569112    -2.212249
H       1.161645    -3.120766     1.228539
H       0.270682    -4.239666    -0.784359
H      -0.942875    -2.947749    -2.507410
H      -0.307805    -1.156144    -4.172305
H      -1.543592     0.063266    -5.928329
H      -3.369146     1.622984    -5.306895
H      -3.952879     1.940912    -2.917017
H      -2.731572     0.707646    -1.170005
C      -0.223825     0.986620    -0.219931
N      -0.262297     2.127597    -0.077208
C       2.296656    -0.859328     2.265982
O       2.272778    -1.953757     3.061251
C       3.294134    -1.043647     1.097917
C       3.312748    -0.194328     0.078346
H       4.029514    -0.320442    -0.727539
H       2.621633     0.636838    -0.003855
C       4.210615    -2.234296     1.168674
H       3.634979    -3.164107     1.118648
H       4.908315    -2.211564     0.328592
H       4.782851    -2.257990     2.097656
N       0.987452    -0.447528     1.752911
C      -0.093019    -0.268377     2.730871
H       0.001980     0.682520     3.256523
H      -1.041153    -0.240751     2.192183
H      -0.135375    -1.089762     3.457068
C       2.898711     0.275564     3.278777
C       2.376430     0.169557     4.727661
C       2.680977     1.689724     2.715249
H       2.603304    -0.804693     5.158692
H       2.878706     0.938792     5.320872
H       1.304846     0.341303     4.787422
H       3.205343     1.822319     1.770468
H       1.623322     1.894347     2.556551
H       3.080289     2.412084     3.432314
C       4.355513     0.054358     3.367160
N       5.490740    -0.070986     3.486492
48
     -1091.781903     -1091.447742   2.85   2.26
C      -0.582657    -1.698617    -1.310408
C      -0.193816    -0.756435    -0.344622
C       0.566210    -1.121515     0.773963
C       0.947546    -2.450104     0.924965
C       0.589862    -3.381783    -0.038110
C      -0.169325    -3.016229    -1.142348
C      -1.404794    -1.321522    -2.490405
C      -2.581460    -0.586702    -2.343992
C      -3.348868    -0.257591    -3.452410
C      -2.952801    -0.660959    -4.721952
C      -1.783801    -1.396928    -4.877021
C      -1.016117    -1.725932    -3.768088
H       1.515016    -2.749563     1.797221
H       0.896242    -4.415927     0.083222
H      -0.465836    -3.760876    -1.872889
H      -2.901224    -0.275004    -1.355573
H      -4.260031     0.317192    -3.322183
H      -3.553196    -0.402491    -5.588412
H      -1.466582    -1.714315    -5.865385
H      -0.096210    -2.288715    -3.893098
C      -0.511471     0.638702    -0.505261
N      -0.750951     1.758632    -0.615197
C       2.208286    -0.153876     2.308085
O       2.348199    -1.037196     3.323455
C       3.259823    -0.408417     1.202231
C       3.164363     0.190038     0.021577
H       3.917801     0.020522    -0.741777
H       2.343072     0.849135    -0.235928
C       4.365416    -1.375670     1.525739
H       5.075356    -1.413163     0.696507
H       4.902970    -1.096915     2.433675
H       3.960931    -2.380535     1.684013
N       0.864872    -0.099335     1.725733
C      -0.261325     0.094254     2.647761
H      -0.184865    -0.545552     3.535817
H      -0.348770     1.137700     2.952864
H      -1.182106    -0.161633     2.121840
C       2.572237     1.260865     3.044338
C       2.030011     1.380536     4.484813
C       2.131427     2.458905     2.186888
H       2.408452     0.578220     5.116878
H       2.371959     2.336080     4.892125
H       0.943524     1.369475     4.512778
H       2.654710     2.473905     1.232371
H       1.059905     2.435463     1.994610
H       2.376971     3.377887     2.725977
C       4.041761     1.323638     3.169294
N       5.177136     1.428636     3.305646
48
     -1091.782761     -1091.447655   2.32   2.32
C      -1.557621    -0.458381    -0.536030
C      -0.327854    -0.165945     0.088240
C       0.907175    -0.387809    -0.556360
C       0.867411    -0.940180    -1.845193
C      -0.335884    -1.262706    -2.440952
C      -1.547762    -1.019005    -1.802289
C      -2.856048    -0.190907     0.139308
C      -3.821511    -1.194704     0.214322
C      -5.046273    -0.952506     0.822282
C      -5.321910     0.299185     1.360133
C      -4.366613     1.305880     1.285664
C      -3.142705     1.062976     0.678248
H       1.785977    -1.102314    -2.387572
H      -0.330000    -1.695399    -3.436387
H      -2.487373    -1.245376    -2.293473
H      -3.602467    -2.176360    -0.194235
H      -5.786449    -1.744604     0.877588
H      -6.278632     0.489361     1.836145
H      -4.573256     2.285928     1.703299
H      -2.403332     1.854369     0.617346
C      -0.352459     0.254734     1.461748
N      -0.374111     0.569742     2.568273
C       3.304545    -0.858309    -0.044684
O       3.104342    -1.998188    -0.727739
C       4.456757    -0.076556    -0.719626
C       5.626623     0.225443    -0.171102
H       6.364898     0.766825    -0.755730
H       5.913193    -0.026426     0.840455
C       4.144385     0.319365    -2.142537
H       4.956657     0.922956    -2.552054
H       4.019662    -0.564058    -2.776608
H       3.219586     0.901983    -2.200658
N       2.110521    -0.025162     0.061782
C       2.229044     1.285091     0.699266
H       1.437748     1.936917     0.323402
H       2.154589     1.249909     1.788360
H       3.189912     1.730867     0.433317
C       3.656562    -1.492265     1.426786
C       4.743461    -2.577620     1.328568
C       2.379518    -2.084620     2.046057
H       5.097617    -2.812538     2.336195
H       4.316287    -3.477082     0.885642
H       5.591869    -2.261774     0.723515
H       1.659681    -1.310842     2.307371
H       1.920445    -2.787867     1.350231
H       2.651697    -2.620657     2.959229
C       4.126441    -0.431382     2.339249
N       4.493224     0.351126     3.097008
48
     -1091.782761     -1091.447655   2.32   2.32
C      -1.527496    -0.116184    -0.595622
C      -0.321946    -0.124894     0.135220
C       0.935166    -0.198773    -0.500584
C       0.941128    -0.290312    -1.900348
C      -0.241038    -0.321013    -2.613385
C      -1.473695    -0.226097    -1.975061
C      -2.847403    -0.005547     0.081974
C      -3.103989     1.015210     0.996886
C      -4.346963     1.120458     1.605036
C      -5.351470     0.208142     1.304683
C      -5.105828    -0.810216     0.391122
C      -3.861942    -0.914674    -0.217278
H       1.879770    -0.321736    -2.431562
H      -0.200206    -0.399741    -3.695180
H      -2.394160    -0.217515    -2.547808
H      -2.325760     1.733913     1.230354
H      -4.529956     1.918385     2.317383
H      -6.323146     0.290299     1.781301
H      -5.884574    -1.527691     0.152124
H      -3.667164    -1.717886    -0.921163
C      -0.403135    -0.181287     1.568508
N      -0.471412    -0.249082     2.715172
C       3.275319    -0.962575    -0.087203
O       3.059580    -1.797483    -1.117913
C       4.499016    -0.076119    -0.420377
C       5.649795    -0.047407     0.239601
H       6.444263     0.608976    -0.103777
H       5.867587    -0.637319     1.119020
C       4.285170     0.787175    -1.640201
H       4.153576     0.173073    -2.536630
H       3.393951     1.413740    -1.534243
H       5.146819     1.439337    -1.795301
N       2.118065    -0.137732     0.246849
C       2.262828     0.877582     1.288639
H       3.257204     1.324279     1.222325
H       1.525731     1.665885     1.122593
H       2.125901     0.488970     2.300145
C       3.514563    -2.068075     1.100833
C       4.552252    -3.126619     0.686442
C       2.178375    -2.749652     1.440439
H       4.838642    -3.703031     1.570551
H       4.107739    -3.800382    -0.045780
H       5.446844    -2.683091     0.252134
H       1.725455    -3.152588     0.533803
H       2.373705    -3.573642     2.131942
H       1.482926    -2.061838     1.918409
C       3.983098    -1.400344     2.331060
N       4.344038    -0.937029     3.319040
48
     -1091.781639     -1091.447602   3.02   2.35
C       2.401698    -0.472464    -1.442329
C       1.722606    -0.151876    -0.255469
C       1.492934    -1.112971     0.737115
C       2.001053    -2.395625     0.564930
C       2.661085    -2.725296    -0.610340
C       2.849118    -1.779636    -1.609035
C       2.649198     0.532795    -2.510151
C       3.251488     1.758371    -2.226218
C       3.493826     2.674736    -3.239899
C       3.141317     2.377936    -4.550963
C       2.544636     1.157125    -4.843762
C       2.301792     0.240610    -3.829649
H       1.862072    -3.130956     1.347692
H       3.040103    -3.733272    -0.745941
H       3.380161    -2.042421    -2.517623
H       3.535437     1.995319    -1.207053
H       3.959474     3.625568    -3.002102
H       3.330779     3.095946    -5.342546
H       2.264736     0.917895    -5.864853
H       1.823520    -0.707018    -4.057619
C       1.258770     1.192308    -0.020103
N       0.931966     2.275014     0.185443
C      -0.289475    -1.432322     2.487486
O       0.020013    -2.657809     2.975648
C      -0.911834    -0.549656     3.595863
C      -1.045258    -1.022454     4.829293
H      -1.458317    -0.395806     5.614585
H      -0.748890    -2.029261     5.099259
C      -1.310567     0.853967     3.220262
H      -1.538802     1.425892     4.121632
H      -0.519933     1.361614     2.663595
H      -2.197140     0.869048     2.579356
N       0.835571    -0.673326     1.930012
C       1.838728    -0.284091     2.932980
H       2.592221     0.336826     2.443170
H       1.376257     0.303508     3.725676
H       2.338897    -1.153596     3.383324
C      -1.445365    -1.781018     1.400751
C      -2.786142    -2.043031     2.112813
C      -1.137001    -3.012771     0.523625
H      -3.527542    -2.332663     1.364552
H      -2.665301    -2.860777     2.825018
H      -3.156644    -1.167534     2.642685
H      -1.997580    -3.178814    -0.130546
H      -0.262848    -2.873969    -0.105570
H      -0.997839    -3.894512     1.150719
C      -1.609596    -0.630302     0.494011
N      -1.776399     0.223642    -0.256131
48
     -1091.781777     -1091.447578   2.93   2.36
C      -1.241997     0.486503    -0.101986
C      -0.180304    -0.052707     0.643450
C       1.063597     0.594663     0.711457
C       1.208339     1.826815     0.087420
C       0.157514     2.380488    -0.629860
C      -1.052754     1.711378    -0.735256
C      -2.541264    -0.223392    -0.237605
C      -2.589125    -1.560569    -0.633096
C      -3.807178    -2.208388    -0.779818
C      -4.994291    -1.527720    -0.536461
C      -4.956268    -0.194150    -0.146162
C      -3.737238     0.453844     0.000525
H       2.165114     2.329534     0.152534
H       0.292550     3.336703    -1.124417
H      -1.861686     2.130746    -1.323847
H      -1.665688    -2.094597    -0.830361
H      -3.828093    -3.249602    -1.084925
H      -5.947010    -2.035022    -0.650495
H      -5.879063     0.343622     0.047044
H      -3.708846     1.491754     0.317841
C      -0.387697    -1.262306     1.394141
N      -0.555184    -2.214537     2.016736
C       2.910284    -1.096663     0.890073
O       3.091565    -2.062308     1.811391
C       2.287017    -1.704351    -0.393130
C       1.750280    -2.916593    -0.310651
H       1.299753    -3.375551    -1.186819
H       1.723267    -3.481521     0.612951
C       2.307757    -0.971300    -1.714557
H       1.652403    -1.494051    -2.414082
H       1.972779     0.062673    -1.640493
H       3.309487    -0.945525    -2.152445
N       2.173367     0.059130     1.432915
C       1.987183     0.092412     2.887428
H       1.607156     1.083188     3.151548
H       1.289879    -0.666151     3.259279
H       2.939100    -0.057632     3.395159
C       4.451449    -0.658464     0.599667
C       5.236848    -1.803997    -0.052898
C       5.158622    -0.199981     1.887090
H       6.244725    -1.456161    -0.294094
H       5.308993    -2.637173     0.647370
H       4.764081    -2.160311    -0.967568
H       6.188950     0.070155     1.640382
H       4.672397     0.677237     2.312930
H       5.171709    -1.006420     2.621330
C       4.436300     0.515369    -0.292571
N       4.471198     1.456371    -0.951422
48
     -1091.781777     -1091.447577   2.93   2.36
C       2.167884     0.131542    -1.462175
C       1.850749    -0.288355    -0.159592
C       1.285143    -1.550652     0.080592
C       1.111871    -2.417696    -0.990287
C       1.446097    -2.022195    -2.277590
C       1.957243    -0.754826    -2.514385
C       2.703181     1.491236    -1.736268
C       3.841268     1.649249    -2.527151
C       4.335061     2.916067    -2.807843
C       3.694123     4.041609    -2.303320
C       2.557066     3.892849    -1.517991
C       2.063875     2.626749    -1.237626
H       0.687251    -3.395350    -0.799819
H       1.289721    -2.706379    -3.105001
H       2.186812    -0.436318    -3.525588
H       4.350441     0.770682    -2.911354
H       5.224326     3.024182    -3.420703
H       4.080219     5.032185    -2.521777
H       2.050716     4.766394    -1.120268
H       1.172431     2.516400    -0.629360
C       2.160399     0.568951     0.953435
N       2.429219     1.238725     1.848732
C      -0.275613    -1.439669     2.043866
O      -0.025050    -1.044569     3.306906
C      -0.956372    -0.289194     1.258158
C      -0.906304     0.933071     1.775829
H      -1.367875     1.767061     1.253620
H      -0.402504     1.151564     2.709295
C      -1.687635    -0.534094    -0.041550
H      -2.635665    -1.056351     0.114527
H      -1.911028     0.429700    -0.503384
H      -1.116715    -1.129525    -0.753102
N       0.921109    -1.996728     1.387261
C       2.077213    -2.262608     2.249879
H       1.777027    -2.851718     3.115489
H       2.798577    -2.844377     1.669366
H       2.567925    -1.355862     2.619935
C      -1.347184    -2.637500     2.305491
C      -2.649621    -2.090964     2.905402
C      -0.761298    -3.727313     3.220264
H      -3.093950    -1.311609     2.287123
H      -3.368673    -2.908115     3.006427
H      -2.445838    -1.675784     3.893259
H       0.109539    -4.197985     2.764881
H      -0.487544    -3.304648     4.187754
H      -1.521477    -4.498044     3.373606
C      -1.623548    -3.298028     1.016484
N      -1.835651    -3.869864     0.042418
48
     -1091.783206     -1091.447287   2.04   2.55
C      -0.634565     0.560775    -1.130053
C       0.541820     0.444051    -0.366231
C       0.550611    -0.194149     0.893328
C      -0.649162    -0.760913     1.335603
C      -1.794391    -0.684721     0.564765
C      -1.801594    -0.016198    -0.652393
C      -0.643773     1.269438    -2.437824
C      -1.200220     0.654421    -3.559275
C      -1.233624     1.312223    -4.781658
C      -0.713406     2.596116    -4.896382
C      -0.160712     3.217318    -3.782693
C      -0.127224     2.558981    -2.561487
H      -0.685870    -1.262980     2.290069
H      -2.706660    -1.144028     0.931212
H      -2.714616     0.068768    -1.230727
H      -1.595041    -0.353167    -3.473254
H      -1.665498     0.819694    -5.647200
H      -0.738503     3.110999    -5.851543
H       0.247974     4.219310    -3.863685
H       0.299701     3.050564    -1.693811
C       1.784313     0.872027    -0.950133
N       2.786841     1.185844    -1.419545
C       2.132227    -1.428540     2.415583
O       3.290090    -1.204466     3.071596
C       1.234715    -1.661089     3.685142
C       0.742789    -2.846007     4.032091
H       0.138353    -2.929390     4.930934
H       0.877419    -3.756597     3.465438
C       0.974272    -0.421085     4.501514
H       1.907328     0.005249     4.876449
H       0.471715     0.345219     3.904314
H       0.337091    -0.668383     5.353243
N       1.719406    -0.243192     1.660127
C       2.530285     0.962134     1.824386
H       3.515235     0.877784     1.356507
H       2.001871     1.801993     1.371886
H       2.670808     1.183464     2.884786
C       2.344649    -2.682405     1.456661
C       3.249097    -3.736853     2.127234
C       3.041414    -2.218670     0.160023
H       3.257303    -4.642139     1.514387
H       4.264259    -3.342568     2.188093
H       2.929615    -3.999523     3.134073
H       2.367648    -1.676240    -0.500771
H       3.890452    -1.576405     0.404271
H       3.411349    -3.093508    -0.380181
C       1.077065    -3.326820     1.064050
N       0.128037    -3.879754     0.725296
48
     -1091.782668     -1091.447223   2.37   2.59
C      -1.433860     0.213207     0.180068
C      -0.331823    -0.660116     0.178235
C       0.623871    -0.612212    -0.851784
C       0.411759     0.254305    -1.915896
C      -0.683389     1.106262    -1.930748
C      -1.590560     1.097744    -0.883699
C      -2.427978     0.220086     1.286597
C      -2.022538     0.340784     2.616023
C      -2.960928     0.370134     3.637542
C      -4.316763     0.282799     3.344329
C      -4.729621     0.167014     2.022265
C      -3.790499     0.137540     1.000096
H       1.129625     0.262464    -2.725462
H      -0.819763     1.789107    -2.762736
H      -2.431769     1.782593    -0.879233
H      -0.966080     0.415307     2.850122
H      -2.630540     0.460079     4.667278
H      -5.050064     0.304812     4.144201
H      -5.786579     0.097026     1.785363
H      -4.113774     0.034234    -0.031224
C      -0.249135    -1.652772     1.218595
N      -0.247732    -2.462253     2.035838
C       2.902175    -1.139630     0.018420
O       2.578789    -1.200815     1.333839
C       4.058397    -2.098892    -0.321929
C       4.519254    -2.930453     0.604500
H       5.311129    -3.635026     0.366949
H       4.123170    -2.942657     1.613350
C       4.603092    -2.084789    -1.727708
H       3.804709    -2.003557    -2.468452
H       5.270831    -1.234811    -1.896940
H       5.171583    -2.998439    -1.912377
N       1.789537    -1.445803    -0.897672
C       1.460506    -2.879533    -0.979341
H       0.515376    -2.979409    -1.516442
H       2.229015    -3.407972    -1.546111
H       1.357351    -3.357876     0.000298
C       3.424912     0.393366    -0.083811
C       4.824861     0.517632     0.547725
C       2.499762     1.412187     0.614329
H       5.136620     1.564100     0.507181
H       4.782946     0.201756     1.591000
H       5.569096    -0.084507     0.028793
H       2.920230     2.409932     0.457931
H       1.486603     1.412922     0.222127
H       2.469474     1.206369     1.684501
C       3.532099     0.765279    -1.507471
N       3.640052     1.099799    -2.601532
48
     -1091.781306     -1091.447062   3.23   2.69
C      -0.077522     1.252368    -1.148834
C      -0.045665     0.133951    -0.300077
C       0.292632     0.253466     1.050925
C       0.492990     1.519579     1.589137
C       0.428803     2.635675     0.767001
C       0.167675     2.503353    -0.591039
C      -0.334079     1.112582    -2.604784
C       0.361138     0.164490    -3.357607
C       0.131667     0.050946    -4.721480
C      -0.788405     0.881938    -5.349954
C      -1.480563     1.831209    -4.606683
C      -1.252960     1.946353    -3.242048
H       0.720239     1.616875     2.644498
H       0.602184     3.621198     1.187389
H       0.161034     3.377557    -1.233263
H       1.086215    -0.481438    -2.873150
H       0.675331    -0.692604    -5.295193
H      -0.966138     0.790133    -6.416800
H      -2.201808     2.482586    -5.090089
H      -1.804536     2.678199    -2.659792
C      -0.446801    -1.161873    -0.788435
N      -0.816592    -2.182571    -1.166115
C       1.530080    -1.326396     2.567466
O       1.779448    -0.575266     3.664872
C       1.380509    -2.821831     2.964945
C       0.954037    -3.698450     2.065982
H       0.852736    -4.748215     2.326383
H       0.680140    -3.406488     1.058082
C       1.697572    -3.192164     4.386860
H       1.032370    -2.662531     5.076734
H       1.567882    -4.267520     4.529741
H       2.718481    -2.920365     4.667306
N       0.317690    -0.948697     1.827639
C      -0.907192    -1.051190     2.632687
H      -0.943078    -0.309479     3.443622
H      -1.764234    -0.891277     1.974307
H      -0.988502    -2.050100     3.059644
C       2.906618    -1.171632     1.715318
C       4.022122    -2.041233     2.325530
C       3.441469     0.273021     1.629759
H       4.927868    -1.910425     1.729036
H       4.227835    -1.709670     3.344856
H       3.762920    -3.098382     2.330034
H       3.595383     0.674272     2.632518
H       4.404373     0.242298     1.112137
H       2.785711     0.934651     1.072411
C       2.667683    -1.637476     0.337167
N       2.546849    -1.954425    -0.760254
48
     -1091.781306     -1091.447056   3.23   2.69
C      -0.220938    -1.243635    -1.680232
C       0.605395    -0.461068    -0.857420
C       1.708112    -1.011046    -0.197515
C       2.057513    -2.332948    -0.449215
C       1.268398    -3.106184    -1.288922
C       0.129733    -2.575060    -1.881638
C      -1.450965    -0.685705    -2.297415
C      -1.720947    -0.899535    -3.649084
C      -2.879697    -0.395927    -4.224387
C      -3.783401     0.325052    -3.452273
C      -3.522109     0.537920    -2.103763
C      -2.364705     0.035130    -1.526426
H       2.933187    -2.750812     0.033986
H       1.534897    -4.142631    -1.470027
H      -0.503835    -3.199052    -2.502893
H      -1.008731    -1.450072    -4.256139
H      -3.076018    -0.564853    -5.278470
H      -4.689276     0.720257    -3.901030
H      -4.222767     1.100117    -1.494993
H      -2.169204     0.197430    -0.471392
C       0.381865     0.958455    -0.740932
N       0.233376     2.097177    -0.691174
C       2.700983    -0.468106     2.048986
O       3.571988    -1.481975     2.258948
C       3.203422     0.823964     2.752275
C       2.590418     1.976558     2.519373
H       2.924593     2.886270     3.010116
H       1.756080     2.059208     1.831496
C       4.405427     0.699223     3.646218
H       5.271544     0.349543     3.074812
H       4.644170     1.669787     4.087387
H       4.249479    -0.024296     4.450571
N       2.475372    -0.135428     0.635378
C       3.699520     0.277465    -0.064563
H       4.419504    -0.545832    -0.177939
H       3.421333     0.637996    -1.057637
H       4.176393     1.096312     0.472849
C       1.371481    -0.979125     2.834188
C       1.541683    -0.808299     4.355608
C       1.007637    -2.455489     2.572745
H       2.380416    -1.415829     4.700144
H       1.702762     0.230784     4.636903
H       0.632502    -1.162025     4.847099
H       0.156814    -2.707724     3.211920
H       0.717482    -2.643917     1.543810
H       1.847542    -3.099602     2.837111
C       0.223165    -0.158247     2.408801
N      -0.721215     0.419188     2.102039
48
     -1091.781707     -1091.446906   2.98   2.79
C      -0.738822    -0.662273    -1.402241
C      -0.259145    -0.350253    -0.116701
C       0.717283    -1.141548     0.527600
C       1.226806    -2.236089    -0.180930
C       0.769222    -2.532292    -1.452345
C      -0.218920    -1.767625    -2.059714
C      -1.769513     0.171130    -2.080108
C      -1.583023     1.539532    -2.272968
C      -2.544011     2.293968    -2.931549
C      -3.701236     1.690171    -3.408849
C      -3.892027     0.325550    -3.226343
C      -2.930136    -0.429129    -2.567963
H       1.980147    -2.863930     0.270331
H       1.184396    -3.387631    -1.976564
H      -0.570472    -2.007824    -3.056803
H      -0.679483     2.016212    -1.909261
H      -2.387236     3.358663    -3.070908
H      -4.452506     2.281549    -3.922605
H      -4.793038    -0.153447    -3.596378
H      -3.083054    -1.493475    -2.417608
C      -0.741021     0.839634     0.531889
N      -1.101897     1.801282     1.050210
C       2.540649    -0.878010     2.257395
O       2.656759    -0.633011     3.583264
C       3.104354    -2.340017     2.307949
C       4.326495    -2.666899     1.898490
H       4.663832    -3.695232     1.992344
H       5.039447    -1.968780     1.482536
C       2.175061    -3.351162     2.931762
H       1.999238    -3.114730     3.983734
H       1.204017    -3.374325     2.430171
H       2.621263    -4.346176     2.871013
N       1.138165    -0.827361     1.825962
C       0.135729    -0.605525     2.870006
H       0.280547    -1.311473     3.691247
H       0.168463     0.409621     3.274627
H      -0.854506    -0.778120     2.447633
C       3.393855     0.212798     1.484577
C       2.736306     1.590190     1.720902
C       3.573202    -0.012847    -0.027451
H       3.371537     2.370193     1.293669
H       1.759597     1.634876     1.239060
H       2.615422     1.789924     2.787178
H       4.324251     0.688596    -0.400359
H       3.901706    -1.025031    -0.264997
H       2.639146     0.182572    -0.554506
C       4.730944     0.288614     2.109784
N       5.788197     0.409739     2.543517
48
     -1091.781707     -1091.446905   2.98   2.79
C      -0.162433    -0.477041    -1.792410
C      -0.080564    -0.712815    -0.407640
C       1.114361    -1.150062     0.205339
C       2.238200    -1.303579    -0.614959
C       2.163183    -1.053685    -1.973529
C       0.971750    -0.660365    -2.569929
C      -1.422811    -0.018040    -2.438229
C      -1.942722    -0.729724    -3.519226
C      -3.102910    -0.303909    -4.152369
C      -3.754279     0.843001    -3.713943
C      -3.238284     1.561166    -2.641778
C      -2.078972     1.134994    -2.008716
H       3.174508    -1.628802    -0.187305
H       3.052369    -1.181224    -2.583331
H       0.923491    -0.466536    -3.635559
H      -1.438673    -1.630475    -3.855976
H      -3.499483    -0.870157    -4.989191
H      -4.661639     1.176688    -4.207322
H      -3.740463     2.458125    -2.294143
H      -1.678443     1.704179    -1.177158
C      -1.234235    -0.447569     0.409250
N      -2.143424    -0.216731     1.075392
C       2.253908    -1.020409     2.457346
O       2.082938    -1.497455     3.712387
C       3.575746    -1.808058     2.157519
C       4.778904    -1.241981     2.152024
H       5.656641    -1.854947     1.967823
H       4.962265    -0.192902     2.337776
C       3.390538    -3.289915     1.945461
H       3.017818    -3.765387     2.855664
H       2.675984    -3.499654     1.145158
H       4.348078    -3.745816     1.684513
N       1.146542    -1.418921     1.579544
C       0.125959    -2.292301     2.162407
H       0.593508    -3.157310     2.638855
H      -0.491928    -1.778960     2.904015
H      -0.521625    -2.656054     1.364252
C       2.344099     0.560401     2.546364
C       0.973727     1.092047     3.020713
C       2.753357     1.289905     1.254218
H       0.665207     0.608942     3.949620
H       1.047441     2.167746     3.199235
H       0.212347     0.917323     2.260546
H       3.642772     0.859925     0.792802
H       1.939133     1.265594     0.529718
H       2.961693     2.336260     1.492738
C       3.307029     0.913974     3.610382
N       4.036874     1.268716     4.424052
48
     -1091.781923     -1091.446047   2.84   3.32
C      -1.395933     0.805740     0.285004
C      -0.405279    -0.197358     0.214339
C       0.941752     0.109410    -0.075518
C       1.267820     1.465468    -0.238379
C       0.306194     2.447415    -0.128754
C      -1.026687     2.128483     0.117993
C      -2.821321     0.470374     0.549919
C      -3.490257    -0.485125    -0.214417
C      -4.826252    -0.772189     0.027891
C      -5.512527    -0.105844     1.036169
C      -4.854740     0.850695     1.800525
C      -3.517980     1.137685     1.557100
H       2.284670     1.745416    -0.466546
H       0.596528     3.485212    -0.258026
H      -1.782046     2.904502     0.167100
H      -2.961201    -1.003589    -1.006910
H      -5.331961    -1.520696    -0.573466
H      -6.557124    -0.331388     1.225981
H      -5.383131     1.374622     2.590875
H      -3.001710     1.876036     2.162749
C      -0.785133    -1.532873     0.584508
N      -1.088867    -2.595653     0.904860
C       3.238987    -0.738290     0.380217
O       3.379353     0.385634     1.107137
C       3.354768    -1.756568     1.575497
C       4.406582    -2.543230     1.776918
H       4.418122    -3.199834     2.642220
H       5.263788    -2.608425     1.122360
C       2.171447    -1.757999     2.509090
H       1.806588    -0.746200     2.692218
H       1.346341    -2.346794     2.101253
H       2.459514    -2.205415     3.462621
N       1.912487    -0.883952    -0.222322
C       1.590183    -2.155353    -0.857533
H       1.554471    -2.991333    -0.152527
H       0.619785    -2.076870    -1.345750
H       2.319453    -2.389750    -1.635213
C       4.402179    -0.806464    -0.709820
C       5.718660    -0.234581    -0.147321
C       4.017732     0.030262    -1.947615
H       6.516784    -0.386116    -0.879157
H       5.597098     0.834992     0.027011
H       6.016542    -0.696001     0.792290
H       3.910086     1.078189    -1.664014
H       4.816420    -0.037024    -2.690603
H       3.088237    -0.307417    -2.405898
C       4.657971    -2.179507    -1.187604
N       4.895027    -3.221957    -1.610370
48
     -1091.781923     -1091.446042   2.84   3.33
C      -1.603226    -0.450950    -0.446330
C      -0.399854    -0.375186     0.287670
C       0.785423    -0.993860    -0.165016
C       0.732099    -1.645403    -1.407758
C      -0.433945    -1.683587    -2.142481
C      -1.606928    -1.103578    -1.666133
C      -2.858953     0.168471     0.057505
C      -3.597383     1.015727    -0.768276
C      -4.782647     1.583051    -0.319016
C      -5.245949     1.306566     0.961916
C      -4.517858     0.459900     1.789350
C      -3.333231    -0.106266     1.339782
H       1.613439    -2.136758    -1.790163
H      -0.436076    -2.194115    -3.100280
H      -2.527851    -1.169402    -2.234244
H      -3.229970     1.242054    -1.764413
H      -5.344612     2.244420    -0.971038
H      -6.171876     1.749926     1.314295
H      -4.872071     0.238868     2.791003
H      -2.772250    -0.771513     1.987466
C      -0.382222     0.471996     1.448214
N      -0.366909     1.170379     2.362764
C       3.257751    -0.723366    -0.031043
O       3.177132    -0.440006    -1.344192
C       3.753907     0.694266     0.441271
C       4.988607     0.941412     0.865748
H       5.257612     1.954965     1.149210
H       5.762530     0.196500     0.982516
C       2.712238     1.780001     0.352371
H       3.201568     2.756187     0.353795
H       2.116269     1.687572    -0.556836
H       2.032712     1.747393     1.207372
N       1.959301    -0.988182     0.591651
C       1.912879    -1.105197     2.043519
H       2.594419    -1.886106     2.385967
H       2.166536    -0.173606     2.558270
H       0.910433    -1.403044     2.347784
C       4.281231    -1.928433     0.183936
C       5.455227    -1.838339    -0.811137
C       3.569026    -3.276621    -0.051027
H       6.186372    -2.616018    -0.574103
H       5.079515    -2.002346    -1.821638
H       5.956618    -0.872545    -0.792245
H       3.222785    -3.334423    -1.083953
H       4.277920    -4.092215     0.112492
H       2.717210    -3.418840     0.613941
C       4.833286    -1.972063     1.552242
N       5.287369    -2.068762     2.603946
48
     -1091.781022     -1091.445817   3.41   3.47
C      -0.793447    -1.154998    -1.490933
C      -0.038226    -0.453632    -0.535164
C       1.333921    -0.693540    -0.350462
C       1.945667    -1.658487    -1.149643
C       1.207694    -2.358008    -2.090443
C      -0.147922    -2.109094    -2.266690
C      -2.248775    -0.911925    -1.677907
C      -2.751503    -0.659830    -2.954583
C      -4.110357    -0.452428    -3.150039
C      -4.984718    -0.498433    -2.070444
C      -4.492295    -0.754464    -0.796323
C      -3.134021    -0.961626    -0.601200
H       3.000836    -1.858628    -1.031587
H       1.699268    -3.110813    -2.698348
H      -0.719293    -2.671846    -2.996873
H      -2.067985    -0.612172    -3.796711
H      -4.486939    -0.252375    -4.148246
H      -6.047047    -0.335659    -2.221995
H      -5.168097    -0.793316     0.051847
H      -2.757844    -1.169618     0.394585
C      -0.670964     0.541682     0.288282
N      -1.150422     1.339115     0.965206
C       2.898102    -0.537562     1.598186
O       2.996228    -1.882244     1.453136
C       4.350203    -0.005714     1.517487
C       4.977436     0.670072     2.471974
H       6.008330     0.976666     2.321727
H       4.544180     0.919199     3.430665
C       5.058936    -0.376312     0.236296
H       5.199661    -1.459692     0.173800
H       4.496477    -0.066378    -0.648427
H       6.040408     0.100721     0.200162
N       2.037551     0.096141     0.594602
C       2.293258     1.474733     0.188066
H       1.353704     1.995685    -0.010979
H       2.805393     2.003944     0.989943
H       2.917533     1.535349    -0.713591
C       2.176193    -0.402737     3.031139
C       0.892159    -1.258193     3.040898
C       1.792859     1.049005     3.365680
H       1.107467    -2.315241     2.886880
H       0.401611    -1.138280     4.010795
H       0.206469    -0.912859     2.268262
H       1.011845     1.382474     2.681306
H       1.394676     1.080848     4.383058
H       2.634138     1.739172     3.310012
C       3.062500    -0.947648     4.075631
N       3.693616    -1.372832     4.936501
48
     -1091.780204     -1091.445734   3.92   3.52
C      -1.073021     1.096715    -0.236670
C       0.213365     0.553281    -0.069726
C       0.812436     0.471423     1.196830
C       0.113475     0.966969     2.293350
C      -1.150418     1.511127     2.138825
C      -1.741383     1.575921     0.883072
C      -1.737502     1.146674    -1.566651
C      -1.863265    -0.000183    -2.350578
C      -2.508236     0.053196    -3.578208
C      -3.039515     1.252653    -4.037154
C      -2.923381     2.399265    -3.259943
C      -2.278027     2.345494    -2.031706
H       0.583128     0.913803     3.267496
H      -1.683797     1.885340     3.006665
H      -2.740214     1.982582     0.766828
H      -1.457637    -0.940702    -1.993533
H      -2.595398    -0.846854    -4.178202
H      -3.543162     1.294001    -4.997713
H      -3.335155     3.340004    -3.611652
H      -2.178367     3.244023    -1.430490
C       0.927856     0.069663    -1.221019
N       1.508049    -0.317108    -2.135768
C       2.104809    -1.500457     1.793506
O       1.093343    -1.753087     2.670198
C       1.792873    -2.455610     0.599197
C       0.526158    -2.800054     0.377985
H       0.271944    -3.414128    -0.481160
H      -0.290559    -2.483922     1.016185
C       2.888009    -2.911935    -0.328760
H       3.613562    -3.558184     0.170932
H       2.443049    -3.474914    -1.150452
H       3.442559    -2.077246    -0.759253
N       2.107289    -0.086606     1.396976
C       3.199339     0.497729     0.620713
H       3.484397    -0.064799    -0.271633
H       2.880252     1.490771     0.298445
H       4.086194     0.629594     1.245219
C       3.418873    -1.888755     2.596184
C       3.326397    -3.342829     3.099905
C       3.579583    -0.938929     3.798370
H       4.275530    -3.625196     3.562652
H       2.532542    -3.423469     3.842322
H       3.115791    -4.042616     2.290082
H       3.660417     0.100643     3.480719
H       2.714930    -1.036749     4.457583
H       4.480280    -1.207156     4.356089
C       4.648847    -1.784766     1.785551
N       5.647939    -1.728773     1.220406
48
     -1091.782181     -1091.445728   2.68   3.52
C      -1.522502     0.388832    -0.333931
C      -0.157624     0.042714    -0.285306
C       0.311261    -1.046006     0.481476
C      -0.636600    -1.758821     1.230804
C      -1.968663    -1.394698     1.211813
C      -2.421713    -0.337236     0.429326
C      -2.011052     1.517690    -1.171446
C      -1.686687     1.604031    -2.524964
C      -2.167531     2.650472    -3.299509
C      -2.981450     3.623516    -2.731917
C      -3.312970     3.543363    -1.384465
C      -2.831855     2.495757    -0.610253
H      -0.321559    -2.601704     1.825728
H      -2.675759    -1.962334     1.808453
H      -3.475445    -0.084007     0.398641
H      -1.057265     0.843878    -2.975111
H      -1.903616     2.705336    -4.350687
H      -3.356444     4.442237    -3.337859
H      -3.947056     4.300041    -0.933116
H      -3.081258     2.440725     0.444880
C       0.784419     0.901455    -0.948733
N       1.539759     1.596825    -1.468506
C       2.392642    -1.874528     1.605937
O       1.677410    -1.855167     2.741091
C       2.630753    -3.434286     1.549900
C       1.804519    -4.171946     0.811191
H       1.913742    -5.251751     0.788599
H       1.012615    -3.746589     0.207673
C       3.693336    -4.071229     2.400167
H       4.695474    -3.718714     2.146554
H       3.512760    -3.883434     3.460490
H       3.669565    -5.150710     2.238196
N       1.666479    -1.399983     0.431050
C       2.320285    -1.532981    -0.870027
H       1.558013    -1.581393    -1.649830
H       2.996710    -0.708989    -1.109288
H       2.887981    -2.465565    -0.898289
C       3.712173    -0.981519     1.796521
C       4.251747    -1.035089     3.239109
C       3.386830     0.494371     1.492632
H       5.144844    -0.407491     3.298584
H       3.495765    -0.636710     3.917318
H       4.522847    -2.033444     3.568375
H       4.224573     1.117808     1.814081
H       3.206693     0.687875     0.438163
H       2.499755     0.791121     2.058084
C       4.775164    -1.439616     0.884698
N       5.612694    -1.813782     0.192037
48
     -1091.779383     -1091.445564   4.44   3.63
C       0.013907     0.071884    -1.899052
C       0.866873    -0.008953    -0.785079
C       1.239064    -1.243425    -0.240463
C       0.802721    -2.412831    -0.853638
C      -0.049881    -2.343099    -1.945458
C      -0.451291    -1.115446    -2.455629
C      -0.397856     1.373254    -2.489741
C       0.544963     2.334630    -2.853504
C       0.142567     3.534057    -3.423920
C      -1.206197     3.787810    -3.642233
C      -2.152395     2.833484    -3.287213
C      -1.749930     1.633818    -2.716089
H       1.119645    -3.369281    -0.455998
H      -0.402364    -3.259124    -2.408790
H      -1.105868    -1.070621    -3.319425
H       1.599705     2.142212    -2.692601
H       0.888070     4.273566    -3.697381
H      -1.519388     4.726677    -4.087731
H      -3.208020     3.024129    -3.453035
H      -2.491129     0.894870    -2.427455
C       1.401443     1.188878    -0.187405
N       1.859011     2.146590     0.253671
C       1.859942    -1.989653     2.080994
O       1.914784    -3.332751     1.938024
C       2.858369    -1.523860     3.176870
C       3.078585    -0.229146     3.360984
H       3.768051     0.106395     4.130502
H       2.600551     0.531812     2.753950
C       3.563832    -2.595360     3.960504
H       2.863967    -3.262529     4.470488
H       4.164719    -3.223093     3.294184
H       4.222768    -2.141040     4.704164
N       2.150597    -1.221933     0.863417
C       3.519922    -1.417079     0.361371
H       3.687161    -0.715255    -0.459072
H       4.241357    -1.199432     1.147161
H       3.687179    -2.438218    -0.010820
C       0.353650    -1.759668     2.657494
C       0.273250    -2.189838     4.134404
C      -0.750916    -2.514191     1.890336
H       0.959891    -1.626384     4.763685
H      -0.744009    -2.013366     4.491151
H       0.490417    -3.256296     4.217850
H      -0.517349    -3.578861     1.845127
H      -1.686871    -2.383774     2.440650
H      -0.902171    -2.133413     0.884773
C       0.047342    -0.320134     2.580861
N      -0.260071     0.785555     2.535138
48
     -1091.779383     -1091.445561   4.44   3.63
C      -1.292240    -0.671876    -0.795006
C       0.053169    -0.335797    -0.567226
C       1.009956    -1.315515    -0.277744
C       0.629724    -2.653158    -0.275886
C      -0.698279    -2.993614    -0.486586
C      -1.652231    -2.014350    -0.730559
C      -2.325362     0.353963    -1.098889
C      -3.514719     0.375865    -0.369379
C      -4.500500     1.311365    -0.652997
C      -4.310117     2.236218    -1.673033
C      -3.130139     2.218179    -2.406888
C      -2.144930     1.282697    -2.123763
H       1.376096    -3.415529    -0.088608
H      -0.992982    -4.037995    -0.465616
H      -2.685640    -2.291131    -0.909674
H      -3.659538    -0.337453     0.436186
H      -5.418601     1.319299    -0.074019
H      -5.079377     2.968972    -1.895158
H      -2.972708     2.936794    -3.204534
H      -1.230099     1.271597    -2.705451
C       0.486308     1.036504    -0.650710
N       0.830823     2.127138    -0.764544
C       3.141914    -1.305453     1.058809
O       3.462384    -2.618459     1.083972
C       4.428912    -0.435976     1.106286
C       4.345620     0.875617     0.928912
H       5.238712     1.492776     0.969133
H       3.404108     1.374106     0.726113
C       5.732552    -1.153814     1.318582
H       5.913902    -1.864958     0.505871
H       6.554417    -0.434494     1.345983
H       5.739264    -1.732042     2.246287
N       2.362709    -0.877642    -0.110047
C       3.082193    -1.037434    -1.383630
H       2.486153    -0.575221    -2.174054
H       4.041940    -0.525465    -1.338224
H       3.247268    -2.093755    -1.640826
C       2.361546    -1.108105     2.475271
C       3.363608    -1.116273     3.645115
C       1.287781    -2.174267     2.772394
H       3.869096    -2.082773     3.687881
H       4.101775    -0.320949     3.558430
H       2.810084    -0.972115     4.575732
H       0.928340    -2.009463     3.791956
H       0.433235    -2.110227     2.105557
H       1.722586    -3.172976     2.712081
C       1.692815     0.205004     2.452058
N       1.135550     1.208461     2.492992
48
     -1091.781534     -1091.445534   3.09   3.65
C      -1.308409     0.402395    -0.027800
C       0.032538     0.153260    -0.371742
C       1.053837     0.086147     0.603252
C       0.669992     0.203357     1.942382
C      -0.655811     0.401951     2.283301
C      -1.642206     0.524202     1.313457
C      -2.367458     0.512491    -1.066455
C      -2.212728     1.356811    -2.165702
C      -3.216438     1.465206    -3.117855
C      -4.389692     0.732479    -2.982789
C      -4.553907    -0.109384    -1.888965
C      -3.549353    -0.216843    -0.936495
H       1.415441     0.151526     2.720405
H      -0.920259     0.484162     3.332638
H      -2.671077     0.720761     1.592820
H      -1.301358     1.935477    -2.272737
H      -3.079886     2.124279    -3.969068
H      -5.174082     0.816840    -3.728237
H      -5.466532    -0.686391    -1.777356
H      -3.672976    -0.884620    -0.089561
C       0.339572    -0.197847    -1.731691
N       0.591447    -0.511626    -2.809637
C       3.346538    -0.912913     0.963304
O       4.518795    -0.977228     0.297784
C       3.938297    -0.179588     2.227399
C       3.801060     1.141722     2.320113
H       4.243477     1.678402     3.153637
H       3.240799     1.726284     1.601753
C       4.745983    -0.954795     3.231657
H       5.622877    -1.404907     2.762061
H       5.090552    -0.268598     4.008057
H       4.166559    -1.742554     3.717358
N       2.382649    -0.105887     0.214910
C       2.931465     0.687219    -0.886658
H       3.823687     1.225632    -0.557776
H       3.199219     0.074050    -1.750858
H       2.186423     1.421914    -1.194851
C       2.793030    -2.395930     1.217749
C       3.946219    -3.419505     1.282032
C       1.861349    -2.836739     0.070476
H       3.525740    -4.403211     1.507222
H       4.443558    -3.460071     0.311855
H       4.688385    -3.186890     2.040430
H       2.329949    -2.617300    -0.891288
H       1.699649    -3.915048     0.140652
H       0.888094    -2.351457     0.107988
C       2.050066    -2.484101     2.487913
N       1.503149    -2.590322     3.493125
48
     -1091.781534     -1091.445531   3.09   3.65
C      -1.429950    -0.013987    -0.065705
C      -0.325934    -0.723169     0.440957
C       0.874759    -0.859777    -0.292421
C       0.954699    -0.196099    -1.520217
C      -0.114880     0.540039    -1.997213
C      -1.310092     0.619100    -1.294554
C      -2.702701     0.087290     0.697417
C      -3.302882     1.331728     0.889380
C      -4.500518     1.438630     1.583727
C      -5.114930     0.300250     2.092392
C      -4.525132    -0.943828     1.902495
C      -3.327874    -1.049704     1.208849
H       1.854674    -0.267326    -2.110701
H      -0.017889     1.046681    -2.952046
H      -2.154433     1.165473    -1.699302
H      -2.817003     2.222739     0.503989
H      -4.953895     2.414068     1.729498
H      -6.050870     0.382707     2.635803
H      -4.997825    -1.837488     2.296856
H      -2.874747    -2.023819     1.058240
C      -0.369984    -1.182356     1.802653
N      -0.381706    -1.525362     2.900868
C       3.341235    -1.279150     0.060934
O       4.114045    -2.155675     0.736006
C       3.921001    -1.640190    -1.360128
C       3.238574    -2.484606    -2.131190
H       3.639814    -2.790549    -3.092402
H       2.269358    -2.879927    -1.855529
C       5.277044    -1.131745    -1.765688
H       5.510437    -1.513941    -2.761602
H       5.320159    -0.041592    -1.809352
H       6.047196    -1.484652    -1.076930
N       1.927900    -1.621247     0.221871
C       1.650327    -2.943357     0.786364
H       2.252347    -3.703932     0.283165
H       1.859494    -2.993099     1.857944
H       0.598298    -3.180614     0.622686
C       3.643795     0.208753     0.575780
C       5.081838     0.329266     1.122769
C       2.689867     0.595063     1.724418
H       5.843323     0.045542     0.401848
H       5.257524     1.368629     1.412682
H       5.184554    -0.306695     2.003246
H       2.653600    -0.210085     2.461406
H       3.069931     1.496010     2.211930
H       1.679033     0.804520     1.380217
C       3.497691     1.195510    -0.509605
N       3.432481     1.979799    -1.347155
48
     -1091.778769     -1091.445193   4.82   3.86
C       2.335867     0.698177    -1.231247
C       1.177378     0.112894    -0.690684
C       0.560854     0.649013     0.450600
C       1.067379     1.829786     0.981307
C       2.184986     2.438922     0.431333
C       2.826973     1.866181    -0.656508
C       3.044407     0.092825    -2.390026
C       3.406859    -1.254459    -2.380608
C       4.089112    -1.806712    -3.455229
C       4.420468    -1.019421    -4.551728
C       4.066437     0.324590    -4.567447
C       3.383985     0.877307    -3.491997
H       0.569115     2.256601     1.844624
H       2.568124     3.356516     0.866028
H       3.724493     2.317973    -1.064972
H       3.155442    -1.870662    -1.524037
H       4.361850    -2.856905    -3.435773
H       4.953290    -1.452190    -5.392474
H       4.320377     0.945104    -5.421021
H       3.096507     1.924085    -3.511674
C       0.581634    -1.005530    -1.371974
N       0.102608    -1.879476    -1.945358
C      -0.547664    -1.285124     1.563701
O      -1.121774    -2.201054     0.746859
C       0.893818    -1.669887     1.936064
C       1.458247    -2.707704     1.330049
H       2.484078    -2.986010     1.556566
H       0.929076    -3.297730     0.591189
C       1.654706    -0.868075     2.967905
H       1.486338    -1.255379     3.978597
H       2.725603    -0.936932     2.766226
H       1.379766     0.186193     2.969056
N      -0.602302     0.093564     1.069584
C      -1.837699     0.492181     0.383302
H      -2.044003    -0.118591    -0.503263
H      -2.694756     0.425671     1.053947
H      -1.730597     1.534957     0.077602
C      -1.528742    -1.466166     2.859438
C      -1.472909    -0.253623     3.803617
C      -1.196681    -2.765034     3.614145
H      -0.477964    -0.139642     4.230730
H      -1.738956     0.666258     3.284590
H      -2.182022    -0.415470     4.620305
H      -1.944240    -2.919516     4.396426
H      -1.210630    -3.622321     2.941509
H      -0.214180    -2.698170     4.081240
C      -2.925810    -1.592595     2.395606
N      -4.039915    -1.688558     2.131174
48
     -1091.779043     -1091.444651   4.65   4.20
C      -1.233698     0.033286    -0.967165
C       0.046823    -0.423213    -0.613687
C       0.218268    -1.544428     0.212423
C      -0.910967    -2.243362     0.621426
C      -2.180154    -1.818638     0.256196
C      -2.341720    -0.681637    -0.521595
C      -1.428454     1.250222    -1.800021
C      -0.815448     2.457574    -1.464712
C      -1.023820     3.591348    -2.237012
C      -1.849793     3.534492    -3.353305
C      -2.467777     2.336651    -3.692710
C      -2.259367     1.202458    -2.919583
H      -0.776556    -3.124804     1.238149
H      -3.050842    -2.373406     0.590828
H      -3.334726    -0.331293    -0.781475
H      -0.175676     2.510457    -0.590349
H      -0.538100     4.522909    -1.965153
H      -2.011630     4.421492    -3.957490
H      -3.113014     2.283913    -4.563902
H      -2.732407     0.264444    -3.193490
C       1.209233     0.230027    -1.151510
N       2.145834     0.736198    -1.586575
C       2.460337    -1.266027     1.343864
O       3.585352    -0.982409     0.661691
C       1.866086    -0.004604     2.003440
C       0.718045    -0.015215     2.672124
H       0.347070     0.894519     3.134934
H       0.093430    -0.893807     2.770939
C       2.678096     1.256944     1.865185
H       2.822888     1.512488     0.813022
H       2.167431     2.082681     2.366119
H       3.674891     1.147001     2.299993
N       1.496478    -2.065193     0.575559
C       2.061779    -2.872800    -0.516018
H       2.903158    -3.466847    -0.167387
H       1.282470    -3.555388    -0.864017
H       2.401264    -2.260528    -1.360094
C       3.111192    -2.197151     2.544556
C       2.018155    -2.946284     3.318960
C       3.966372    -1.358998     3.506820
H       1.371904    -3.503711     2.642527
H       2.497478    -3.646667     4.008964
H       1.418508    -2.245409     3.899251
H       3.342976    -0.633005     4.029757
H       4.414836    -2.029478     4.244872
H       4.767351    -0.841470     2.979527
C       3.999956    -3.206948     1.942049
N       4.705678    -4.027145     1.555599
48
     -1091.777393     -1091.444053   5.68   4.58
C      -1.503015    -0.352340    -0.541824
C      -0.177973     0.013590    -0.256456
C       0.245560     0.238189     1.062215
C      -0.699131     0.199225     2.085001
C      -2.019375    -0.118523     1.804736
C      -2.414862    -0.415762     0.507705
C      -1.935510    -0.670528    -1.927382
C      -1.196641    -1.552335    -2.717116
C      -1.613337    -1.860935    -4.003969
C      -2.774666    -1.295214    -4.517390
C      -3.518250    -0.418583    -3.735939
C      -3.101477    -0.109667    -2.448167
H      -0.377280     0.386722     3.104025
H      -2.743725    -0.160026     2.611896
H      -3.439053    -0.706949     0.301237
H      -0.292275    -1.999207    -2.317320
H      -1.026962    -2.545310    -4.608509
H      -3.099363    -1.536473    -5.524588
H      -4.425043     0.028629    -4.130927
H      -3.675185     0.586751    -1.844296
C       0.745769     0.276556    -1.327506
N       1.466500     0.535005    -2.186179
C       2.619152    -0.464040     1.163521
O       2.371501    -1.296080     0.142527
C       4.019721     0.170034     1.056159
C       4.586462     0.199888    -0.143640
H       5.566367     0.650542    -0.275955
H       4.095424    -0.198911    -1.023566
C       4.729061     0.770615     2.255412
H       4.718734     1.862571     2.207998
H       4.294705     0.487255     3.213801
H       5.775596     0.455535     2.255990
N       1.593140     0.547993     1.348242
C       1.849563     1.818788     2.016564
H       2.612757     2.384307     1.475205
H       0.927254     2.401228     1.984799
H       2.148547     1.714462     3.064916
C       2.592858    -1.623570     2.364451
C       3.921048    -2.388901     2.403475
C       1.432388    -2.622219     2.184941
H       3.833332    -3.213723     3.115838
H       4.127482    -2.799525     1.414131
H       4.758373    -1.762540     2.707133
H       1.632360    -3.273902     1.335009
H       1.363273    -3.230473     3.092487
H       0.475955    -2.126752     2.031764
C       2.366430    -0.925810     3.640189
N       2.161875    -0.389343     4.636480
48
     -1091.776938     -1091.440885   5.97   6.56
C       1.146846     1.272384    -1.574946
C       1.370411     0.237802    -0.647156
C       0.549775     0.060729     0.480472
C      -0.536450     0.924197     0.638453
C      -0.779754     1.921785    -0.287133
C       0.056572     2.107618    -1.382191
C       2.035159     1.472532    -2.750399
C       3.419923     1.551810    -2.602999
C       4.235804     1.758132    -3.706446
C       3.678595     1.890879    -4.972702
C       2.299313     1.816876    -5.128809
C       1.483588     1.610557    -4.024417
H      -1.178620     0.828609     1.501430
H      -1.629644     2.579923    -0.139948
H      -0.126582     2.913428    -2.084391
H       3.860333     1.456688    -1.616250
H       5.311557     1.814610    -3.575230
H       4.317127     2.051446    -5.835563
H       1.856259     1.917874    -6.114633
H       0.407574     1.539131    -4.149309
C       2.398836    -0.730945    -0.910735
N       3.210802    -1.523412    -1.102806
C      -0.232310    -1.799238     1.901132
O      -1.340954    -1.652837     1.146590
C       0.025824    -3.321507     1.571249
C       1.072090    -3.671035     0.828725
H       1.206073    -4.713113     0.553250
H       1.806369    -2.974283     0.453305
C      -1.008078    -4.342571     1.979653
H      -2.004404    -4.045658     1.647193
H      -0.761101    -5.299074     1.514142
H      -1.047861    -4.508417     3.058556
N       0.854377    -0.964903     1.401752
C       2.131087    -0.891230     2.100771
H       2.859417    -0.388663     1.464870
H       2.069408    -0.322584     3.036107
H       2.514561    -1.893078     2.306576
C      -0.539628    -1.557726     3.461335
C       0.371452    -2.365243     4.408491
C      -2.019996    -1.819944     3.800462
H       1.426642    -2.136013     4.269678
H       0.109342    -2.128766     5.442823
H       0.232488    -3.434982     4.257074
H      -2.190911    -1.564157     4.849733
H      -2.675949    -1.209590     3.179571
H      -2.284923    -2.865478     3.658022
C      -0.317556    -0.128382     3.757445
N      -0.168223     0.974708     4.043384
48
     -1091.774522     -1091.440758   7.49   6.64
C      -1.326424    -1.066561    -0.864523
C      -0.314482    -0.380107    -0.176860
C      -0.123471    -0.549701     1.203246
C      -1.003628    -1.364591     1.897459
C      -2.023927    -2.033909     1.231928
C      -2.176795    -1.897016    -0.137707
C      -1.502042    -0.933014    -2.334391
C      -0.425517    -1.111319    -3.204067
C      -0.604926    -1.006013    -4.575942
C      -1.862151    -0.724001    -5.097239
C      -2.940827    -0.549054    -4.238139
C      -2.761672    -0.654853    -2.865565
H      -0.880892    -1.473262     2.967659
H      -2.697358    -2.676968     1.789425
H      -2.953671    -2.443786    -0.661225
H       0.555786    -1.340477    -2.802762
H       0.241885    -1.144929    -5.240217
H      -2.001259    -0.640959    -6.170437
H      -3.925418    -0.327353    -4.637774
H      -3.602262    -0.505402    -2.194935
C       0.498082     0.576506    -0.879338
N       1.123077     1.371605    -1.426866
C       2.275474    -0.336204     1.632918
O       2.228480    -1.453762     0.875116
C       3.260839     0.671779     0.975269
C       3.491840     1.899063     1.426935
H       4.210182     2.530387     0.913075
H       3.006510     2.339617     2.286347
C       4.004151     0.149659    -0.228956
H       3.312313    -0.173302    -1.008824
H       4.642403     0.938276    -0.632936
H       4.630654    -0.706857     0.031732
N       0.909880     0.134365     1.925414
C       0.578367     1.533377     2.183383
H      -0.484195     1.577385     2.435743
H       1.130745     1.912700     3.044009
H       0.760366     2.196155     1.329259
C       2.929313    -0.933516     3.005063
C       2.130943    -2.147794     3.505022
C       2.996035     0.111219     4.127867
H       2.051285    -2.924448     2.745939
H       2.632161    -2.561355     4.384604
H       1.132394    -1.823841     3.796968
H       1.987318     0.429863     4.393697
H       3.448840    -0.355872     5.006839
H       3.599235     0.975161     3.854800
C       4.300815    -1.367826     2.691085
N       5.379532    -1.712401     2.499139
