48
     -1091.783573     -1091.449312   0.00   0.00
C      -0.197049    -2.089181    -1.624551
C      -0.063822    -0.942572    -0.825687
C       0.220731    -1.033540     0.540398
C       0.266570    -2.287152     1.139193
C       0.103251    -3.427361     0.364511
C      -0.105933    -3.331966    -1.005120
C      -0.398712    -1.992007    -3.092716
C      -1.391377    -2.745832    -3.718818
C      -1.570175    -2.672438    -5.093583
C      -0.754868    -1.845779    -5.858161
C       0.239002    -1.095452    -5.240700
C       0.419808    -1.167463    -3.866625
H       0.447615    -2.360317     2.205078
H       0.155667    -4.404814     0.833435
H      -0.192107    -4.229448    -1.608300
H      -2.037776    -3.380777    -3.120592
H      -2.349447    -3.260260    -5.568341
H      -0.894134    -1.786634    -6.933006
H       0.879055    -0.448016    -5.831274
H       1.202615    -0.586241    -3.390257
C      -0.298888     0.365502    -1.384170
N      -0.537286     1.404245    -1.814880
C       1.561729     0.454428     2.059667
O       1.681252    -0.294860     3.183612
C       1.534942     1.960135     2.419792
C       1.614745     2.348829     3.686745
H       1.571644     3.404384     3.939536
H       1.717890     1.644904     4.504182
C       1.374798     2.933938     1.281973
H       2.260280     2.962301     0.639708
H       1.213760     3.939095     1.676057
H       0.535700     2.662221     0.638006
N       0.355905     0.195198     1.263156
C      -0.892290     0.505084     1.973946
H      -0.888488     1.542680     2.308159
H      -1.053977    -0.145005     2.845952
H      -1.725248     0.372085     1.279768
C       2.948960     0.135678     1.282816
C       4.106260     0.948369     1.894407
C       3.357292    -1.352786     1.322913
H       4.186878     0.721062     2.958461
H       3.973544     2.021925     1.773364
H       5.035895     0.657873     1.399515
H       4.311868    -1.451506     0.798261
H       2.637727    -2.000542     0.831246
H       3.489338    -1.675637     2.356501
C       2.815443     0.509606    -0.137321
N       2.771845     0.754007    -1.259039
48
     -1091.782428     -1091.448640   0.72   0.42
C      -0.531355    -0.150578    -2.058791
C      -0.162767    -0.283276    -0.711414
C       0.674368     0.645402    -0.080032
C       1.062970     1.773893    -0.793773
C       0.680115     1.932641    -2.117600
C      -0.095237     0.972802    -2.751988
C      -1.336947    -1.189494    -2.750569
C      -2.473610    -0.831223    -3.474803
C      -3.217272    -1.796382    -4.140517
C      -2.828212    -3.130279    -4.091848
C      -1.692371    -3.491948    -3.376897
C      -0.947401    -2.528936    -2.710576
H       1.667060     2.529974    -0.312355
H       1.002475     2.812518    -2.665213
H      -0.359738     1.084328    -3.798094
H      -2.783180     0.209163    -3.502386
H      -4.103213    -1.506566    -4.696717
H      -3.408990    -3.886092    -4.611176
H      -1.382032    -4.531018    -3.336632
H      -0.053804    -2.810091    -2.163358
C      -0.698286    -1.368475     0.069112
N      -1.151530    -2.213303     0.703929
C       2.408399     0.181684     1.709624
O       2.583573     0.437946     3.021599
C       3.435853     1.050862     0.945909
C       4.074360     0.672053    -0.152373
H       4.763597     1.357443    -0.638130
H       3.947990    -0.294999    -0.621533
C       3.637001     2.422120     1.544623
H       4.143475     2.355221     2.512223
H       2.681661     2.925907     1.724815
H       4.237026     3.042539     0.874218
N       1.019370     0.429278     1.289483
C       0.141145     1.107442     2.237708
H       0.190559     0.620038     3.211952
H      -0.884084     1.036363     1.864509
H       0.384491     2.171714     2.373670
C       2.718421    -1.408436     1.664159
C       4.171425    -1.728302     2.048288
C       1.761309    -2.143496     2.620805
H       4.307394    -2.812731     2.022993
H       4.364756    -1.374383     3.061473
H       4.891318    -1.273473     1.370415
H       2.025872    -1.911263     3.653610
H       1.863316    -3.220666     2.464611
H       0.724433    -1.870008     2.438599
C       2.461960    -1.910259     0.302521
N       2.270050    -2.334140    -0.748303
48
     -1091.783062     -1091.448464   0.32   0.53
C      -1.263573    -0.249160    -1.097322
C       0.005369     0.218657    -0.718497
C       1.141332    -0.036247    -1.494117
C       0.981621    -0.667679    -2.723514
C      -0.272022    -1.103264    -3.126082
C      -1.381210    -0.916343    -2.311777
C      -2.450653    -0.065247    -0.223652
C      -3.638742     0.442633    -0.748697
C      -4.756196     0.597553     0.060537
C      -4.697298     0.242114     1.403395
C      -3.517258    -0.269422     1.930446
C      -2.398927    -0.425471     1.123771
H       1.849214    -0.829799    -3.350592
H      -0.383855    -1.609311    -4.079719
H      -2.351866    -1.295146    -2.613661
H      -3.680556     0.732742    -1.794196
H      -5.673981     0.998668    -0.357768
H      -5.569984     0.363554     2.037385
H      -3.464084    -0.549787     2.977344
H      -1.481988    -0.834304     1.535138
C       0.142897     1.052830     0.447711
N       0.247453     1.752225     1.353973
C       3.448324    -0.527754    -0.605105
O       4.682201    -0.012560    -0.767792
C       3.398722    -1.892991    -1.348443
C       4.260568    -2.090556    -2.342054
H       4.247584    -3.020503    -2.903973
H       5.000804    -1.351593    -2.627709
C       2.406719    -2.966181    -0.968067
H       2.664672    -3.441323    -0.017801
H       2.410483    -3.739427    -1.738971
H       1.389485    -2.589731    -0.863889
N       2.410140     0.435303    -1.030217
C       2.895259     1.576188    -1.808230
H       3.652534     2.119985    -1.242620
H       2.048987     2.243981    -1.989884
H       3.329574     1.291470    -2.777792
C       3.401795    -0.715181     0.999832
C       4.486293    -1.697812     1.471232
C       3.587690     0.645629     1.692923
H       4.368210    -1.870187     2.544282
H       5.470495    -1.265194     1.290388
H       4.429730    -2.658390     0.959254
H       4.597408     1.016301     1.509778
H       3.449249     0.516226     2.769557
H       2.859920     1.373038     1.338516
C       2.080691    -1.236606     1.395091
N       1.058464    -1.633556     1.737746
48
     -1091.783062     -1091.448441   0.32   0.55
C      -1.280717    -0.020878    -0.922938
C       0.012389     0.315321    -0.490013
C       1.122739     0.186589    -1.331139
C       0.915430    -0.172854    -2.659099
C      -0.361566    -0.473255    -3.109037
C      -1.447104    -0.419800    -2.244693
C      -2.443119     0.020214     0.000882
C      -2.380243    -0.610861     1.244168
C      -3.476300    -0.585605     2.094913
C      -4.645125     0.063631     1.715056
C      -4.715257     0.689359     0.475450
C      -3.620078     0.665763    -0.377543
H       1.764096    -0.232203    -3.328790
H      -0.510944    -0.768371    -4.142771
H      -2.437305    -0.694963    -2.591954
H      -1.472389    -1.126761     1.538786
H      -3.414511    -1.076847     3.060467
H      -5.500361     0.082088     2.383267
H      -5.624348     1.199236     0.172491
H      -3.670107     1.165859    -1.340030
C       0.204174     0.886669     0.818274
N       0.352835     1.380685     1.845525
C       3.425384    -0.555421    -0.622830
O       4.674823    -0.059926    -0.708325
C       3.308998    -1.736160    -1.628327
C       4.143833    -1.754461    -2.663597
H       4.084221    -2.547907    -3.403613
H       4.906790    -0.998311    -2.811081
C       2.283392    -2.830167    -1.449960
H       1.283779    -2.448845    -1.243397
H       2.540967    -3.499547    -0.624783
H       2.242212    -3.427548    -2.363013
N       2.417493     0.509218    -0.814369
C       2.931964     1.767950    -1.355988
H       2.108800     2.487040    -1.376281
H       3.337501     1.672808    -2.373944
H       3.719625     2.158699    -0.710998
C       3.401703    -1.067134     0.910637
C       4.456037    -2.161957     1.142179
C       3.652855     0.115019     1.862526
H       5.452667    -1.735169     1.027799
H       4.352632    -2.994356     0.446159
H       4.351576    -2.547002     2.159987
H       4.672729     0.480540     1.733230
H       3.529046    -0.228057     2.893076
H       2.947617     0.924265     1.683309
C       2.069055    -1.613573     1.225075
N       1.038858    -2.037661     1.505729
48
     -1091.783519     -1091.448329   0.03   0.62
C      -0.481745    -1.886292    -1.986877
C      -0.090312    -0.899457    -1.062448
C       0.846223    -1.166710    -0.049617
C       1.425312    -2.439347    -0.006111
C       1.068502    -3.399824    -0.934957
C       0.113536    -3.137200    -1.912038
C      -1.494561    -1.607666    -3.038957
C      -2.721753    -1.025669    -2.720825
C      -3.665944    -0.786347    -3.709209
C      -3.397525    -1.127621    -5.029459
C      -2.178487    -1.710699    -5.355474
C      -1.234327    -1.950216    -4.366133
H       2.139655    -2.674570     0.771647
H       1.530514    -4.380742    -0.885955
H      -0.182020    -3.909529    -2.613380
H      -2.939588    -0.763443    -1.690974
H      -4.614836    -0.330442    -3.445742
H      -4.135914    -0.939491    -5.802388
H      -1.960311    -1.978245    -6.384633
H      -0.277040    -2.392277    -4.624333
C      -0.551059     0.451983    -1.227366
N      -0.889518     1.545305    -1.346737
C       2.595464    -0.037860     1.212536
O       3.350117    -0.325318     0.123828
C       3.054670    -0.905994     2.414597
C       4.247039    -1.492578     2.383775
H       4.573038    -2.111937     3.214310
H       4.925159    -1.383447     1.545990
C       2.111290    -1.129050     3.567800
H       2.583017    -1.784731     4.301909
H       1.188573    -1.609709     3.227980
H       1.839751    -0.198445     4.072988
N       1.178498    -0.170872     0.883835
C       0.098016     0.476226     1.624206
H      -0.839485    -0.009111     1.348256
H      -0.002061     1.540562     1.396706
H       0.218822     0.366242     2.701902
C       2.982972     1.524084     1.435294
C       4.498678     1.705346     1.637630
C       2.514307     2.369821     0.240512
H       4.697218     2.767508     1.804214
H       5.038069     1.381055     0.747947
H       4.857747     1.146698     2.500960
H       3.066471     2.070638    -0.651081
H       2.726631     3.421467     0.449504
H       1.450074     2.263025     0.040800
C       2.343778     2.016811     2.671064
N       1.894295     2.419959     3.648778
48
     -1091.783519     -1091.448328   0.03   0.62
C      -1.097678     0.700500    -1.419837
C      -0.291450    -0.141569    -0.630832
C       1.050271    -0.398872    -0.959379
C       1.590465     0.245052    -2.077588
C       0.810320     1.100422    -2.834105
C      -0.527435     1.320874    -2.521971
C      -2.525034     0.946990    -1.084868
C      -3.016833     2.251953    -1.044067
C      -4.351599     2.494724    -0.748992
C      -5.213295     1.434271    -0.493557
C      -4.732090     0.131094    -0.535374
C      -3.397821    -0.110948    -0.830031
H       2.617430     0.054082    -2.359366
H       1.248237     1.592262    -3.696882
H      -1.137360     1.967568    -3.142864
H      -2.341716     3.081705    -1.229041
H      -4.719155     3.515597    -0.716206
H      -6.256750     1.623248    -0.262202
H      -5.397619    -0.702785    -0.336925
H      -3.029467    -1.130599    -0.867970
C      -0.799790    -0.651071     0.613312
N      -1.174742    -1.057032     1.622652
C       3.177191    -0.862923     0.130621
O       3.229010     0.485726     0.256523
C       4.234242    -1.335368    -0.903293
C       5.233681    -0.525457    -1.237880
H       5.971810    -0.841555    -1.969265
H       5.347718     0.462504    -0.808258
C       4.070645    -2.678424    -1.565889
H       4.093861    -3.504326    -0.850119
H       4.879932    -2.831541    -2.282112
H       3.122473    -2.730627    -2.110097
N       1.811404    -1.281157    -0.174735
C       1.288837    -2.623880     0.066880
H       1.976396    -3.397146    -0.275811
H       0.362974    -2.733909    -0.499942
H       1.056444    -2.812304     1.118106
C       3.586716    -1.315145     1.636337
C       4.965891    -0.759155     2.036243
C       2.526111    -0.846775     2.645385
H       5.197978    -1.112055     3.044685
H       4.945217     0.330435     2.039962
H       5.748175    -1.102917     1.360805
H       2.792972    -1.223533     3.636122
H       1.526065    -1.196933     2.398029
H       2.514534     0.243308     2.675716
C       3.706864    -2.785180     1.691603
N       3.848911    -3.923545     1.758218
48
     -1091.783230     -1091.447772   0.22   0.97
C      -0.520598    -1.618951    -2.016689
C       0.143434    -0.647657    -1.250014
C       1.483320    -0.804136    -0.863299
C       2.162613    -1.951466    -1.261034
C       1.511620    -2.916733    -2.014433
C       0.185952    -2.756204    -2.393314
C      -1.944094    -1.468120    -2.420807
C      -2.308822    -1.648381    -3.755335
C      -3.635921    -1.533803    -4.146735
C      -4.616670    -1.240295    -3.206489
C      -4.262158    -1.063669    -1.874387
C      -2.935580    -1.178445    -1.483494
H       3.201066    -2.082434    -0.986824
H       2.051723    -3.809647    -2.312482
H      -0.317064    -3.524083    -2.970787
H      -1.542196    -1.865300    -4.492805
H      -3.904224    -1.672042    -5.189379
H      -5.654371    -1.149491    -3.511359
H      -5.021240    -0.834064    -1.133715
H      -2.667612    -1.046136    -0.441048
C      -0.545694     0.554438    -0.858378
N      -1.095760     1.517187    -0.553499
C       3.019018    -0.185835     0.932095
O       4.234775    -0.580258     0.485937
C       2.325349    -1.261434     1.788434
C       2.943386    -2.408355     2.041131
H       2.461246    -3.172911     2.643110
H       3.933352    -2.624634     1.655954
C       0.946409    -0.961318     2.317661
H       0.935483    -0.083449     2.969947
H       0.578542    -1.815355     2.889650
H       0.238428    -0.755728     1.512524
N       2.088772     0.249562    -0.113138
C       2.485935     1.365024    -0.979324
H       1.745578     1.460072    -1.774016
H       3.467203     1.200771    -1.443874
H       2.483029     2.305407    -0.427967
C       3.460301     1.054579     1.902246
C       3.890901     0.538957     3.287672
C       4.628717     1.894010     1.340360
H       4.264579     1.384100     3.871226
H       4.693166    -0.190821     3.170695
H       3.070204     0.078212     3.834927
H       4.736699     2.785164     1.965199
H       4.479946     2.212153     0.312998
H       5.549046     1.312257     1.393215
C       2.290647     1.934964     2.085440
N       1.415529     2.655007     2.272819
48
     -1091.781881     -1091.447769   1.06   0.97
C      -1.168400    -0.064254     1.123797
C      -0.327394    -0.566355     0.117926
C       0.988569    -0.960478     0.390304
C       1.467289    -0.859874     1.691677
C       0.644343    -0.361007     2.690475
C      -0.659452     0.030747     2.415090
C      -2.561763     0.372047     0.842015
C      -2.844075     1.263036    -0.193451
C      -4.147361     1.676500    -0.430788
C      -5.185654     1.208299     0.365497
C      -4.912990     0.324028     1.402765
C      -3.609159    -0.089695     1.639903
H       2.476196    -1.181924     1.917964
H       1.026359    -0.279390     3.703112
H      -1.287827     0.432959     3.202215
H      -2.038036     1.639598    -0.813728
H      -4.351232     2.367497    -1.242275
H      -6.204730     1.531675     0.178579
H      -5.718468    -0.047173     2.028561
H      -3.399602    -0.790338     2.442302
C      -0.795401    -0.704909    -1.236714
N      -1.147412    -0.824662    -2.325450
C       3.153428    -1.078721    -0.740366
O       3.978522    -1.765732     0.082830
C       3.262900     0.443925    -0.490118
C       2.387536     1.287224    -1.022869
H       2.485146     2.355961    -0.857669
H       1.546348     0.956659    -1.621526
C       4.385139     0.906423     0.398081
H       5.357910     0.558750     0.046053
H       4.251381     0.521866     1.414312
H       4.397138     1.997907     0.437693
N       1.750598    -1.499971    -0.691865
C       1.473670    -2.932892    -0.854361
H       0.450620    -3.123228    -0.527303
H       2.147677    -3.556930    -0.254178
H       1.532817    -3.230608    -1.901916
C       3.799002    -1.405139    -2.207721
C       4.311168    -2.853088    -2.362687
C       2.817754    -1.042789    -3.334808
H       5.075812    -3.082513    -1.621659
H       4.751733    -2.947152    -3.359172
H       3.507506    -3.579864    -2.276703
H       3.286873    -1.285969    -4.292035
H       2.586895     0.021104    -3.329502
H       1.886981    -1.600498    -3.243604
C       4.988658    -0.545363    -2.363914
N       5.928938     0.089232    -2.542407
48
     -1091.781903     -1091.447753   1.05   0.98
C      -0.070471     1.311624    -1.782838
C       0.172843     0.555297    -0.625070
C       1.465393     0.146348    -0.272620
C       2.530451     0.495622    -1.095433
C       2.295067     1.219945    -2.254496
C       1.012388     1.628718    -2.596510
C      -1.437243     1.764639    -2.153250
C      -2.255324     2.416704    -1.230484
C      -3.521947     2.850716    -1.595331
C      -3.987274     2.642039    -2.888093
C      -3.177487     1.996692    -3.815468
C      -1.910463     1.562421    -3.450271
H       3.537273     0.205880    -0.821772
H       3.130498     1.483795    -2.895183
H       0.846845     2.218975    -3.491105
H      -1.896168     2.590201    -0.221881
H      -4.147405     3.353681    -0.865002
H      -4.978336     2.981144    -3.172405
H      -3.534154     1.828282    -4.826731
H      -1.285238     1.046173    -4.172186
C      -0.913829     0.117016     0.211681
N      -1.766937    -0.247012     0.892394
C       2.583974    -1.671463     0.923402
O       3.873245    -1.290508     1.076450
C       2.402257    -2.510981    -0.363257
C       1.190992    -2.795857    -0.824662
H       1.072845    -3.402217    -1.717677
H       0.284659    -2.434415    -0.352269
C       3.655177    -2.958560    -1.065025
H       4.213406    -2.094767    -1.440051
H       3.394107    -3.597996    -1.911194
H       4.322572    -3.511628    -0.401910
N       1.614322    -0.573350     0.952035
C       1.677288     0.350950     2.091154
H       1.215324    -0.082389     2.979042
H       1.104990     1.244655     1.838803
H       2.705764     0.656291     2.321015
C       2.372484    -2.657218     2.211718
C       3.068952    -2.169960     3.500434
C       0.879339    -2.928880     2.459747
H       2.903374    -2.923888     4.275080
H       2.659439    -1.226692     3.852436
H       4.141762    -2.056018     3.350366
H       0.787228    -3.573497     3.338053
H       0.426057    -3.440795     1.612616
H       0.332963    -2.004199     2.638983
C       3.008196    -3.948409     1.883502
N       3.492183    -4.972278     1.693395
48
     -1091.782159     -1091.447726   0.89   1.00
C      -1.362110     0.424677    -0.383576
C      -0.154051    -0.154550    -0.799122
C       1.044492     0.575528    -0.806192
C       1.015066     1.908088    -0.420626
C      -0.172841     2.489620     0.001539
C      -1.349264     1.756224     0.024096
C      -2.635738    -0.342790    -0.361914
C      -3.424704    -0.344011     0.789018
C      -4.626449    -1.038305     0.821004
C      -5.056185    -1.738904    -0.300039
C      -4.277885    -1.739937    -1.451398
C      -3.076608    -1.045794    -1.483144
H       1.937415     2.474658    -0.434494
H      -0.177532     3.528859     0.313177
H      -2.277702     2.219866     0.339626
H      -3.082843     0.191351     1.669541
H      -5.227599    -1.034016     1.724777
H      -5.995184    -2.282725    -0.276182
H      -4.606340    -2.284011    -2.330971
H      -2.478376    -1.044878    -2.387901
C      -0.105656    -1.541375    -1.173291
N      -0.024116    -2.646434    -1.481621
C       3.029421    -0.966636    -0.462078
O       3.460711    -1.995809    -1.202031
C       2.334369    -1.490165     0.823085
C       1.836410    -0.687526     1.755631
H       1.375002    -1.113163     2.642062
H       1.858168     0.392674     1.695995
C       2.301415    -2.989208     0.976723
H       3.312718    -3.403249     1.036277
H       1.811347    -3.462964     0.124023
H       1.762461    -3.254434     1.889332
N       2.273081     0.011454    -1.265528
C       2.276297    -0.210962    -2.715733
H       1.876865     0.689047    -3.191536
H       1.676245    -1.073848    -3.027823
H       3.292610    -0.369896    -3.073765
C       4.466233    -0.285134    -0.034422
C       5.273844    -1.211670     0.881138
C       5.285760     0.104633    -1.273588
H       4.730644    -1.443487     1.797068
H       6.209600    -0.714617     1.150120
H       5.507122    -2.138300     0.354660
H       4.745668     0.820368    -1.892742
H       5.526256    -0.781667    -1.862119
H       6.216583     0.573471    -0.942936
C       4.167065     0.963873     0.687346
N       3.984601     1.961219     1.228157
48
     -1091.782158     -1091.447713   0.89   1.00
C      -0.759419    -1.031939    -1.993187
C       0.059933    -1.183187    -0.864731
C       1.458215    -1.229589    -0.975282
C       2.029536    -1.154127    -2.237486
C       1.229305    -0.994885    -3.360772
C      -0.150553    -0.930488    -3.241523
C      -2.241469    -0.970829    -1.886422
C      -2.958432    -1.947331    -1.194937
C      -4.342937    -1.885334    -1.122773
C      -5.029999    -0.848496    -1.742690
C      -4.324076     0.127216    -2.436885
C      -2.939086     0.065000    -2.508920
H       3.107647    -1.199073    -2.324570
H       1.691275    -0.923538    -4.339882
H      -0.772026    -0.822055    -4.123869
H      -2.429715    -2.763843    -0.715110
H      -4.886504    -2.651237    -0.579194
H      -6.112779    -0.800689    -1.684980
H      -4.853089     0.941321    -2.922257
H      -2.387405     0.835119    -3.039362
C      -0.518528    -1.233598     0.449991
N      -0.941082    -1.279262     1.518750
C       2.549051    -0.351163     1.140107
O       2.469428    -0.796270     2.400394
C       1.703678     0.940346     0.978006
C       1.624015     1.615698    -0.161901
H       1.028215     2.522635    -0.209975
H       2.125332     1.320361    -1.074214
C       1.005988     1.418634     2.225525
H       0.348955     0.646960     2.631151
H       0.412824     2.307565     1.998298
H       1.726372     1.671305     3.009685
N       2.302381    -1.424544     0.159605
C       2.194391    -2.781138     0.707846
H       2.235155    -3.483061    -0.129772
H       1.269700    -2.953587     1.271081
H       3.029865    -2.989246     1.374934
C       4.142273     0.058834     1.069413
C       4.458686     1.234710     2.000102
C       5.039651    -1.145665     1.390340
H       4.249756     0.953587     3.033331
H       3.876357     2.118864     1.741461
H       5.519998     1.480825     1.910120
H       4.870869    -1.960091     0.686389
H       4.854545    -1.495018     2.406917
H       6.084490    -0.834137     1.307693
C       4.437991     0.450998    -0.319557
N       4.724337     0.735415    -1.395466
48
     -1091.782238     -1091.447505   0.84   1.13
C      -1.155854     0.989741    -0.832234
C      -0.263932    -0.077651    -0.604918
C       1.090588    -0.009457    -0.990289
C       1.522494     1.168148    -1.616254
C       0.651686     2.218394    -1.830904
C      -0.683632     2.136271    -1.449727
C      -2.581967     0.925332    -0.409799
C      -2.933765     0.653517     0.911831
C      -4.267892     0.625086     1.293395
C      -5.267758     0.871692     0.360121
C      -4.925747     1.149554    -0.958078
C      -3.590658     1.178202    -1.339210
H       2.544958     1.248991    -1.952121
H       1.020012     3.118652    -2.312504
H      -1.358554     2.968966    -1.613104
H      -2.158167     0.467292     1.646611
H      -4.526172     0.408056     2.324800
H      -6.310816     0.848135     0.659385
H      -5.700530     1.343444    -1.693214
H      -3.323929     1.386347    -2.370829
C      -0.762408    -1.245996     0.066948
N      -1.162814    -2.172980     0.618495
C       3.311028    -0.901265    -0.295031
O       3.614334     0.386889    -0.058727
C       4.345100    -1.471204    -1.294699
C       5.198503    -2.460338    -1.062487
H       5.890440    -2.761186    -1.843916
H       5.261100    -3.010943    -0.134149
C       4.327287    -0.759914    -2.626077
H       5.029157    -1.233159    -3.315460
H       4.612166     0.290796    -2.512466
H       3.330611    -0.786073    -3.077916
N       1.953262    -1.098017    -0.790986
C       1.541224    -2.437312    -1.206661
H       2.375584    -2.932683    -1.708045
H       0.720286    -2.351312    -1.921402
H       1.209984    -3.070695    -0.380722
C       3.422644    -1.482375     1.234956
C       4.750984    -1.078729     1.898906
C       2.240640    -0.956262     2.066737
H       4.875156    -1.658350     2.817911
H       4.720951    -0.018913     2.151196
H       5.609099    -1.257790     1.253009
H       1.294076    -1.381980     1.737836
H       2.192917     0.131286     1.998913
H       2.396808    -1.237108     3.111753
C       3.322357    -2.954800     1.225412
N       3.244209    -4.100148     1.281070
48
     -1091.782238     -1091.447502   0.84   1.14
C      -0.005132    -1.575897    -2.343972
C       0.178534    -1.105326    -1.028117
C       1.457803    -1.017076    -0.442033
C       2.551198    -1.420691    -1.220986
C       2.373338    -1.873018    -2.513692
C       1.104968    -1.959257    -3.078467
C      -1.353784    -1.652658    -2.969761
C      -1.789355    -2.853797    -3.529006
C      -3.032968    -2.938010    -4.141270
C      -3.854741    -1.818904    -4.205391
C      -3.424854    -0.616810    -3.656110
C      -2.182006    -0.533332    -3.044029
H       3.544244    -1.395498    -0.799092
H       3.241912    -2.171858    -3.091908
H       0.974758    -2.306268    -4.097396
H      -1.151295    -3.730275    -3.470955
H      -3.361069    -3.880665    -4.567948
H      -4.827338    -1.883324    -4.682869
H      -4.059886     0.261932    -3.702496
H      -1.849595     0.409557    -2.623805
C      -0.980391    -0.680364    -0.292468
N      -1.909713    -0.327308     0.286785
C       2.683184     0.341728     1.249439
O       3.451767     0.712565     0.210715
C       3.594584    -0.278677     2.334706
C       3.781282     0.187296     3.562972
H       4.463122    -0.330858     4.231197
H       3.293312     1.063244     3.967315
C       4.318790    -1.513816     1.856395
H       5.001604    -1.273985     1.035238
H       3.616825    -2.271144     1.493219
H       4.901202    -1.948280     2.671170
N       1.616342    -0.583361     0.882966
C       0.789144    -1.160811     1.940546
H       0.367715    -2.104266     1.587699
H      -0.034040    -0.515668     2.255559
H       1.412983    -1.373813     2.811394
C       2.034398     1.799596     1.630001
C       3.119057     2.881078     1.778798
C       1.031500     2.210893     0.538741
H       3.499932     3.148150     0.793218
H       3.953224     2.550285     2.395512
H       2.671617     3.767113     2.237808
H       0.150439     1.571246     0.537964
H       1.510179     2.171013    -0.440502
H       0.708212     3.237499     0.730787
C       1.280413     1.702996     2.895027
N       0.674189     1.687148     3.871378
48
     -1091.782529     -1091.447346   0.66   1.23
C      -0.416340     0.504870    -1.939136
C       0.275316     0.409459    -0.716637
C       1.437211    -0.381560    -0.573931
C       1.843245    -1.128241    -1.687495
C       1.136223    -1.070428    -2.874804
C       0.025057    -0.248161    -3.016800
C      -1.612209     1.376924    -2.087715
C      -1.579490     2.715767    -1.698253
C      -2.695575     3.524144    -1.861215
C      -3.858687     3.005568    -2.417905
C      -3.899258     1.673221    -2.811976
C      -2.781994     0.865060    -2.649293
H       2.720371    -1.754048    -1.625355
H       1.476047    -1.662982    -3.718778
H      -0.495094    -0.180326    -3.965508
H      -0.672270     3.127583    -1.269066
H      -2.655741     4.563155    -1.550676
H      -4.731684     3.638028    -2.544154
H      -4.804525     1.260437    -3.245956
H      -2.819303    -0.178736    -2.945382
C      -0.299601     1.028107     0.447284
N      -0.764058     1.492571     1.392002
C       2.738173    -1.605713     1.217213
O       3.466303    -1.312679     2.319903
C       3.937111    -2.147219     0.365997
C       4.147030    -3.440595     0.139361
H       5.017334    -3.748129    -0.433366
H       3.511701    -4.236090     0.503032
C       4.889549    -1.085472    -0.124203
H       5.376180    -0.586665     0.717095
H       4.376353    -0.320143    -0.712432
H       5.660408    -1.543596    -0.747664
N       2.135250    -0.397174     0.637816
C       2.448385     0.870716     1.300065
H       1.973518     0.960675     2.280702
H       2.101658     1.690490     0.670412
H       3.528488     0.975331     1.426210
C       1.608535    -2.634015     1.642220
C       0.649424    -1.914935     2.616232
C       0.795570    -3.258084     0.494500
H       1.194608    -1.485874     3.458949
H      -0.074341    -2.635510     3.005219
H       0.107338    -1.120731     2.102928
H       0.181095    -4.066887     0.898720
H       1.428211    -3.669308    -0.292704
H       0.128889    -2.516317     0.054220
C       2.235089    -3.723014     2.420610
N       2.646500    -4.600849     3.037636
48
     -1091.782412     -1091.447288   0.73   1.27
C      -1.123962     0.831074    -1.340903
C      -0.314398    -0.136092    -0.718518
C       1.025966    -0.313283    -1.081293
C       1.555285     0.482280    -2.094683
C       0.771723     1.452635    -2.698197
C      -0.555028     1.629451    -2.325899
C      -2.550735     1.020395    -0.968507
C      -3.029436     2.298371    -0.677645
C      -4.363451     2.494638    -0.347222
C      -5.237539     1.414556    -0.306227
C      -4.769413     0.138997    -0.598356
C      -3.435984    -0.056958    -0.928648
H       2.574904     0.322365    -2.417676
H       1.198356     2.072807    -3.480044
H      -1.167116     2.376413    -2.819656
H      -2.344723     3.140643    -0.695665
H      -4.720725     3.493860    -0.118735
H      -6.280482     1.566764    -0.047171
H      -5.444762    -0.709882    -0.568500
H      -3.079291    -1.054116    -1.162402
C      -0.842924    -0.935040     0.355339
N      -1.267936    -1.575744     1.211019
C       3.098646    -0.939110     0.041107
O       3.096882     0.387421     0.300340
C       4.293965    -1.300500    -0.881029
C       4.936137    -0.310648    -1.495539
H       5.778712    -0.522053    -2.147871
H       4.657764     0.729066    -1.366207
C       4.773629    -2.723437    -1.048901
H       3.983395    -3.422357    -1.320676
H       5.225002    -3.107732    -0.130299
H       5.535956    -2.751348    -1.829662
N       1.772824    -1.348914    -0.442001
C       1.552683    -2.641586    -1.089245
H       0.474533    -2.800535    -1.169628
H       1.953976    -3.454227    -0.486608
H       1.981735    -2.687981    -2.100642
C       3.332664    -1.501424     1.549982
C       4.718026    -1.088017     2.072453
C       2.225533    -1.001834     2.492821
H       4.773017    -0.001704     2.144904
H       5.522105    -1.437349     1.424072
H       4.863599    -1.517613     3.066986
H       2.269887     0.083773     2.580838
H       2.383995    -1.444522     3.480054
H       1.241034    -1.295812     2.134305
C       3.261657    -2.974783     1.553632
N       3.210134    -4.121627     1.609647
48
     -1091.782412     -1091.447288   0.73   1.27
C      -1.479391    -0.506947     0.968848
C      -0.425756    -0.242080     0.075616
C       0.908409    -0.229511     0.499200
C       1.185856    -0.471167     1.842580
C       0.156284    -0.754859     2.725356
C      -1.164702    -0.775395     2.295581
C      -2.899813    -0.513627     0.530026
C      -3.440746     0.556621    -0.182646
C      -4.773719     0.544230    -0.568074
C      -5.585513    -0.536332    -0.244182
C      -5.056062    -1.605513     0.469135
C      -3.722441    -1.592937     0.854609
H       2.207800    -0.416372     2.192081
H       0.386007    -0.950893     3.767811
H      -1.965876    -0.976226     2.998567
H      -2.815028     1.406419    -0.432679
H      -5.178695     1.382989    -1.124907
H      -6.627796    -0.545539    -0.546788
H      -5.682946    -2.454068     0.724608
H      -3.306573    -2.434806     1.399487
C      -0.701276    -0.029820    -1.320764
N      -0.923389     0.143618    -2.436071
C       3.076672    -0.810785    -0.453632
O       2.697049    -2.028032    -0.005366
C       4.322647    -0.318529     0.330563
C       4.653819    -0.956392     1.450061
H       5.519751    -0.643534     2.026643
H       4.090679    -1.804856     1.821820
C       5.187979     0.814039    -0.170941
H       5.923899     1.064704     0.595282
H       4.629250     1.717221    -0.413620
H       5.733390     0.534248    -1.076203
N       1.921535     0.097406    -0.452518
C       2.077617     1.545054    -0.587942
H       2.498875     2.012411     0.313882
H       1.089474     1.976858    -0.764756
H       2.696100     1.793053    -1.448503
C       3.466100    -1.204030    -1.983857
C       4.677340    -2.150291    -2.007567
C       2.265269    -1.840994    -2.702545
H       4.420111    -3.087049    -1.512932
H       5.545700    -1.717806    -1.509691
H       4.942544    -2.359335    -3.047186
H       1.998067    -2.782821    -2.223148
H       2.546519    -2.038620    -3.740600
H       1.404618    -1.175079    -2.696610
C       3.818734     0.011970    -2.740719
N       4.096918     0.929586    -3.374469
48
     -1091.783206     -1091.447279   0.23   1.28
C      -1.241589    -1.249340     0.014870
C      -0.232247    -0.408146    -0.489651
C       1.048691    -0.900272    -0.822583
C       1.300735    -2.254381    -0.579436
C       0.322849    -3.070947    -0.042301
C      -0.947256    -2.585628     0.240104
C      -2.600658    -0.730861     0.325740
C      -3.182614    -1.000993     1.564244
C      -4.458585    -0.540299     1.860383
C      -5.170152     0.194047     0.918799
C      -4.598786     0.464130    -0.319048
C      -3.323267     0.003794    -0.614027
H       2.268149    -2.670852    -0.814149
H       0.553302    -4.114719     0.144545
H      -1.717008    -3.244006     0.626525
H      -2.622337    -1.563456     2.304678
H      -4.897284    -0.753988     2.829992
H      -6.167396     0.555117     1.149447
H      -5.147252     1.037076    -1.059649
H      -2.884199     0.212030    -1.583891
C      -0.480129     1.007467    -0.539611
N      -0.658912     2.143961    -0.557250
C       3.430232    -0.101738    -1.004963
O       4.142854     0.812701    -1.695693
C       4.150346    -1.377562    -1.575009
C       4.970194    -2.141531    -0.860490
H       5.439482    -3.002322    -1.328491
H       5.197632    -1.987872     0.184997
C       3.845456    -1.672695    -3.021327
H       2.773700    -1.829184    -3.173914
H       4.374245    -2.576304    -3.331929
H       4.158163    -0.847355    -3.664743
N       2.014718    -0.055817    -1.379540
C       1.646746     0.849318    -2.467037
H       2.291398     0.683901    -3.333227
H       1.714911     1.903277    -2.183031
H       0.619771     0.636011    -2.765596
C       3.628878     0.191300     0.548122
C       5.071943     0.653282     0.837343
C       2.674670     1.325557     0.977890
H       5.220859     0.703581     1.919233
H       5.214407     1.648700     0.414770
H       5.827377    -0.004184     0.410907
H       2.979342     1.697078     1.959299
H       1.641287     0.991523     1.051424
H       2.730238     2.148658     0.262064
C       3.326831    -0.977243     1.396331
N       3.113988    -1.849537     2.113925
48
     -1091.781305     -1091.447058   1.42   1.41
C      -0.190480    -1.061500    -2.366377
C       0.068346    -1.086739    -0.986294
C       1.303566    -1.505855    -0.483788
C       2.254932    -2.012481    -1.361905
C       1.996279    -2.025680    -2.725219
C       0.796057    -1.536305    -3.225169
C      -1.462986    -0.518496    -2.905850
C      -2.176953    -1.224996    -3.873698
C      -3.356721    -0.710712    -4.394230
C      -3.833885     0.518615    -3.954093
C      -3.124764     1.229449    -2.992883
C      -1.945032     0.717570    -2.471431
H       3.199800    -2.371233    -0.970223
H       2.747961    -2.406569    -3.409281
H       0.619973    -1.512022    -4.295279
H      -1.812645    -2.191821    -4.207444
H      -3.905775    -1.272416    -5.143361
H      -4.756706     0.921413    -4.359472
H      -3.491385     2.189472    -2.644268
H      -1.391103     1.280116    -1.726874
C      -0.972568    -0.757870    -0.044533
N      -1.818443    -0.545964     0.704335
C       2.593489    -0.726498     1.530129
O       3.808296    -1.298551     1.363764
C       2.283567    -0.558635     3.044209
C       1.069563    -0.186336     3.426389
H       0.840378    -0.056468     4.480281
H       0.267396    -0.014046     2.717185
C       3.389505    -0.871469     4.012999
H       3.697681    -1.917655     3.915752
H       3.048216    -0.699421     5.036496
H       4.281139    -0.265457     3.832669
N       1.476262    -1.474658     0.936886
C       1.327218    -2.827738     1.489978
H       0.400388    -3.256393     1.101649
H       1.250220    -2.778825     2.575522
H       2.162123    -3.489611     1.218140
C       2.813516     0.755850     0.898269
C       3.608822     1.646822     1.871187
C       3.559194     0.766148    -0.452386
H       3.096678     1.774902     2.823066
H       3.737151     2.630208     1.413175
H       4.595608     1.212482     2.041129
H       3.722963     1.809812    -0.735240
H       2.996941     0.290212    -1.249734
H       4.527897     0.275311    -0.347930
C       1.495954     1.380606     0.681206
N       0.505612     1.917114     0.455879
48
     -1091.781306     -1091.447053   1.42   1.42
C      -0.848934    -0.873178    -1.884455
C       0.041486    -1.137276    -0.831035
C       1.425714    -1.119620    -1.024763
C       1.927224    -0.946693    -2.309853
C       1.054921    -0.720401    -3.365112
C      -0.316792    -0.662774    -3.152827
C      -2.314007    -0.788572    -1.657347
C      -2.824234    -0.017038    -0.611708
C      -4.194967     0.074195    -0.415554
C      -5.071051    -0.597809    -1.259921
C      -4.569405    -1.364012    -2.305837
C      -3.198472    -1.457096    -2.503767
H       2.999385    -0.968396    -2.467645
H       1.450903    -0.569281    -4.364316
H      -0.987815    -0.443692    -3.976518
H      -2.144798     0.515869     0.045586
H      -4.579317     0.673808     0.403182
H      -6.142675    -0.524989    -1.103390
H      -5.247197    -1.892987    -2.968376
H      -2.807125    -2.067366    -3.312024
C      -0.458621    -1.518906     0.466210
N      -0.858693    -1.873361     1.483815
C       3.279357    -0.413741     0.522201
O       4.362251    -0.368799    -0.287740
C       3.708880    -0.778232     1.971050
C       2.782112    -1.051918     2.879174
H       3.066517    -1.299824     3.897868
H       1.723667    -1.053930     2.642902
C       5.183108    -0.839083     2.258255
H       5.686883     0.105549     2.037645
H       5.662230    -1.601731     1.635557
H       5.348164    -1.088867     3.308964
N       2.249174    -1.380319     0.116766
C       2.738734    -2.765111     0.076203
H       3.475741    -2.929450    -0.723086
H       1.885153    -3.425404    -0.094025
H       3.186646    -3.028879     1.033560
C       2.778080     1.133504     0.524450
C       3.685623     1.995691     1.422175
C       2.746636     1.792920    -0.870029
H       4.705087     1.981412     1.032604
H       3.684242     1.654871     2.455910
H       3.319478     3.024584     1.397422
H       3.733886     1.738727    -1.331133
H       2.478947     2.844772    -0.735803
H       2.012900     1.345455    -1.533207
C       1.410162     1.189268     1.071365
N       0.334761     1.305414     1.457908
48
     -1091.780969     -1091.446988   1.63   1.46
C      -1.145421    -1.434152     0.434150
C      -0.191014    -0.417944     0.258375
C       1.095130    -0.523182     0.813867
C       1.398309    -1.639929     1.581932
C       0.467327    -2.654567     1.750017
C      -0.790890    -2.557415     1.175435
C      -2.511007    -1.342689    -0.149066
C      -3.325893    -0.235172     0.084888
C      -4.606018    -0.178335    -0.447919
C      -5.090359    -1.228340    -1.218813
C      -4.286933    -2.338054    -1.453420
C      -3.006329    -2.394725    -0.920256
H       2.383805    -1.711249     2.024105
H       0.728704    -3.527913     2.338257
H      -1.523060    -3.344390     1.321319
H      -2.957602     0.584992     0.691361
H      -5.226980     0.691437    -0.259738
H      -6.091446    -1.182195    -1.635622
H      -4.657263    -3.161917    -2.055327
H      -2.375028    -3.256542    -1.114100
C      -0.531099     0.738801    -0.526574
N      -0.805872     1.672045    -1.139620
C       2.837100     0.617978    -0.597816
O       2.867666     1.890325    -1.043562
C       2.337254    -0.315424    -1.729882
C       1.729542     0.242069    -2.771243
H       1.358381    -0.376880    -3.583548
H       1.562622     1.309429    -2.847649
C       2.553638    -1.810315    -1.687222
H       3.602505    -2.077661    -1.843413
H       1.971048    -2.269592    -2.488239
H       2.252357    -2.263085    -0.743197
N       2.086135     0.494584     0.665837
C       1.729856     1.749882     1.335559
H       2.611382     2.378464     1.456312
H       1.346512     1.499625     2.328693
H       0.975404     2.337298     0.801161
C       4.416851     0.355502    -0.316276
C       5.224302     0.405241    -1.620848
C       4.983184     1.369097     0.693758
H       4.844175    -0.291009    -2.367838
H       6.266494     0.153369    -1.407698
H       5.182154     1.413845    -2.033891
H       6.046341     1.159410     0.838956
H       4.486419     1.281848     1.659718
H       4.873279     2.385696     0.314006
C       4.567038    -0.968385     0.315030
N       4.731254    -1.973649     0.847222
48
     -1091.781911     -1091.446973   1.04   1.47
C       0.128626     0.242903    -2.433625
C       0.405006     0.350396    -1.059163
C       1.712938     0.177361    -0.571702
C       2.740004    -0.028540    -1.483764
C       2.473431    -0.145405    -2.840160
C       1.175713    -0.026731    -3.310495
C      -1.247392     0.401887    -2.979068
C      -1.993935     1.555323    -2.741169
C      -3.264435     1.694166    -3.281798
C      -3.804332     0.684270    -4.069369
C      -3.065322    -0.466845    -4.315254
C      -1.794129    -0.605473    -3.774302
H       3.751748    -0.116112    -1.110882
H       3.288229    -0.329097    -3.532578
H       0.965137    -0.108068    -4.371513
H      -1.576966     2.349492    -2.131839
H      -3.835393     2.595687    -3.084796
H      -4.798592     0.794128    -4.490532
H      -3.480096    -1.260663    -4.928488
H      -1.221260    -1.509515    -3.957132
C      -0.687941     0.638730    -0.166146
N      -1.579884     0.913414     0.506066
C       1.737666    -0.895736     1.685585
O       0.414384    -1.179047     1.763991
C       2.334471    -0.604355     3.075424
C       1.537126    -0.541395     4.134856
H       1.941208    -0.303484     5.114675
H       0.469634    -0.714061     4.060896
C       3.818533    -0.358035     3.174035
H       4.389326    -1.290562     3.134477
H       4.048798     0.135047     4.120536
H       4.179556     0.261335     2.350112
N       2.062965     0.250707     0.816686
C       1.739592     1.556981     1.416196
H       1.824041     2.316832     0.636941
H       2.458966     1.796429     2.201230
H       0.731180     1.602480     1.840961
C       2.305416    -2.314761     1.141664
C       2.313738    -3.352105     2.281278
C       1.485389    -2.903011    -0.025747
H       2.977161    -3.067155     3.096477
H       2.650317    -4.311058     1.879871
H       1.303192    -3.468943     2.674891
H       1.412584    -2.235951    -0.880173
H       0.481941    -3.150490     0.321187
H       1.981337    -3.820294    -0.356720
C       3.697237    -2.130633     0.688522
N       4.786669    -2.041147     0.334084
48
     -1091.781190     -1091.446973   1.50   1.47
C      -1.078704    -0.070262     1.114199
C      -0.166499    -0.034733     0.047083
C       1.181267     0.297183     0.241284
C       1.613984     0.631437     1.520039
C       0.720382     0.595296     2.581850
C      -0.608871     0.246687     2.385440
C      -2.507846    -0.432424     0.921656
C      -3.507020     0.385205     1.451011
C      -4.846201     0.052611     1.299051
C      -5.203701    -1.104863     0.617519
C      -4.214609    -1.926626     0.090643
C      -2.875986    -1.594082     0.242712
H       2.645298     0.921339     1.676703
H       1.068011     0.846576     3.578919
H      -1.293880     0.207719     3.225438
H      -3.230429     1.296613     1.971969
H      -5.612647     0.700723     1.712137
H      -6.250429    -1.365427     0.497339
H      -4.484857    -2.832156    -0.442734
H      -2.110668    -2.245177    -0.165204
C      -0.602562    -0.309294    -1.298825
N      -0.939544    -0.530687    -2.376038
C       3.329558    -0.266595    -0.905831
O       4.204274     0.291838    -0.019580
C       3.958562    -0.053460    -2.313995
C       5.124475     0.566953    -2.449728
H       5.544134     0.721014    -3.439911
H       5.700004     0.932021    -1.608397
C       3.189522    -0.572243    -3.501815
H       3.570767    -0.105730    -4.412244
H       2.120212    -0.364027    -3.415971
H       3.316183    -1.653818    -3.607251
N       2.008490     0.378329    -0.925857
C       2.020023     1.768927    -1.410783
H       2.633811     2.426410    -0.780189
H       0.992967     2.139683    -1.406973
H       2.393464     1.813596    -2.433243
C       3.243377    -1.830508    -0.582121
C       3.364905    -2.133446     0.926735
C       1.969773    -2.512565    -1.121580
H       2.504564    -1.746056     1.471207
H       4.276382    -1.708991     1.348477
H       3.392257    -3.219007     1.059527
H       1.712276    -2.203828    -2.131800
H       1.126318    -2.287797    -0.469126
H       2.118570    -3.595483    -1.115467
C       4.410039    -2.482649    -1.216116
N       5.290319    -3.055855    -1.681519
48
     -1091.781911     -1091.446972   1.04   1.47
C      -1.528825    -0.298866    -0.255446
C      -0.204354     0.035317    -0.588902
C       0.600673    -0.855389    -1.321559
C       0.037281    -2.041681    -1.773709
C      -1.265546    -2.382319    -1.440378
C      -2.038016    -1.525196    -0.673547
C      -2.400281     0.613417     0.534816
C      -3.010333     0.146530     1.699266
C      -3.847985     0.971715     2.437635
C      -4.088148     2.274559     2.017419
C      -3.487511     2.745306     0.855836
C      -2.650269     1.920390     0.118091
H       0.644052    -2.704865    -2.375664
H      -1.678027    -3.324683    -1.785185
H      -3.060223    -1.784241    -0.419171
H      -2.813825    -0.867638     2.033545
H      -4.312417     0.596674     3.344215
H      -4.741864     2.921486     2.593737
H      -3.669631     3.761470     0.521492
H      -2.189056     2.292692    -0.789945
C       0.304470     1.311789    -0.156635
N       0.656519     2.357205     0.169022
C       3.001399    -0.728444    -0.637459
O       2.841897     0.099546     0.423894
C       4.366711    -0.515011    -1.318007
C       5.158643     0.469840    -0.911765
H       6.108850     0.651590    -1.405730
H       4.886878     1.123455    -0.090942
C       4.738970    -1.421418    -2.463727
H       5.551491    -0.973880    -3.039520
H       3.889286    -1.604106    -3.125140
H       5.076432    -2.401644    -2.114083
N       1.964142    -0.590375    -1.676796
C       2.111518     0.621581    -2.501277
H       2.951570     0.506457    -3.188434
H       2.264592     1.531975    -1.912091
H       1.202877     0.739350    -3.094779
C       2.992174    -2.166370     0.113578
C       4.332110    -2.391003     0.840891
C       1.860832    -2.314779     1.152496
H       5.175898    -2.427914     0.153479
H       4.283216    -3.339904     1.380521
H       4.497277    -1.585229     1.557294
H       2.017875    -1.607238     1.966896
H       1.904048    -3.331497     1.554152
H       0.869568    -2.162798     0.734629
C       2.842084    -3.231829    -0.895714
N       2.739073    -4.097906    -1.643910
48
     -1091.780969     -1091.446964   1.63   1.47
C      -1.191117    -1.213515     0.509989
C      -0.168242    -0.290689     0.233267
C       1.100141    -0.410537     0.825428
C       1.317005    -1.442292     1.729548
C       0.317716    -2.366047     1.998938
C      -0.923118    -2.258291     1.389498
C      -2.539320    -1.105416    -0.109673
C      -3.093716    -2.209449    -0.758219
C      -4.360166    -2.135182    -1.322148
C      -5.090197    -0.955125    -1.241444
C      -4.546882     0.147579    -0.593194
C      -3.280920     0.073137    -0.029610
H       2.289320    -1.522926     2.198498
H       0.511698    -3.176011     2.694210
H      -1.708463    -2.972202     1.613656
H      -2.519268    -3.127798    -0.832293
H      -4.776831    -3.000659    -1.827643
H      -6.080091    -0.895244    -1.682530
H      -5.110398     1.072443    -0.525492
H      -2.866586     0.935646     0.480804
C      -0.418953     0.780935    -0.693351
N      -0.621789     1.647980    -1.420922
C       2.933978     0.433954    -0.675666
O       3.055041     1.637475    -1.272013
C       2.388753    -0.597088    -1.696667
C       1.833873    -0.133541    -2.811019
H       1.433618    -0.822245    -3.550058
H       1.739322     0.924904    -3.020090
C       2.504540    -2.086277    -1.468094
H       1.904410    -2.601827    -2.220441
H       2.160002    -2.399614    -0.483167
H       3.535426    -2.437677    -1.566900
N       2.159187     0.514962     0.576973
C       1.878769     1.863100     1.082002
H       2.798567     2.443525     1.143991
H       1.466917     1.761517     2.089954
H       1.172027     2.428217     0.464746
C       4.488638     0.106846    -0.330046
C       5.315441    -0.056212    -1.613077
C       5.107453     1.198245     0.561157
H       4.900410    -0.813383    -2.277670
H       6.335659    -0.346073    -1.348184
H       5.345784     0.894483    -2.146860
H       4.592918     1.262569     1.519582
H       5.070707     2.165441     0.058211
H       6.152199     0.939899     0.753794
C       4.541576    -1.136299     0.460882
N       4.630985    -2.076966     1.115023
48
     -1091.781923     -1091.446044   1.04   2.05
C      -0.190847    -2.080546    -1.927041
C       0.117779    -0.949522    -1.140847
C       1.390059    -0.779006    -0.553622
C       2.323593    -1.811298    -0.739659
C       2.006770    -2.934296    -1.474148
C       0.761386    -3.072113    -2.081761
C      -1.520652    -2.233365    -2.577160
C      -2.243960    -3.414516    -2.413597
C      -3.476099    -3.579562    -3.032577
C      -3.998570    -2.565325    -3.826450
C      -3.281863    -1.386927    -3.997681
C      -2.050821    -1.222608    -3.378377
H       3.310602    -1.720565    -0.313045
H       2.753435    -3.712882    -1.593819
H       0.533525    -3.942124    -2.687025
H      -1.842402    -4.202284    -1.783771
H      -4.030184    -4.502456    -2.892560
H      -4.961780    -2.693009    -4.310191
H      -3.682453    -0.589778    -4.615510
H      -1.492692    -0.303369    -3.520650
C      -0.951721    -0.038183    -0.839957
N      -1.817033     0.675440    -0.582362
C       2.456320     0.287886     1.428409
O       2.694998    -0.974639     1.828872
C       1.471293     0.676199     2.593676
C       1.783810     1.512885     3.577554
H       1.054158     1.707273     4.358471
H       2.716421     2.052760     3.656724
C       0.127345    -0.002750     2.525143
H      -0.534277     0.500089     1.815742
H      -0.349679     0.032302     3.506778
H       0.222313    -1.045420     2.218232
N       1.727323     0.372326     0.161423
C       1.242587     1.681093    -0.258068
H       0.479304     2.091266     0.410010
H       0.817149     1.602857    -1.257602
H       2.067926     2.392952    -0.318495
C       3.833352     1.092540     1.381207
C       4.768406     0.652007     2.524960
C       4.560907     0.819637     0.048447
H       5.073140    -0.381687     2.358290
H       4.298954     0.709528     3.505173
H       5.657742     1.288112     2.525890
H       4.809856    -0.240034    -0.024262
H       5.494609     1.387168     0.024556
H       3.961976     1.100497    -0.817811
C       3.644741     2.553806     1.471076
N       3.563481     3.699406     1.522313
48
     -1091.781923     -1091.446040   1.04   2.05
C      -1.395579     0.806280    -0.285743
C      -0.405117    -0.196961    -0.214631
C       0.942009     0.109722     0.074843
C       1.268392     1.465809     0.236807
C       0.306926     2.447869     0.126778
C      -1.026062     2.129049    -0.119550
C      -2.821066     0.471016    -0.550280
C      -3.490096    -0.483820     0.214799
C      -4.826172    -0.770792    -0.027165
C      -5.512417    -0.105018    -1.035840
C      -4.854528     0.850852    -1.800940
C      -3.517687     1.137753    -1.557858
H       2.285349     1.745714     0.464570
H       0.597483     3.485683     0.255397
H      -1.781292     2.905172    -0.169002
H      -2.961039    -1.001838     1.007582
H      -5.331967    -1.518777     0.574766
H      -6.557078    -0.330491    -1.225384
H      -5.382903     1.374322    -2.591602
H      -3.001333     1.875587    -2.164064
C      -0.785246    -1.532624    -0.583960
N      -1.089195    -2.595564    -0.903569
C       3.239076    -0.738714    -0.380319
O       3.379874     0.384689    -1.107850
C       3.354630    -1.757214    -1.575409
C       4.407304    -2.542465    -1.777903
H       4.418770    -3.199186    -2.643116
H       5.265287    -2.606404    -1.124248
C       2.170294    -1.760218    -2.507682
H       1.802373    -0.749110    -2.688473
H       1.347294    -2.352114    -2.100046
H       2.458525    -2.204977    -3.462406
N       1.912490    -0.883781     0.222130
C       1.590100    -2.154634     0.858360
H       1.554147    -2.991164     0.154018
H       0.619799    -2.075654     1.346689
H       2.319498    -2.388546     1.636080
C       4.402037    -0.807088     0.710001
C       5.718344    -0.234150     0.148173
C       4.016986     0.028578     1.948333
H       6.516468    -0.386027     0.879935
H       5.596341     0.835540    -0.025170
H       6.016492    -0.694501    -0.791877
H       3.908034     1.076525     1.665322
H       4.815984    -0.038184     2.691037
H       3.088029    -0.310344     2.406776
C       4.658289    -2.180386     1.186786
N       4.895574    -3.223078     1.608822
48
     -1091.781288     -1091.445692   1.43   2.27
C      -0.897391    -0.016518     1.594364
C      -0.263981    -0.154287     0.344562
C       1.126256     0.001647     0.197461
C       1.881722     0.266477     1.345093
C       1.265160     0.368600     2.578399
C      -0.113913     0.240379     2.709413
C      -2.370488    -0.156945     1.739872
C      -2.896413    -0.991970     2.725984
C      -4.269816    -1.119033     2.884994
C      -5.135620    -0.409354     2.060994
C      -4.619665     0.427496     1.078657
C      -3.246851     0.553855     0.919942
H       2.950575     0.407167     1.262551
H       1.871310     0.570056     3.455920
H      -0.587727     0.354442     3.677985
H      -2.221358    -1.557392     3.360876
H      -4.664825    -1.776140     3.653443
H      -6.209414    -0.508530     2.184145
H      -5.288285     0.985234     0.430950
H      -2.850434     1.214371     0.156187
C      -1.032517    -0.584527    -0.790666
N      -1.622773    -0.941307    -1.711895
C       3.008896    -0.735053    -1.201102
O       3.252295    -1.572521    -0.166306
C       4.199988     0.255889    -1.282281
C       4.024019     1.552748    -1.051202
H       4.878025     2.223478    -1.033636
H       3.057519     1.994309    -0.841454
C       5.580799    -0.315575    -1.473708
H       5.723438    -0.755635    -2.463470
H       5.782958    -1.103150    -0.744937
H       6.320750     0.477392    -1.349586
N       1.707579    -0.092532    -1.077185
C       1.181484     0.752335    -2.146010
H       0.552976     0.208089    -2.857229
H       2.002668     1.227244    -2.686026
H       0.571699     1.546366    -1.707725
C       2.964627    -1.775971    -2.453091
C       1.663945    -2.595061    -2.404440
C       3.125278    -1.088168    -3.822316
H       1.525258    -3.050591    -1.423927
H       1.723035    -3.389644    -3.152666
H       0.800514    -1.970570    -2.627849
H       3.954945    -0.379634    -3.828552
H       2.212540    -0.566321    -4.103290
H       3.321094    -1.853646    -4.577682
C       4.077432    -2.736563    -2.310482
N       4.911436    -3.526429    -2.288276
48
     -1091.781288     -1091.445692   1.43   2.27
C      -1.100128     0.095603     1.327114
C      -0.349320    -0.225232     0.180123
C       1.021157     0.076634     0.083473
C       1.638962     0.680913     1.183966
C       0.910403     0.965863     2.323968
C      -0.450863     0.688821     2.399354
C      -2.554282    -0.202465     1.413863
C      -3.432506     0.192239     0.404669
C      -4.790180    -0.076148     0.506995
C      -5.289290    -0.740705     1.620893
C      -4.422000    -1.134826     2.633176
C      -3.063798    -0.865738     2.530439
H       2.687615     0.939651     1.134648
H       1.411121     1.430634     3.167364
H      -1.016648     0.946736     3.287619
H      -3.050280     0.717865    -0.463877
H      -5.460080     0.235126    -0.287986
H      -6.351118    -0.951176     1.700043
H      -4.803634    -1.655937     3.505608
H      -2.385540    -1.186370     3.315076
C      -0.962045    -0.988570    -0.871739
N      -1.425492    -1.610950    -1.721573
C       3.089570    -0.692669    -0.999728
O       3.337065    -1.246314     0.210184
C       4.162073     0.404422    -1.231868
C       3.819327     1.686018    -1.310697
H       4.586158     2.450520    -1.394573
H       2.794083     2.032089    -1.263818
C       5.610615    -0.009087    -1.206895
H       5.837279    -0.586924    -0.308581
H       6.241273     0.881878    -1.220887
H       5.888454    -0.630220    -2.061645
N       1.717499    -0.214212    -1.100626
C       1.192048     0.302257    -2.361592
H       1.996417     0.753647    -2.945357
H       0.458502     1.084351    -2.150343
H       0.695069    -0.461101    -2.967683
C       3.273204    -1.976298    -1.984888
C       2.075514    -2.928409    -1.829307
C       3.472025    -1.586559    -3.462087
H       1.169069    -2.486106    -2.239355
H       1.904821    -3.173906    -0.781089
H       2.290044    -3.851962    -2.373091
H       4.213627    -0.794913    -3.579221
H       2.533687    -1.260591    -3.906627
H       3.817464    -2.465536    -4.012497
C       4.472117    -2.729252    -1.563942
N       5.385852    -3.379711    -1.315059
48
     -1091.779383     -1091.445563   2.63   2.35
C      -0.108834    -1.393612    -2.208605
C       0.135353    -1.097847    -0.856606
C       1.371724    -1.375019    -0.261923
C       2.355591    -2.011178    -1.011049
C       2.128535    -2.295085    -2.349599
C       0.915319    -1.978672    -2.946689
C      -1.413342    -1.102511    -2.860962
C      -2.614716    -1.547016    -2.309064
C      -3.820358    -1.284622    -2.944283
C      -3.842077    -0.578332    -4.140904
C      -2.649259    -0.135638    -4.700619
C      -1.443189    -0.397642    -4.064917
H       3.299963    -2.259973    -0.542423
H       2.906769    -2.774876    -2.934558
H       0.741079    -2.218594    -3.990098
H      -2.606372    -2.104257    -1.379110
H      -4.746729    -1.633489    -2.499802
H      -4.785871    -0.373232    -4.636101
H      -2.657306     0.417853    -5.634307
H      -0.513507    -0.039941    -4.496742
C      -0.900195    -0.518427    -0.038252
N      -1.745932    -0.099154     0.617545
C       2.657724    -0.314281     1.622919
O       3.846541    -0.952937     1.544302
C       2.359386     0.089532     3.093409
C       1.171021     0.583463     3.413596
H       0.956173     0.876762     4.437281
H       0.376260     0.698999     2.684844
C       3.449498    -0.143626     4.101949
H       4.373314     0.378690     3.839694
H       3.697644    -1.208760     4.156992
H       3.122859     0.192500     5.088845
N       1.505678    -1.081792     1.133040
C       1.243431    -2.303868     1.909576
H       2.038292    -3.054175     1.789341
H       0.301637    -2.735005     1.562008
H       1.136774    -2.060856     2.965445
C       2.939152     1.053750     0.783895
C       3.815497     2.016712     1.606964
C       3.629620     0.842422    -0.578631
H       3.976018     2.924625     1.021171
H       4.784474     1.553844     1.802672
H       3.346087     2.294867     2.548894
H       2.994539     0.337171    -1.300031
H       4.553652     0.277348    -0.448383
H       3.875618     1.828040    -0.983490
C       1.644939     1.712050     0.531609
N       0.670014     2.268504     0.288662
48
     -1091.779383     -1091.445547   2.63   2.36
C      -0.112468    -1.043053    -2.413796
C       0.160041    -1.054064    -1.035165
C       1.459285    -1.244848    -0.550752
C       2.489017    -1.488399    -1.453102
C       2.232173    -1.466418    -2.815970
C       0.948940    -1.233489    -3.293041
C      -1.484602    -0.836808    -2.949274
C      -1.706135     0.128278    -3.932515
C      -2.975511     0.320279    -4.460891
C      -4.040227    -0.453480    -4.013968
C      -3.826897    -1.419545    -3.038046
C      -2.557905    -1.611876    -2.510230
H       3.488543    -1.673043    -1.078685
H       3.043172    -1.638707    -3.516413
H       0.754617    -1.233572    -4.360216
H      -0.878164     0.742306    -4.273342
H      -3.133615     1.077942    -5.221901
H      -5.033436    -0.303722    -4.425232
H      -4.652331    -2.027715    -2.682777
H      -2.399106    -2.372123    -1.753788
C      -0.906788    -0.891225    -0.079577
N      -1.769726    -0.806696     0.674959
C       2.660012    -0.474381     1.522066
O       3.932572    -0.849743     1.263491
C       2.387643    -0.508674     3.051294
C       1.154740    -0.330011     3.506003
H       0.956163    -0.343594     4.573937
H       0.309104    -0.180566     2.843708
C       3.560657    -0.787027     3.949304
H       3.242567    -0.770957     4.994381
H       4.365548    -0.059652     3.814732
H       3.987714    -1.770381     3.726252
N       1.626263    -1.288696     0.870556
C       1.621572    -2.692024     1.313179
H       2.523107    -3.234305     0.993169
H       0.746998    -3.184414     0.881521
H       1.539167    -2.742265     2.397608
C       2.655436     1.087155     1.055962
C       3.404999     1.955658     2.083820
C       3.287584     1.348090    -0.326110
H       4.448265     1.639512     2.139423
H       2.953386     1.902322     3.072826
H       3.374083     2.994311     1.746962
H       3.338623     2.430999    -0.469553
H       2.704164     0.933036    -1.142425
H       4.299912     0.942909    -0.359357
C       1.255812     1.545332     1.000774
N       0.188083     1.961388     0.923379
48
     -1091.781534     -1091.445534   1.28   2.37
C      -1.487632    -0.714921    -0.148748
C      -0.283126    -0.035826    -0.406610
C       0.868064    -0.708489    -0.876137
C       0.789799    -2.098206    -1.006155
C      -0.381096    -2.771615    -0.707913
C      -1.523268    -2.093388    -0.302984
C      -2.704542     0.010223     0.304909
C      -3.412138    -0.444220     1.417781
C      -4.560149     0.212117     1.841064
C      -5.016842     1.330549     1.153536
C      -4.319432     1.787723     0.041661
C      -3.171848     1.131446    -0.380397
H       1.646510    -2.653258    -1.354956
H      -0.406451    -3.851248    -0.815377
H      -2.446137    -2.629225    -0.112071
H      -3.048808    -1.309661     1.963224
H      -5.098201    -0.149982     2.711502
H      -5.913833     1.844717     1.483865
H      -4.668750     2.660492    -0.500408
H      -2.634534     1.488846    -1.252444
C      -0.180163     1.348085    -0.030848
N      -0.076285     2.446405     0.295909
C       3.383626    -0.475506    -0.919698
O       4.288901     0.473739    -1.236969
C       3.891017    -1.520805    -1.985437
C       3.242993    -1.614523    -3.144990
H       3.601466    -2.288718    -3.916665
H       2.341799    -1.055407    -3.361526
C       5.154958    -2.294981    -1.730585
H       5.083889    -2.935130    -0.848906
H       6.005484    -1.621806    -1.606065
H       5.352091    -2.936271    -2.592139
N       2.027966     0.011614    -1.175331
C       1.928213     1.237631    -1.969438
H       0.896516     1.356182    -2.303194
H       2.565676     1.168559    -2.854301
H       2.219538     2.126823    -1.404658
C       3.570670    -0.902641     0.614262
C       5.025356    -0.685294     1.081526
C       2.669483    -0.052627     1.532913
H       5.756643    -1.215240     0.477818
H       5.115507    -1.037161     2.112668
H       5.256503     0.380421     1.049003
H       1.620067    -0.333715     1.470890
H       2.769345     1.003669     1.274077
H       2.990981    -0.188969     2.568224
C       3.245820    -2.325503     0.821696
N       3.039983    -3.441608     1.002783
48
     -1091.781534     -1091.445531   1.28   2.37
C      -0.546068     0.052550    -2.093327
C       0.336549     0.326689    -1.032987
C       1.390792    -0.551252    -0.692462
C       1.481856    -1.750197    -1.405605
C       0.585001    -2.040886    -2.417821
C      -0.411088    -1.144409    -2.782029
C      -1.625685     1.004290    -2.468990
C      -1.350577     2.353130    -2.692830
C      -2.363390     3.227166    -3.061681
C      -3.664916     2.764034    -3.213964
C      -3.947941     1.420738    -2.995777
C      -2.933876     0.546817    -2.627253
H       2.267024    -2.453042    -1.174921
H       0.681200    -2.982636    -2.948530
H      -1.081538    -1.366811    -3.604396
H      -0.335254     2.718578    -2.581138
H      -2.133948     4.274444    -3.229467
H      -4.456946     3.448185    -3.501543
H      -4.962262     1.051696    -3.110828
H      -3.158280    -0.499423    -2.444140
C       0.057495     1.449083    -0.178957
N      -0.174813     2.325109     0.529900
C       2.851343    -1.178873     1.271507
O       3.607147    -0.543674     2.191576
C       4.037922    -2.024102     0.668591
C       4.625250    -1.593384    -0.446222
H       5.477657    -2.127504    -0.854438
H       4.279527    -0.727329    -0.995832
C       4.562759    -3.217225     1.418825
H       5.396836    -3.643944     0.857917
H       3.810494    -3.998931     1.542245
H       4.929664    -2.926413     2.405168
N       2.281211    -0.214281     0.330793
C       2.852589     1.133131     0.371751
H       3.944134     1.081731     0.371451
H       2.535338     1.695500     1.253568
H       2.538383     1.674481    -0.521593
C       1.704626    -2.021770     2.009770
C       2.142321    -2.435808     3.430570
C       0.419206    -1.182845     2.159717
H       1.352671    -3.049141     3.872686
H       2.278176    -1.540270     4.038676
H       3.065537    -3.008026     3.448532
H      -0.246917    -1.680049     2.868864
H      -0.120269    -1.067220     1.221778
H       0.666937    -0.193524     2.550361
C       1.378991    -3.253947     1.268971
N       1.136261    -4.241725     0.733967
48
     -1091.780076     -1091.445407   2.19   2.45
C      -0.081654    -1.691507    -2.293035
C       0.319659    -0.707818    -1.370618
C       1.676835    -0.430848    -1.142187
C       2.628948    -1.156461    -1.853746
C       2.244308    -2.143118    -2.744889
C       0.898275    -2.408924    -2.966669
C      -1.517019    -1.987175    -2.548108
C      -1.976936    -3.302756    -2.484804
C      -3.309283    -3.598302    -2.740500
C      -4.198790    -2.580891    -3.065787
C      -3.747602    -1.268199    -3.134262
C      -2.415804    -0.973236    -2.878631
H       3.674866    -0.931786    -1.688260
H       3.001188    -2.704933    -3.282654
H       0.599452    -3.166734    -3.682811
H      -1.286035    -4.096580    -2.218065
H      -3.653962    -4.626028    -2.683250
H      -5.240668    -2.810583    -3.265183
H      -4.435251    -0.467835    -3.387558
H      -2.068883     0.052551    -2.941123
C      -0.680594    -0.033120    -0.587020
N      -1.472726     0.507691     0.047939
C       2.521309     0.058326     1.090115
O       3.208099    -1.109928     0.966465
C       1.300338    -0.349117     1.974835
C       0.858228    -1.602902     1.905322
H      -0.027497    -1.899200     2.459417
H       1.333551    -2.363023     1.296739
C       0.588336     0.673395     2.820655
H      -0.288225     0.207745     3.273156
H       0.245808     1.528591     2.236565
H       1.218492     1.062344     3.623884
N       2.107693     0.566571    -0.225061
C       1.526243     1.898294    -0.383286
H       2.296923     2.666913    -0.287484
H       0.715229     2.132789     0.310215
H       1.126294     1.966558    -1.396707
C       3.537738     1.042280     1.808305
C       4.043638     0.418035     3.124096
C       4.734670     1.303596     0.874083
H       4.665234     1.145037     3.653052
H       4.642190    -0.465649     2.903161
H       3.222466     0.124784     3.779447
H       5.443612     1.972549     1.368157
H       4.420196     1.758196    -0.065385
H       5.236571     0.359315     0.654052
C       2.947780     2.353355     2.145790
N       2.561186     3.394730     2.440490
48
     -1091.780076     -1091.445403   2.19   2.45
C      -1.069316     1.147167    -0.566022
C      -0.198617     0.133463    -0.125730
C       1.041404     0.438032     0.457717
C       1.397360     1.777504     0.593675
C       0.558390     2.780867     0.140973
C      -0.668636     2.470230    -0.433117
C      -2.388678     0.835290    -1.178200
C      -3.303439     0.000491    -0.536748
C      -4.538801    -0.264027    -1.111155
C      -4.877963     0.304350    -2.333176
C      -3.973830     1.140376    -2.977971
C      -2.737978     1.404741    -2.402944
H       2.346977     2.011911     1.057459
H       0.857663     3.818651     0.246497
H      -1.334185     3.259420    -0.765763
H      -3.048230    -0.440555     0.420772
H      -5.238695    -0.917802    -0.600930
H      -5.844048     0.096380    -2.782015
H      -4.230276     1.586984    -3.933521
H      -2.027577     2.047411    -2.913784
C      -0.552316    -1.241973    -0.355564
N      -0.824032    -2.344391    -0.539867
C       3.029098    -0.894120    -0.000491
O       3.506261     0.227138    -0.606045
C       2.545189    -1.760304    -1.206828
C       2.134057    -1.137401    -2.309207
H       1.732158    -1.709763    -3.139991
H       2.161046    -0.060165    -2.422862
C       2.465516    -3.259890    -1.093746
H       1.854843    -3.580004    -0.248499
H       3.448282    -3.722288    -0.975790
H       2.010646    -3.658086    -2.001760
N       1.933122    -0.567347     0.922054
C       1.379258    -1.563694     1.836994
H       2.068797    -1.750112     2.663844
H       1.123796    -2.521004     1.376593
H       0.465720    -1.147598     2.265898
C       4.281999    -1.496627     0.763901
C       5.452473    -1.709270    -0.216750
C       4.716323    -0.518999     1.872640
H       6.271913    -2.212543     0.302811
H       5.803885    -0.744137    -0.581450
H       5.161942    -2.318158    -1.073869
H       3.918804    -0.351418     2.596542
H       4.988930     0.439084     1.425699
H       5.586210    -0.923926     2.395643
C       4.008851    -2.798056     1.406183
N       3.874045    -3.811056     1.931944
48
     -1091.781569     -1091.445213   1.26   2.57
C      -0.924881    -1.214280    -2.049396
C       0.038303    -0.550120    -1.264789
C       0.074683    -0.679734     0.140106
C      -0.880172    -1.517772     0.733672
C      -1.816079    -2.178890    -0.037293
C      -1.854138    -2.025765    -1.419426
C      -0.962046    -1.079832    -3.532048
C      -2.145229    -0.691764    -4.160482
C      -2.208763    -0.585831    -5.543709
C      -1.089130    -0.871715    -6.316059
C       0.091418    -1.265381    -5.697474
C       0.154468    -1.370758    -4.314836
H      -0.886154    -1.641453     1.805508
H      -2.538435    -2.824582     0.451984
H      -2.589623    -2.554937    -2.014925
H      -3.017275    -0.459983    -3.556737
H      -3.134933    -0.277912    -6.018827
H      -1.136824    -0.788675    -7.397235
H       0.969984    -1.491428    -6.292995
H       1.076839    -1.685602    -3.839275
C       1.025090     0.254054    -1.932007
N       1.819946     0.890131    -2.468341
C       1.694880    -0.517457     2.041279
O       1.410999    -1.810441     2.263254
C       1.123846     0.046811     3.400699
C      -0.115990     0.531604     3.412222
H      -0.552735     0.884189     4.341399
H      -0.729177     0.606025     2.523040
C       1.925846    -0.068048     4.666227
H       2.864668     0.487784     4.614924
H       2.147786    -1.111779     4.897529
H       1.339771     0.344648     5.489802
N       1.007024     0.055352     0.888493
C       1.128969     1.495172     0.665948
H       0.258678     1.846360     0.108466
H       2.024483     1.781097     0.108952
H       1.141144     2.011844     1.628076
C       3.278087    -0.349622     1.838032
C       4.087965    -1.347863     2.687882
C       3.641491    -0.615668     0.363722
H       3.832704    -2.364010     2.383693
H       3.918771    -1.251859     3.755929
H       5.151706    -1.180167     2.499742
H       3.200364    -1.565536     0.050559
H       4.727511    -0.693547     0.272103
H       3.300102     0.165419    -0.311081
C       3.695471     1.016704     2.198705
N       4.024702     2.074666     2.504546
48
     -1091.781568     -1091.445211   1.26   2.57
C      -1.272813     0.876265    -1.066927
C      -0.360428    -0.074647    -0.569134
C       0.978788    -0.126775    -1.011482
C       1.380204     0.824345    -1.960492
C       0.488676     1.764566    -2.438552
C      -0.834445     1.791519    -2.009814
C      -2.685332     0.933336    -0.598653
C      -2.996209     1.062127     0.754405
C      -4.318818     1.141045     1.168232
C      -5.347747     1.096214     0.235169
C      -5.046602     0.974295    -1.116231
C      -3.723186     0.895754    -1.529728
H       2.395757     0.816087    -2.324850
H       0.831875     2.490517    -3.168837
H      -1.523605     2.538470    -2.387573
H      -2.198118     1.105153     1.487377
H      -4.545021     1.237135     2.225221
H      -6.381582     1.156960     0.560144
H      -5.844203     0.938816    -1.851702
H      -3.488338     0.791720    -2.584583
C      -0.813384    -0.991055     0.441168
N      -1.174899    -1.718133     1.256467
C       3.233796    -0.872286    -0.221118
O       3.593094     0.414994    -0.345286
C       4.203207    -1.455738    -1.322181
C       3.721853    -1.651509    -2.547870
H       4.375762    -2.007817    -3.337736
H       2.685260    -1.480473    -2.809440
C       5.657437    -1.674612    -1.013523
H       6.141169    -0.741558    -0.717606
H       6.153808    -2.043468    -1.913324
H       5.807803    -2.414139    -0.223941
N       1.834276    -1.134988    -0.541110
C       1.394498    -2.528441    -0.589930
H       2.192822    -3.147046    -1.005613
H       0.530192    -2.608259    -1.251831
H       1.112778    -2.936405     0.383793
C       3.524248    -1.361348     1.279688
C       4.762999    -0.677843     1.890317
C       2.324688    -1.006425     2.180580
H       4.900102    -1.053696     2.907674
H       4.591250     0.398686     1.932994
H       5.680559    -0.861945     1.340077
H       1.440524    -1.604767     1.974955
H       2.072383     0.048394     2.044160
H       2.604649    -1.161175     3.225365
C       3.734043    -2.819552     1.308212
N       3.923081    -3.953195     1.326377
48
     -1091.779976     -1091.444690   2.26   2.90
C      -0.381259     0.399390    -2.094897
C       0.331113     0.462084    -0.881912
C       1.491702    -0.312005    -0.658254
C       1.893810    -1.174266    -1.685311
C       1.185047    -1.249439    -2.869735
C       0.061918    -0.460566    -3.088304
C      -1.604728     1.214509    -2.330670
C      -1.680520     2.034316    -3.456424
C      -2.822784     2.782297    -3.709580
C      -3.905656     2.714765    -2.840873
C      -3.840021     1.894822    -1.720611
C      -2.697933     1.147860    -1.467564
H       2.782501    -1.772743    -1.551433
H       1.524249    -1.928650    -3.645878
H      -0.488799    -0.526541    -4.019900
H      -0.831250     2.093549    -4.130245
H      -2.866263     3.420144    -4.586767
H      -4.798912     3.299348    -3.036939
H      -4.681543     1.835989    -1.037987
H      -2.656417     0.505314    -0.595023
C      -0.173906     1.307445     0.166361
N      -0.587004     1.966113     1.014368
C       2.720778    -1.345614     1.302908
O       3.407822    -0.931953     2.394093
C       3.971282    -2.043359     0.661996
C       4.790658    -1.287087    -0.071592
H       5.700522    -1.705981    -0.489498
H       4.578444    -0.247994    -0.290649
C       4.315108    -3.465834     1.001789
H       3.521098    -4.171284     0.747529
H       4.516042    -3.576596     2.067984
H       5.211458    -3.749706     0.446352
N       2.206608    -0.199925     0.541195
C       2.554377     1.129661     1.047688
H       3.631251     1.197538     1.219352
H       2.041439     1.376882     1.981034
H       2.283347     1.871408     0.295489
C       1.524872    -2.279161     1.766451
C       0.473299    -1.410159     2.489713
C       0.841886    -3.093638     0.652169
H      -0.273613    -2.060629     2.951370
H      -0.031143    -0.750981     1.784735
H       0.936230    -0.806785     3.272652
H       0.208254    -2.450500     0.041997
H       0.208725    -3.858915     1.108647
H       1.558897    -3.591133    -0.002750
C       2.022542    -3.224058     2.787580
N       2.323605    -3.982332     3.596764
48
     -1091.779737     -1091.444322   2.41   3.13
C      -0.879202     0.056692     1.599858
C      -0.171603    -0.067264     0.391173
C       1.220227     0.139253     0.315623
C       1.896189     0.450403     1.497300
C       1.208705     0.540523     2.696133
C      -0.166951     0.355793     2.753286
C      -2.352257    -0.136819     1.668222
C      -2.897401    -0.991734     2.626362
C      -4.271786    -1.167423     2.715716
C      -5.119240    -0.486961     1.849161
C      -4.584109     0.369659     0.894562
C      -3.210338     0.544734     0.805409
H       2.963491     0.612980     1.472983
H       1.757122     0.775313     3.602841
H      -0.697485     0.459042     3.693419
H      -2.235988    -1.533918     3.295023
H      -4.681693    -1.839514     3.463082
H      -6.193730    -0.624074     1.917763
H      -5.238513     0.905135     0.214381
H      -2.799782     1.220907     0.063236
C      -0.870564    -0.506848    -0.786407
N      -1.405359    -0.871857    -1.737768
C       3.100714    -0.670784    -1.146443
O       3.740156    -1.026029    -0.006346
C       4.261608     0.242225    -1.670062
C       4.386159     1.445768    -1.107628
H       5.193745     2.109651    -1.398456
H       3.699036     1.810223    -0.354341
C       5.282954    -0.262647    -2.648608
H       5.895236    -1.051000    -2.209102
H       5.934369     0.568011    -2.928184
H       4.839668    -0.669224    -3.559914
N       1.850901     0.072279    -0.947844
C       1.460639     1.095682    -1.914371
H       2.042760     0.972359    -2.826282
H       1.651947     2.106949    -1.534001
H       0.403996     1.016616    -2.177775
C       2.764373    -1.979382    -1.971290
C       1.806629    -2.852030    -1.130317
C       2.126747    -1.704025    -3.342389
H       2.210264    -3.031643    -0.132372
H       1.671103    -3.815628    -1.627955
H       0.833315    -2.372837    -1.046978
H       2.730282    -1.036092    -3.960749
H       1.136462    -1.266472    -3.206440
H       2.008249    -2.646223    -3.882763
C       3.978480    -2.799190    -2.151360
N       4.874242    -3.501852    -2.307989
48
     -1091.779737     -1091.444319   2.41   3.13
C      -1.188106     0.385433     1.134072
C      -0.307883    -0.024929     0.117325
C       1.052526     0.342281     0.113587
C       1.519667     1.116472     1.177762
C       0.664067     1.494870     2.198911
C      -0.680012     1.144331     2.179585
C      -2.628807     0.016449     1.118597
C      -3.420833     0.247767    -0.005881
C      -4.768569    -0.082987     0.001563
C      -5.343795    -0.646969     1.134020
C      -4.562875    -0.877560     2.260570
C      -3.214570    -0.546208     2.252791
H       2.557699     1.412971     1.204874
H       1.052209     2.089472     3.019765
H      -1.345815     1.472741     2.970046
H      -2.980048     0.694968    -0.890361
H      -5.371054     0.100829    -0.882094
H      -6.397745    -0.906204     1.138851
H      -5.004171    -1.319152     3.148568
H      -2.602877    -0.739056     3.128678
C      -0.785207    -0.921064    -0.901285
N      -1.140363    -1.650023    -1.717868
C       3.192970    -0.624203    -0.788926
O       3.697756    -0.490904     0.461067
C       4.317745     0.222660    -1.476624
C       4.239690     1.548753    -1.351005
H       5.008899     2.188846    -1.770660
H       3.420146     2.037760    -0.839508
C       5.512419    -0.423549    -2.117549
H       5.245244    -1.165279    -2.873010
H       6.133550    -0.928222    -1.376565
H       6.109056     0.353703    -2.599629
N       1.858930    -0.043812    -0.981519
C       1.507665     0.539902    -2.273678
H       2.221748     0.208709    -3.026044
H       1.540745     1.636303    -2.246118
H       0.511999     0.229387    -2.596733
C       3.110491    -2.164723    -1.143765
C       2.137168    -2.840885    -0.153064
C       2.647767    -2.448112    -2.581777
H       1.118365    -2.505048    -0.335177
H       2.412385    -2.623943     0.880505
H       2.171269    -3.923242    -0.300938
H       2.702682    -3.522058    -2.775178
H       3.261535    -1.940700    -3.329157
H       1.609014    -2.136512    -2.702184
C       4.414572    -2.815812    -0.911393
N       5.389956    -3.395352    -0.728592
48
     -1091.777393     -1091.444043   3.88   3.31
C       0.529665    -0.776685    -2.654756
C       0.642025    -0.100546    -1.429482
C       1.853521    -0.075608    -0.722141
C       2.982739    -0.643319    -1.307471
C       2.888889    -1.274804    -2.538311
C       1.669745    -1.363139    -3.196307
C      -0.770854    -0.874576    -3.366902
C      -0.850969    -0.591475    -4.730236
C      -2.060764    -0.699144    -5.402753
C      -3.204856    -1.094552    -4.719551
C      -3.132146    -1.381824    -3.361428
C      -1.923291    -1.274232    -2.689148
H       3.924256    -0.612898    -0.769160
H       3.772539    -1.726201    -2.977975
H       1.593451    -1.896743    -4.137492
H       0.038780    -0.268162    -5.261847
H      -2.110387    -0.471178    -6.462871
H      -4.151205    -1.178072    -5.244453
H      -4.021357    -1.690041    -2.821084
H      -1.868616    -1.503741    -1.630028
C      -0.459461     0.678673    -0.930391
N      -1.324081     1.341249    -0.560286
C       1.257844    -0.018090     1.681878
O       0.103524    -0.620561     1.365322
C       1.070390     1.021795     2.803794
C      -0.151446     1.505550     2.990244
H      -0.333984     2.252733     3.757833
H      -0.993773     1.194337     2.383571
C       2.227651     1.510970     3.654352
H       1.920218     1.546895     4.702527
H       2.522133     2.523721     3.367421
H       3.119001     0.887470     3.589132
N       1.944964     0.555708     0.537552
C       2.903316     1.648461     0.659024
H       2.418318     2.532670     1.081298
H       3.238020     1.908217    -0.346654
H       3.786521     1.397302     1.255829
C       2.027315    -1.378947     2.269146
C       1.562821    -1.686106     3.697831
C       1.789286    -2.613458     1.377403
H       0.475167    -1.768863     3.711237
H       1.867256    -0.922745     4.412142
H       1.992581    -2.641149     4.011980
H       1.990624    -2.414012     0.326968
H       0.759066    -2.952460     1.481104
H       2.462317    -3.409558     1.711537
C       3.473194    -1.105657     2.248513
N       4.605383    -0.908727     2.208398
48
     -1091.777393     -1091.444040   3.88   3.31
C      -0.382540    -1.665933    -2.065798
C       0.505700    -0.773271    -1.445109
C       1.608693    -1.237743    -0.712746
C       1.875971    -2.604638    -0.698860
C       1.027124    -3.489007    -1.346859
C      -0.105476    -3.028448    -2.004256
C      -1.596240    -1.181670    -2.773259
C      -2.456205    -0.267342    -2.163630
C      -3.597991     0.168821    -2.820101
C      -3.896984    -0.304762    -4.092355
C      -3.047347    -1.218346    -4.705169
C      -1.904767    -1.654993    -4.048415
H       2.736487    -2.965412    -0.145225
H       1.237586    -4.553299    -1.317058
H      -0.789524    -3.728572    -2.471468
H      -2.227913     0.100452    -1.168638
H      -4.255971     0.883051    -2.335743
H      -4.789948     0.037754    -4.605552
H      -3.273308    -1.590915    -5.699358
H      -1.234214    -2.357214    -4.534251
C       0.363454     0.644188    -1.645407
N       0.276869     1.773135    -1.849203
C       1.974728     0.397737     1.111695
O       0.674110     0.710542     1.033088
C       2.844012     1.637708     1.398034
C       2.332839     2.824853     1.096285
H       2.911182     3.729399     1.263949
H       1.346046     2.934385     0.661934
C       4.243667     1.528467     1.973392
H       4.469614     0.553688     2.404976
H       4.375956     2.279848     2.755955
H       4.997353     1.722703     1.205963
N       2.464747    -0.337411    -0.041698
C       3.870889    -0.352312    -0.428794
H       4.531924    -0.793758     0.324509
H       4.210437     0.660410    -0.662173
H       3.956424    -0.944188    -1.341620
C       1.857341    -0.560852     2.474117
C       1.782688     0.305188     3.737304
C       0.634711    -1.498141     2.423609
H       0.958654     1.013156     3.638455
H       2.702236     0.858000     3.922967
H       1.590659    -0.340758     4.598332
H       0.722247    -2.216323     3.245157
H       0.572988    -2.052872     1.489695
H      -0.280326    -0.920944     2.552380
C       3.054151    -1.416448     2.509988
N       3.973095    -2.107420     2.528460
