48
     -1091.837689     -1091.506051   0.00   0.00
C       1.490189     0.051673    -0.297513
C       0.591799     1.078334     0.147081
C      -0.784618     1.040099    -0.231254
C      -1.272142    -0.002548    -0.944216
C      -0.444413    -1.186400    -1.331817
C       1.004105    -1.002109    -0.999458
C       2.946592     0.151231    -0.003148
C       3.663945     1.296428    -0.346126
C       5.025193     1.375993    -0.085867
C       5.685437     0.312966     0.519480
C       4.976627    -0.832011     0.863567
C       3.614884    -0.912208     0.602221
H      -2.313777     0.006852    -1.248101
H      -0.526282    -1.308912    -2.423472
H       1.706556    -1.744097    -1.362957
H       3.155835     2.128646    -0.822285
H       5.571415     2.273902    -0.355809
H       6.749434     0.377255     0.723292
H       5.484073    -1.665629     1.338628
H       3.060293    -1.803377     0.880894
C       1.042559     2.127441     0.995205
N       1.392209     2.980529     1.689109
C      -2.792416     1.978535     0.812029
O      -3.703671     2.780547     0.739362
C      -2.888642     0.791514     1.734185
C      -1.946906     0.592793     2.650513
H      -2.043116    -0.197175     3.390263
H      -1.072419     1.231867     2.721878
C      -4.151249    -0.013384     1.619330
H      -4.198602    -0.774701     2.400983
H      -4.216034    -0.512907     0.645744
H      -5.018843     0.646884     1.702818
N      -1.617885     2.144258     0.110622
C      -1.474719     3.346729    -0.708959
H      -1.911746     4.190459    -0.177666
H      -1.985060     3.234135    -1.672270
H      -0.413312     3.534854    -0.880978
C      -1.017276    -2.530742    -0.732916
C      -0.289319    -3.749426    -1.322926
C      -0.940247    -2.541829     0.800510
H      -0.781060    -4.671797    -1.004048
H       0.744834    -3.779293    -0.972432
H      -0.291204    -3.721503    -2.415943
H       0.103783    -2.472105     1.116038
H      -1.360695    -3.471807     1.192886
H      -1.488714    -1.702545     1.228643
C      -2.436200    -2.616886    -1.133289
N      -3.539587    -2.674721    -1.449971
48
     -1091.837690     -1091.506050  -0.00   0.00
C      -0.108581    -1.415894    -0.338846
C      -0.041368    -0.118286    -0.947444
C      -0.666996     1.001523    -0.319915
C      -1.259873     0.867981     0.889944
C      -1.257595    -0.411126     1.665014
C      -0.688543    -1.552131     0.879593
C       0.440724    -2.605194    -1.047034
C       1.347777    -3.447530    -0.405375
C       1.850331    -4.567826    -1.054561
C       1.448520    -4.859012    -2.352851
C       0.543144    -4.024008    -2.997396
C       0.041616    -2.903633    -2.349081
H      -1.757168     1.725357     1.331585
H      -2.303622    -0.657610     1.906905
H      -0.767334    -2.548023     1.301615
H       1.670401    -3.215567     0.605326
H       2.558659    -5.213341    -0.544967
H       1.840516    -5.733853    -2.861533
H       0.226067    -4.243782    -4.011610
H      -0.667623    -2.258306    -2.857044
C       0.673303     0.084303    -2.160441
N       1.255304     0.265119    -3.140285
C      -0.222013     3.406749    -0.451143
O      -0.614608     4.502285    -0.804093
C       0.863516     3.279610     0.585262
C       1.966104     2.594063     0.301825
H       2.803774     2.569784     0.993383
H       2.089129     2.070272    -0.640908
C       0.653106     4.076909     1.840360
H      -0.206888     3.703231     2.408146
H       0.444139     5.119348     1.584839
H       1.535780     4.030893     2.481916
N      -0.699943     2.244312    -1.016154
C      -1.680319     2.361007    -2.094764
H      -2.687778     2.533223    -1.699197
H      -1.673850     1.440580    -2.681566
H      -1.406232     3.200020    -2.731998
C      -0.548048    -0.252364     3.066959
C      -0.753928    -1.506187     3.932266
C       0.947070     0.059313     2.909109
H      -0.375074    -1.332197     4.942444
H      -0.209188    -2.352775     3.508288
H      -1.812947    -1.768219     4.004966
H       1.100669     0.970472     2.330572
H       1.441863    -0.767505     2.393384
H       1.412177     0.184992     3.890676
C      -1.194720     0.881865     3.757187
N      -1.704413     1.765897     4.286146
48
     -1091.836677     -1091.505004   0.64   0.66
C      -0.133871    -1.261462    -0.514182
C       0.413740     0.000796    -0.908712
C      -0.199926     1.216635    -0.470324
C      -1.276048     1.191651     0.348721
C      -1.867685    -0.074343     0.881068
C      -1.210635    -1.293415     0.311525
C       0.472215    -2.532754    -1.000304
C       1.819317    -2.812018    -0.775569
C       2.371100    -4.006821    -1.217785
C       1.583089    -4.935397    -1.887912
C       0.238788    -4.663440    -2.113429
C      -0.313987    -3.468355    -1.670694
H      -1.740622     2.134454     0.615065
H      -2.931349    -0.097503     0.593496
H      -1.617881    -2.255912     0.604904
H       2.439662    -2.093088    -0.250409
H       3.421778    -4.211253    -1.039433
H       2.015763    -5.868566    -2.234073
H      -0.382561    -5.382904    -2.637243
H      -1.362129    -3.251568    -1.853872
C       1.547589     0.073371    -1.764194
N       2.469811     0.149261    -2.453752
C       0.749410     3.449447    -0.118062
O       0.775132     4.617685    -0.456976
C       1.259813     3.042439     1.239770
C       2.163499     2.075381     1.355171
H       2.610321     1.838244     2.316675
H       2.519938     1.518220     0.495094
C       0.786995     3.898590     2.379991
H      -0.300711     3.832641     2.501405
H       1.018504     4.947427     2.175767
H       1.260727     3.597388     3.316887
N       0.309979     2.454699    -0.962301
C      -0.098751     2.835013    -2.314350
H       0.570498     3.611962    -2.679676
H      -1.125063     3.219588    -2.325013
H      -0.032256     1.961549    -2.965206
C      -1.876485    -0.107985     2.459574
C      -0.449801    -0.129948     3.027605
C      -2.664091     1.082564     3.031890
H      -0.478758    -0.185166     4.119134
H       0.071746     0.783535     2.736265
H       0.113467    -0.986768     2.652016
H      -2.123869     2.014425     2.850426
H      -2.786511     0.967684     4.111686
H      -3.657984     1.155531     2.581627
C      -2.576223    -1.343320     2.866101
N      -3.130644    -2.301870     3.173589
48
     -1091.836677     -1091.505004   0.64   0.66
C       1.085851    -0.966359     0.058118
C       1.068182     0.424043    -0.281432
C      -0.123144     1.018754    -0.804958
C      -1.253447     0.290109    -0.949850
C      -1.356721    -1.145728    -0.545043
C      -0.046411    -1.701928    -0.080329
C       2.333667    -1.604580     0.563545
C       2.854808    -2.724603    -0.082116
C       4.008832    -3.335940     0.391464
C       4.651740    -2.834220     1.517042
C       4.134952    -1.718921     2.166121
C       2.981930    -1.107183     1.692931
H      -2.117938     0.767058    -1.397977
H      -1.675902    -1.723664    -1.427499
H      -0.022304    -2.755398     0.180319
H       2.356703    -3.110958    -0.966294
H       4.407114    -4.205541    -0.121615
H       5.553711    -3.310935     1.887213
H       4.632148    -1.320407     3.044475
H       2.582413    -0.238767     2.206464
C       2.232314     1.228677    -0.139652
N       3.166828     1.896119    -0.025869
C      -0.928770     3.332384    -0.711129
O      -1.208240     4.346256    -1.322905
C      -1.470634     3.110776     0.677081
C      -0.650173     2.810989     1.678151
H      -1.014161     2.743713     2.699600
H       0.413806     2.665383     1.523374
C      -2.935544     3.399837     0.841831
H      -3.153538     4.414076     0.496635
H      -3.238432     3.298214     1.886268
H      -3.544935     2.720931     0.233619
N      -0.077803     2.380769    -1.226548
C       0.523639     2.636658    -2.535182
H       1.434370     2.042981    -2.630530
H       0.770150     3.694365    -2.609235
H      -0.166396     2.377468    -3.346361
C      -2.494866    -1.381088     0.523665
C      -2.174980    -0.672785     1.848259
C      -3.860212    -0.921674    -0.014888
H      -2.958872    -0.874462     2.583216
H      -2.119959     0.404352     1.680653
H      -1.220610    -1.010106     2.257979
H      -3.884236     0.166846    -0.102527
H      -4.655401    -1.223085     0.671384
H      -4.069946    -1.360878    -0.994172
C      -2.575514    -2.836231     0.762402
N      -2.638105    -3.970741     0.934787
48
     -1091.835099     -1091.504946   1.63   0.69
C       0.990110    -0.873853     0.091955
C       0.889805     0.554234     0.001496
C      -0.346767     1.205315     0.293850
C      -1.427681     0.488451     0.680792
C      -1.421233    -1.000287     0.811991
C      -0.091765    -1.598616     0.470801
C       2.265138    -1.561926    -0.255917
C       2.868460    -2.422882     0.659722
C       4.047004    -3.082912     0.335649
C       4.633071    -2.890241    -0.909793
C       4.034881    -2.034742    -1.827802
C       2.857593    -1.374288    -1.503711
H      -2.354459     1.008958     0.899485
H      -2.163222    -1.408846     0.105591
H      -0.003129    -2.679247     0.483910
H       2.415922    -2.566887     1.636384
H       4.508601    -3.747770     1.058837
H       5.554019    -3.404865    -1.164328
H       4.487309    -1.877983    -2.801554
H       2.394204    -0.711220    -2.226828
C       2.009315     1.342072    -0.385636
N       2.909380     1.994380    -0.695518
C      -1.351876     3.258388    -0.588094
O      -1.690514     4.407541    -0.375149
C      -1.919455     2.500537    -1.759955
C      -1.112599     1.900073    -2.627676
H      -1.505126     1.427690    -3.523316
H      -0.035510     1.888650    -2.494455
C      -3.408945     2.607951    -1.921896
H      -3.734864     2.125540    -2.845793
H      -3.704989     3.660384    -1.935270
H      -3.931339     2.137917    -1.080436
N      -0.411437     2.625633     0.194711
C       0.182034     3.393880     1.289586
H      -0.520261     3.500994     2.123875
H       0.446929     4.386178     0.927662
H       1.081626     2.882512     1.634982
C      -1.927578    -1.452462     2.235947
C      -2.059520    -2.982100     2.321594
C      -1.006961    -0.924471     3.346551
H      -2.649538    -3.376121     1.489576
H      -2.554862    -3.263787     3.253980
H      -1.073059    -3.450529     2.308531
H       0.000183    -1.326355     3.209180
H      -1.376282    -1.235617     4.327198
H      -0.949731     0.165915     3.327871
C      -3.275862    -0.877732     2.418304
N      -4.327160    -0.430075     2.542410
48
     -1091.836437     -1091.504712   0.79   0.84
C       0.948412    -1.242835     0.183360
C       0.803971     0.174308     0.012900
C      -0.349108     0.702429    -0.643999
C      -1.361399    -0.104260    -1.027664
C      -1.396387    -1.555955    -0.680161
C      -0.079319    -2.054875    -0.169593
C       2.205397    -1.812453     0.742257
C       3.446277    -1.456940     0.215323
C       4.612865    -2.001996     0.734454
C       4.553493    -2.909415     1.785678
C       3.319725    -3.270373     2.314536
C       2.152622    -2.725829     1.794908
H      -2.208883     0.334688    -1.539415
H      -1.659299    -2.130443    -1.580149
H       0.033751    -3.128543    -0.058723
H       3.500308    -0.753035    -0.608720
H       5.571968    -1.714543     0.316080
H       5.466067    -3.334083     2.191500
H       3.264556    -3.977706     3.136039
H       1.190190    -3.003787     2.213806
C       1.774376     1.085124     0.512908
N       2.538621     1.859780     0.898346
C      -1.285257     2.845072    -0.115506
O      -2.137497     2.315543     0.578785
C      -1.158155     4.344824    -0.133611
C      -0.002620     4.913598     0.191248
H       0.082109     5.992841     0.280428
H       0.884510     4.326316     0.408498
C      -2.439581     5.090674    -0.376121
H      -2.825202     4.894680    -1.383205
H      -2.288463     6.166315    -0.264457
H      -3.202217     4.754237     0.331615
N      -0.403818     2.111142    -0.869789
C       0.472550     2.658422    -1.904569
H       0.053873     3.588830    -2.284956
H       0.525267     1.937387    -2.724064
H       1.483071     2.852277    -1.534333
C      -2.562141    -1.850939     0.352872
C      -2.323188    -1.140657     1.694143
C      -3.924305    -1.438411    -0.230008
H      -2.303323    -0.059585     1.537829
H      -1.378111    -1.451503     2.144680
H      -3.131469    -1.379889     2.390643
H      -3.988275    -0.349892    -0.292003
H      -4.730887    -1.788426     0.419092
H      -4.078021    -1.864710    -1.225500
C      -2.582154    -3.310777     0.573233
N      -2.588941    -4.449589     0.729337
48
     -1091.836437     -1091.504709   0.79   0.84
C       0.645447    -1.359078    -0.323671
C       0.153473    -0.055051    -0.663611
C      -1.021154     0.454389    -0.030468
C      -1.630795    -0.231901     0.959466
C      -1.051886    -1.483232     1.532510
C       0.057397    -2.038476     0.692650
C       1.785827    -1.955402    -1.072516
C       2.873580    -2.489781    -0.382320
C       3.936112    -3.057974    -1.072864
C       3.922071    -3.100436    -2.462173
C       2.839589    -2.572369    -3.155988
C       1.777601    -2.003660    -2.465860
H      -2.529665     0.181555     1.399782
H      -1.845157    -2.241361     1.604031
H       0.415535    -3.032580     0.940317
H       2.889512    -2.451365     0.702710
H       4.777947    -3.467353    -0.523353
H       4.752230    -3.543805    -3.002625
H       2.820891    -2.601045    -4.240599
H       0.933728    -1.598023    -3.014309
C       0.827590     0.771111    -1.604021
N       1.339799     1.473008    -2.364088
C      -1.376661     2.789820     0.377314
O      -1.021652     2.654424     1.536791
C      -1.635095     4.167290    -0.171799
C      -0.969510     4.587329    -1.241779
H      -1.068076     5.610186    -1.593841
H      -0.284520     3.940324    -1.781489
C      -2.541338     5.027022     0.662937
H      -2.173814     5.060296     1.692259
H      -3.556108     4.614112     0.695945
H      -2.591056     6.041117     0.261122
N      -1.522133     1.717791    -0.467767
C      -2.172126     1.764076    -1.776861
H      -1.454015     1.872107    -2.594454
H      -2.869879     2.599332    -1.810233
H      -2.731253     0.835159    -1.913762
C      -0.576551    -1.241334     3.025449
C       0.569548    -0.220534     3.096256
C      -1.751878    -0.780377     3.903797
H       1.430602    -0.549747     2.510609
H       0.888545    -0.091144     4.134122
H       0.226319     0.742875     2.712079
H      -2.048830     0.233275     3.626058
H      -1.452159    -0.769299     4.954733
H      -2.612388    -1.447756     3.801350
C      -0.102093    -2.540858     3.541411
N       0.257793    -3.560938     3.930300
48
     -1091.835032     -1091.504526   1.67   0.96
C       1.044306    -0.742598     0.023884
C       0.758327     0.655216    -0.090269
C      -0.542499     1.152127     0.242142
C      -1.499249     0.321682     0.714792
C      -1.281476    -1.143507     0.915910
C       0.082266    -1.583666     0.482010
C       2.375723    -1.280200    -0.374724
C       2.900239    -1.024997    -1.640689
C       4.133974    -1.545544    -2.007452
C       4.856783    -2.328025    -1.114512
C       4.337814    -2.589782     0.148086
C       3.103205    -2.069857     0.514953
H      -2.476674     0.736276     0.934287
H      -2.021960    -1.689735     0.309357
H       0.297272    -2.646094     0.535531
H       2.340293    -0.419765    -2.345743
H       4.532116    -1.336502    -2.995000
H       5.821620    -2.733215    -1.402105
H       4.895638    -3.200060     0.851308
H       2.700924    -2.271601     1.503221
C       1.747270     1.571887    -0.543076
N       2.538691     2.330083    -0.904311
C      -1.823189     3.027412    -0.694096
O      -2.292509     4.136013    -0.515034
C      -2.323565     2.163123    -1.821786
C      -1.471905     1.597824    -2.670188
H      -1.826846     1.048957    -3.537410
H      -0.397487     1.692180    -2.551877
C      -3.817307     2.130705    -1.978359
H      -4.297212     1.675307    -1.104210
H      -4.102200     1.562531    -2.866280
H      -4.202913     3.150637    -2.057828
N      -0.796047     2.546654     0.087322
C      -0.268856     3.433550     1.125246
H      -0.121492     4.427887     0.706405
H       0.688509     3.042635     1.472543
H      -0.961472     3.508822     1.970998
C      -1.578054    -1.575003     2.406035
C      -0.611709    -0.891727     3.385462
C      -3.037209    -1.276303     2.790176
H      -0.811075    -1.222005     4.408282
H      -0.746100     0.191896     3.337006
H       0.427484    -1.122816     3.142754
H      -3.733434    -1.698808     2.060490
H      -3.201238    -0.198078     2.852840
H      -3.264053    -1.708980     3.767670
C      -1.386571    -3.036779     2.488759
N      -1.242968    -4.175637     2.545131
48
     -1091.834881     -1091.504520   1.76   0.96
C       1.079214    -0.825611    -0.026920
C       0.838459     0.576635    -0.181932
C      -0.374932     1.155900     0.308186
C      -1.297484     0.395381     0.940150
C      -1.140852    -1.077459     1.143854
C       0.144197    -1.599912     0.579673
C       2.338303    -1.434523    -0.539869
C       3.580337    -0.941110    -0.143412
C       4.749385    -1.524224    -0.613578
C       4.690189    -2.606502    -1.483928
C       3.454714    -3.103548    -1.882315
C       2.284776    -2.520890    -1.411747
H      -2.210830     0.871615     1.277874
H      -1.972184    -1.585611     0.627345
H       0.332130    -2.663849     0.684501
H       3.633662    -0.098199     0.538000
H       5.710123    -1.129282    -0.299648
H       5.604629    -3.060871    -1.851582
H       3.400354    -3.946945    -2.563377
H       1.319374    -2.902549    -1.730300
C       1.753160     1.401225    -0.894489
N       2.485637     2.083925    -1.468151
C      -1.679956     3.072937    -0.506813
O      -2.040574     4.219909    -0.316945
C      -2.408702     2.199440    -1.494039
C      -1.742184     1.540953    -2.435891
H      -2.266700     0.982727    -3.205743
H      -0.658937     1.562787    -2.495227
C      -3.907343     2.266237    -1.410653
H      -4.268014     1.883160    -0.448816
H      -4.366899     1.682789    -2.211136
H      -4.235591     3.306659    -1.481939
N      -0.574930     2.555058     0.130314
C       0.175830     3.452244     1.009486
H       0.361705     4.393080     0.493085
H       1.128693     2.983372     1.259574
H      -0.380901     3.661036     1.929300
C      -1.300835    -1.477062     2.662494
C      -0.178333    -0.868375     3.517006
C      -2.679242    -1.062653     3.205485
H      -0.289204    -1.171232     4.561439
H      -0.228307     0.222393     3.463446
H       0.804687    -1.188039     3.165220
H      -2.829299    -1.479843     4.204238
H      -3.484714    -1.424808     2.560577
H      -2.747802     0.024907     3.281223
C      -1.218346    -2.949348     2.741823
N      -1.163138    -4.096004     2.795908
48
     -1091.835032     -1091.504513   1.67   0.97
C       1.122114    -0.628475    -0.179018
C       0.820652     0.768402    -0.097863
C      -0.410573     1.205049     0.487782
C      -1.278841     0.313197     1.016101
C      -1.030729    -1.160926     1.024066
C       0.246312    -1.529464     0.334754
C       2.372974    -1.098133    -0.838834
C       3.234044    -1.963164    -0.164613
C       4.394409    -2.420239    -0.776024
C       4.704412    -2.019369    -2.070316
C       3.847428    -1.161045    -2.749243
C       2.687918    -0.703327    -2.138011
H      -2.208850     0.685430     1.430774
H      -1.858372    -1.653885     0.488733
H       0.467814    -2.587745     0.240811
H       2.995258    -2.273750     0.848167
H       5.058043    -3.090480    -0.238908
H       5.611081    -2.375356    -2.548881
H       4.082236    -0.843361    -3.759891
H       2.021892    -0.037944    -2.677107
C       1.723828     1.744458    -0.602741
N       2.446753     2.549939    -1.003089
C      -1.825735     3.144906    -0.029592
O      -2.261102     4.220465     0.337748
C      -2.499442     2.394045    -1.148258
C      -1.794060     1.935372    -2.176229
H      -2.282750     1.473620    -3.029038
H      -0.714633     2.035915    -2.220998
C      -3.998957     2.351688    -1.067786
H      -4.421820     1.874002    -1.954011
H      -4.393138     3.367381    -0.976869
H      -4.332420     1.799438    -0.181415
N      -0.686578     2.603443     0.523498
C      -0.000670     3.386532     1.552133
H       0.076212     4.421710     1.222976
H       1.000563     2.979097     1.698804
H      -0.548579     3.360332     2.500704
C      -1.084773    -1.750476     2.488350
C       0.025346    -1.156074     3.368289
C      -2.463880    -1.519129     3.129026
H      -0.007561    -1.594613     4.369084
H      -0.115853    -0.075840     3.456631
H       1.012482    -1.342267     2.940358
H      -2.531102    -2.055191     4.078910
H      -3.267587    -1.875513     2.478852
H      -2.616522    -0.456348     3.330517
C      -0.881502    -3.209320     2.384651
N      -0.729937    -4.345151     2.296824
48
     -1091.834881     -1091.504511   1.76   0.97
C       1.251304     0.215695    -0.298441
C       0.338636     0.993798     0.482516
C      -0.874835     0.408116     0.964763
C      -1.165682    -0.887648     0.709274
C      -0.280673    -1.778621    -0.102032
C       0.951312    -1.076708    -0.583830
C       2.513291     0.821999    -0.807343
C       2.813730     0.772317    -2.167675
C       3.995693     1.322150    -2.647588
C       4.890063     1.925654    -1.771201
C       4.596105     1.976797    -0.413517
C       3.414598     1.427913     0.066608
H      -2.104855    -1.284834     1.077037
H      -0.849292    -2.115222    -0.984917
H       1.645669    -1.655936    -1.184354
H       2.110143     0.309411    -2.853108
H       4.217181     1.280259    -3.709335
H       5.813424     2.355910    -2.145501
H       5.288365     2.448066     0.276575
H       3.192525     1.468821     1.128056
C       0.575584     2.376085     0.722201
N       0.753777     3.497689     0.927006
C      -3.076951     1.410774     1.398174
O      -3.898692     1.755797     2.227247
C      -3.477540     1.234860    -0.043088
C      -2.783566     1.817922    -1.014370
H      -3.117919     1.770877    -2.046550
H      -1.883042     2.389206    -0.814109
C      -4.769912     0.498295    -0.254172
H      -5.566001     0.975255     0.323810
H      -4.697389    -0.537648     0.097275
H      -5.042434     0.488017    -1.311528
N      -1.756110     1.219420     1.735763
C      -1.370122     1.492186     3.120726
H      -1.769533     2.459063     3.424116
H      -0.281197     1.515506     3.184219
H      -1.758970     0.724014     3.797692
C       0.084913    -3.102932     0.675204
C       0.921890    -2.797824     1.927042
C      -1.178878    -3.896148     1.049669
H       0.342449    -2.171970     2.610916
H       1.841982    -2.269521     1.668991
H       1.186158    -3.724796     2.442538
H      -1.746294    -3.367952     1.819259
H      -0.902238    -4.875434     1.447839
H      -1.821860    -4.051797     0.178929
C       0.881219    -3.945328    -0.239634
N       1.492197    -4.600478    -0.959547
48
     -1091.835216     -1091.504508   1.55   0.97
C       1.146370    -0.916325     0.128352
C       1.039111     0.506017    -0.023553
C      -0.216832     1.154894     0.176262
C      -1.315781     0.439331     0.511644
C      -1.312013    -1.047553     0.664165
C       0.044297    -1.641318     0.442083
C       2.456993    -1.594914    -0.073121
C       3.580081    -1.202084     0.653587
C       4.794014    -1.851346     0.474139
C       4.899283    -2.899809    -0.432619
C       3.783416    -3.295899    -1.160542
C       2.568282    -2.647106    -0.980876
H      -2.256994     0.958135     0.661648
H      -1.996348    -1.470517    -0.090704
H       0.147305    -2.717402     0.526167
H       3.503995    -0.385778     1.364623
H       5.661464    -1.534677     1.044041
H       5.849050    -3.405886    -0.572694
H       3.858531    -4.111562    -1.872712
H       1.699309    -2.948707    -1.558133
C       2.154323     1.279213    -0.451444
N       3.050731     1.918326    -0.797335
C      -1.185650     3.181173    -0.805307
O      -1.537979     4.333501    -0.636343
C      -1.691154     2.393939    -1.985970
C      -0.839300     1.776515    -2.797077
H      -1.184826     1.281808    -3.700047
H       0.229795     1.771482    -2.609886
C      -3.170639     2.493195    -2.226924
H      -3.467425     3.544163    -2.280243
H      -3.735414     2.041314    -1.403105
H      -3.447297     1.988578    -3.155018
N      -0.282008     2.571221     0.037256
C       0.263113     3.368155     1.136162
H       0.518559     4.359664     0.765722
H       1.162071     2.879945     1.515968
H      -0.465113     3.473955     1.948203
C      -1.921971    -1.482471     2.052471
C      -2.059515    -3.011160     2.149462
C      -1.085057    -0.938269     3.220402
H      -1.075297    -3.479124     2.220326
H      -2.583642    -3.417870     1.280239
H      -2.625602    -3.279568     3.044766
H      -1.028654     0.152036     3.191738
H      -0.069966    -1.339463     3.161862
H      -1.524835    -1.237537     4.175332
C      -3.280696    -0.908350     2.128105
N      -4.339043    -0.461950     2.169405
48
     -1091.835851     -1091.504318   1.15   1.09
C       0.592215    -1.066302    -0.460980
C      -0.177096     0.034930    -0.955381
C      -1.295244     0.526388    -0.205897
C      -1.586838     0.015790     1.012138
C      -0.758159    -1.041023     1.669426
C       0.307653    -1.577175     0.764561
C       1.690377    -1.649060    -1.280659
C       2.956643    -1.831307    -0.725772
C       3.982373    -2.386968    -1.479348
C       3.751909    -2.769091    -2.795775
C       2.490821    -2.593160    -3.353274
C       1.465414    -2.036897    -2.600637
H      -2.467456     0.380894     1.527525
H      -1.425996    -1.877558     1.929785
H       0.877809    -2.427476     1.124712
H       3.140065    -1.527931     0.300601
H       4.964423    -2.520422    -1.036735
H       4.552910    -3.202953    -3.385645
H       2.303115    -2.888390    -4.380443
H       0.482448    -1.906968    -3.041291
C       0.178167     0.697170    -2.163035
N       0.457558     1.251866    -3.135579
C      -2.400112     2.718068    -0.170429
O      -3.390003     3.366036    -0.447425
C      -1.381629     3.218204     0.823591
C      -1.803604     3.564474     2.034179
H      -1.122454     3.964342     2.780067
H      -2.850524     3.474584     2.307392
C       0.035610     3.384571     0.340467
H       0.052053     3.930368    -0.608067
H       0.530344     2.426003     0.161906
H       0.622628     3.942566     1.073212
N      -2.119196     1.524282    -0.801050
C      -3.041719     1.069943    -1.841633
H      -3.335245     1.920903    -2.453951
H      -3.941931     0.623624    -1.404529
H      -2.536450     0.329869    -2.464623
C      -0.162977    -0.558850     3.050744
C       0.831874     0.595952     2.865584
C      -1.285223    -0.146069     4.017696
H       1.269314     0.874938     3.827926
H       0.308586     1.462792     2.458532
H       1.640397     0.319665     2.185356
H      -1.764469     0.770576     3.666027
H      -0.873237     0.046983     5.011375
H      -2.041160    -0.931104     4.108180
C       0.546177    -1.710629     3.643353
N       1.091647    -2.614576     4.097372
48
     -1091.835228     -1091.504211   1.54   1.15
C       0.600470    -1.259377    -0.303554
C       0.777802     0.120281     0.043035
C      -0.247300     1.067702    -0.252420
C      -1.406753     0.688078    -0.828897
C      -1.732024    -0.743577    -1.109021
C      -0.569743    -1.656040    -0.862489
C       1.689015    -2.244896    -0.054305
C       2.237273    -2.391244     1.219323
C       3.240936    -3.322841     1.448255
C       3.706821    -4.118989     0.408331
C       3.163511    -3.978820    -0.863369
C       2.159105    -3.047079    -1.093096
H      -2.165398     1.436057    -1.034012
H      -2.027982    -0.838333    -2.165097
H      -0.680169    -2.699642    -1.135730
H       1.875201    -1.775200     2.036074
H       3.661273    -3.424985     2.443451
H       4.492031    -4.846245     0.588301
H       3.523711    -4.595239    -1.680990
H       1.742159    -2.929638    -2.088934
C       1.985274     0.596391     0.622408
N       2.949953     1.030721     1.084427
C      -0.427841     2.847624     1.323803
O      -1.152840     2.150761     2.014041
C       0.040547     4.183526     1.836724
C       1.339711     4.422609     1.973005
H       1.692244     5.341591     2.432497
H       2.090833     3.701856     1.664507
C      -1.052502     5.100289     2.308024
H      -1.682806     4.579040     3.033978
H      -1.699679     5.401891     1.476416
H      -0.634449     5.998287     2.767608
N      -0.006496     2.435936     0.085885
C       0.749647     3.238890    -0.869764
H       0.556533     4.296393    -0.697070
H       0.414421     2.979134    -1.877060
H       1.827245     3.059968    -0.796097
C      -3.003778    -1.193594    -0.281508
C      -3.412162    -2.634505    -0.631589
C      -2.767750    -1.045092     1.229729
H      -2.671672    -3.341337    -0.250758
H      -3.508152    -2.769225    -1.712696
H      -4.374552    -2.873002    -0.172144
H      -3.664690    -1.342030     1.779952
H      -2.514774    -0.017805     1.498117
H      -1.943901    -1.696609     1.533328
C      -4.115214    -0.308642    -0.685168
N      -4.976830     0.374640    -1.019364
48
     -1091.835228     -1091.504208   1.54   1.16
C       1.519813    -0.074014    -0.102746
C       0.458021     0.698675     0.472221
C      -0.845141     0.663281    -0.107656
C      -1.114462    -0.112696    -1.178214
C      -0.106202    -1.046570    -1.765744
C       1.255255    -0.874837    -1.164742
C       2.897267     0.003131     0.458481
C       3.975212     0.310693    -0.370377
C       5.264239     0.369006     0.144167
C       5.488511     0.118484     1.492869
C       4.417649    -0.190144     2.323741
C       3.129041    -0.248369     1.810207
H      -2.118656    -0.117597    -1.588893
H      -0.033676    -0.853120    -2.847030
H       2.073761    -1.438118    -1.599163
H       3.798304     0.517219    -1.421748
H       6.095020     0.612951    -0.510442
H       6.495246     0.164572     1.895614
H       4.584312    -0.385183     3.378121
H       2.297627    -0.493467     2.463174
C       0.676873     1.562549     1.579547
N       0.808326     2.284245     2.470940
C      -2.627473     0.891565     1.459621
O      -2.591868    -0.310786     1.661495
C      -3.513263     1.769259     2.303501
C      -2.981567     2.749766     3.024241
H      -3.590303     3.328750     3.712835
H      -1.922770     2.985786     2.978585
C      -4.951392     1.339752     2.371717
H      -5.434317     1.422804     1.391279
H      -5.505660     1.951964     3.086119
H      -5.008188     0.289353     2.670759
N      -1.860028     1.476926     0.486050
C      -1.921317     2.876219     0.076198
H      -1.746404     2.925956    -1.001497
H      -1.170851     3.488079     0.587163
H      -2.909303     3.280313     0.290722
C      -0.604259    -2.544020    -1.646370
C       0.374763    -3.510834    -2.333643
C      -0.825990    -2.943361    -0.179070
H      -0.057936    -4.513332    -2.377624
H       1.307817    -3.570156    -1.768966
H       0.598088    -3.191125    -3.355440
H       0.122579    -2.879708     0.360872
H      -1.188439    -3.973297    -0.121784
H      -1.548843    -2.288619     0.310975
C      -1.889707    -2.628953    -2.368715
N      -2.880699    -2.687258    -2.947921
48
     -1091.836020     -1091.504004   1.05   1.28
C       0.860575    -0.278794    -0.386977
C       0.218375     0.585027     0.556514
C      -1.096211     0.277110     1.038004
C      -1.663684    -0.916216     0.754031
C      -0.963632    -1.976908    -0.035003
C       0.288592    -1.472691    -0.683896
C       2.127041     0.144224    -1.045207
C       3.227716    -0.710774    -1.074081
C       4.404683    -0.320998    -1.700088
C       4.491968     0.926643    -2.306664
C       3.396269     1.781849    -2.284774
C       2.220236     1.393123    -1.658213
H      -2.673578    -1.104162     1.102061
H      -1.643530    -2.317085    -0.830287
H       0.760397    -2.117240    -1.418487
H       3.163273    -1.683538    -0.595765
H       5.256097    -0.994005    -1.712811
H       5.411616     1.231578    -2.795591
H       3.456676     2.757312    -2.756368
H       1.365981     2.063087    -1.649816
C       0.873188     1.745400     1.049313
N       1.385422     2.688620     1.472504
C      -2.015220     2.528854     1.452180
O      -2.322737     3.380620     2.263007
C      -1.938787     2.872683    -0.013810
C      -2.527070     2.108497    -0.928796
H      -2.551713     2.407300    -1.972594
H      -3.030681     1.183000    -0.671366
C      -1.304713     4.201008    -0.316344
H      -1.827457     4.988281     0.233186
H      -1.350279     4.412811    -1.386757
H      -0.260246     4.223787     0.008844
N      -1.783056     1.225433     1.845224
C      -1.916696     0.927961     3.271681
H      -1.043787     1.279100     3.832188
H      -2.017207    -0.151938     3.397008
H      -2.802406     1.427445     3.661603
C      -0.682055    -3.265896     0.837352
C       0.288325    -2.967409     1.989804
C      -1.994210    -3.858641     1.377087
H       1.237572    -2.576264     1.618601
H       0.487745    -3.877672     2.561465
H      -0.154137    -2.226089     2.659827
H      -1.803101    -4.819563     1.861125
H      -2.717143    -4.019322     0.572651
H      -2.434233    -3.187205     2.118134
C      -0.067826    -4.269267    -0.055061
N       0.403027    -5.045990    -0.759205
48
     -1091.836020     -1091.503995   1.05   1.29
C       0.937458    -0.278971    -0.224080
C       0.070977     0.631811     0.460328
C      -1.266946     0.241049     0.795121
C      -1.661615    -1.041975     0.637755
C      -0.743658    -2.115488     0.145137
C       0.540479    -1.565060    -0.394680
C       2.244998     0.192182    -0.757466
C       2.311610     1.336229    -1.551772
C       3.528626     1.767443    -2.061356
C       4.692493     1.059798    -1.783772
C       4.632585    -0.083268    -0.995111
C       3.414852    -0.515707    -0.486024
H      -2.690695    -1.297807     0.865516
H      -1.250985    -2.652308    -0.670288
H       1.184685    -2.250174    -0.936236
H       1.405266     1.889773    -1.777176
H       3.567343     2.660581    -2.676486
H       5.643929     1.398090    -2.181408
H       5.537124    -0.640802    -0.773819
H       3.370822    -1.405680     0.134636
C       0.521302     1.924707     0.839434
N       0.864043     2.976614     1.166782
C      -2.457177     2.399493     0.690839
O      -2.972714     3.319531     1.295213
C      -2.181344     2.525046    -0.786107
C      -2.537737     1.565251    -1.634069
H      -2.424341     1.697877    -2.705964
H      -2.982653     0.634469    -1.299206
C      -1.640606     3.860150    -1.213995
H      -1.535442     3.901047    -2.300269
H      -0.668710     4.059408    -0.752592
H      -2.319010     4.651219    -0.883810
N      -2.163826     1.208765     1.325964
C      -2.494199     1.115695     2.748397
H      -2.506152     0.063008     3.037698
H      -3.475948     1.555115     2.918979
H      -1.761429     1.652368     3.360328
C      -0.479849    -3.213982     1.252097
C       0.259849    -2.628590     2.464141
C      -1.796714    -3.875047     1.691739
H      -0.354667    -1.854744     2.930820
H       1.213107    -2.184370     2.171180
H       0.453863    -3.410956     3.202656
H      -1.591917    -4.721314     2.352098
H      -2.362495    -4.242497     0.831250
H      -2.413302    -3.158727     2.239737
C       0.364649    -4.257372     0.636786
N       1.015987    -5.067633     0.146835
48
     -1091.835983     -1091.503929   1.07   1.33
C       0.447305    -0.799029    -0.311739
C       0.454600     0.401760     0.473361
C      -0.776172     0.975426     0.921393
C      -1.933863     0.288195     0.781462
C      -1.992503    -1.092991     0.208996
C      -0.708578    -1.491435    -0.452022
C       1.693507    -1.238797    -0.995515
C       2.159972    -2.544792    -0.858793
C       3.315151    -2.950991    -1.514658
C       4.013008    -2.055342    -2.316459
C       3.550737    -0.751841    -2.458898
C       2.397355    -0.345444    -1.802536
H      -2.863809     0.740544     1.110782
H      -2.785015    -1.111705    -0.553633
H      -0.712870    -2.369308    -1.088944
H       1.620693    -3.242574    -0.224901
H       3.671265    -3.969543    -1.397545
H       4.915615    -2.372313    -2.828913
H       4.090888    -0.047116    -3.082783
H       2.035250     0.671747    -1.920049
C       1.677879     1.033260     0.823744
N       2.658901     1.558600     1.128046
C      -0.202587     3.376597     0.967747
O       0.035103     4.363864     1.636442
C       0.065976     3.390269    -0.516287
C      -0.830197     2.931718    -1.384758
H      -0.670868     3.032528    -2.454307
H      -1.762809     2.476811    -1.069283
C       1.326419     4.103179    -0.918097
H       1.412733     4.145489    -2.006077
H       2.209590     3.604946    -0.507504
H       1.314867     5.118860    -0.514310
N      -0.768745     2.254398     1.539782
C      -1.077589     2.319299     2.968706
H      -0.175923     2.173780     3.573127
H      -1.804818     1.541759     3.208850
H      -1.495447     3.297670     3.200933
C      -2.447734    -2.150795     1.293121
C      -2.657060    -3.533165     0.653835
C      -1.445693    -2.238658     2.453733
H      -3.323831    -3.472930    -0.210633
H      -3.099396    -4.220920     1.378767
H      -1.699188    -3.948516     0.332403
H      -1.788549    -2.965631     3.194775
H      -1.324902    -1.272417     2.947483
H      -0.471876    -2.559089     2.075390
C      -3.749424    -1.695853     1.821088
N      -4.765381    -1.334901     2.219214
48
     -1091.835218     -1091.503751   1.55   1.44
C       1.311212    -0.345014    -0.534486
C       0.846948     0.830891     0.142413
C      -0.512110     1.252509     0.000170
C      -1.385524     0.520875    -0.731603
C      -1.020067    -0.771559    -1.388555
C       0.438293    -1.084806    -1.262676
C       2.740935    -0.753692    -0.442859
C       3.491405    -0.927344    -1.604688
C       4.820038    -1.326306    -1.531067
C       5.410630    -1.557747    -0.294392
C       4.666431    -1.387672     0.867334
C       3.338790    -0.988311     0.794584
H      -2.403703     0.875872    -0.848483
H      -1.256585    -0.680050    -2.460879
H       0.816127    -1.958825    -1.781498
H       3.032420    -0.737010    -2.570279
H       5.395250    -1.454761    -2.442506
H       6.448688    -1.868894    -0.235983
H       5.121205    -1.564228     1.836619
H       2.763774    -0.859733     1.705713
C       1.729964     1.615784     0.934975
N       2.433564     2.259895     1.584318
C      -1.955693     2.582906     1.481046
O      -2.505975     3.645847     1.692252
C      -2.343984     1.329529     2.224283
C      -3.591647     0.889617     2.119161
H      -3.929163     0.007625     2.655600
H      -4.317480     1.401327     1.495383
C      -1.300611     0.711807     3.117151
H      -1.723558    -0.126254     3.675543
H      -0.929583     1.452852     3.832769
H      -0.434171     0.352056     2.554126
N      -0.903457     2.485502     0.596076
C      -0.471814     3.712522    -0.075159
H      -0.365656     4.508564     0.660563
H      -1.202254     4.025163    -0.828823
H       0.490782     3.532706    -0.555721
C      -1.919780    -1.964906    -0.878678
C      -1.653974    -3.243365    -1.690756
C      -1.712376    -2.222302     0.621003
H      -2.384903    -4.012249    -1.428506
H      -0.658439    -3.634535    -1.469276
H      -1.729385    -3.053749    -2.764997
H      -1.967597    -1.340011     1.208162
H      -0.666944    -2.481371     0.807802
H      -2.341835    -3.052902     0.951715
C      -3.326989    -1.577746    -1.105002
N      -4.418892    -1.273271    -1.294266
48
     -1091.835693     -1091.503687   1.25   1.48
C       1.255089     0.242638    -0.280998
C       0.167378     0.968260     0.306218
C      -1.176259     0.720269    -0.118009
C      -1.431265    -0.184440    -1.090969
C      -0.362716    -0.972968    -1.780917
C       1.006083    -0.655667    -1.265416
C       2.650967     0.486192     0.177984
C       3.643373     0.821903    -0.741506
C       4.950215     1.032706    -0.320433
C       5.277969     0.907822     1.024501
C       4.292546     0.572706     1.945921
C       2.986134     0.362945     1.525751
H      -2.457969    -0.337763    -1.407736
H      -0.394813    -0.709527    -2.851596
H       1.848675    -1.174178    -1.709018
H       3.384948     0.930861    -1.790579
H       5.713652     1.297123    -1.045208
H       6.298748     1.072645     1.354078
H       4.540574     0.475527     2.997862
H       2.221610     0.098861     2.249365
C       0.412555     2.003772     1.248208
N       0.590101     2.848311     2.014079
C      -2.545016     1.537943     1.769015
O      -3.202927     2.444536     2.241359
C      -2.106083     0.388535     2.639032
C      -2.350344    -0.863202     2.265619
H      -2.135341    -1.697583     2.927201
H      -2.815370    -1.093369     1.312934
C      -1.565822     0.775801     3.985670
H      -1.362241    -0.112005     4.588139
H      -2.295795     1.405822     4.500922
H      -0.647283     1.362345     3.890684
N      -2.237284     1.502425     0.425422
C      -2.721251     2.615414    -0.394534
H      -3.760106     2.822115    -0.140171
H      -2.646934     2.331267    -1.445664
H      -2.133744     3.523024    -0.219492
C      -0.644973    -2.524866    -1.741821
C       0.316591    -3.284978    -2.671374
C      -0.556888    -3.074150    -0.310291
H       0.019710    -4.334413    -2.739307
H       1.335690    -3.248538    -2.280334
H       0.309291    -2.862185    -3.679588
H      -0.783235    -4.143593    -0.299493
H      -1.256845    -2.565134     0.353022
H       0.454168    -2.927544     0.077838
C      -2.013705    -2.739180    -2.252038
N      -3.076597    -2.899290    -2.658836
48
     -1091.835292     -1091.503605   1.50   1.53
C       0.885858    -0.341965    -0.338311
C       0.181128     0.641369     0.425930
C      -1.125521     0.353330     0.938364
C      -1.660436    -0.880684     0.799330
C      -0.947619    -2.007407     0.123421
C       0.342748    -1.574968    -0.500033
C       2.203981    -0.017756    -0.953553
C       2.387567    -0.174029    -2.326546
C       3.616283     0.110807    -2.908829
C       4.674149     0.552763    -2.122938
C       4.496974     0.708221    -0.753088
C       3.268954     0.424405    -0.170279
H      -2.664109    -1.048257     1.174208
H      -1.599937    -2.395491    -0.674824
H       0.882286    -2.314393    -1.083365
H       1.558133    -0.511241    -2.940984
H       3.746353    -0.011571    -3.979423
H       5.634228     0.776028    -2.577074
H       5.317627     1.054312    -0.133270
H       3.139666     0.545757     0.900156
C       0.741260     1.925957     0.659297
N       1.176760     2.973769     0.867703
C      -2.176576     2.589519     1.106024
O      -2.512579     3.510851     1.824980
C      -2.176096     2.762994    -0.390914
C      -2.712610     1.847057    -1.191313
H      -2.792989     2.020676    -2.260268
H      -3.119055     0.915130    -0.814360
C      -1.687373     4.102479    -0.865251
H      -0.643370     4.263783    -0.582393
H      -2.274853     4.892960    -0.390935
H      -1.780039     4.181245    -1.950437
N      -1.843380     1.361552     1.642444
C      -1.898069     1.242000     3.100337
H      -1.032051     1.720881     3.569847
H      -1.914030     0.182758     3.364502
H      -2.801732     1.726505     3.467372
C      -0.730267    -3.232123     1.098531
C       0.213199    -2.867953     2.254539
C      -2.072929    -3.751087     1.640224
H       1.183885    -2.532891     1.884040
H       0.369091    -3.734144     2.902976
H      -0.228804    -2.064423     2.849027
H      -1.921358    -4.682934     2.190455
H      -2.779710    -3.945085     0.828740
H      -2.512213    -3.021724     2.324545
C      -0.119017    -4.317904     0.306071
N       0.347189    -5.161219    -0.320202
48
     -1091.835552     -1091.503602   1.34   1.54
C       1.035117    -0.674202     0.270079
C       0.199693    -0.036004    -0.700393
C      -1.222769    -0.204754    -0.650737
C      -1.788544    -0.990127     0.293174
C      -0.997476    -1.725780     1.328369
C       0.473316    -1.472815     1.212033
C       2.510644    -0.472939     0.238910
C       3.052273     0.811549     0.256872
C       4.428664     0.993066     0.244004
C       5.278371    -0.106583     0.213410
C       4.744531    -1.389866     0.196082
C       3.367531    -1.571925     0.209874
H      -2.864464    -1.122099     0.268368
H      -1.169579    -2.804895     1.175634
H       1.116322    -1.958622     1.939307
H       2.394028     1.673985     0.284252
H       4.838089     1.997939     0.256274
H       6.354151     0.036170     0.202288
H       5.401717    -2.253262     0.170047
H       2.949894    -2.573963     0.186636
C       0.767599     0.697548    -1.776807
N       1.207027     1.296622    -2.659613
C      -2.077450     1.741394    -1.912203
O      -2.495710     2.174882    -2.967964
C      -1.659571     2.689491    -0.817674
C      -2.137461     2.544159     0.413872
H      -1.928027     3.277384     1.187416
H      -2.788873     1.717879     0.677254
C      -0.842446     3.865590    -1.269640
H      -0.660978     4.549802    -0.438058
H      -1.375933     4.392680    -2.065109
H       0.117080     3.544834    -1.685588
N      -2.032181     0.384989    -1.665600
C      -2.483604    -0.496909    -2.744851
H      -2.632675    -1.498200    -2.337000
H      -1.748854    -0.539380    -3.555792
H      -3.422097    -0.118890    -3.148685
C      -1.508612    -1.442719     2.793555
C      -1.242861     0.011713     3.209665
C      -3.001386    -1.783060     2.939573
H      -1.783163     0.688520     2.545072
H      -0.179031     0.251588     3.155077
H      -1.585057     0.182036     4.233828
H      -3.217772    -2.788405     2.567680
H      -3.610650    -1.063367     2.388282
H      -3.295002    -1.738280     3.991143
C      -0.758227    -2.340262     3.695173
N      -0.175797    -3.047661     4.388796
48
     -1091.835223     -1091.503525   1.55   1.59
C       0.660542    -1.269339    -0.189517
C      -0.116505    -0.318882    -0.931513
C      -1.242224     0.319189    -0.323378
C      -1.552778     0.074910     0.971809
C      -0.733901    -0.808775     1.856678
C       0.358251    -1.509797     1.110593
C       1.790930    -1.990616    -0.838745
C       2.843263    -1.288923    -1.425225
C       3.901217    -1.971503    -2.010235
C       3.920014    -3.361465    -2.015025
C       2.874356    -4.066681    -1.431078
C       1.815728    -3.384359    -0.844896
H      -2.429339     0.546503     1.402131
H      -1.404567    -1.573381     2.279860
H       0.947676    -2.245834     1.646182
H       2.836780    -0.203893    -1.423535
H       4.712855    -1.413920    -2.466145
H       4.747118    -3.893748    -2.473675
H       2.880777    -5.152062    -1.432808
H       0.993815    -3.935003    -0.397113
C       0.190170    -0.023293    -2.288927
N       0.429213     0.229426    -3.389184
C      -2.327904     2.474992    -0.786013
O      -3.282224     3.064837    -1.253209
C      -1.344839     3.158969     0.130533
C      -1.773874     3.631442     1.293939
H      -1.107114     4.155444     1.972521
H      -2.805868     3.510105     1.606853
C       0.056604     3.334586    -0.391224
H       0.039246     3.860165    -1.351631
H       0.555324     2.375578    -0.562574
H       0.656506     3.917381     0.311282
N      -2.057481     1.166805    -1.126585
C      -2.962861     0.515032    -2.073981
H      -3.926708     0.290713    -1.604884
H      -2.504109    -0.411741    -2.421091
H      -3.132461     1.175049    -2.923593
C      -0.173237    -0.026427     3.109443
C       0.482105    -0.989784     4.112606
C       0.813614     1.072589     2.688758
H       1.402480    -1.404783     3.695517
H      -0.191470    -1.811407     4.370968
H       0.738086    -0.457009     5.031772
H       1.181379     1.605985     3.569541
H       0.337147     1.792017     2.022764
H       1.665733     0.623182     2.172480
C      -1.326553     0.604833     3.782139
N      -2.230932     1.087730     4.301422
48
     -1091.835236     -1091.503428   1.54   1.65
C       0.918055    -0.801978    -0.421088
C       0.455774     0.554422    -0.456365
C      -0.947092     0.837105    -0.472698
C      -1.848832    -0.170915    -0.444273
C      -1.465526    -1.616131    -0.385240
C       0.017583    -1.815585    -0.393493
C       2.377606    -1.101893    -0.443705
C       3.189525    -0.619632    -1.469137
C       4.544496    -0.921609    -1.491253
C       5.103174    -1.708376    -0.490707
C       4.298987    -2.193713     0.533702
C       2.943132    -1.892738     0.555622
H      -2.906125     0.071408    -0.481909
H      -1.875907    -2.103720    -1.285229
H       0.393346    -2.832461    -0.415046
H       2.760343    -0.008440    -2.256077
H       5.166247    -0.538126    -2.293581
H       6.162788    -1.942211    -0.509259
H       4.727540    -2.807442     1.319685
H       2.317057    -2.265190     1.361032
C       1.378846     1.633802    -0.499865
N       2.114158     2.522161    -0.536479
C      -1.114985     3.187684     0.285384
O      -1.200582     4.359137    -0.028580
C      -0.772678     2.807884     1.702379
C      -1.531709     1.940369     2.363532
H      -1.360936     1.736194     3.416746
H      -2.374509     1.444934     1.893511
C       0.333697     3.606668     2.329336
H       1.281666     3.449485     1.807455
H       0.454705     3.335385     3.380184
H       0.098170     4.671600     2.253097
N      -1.389336     2.185192    -0.621143
C      -1.765801     2.603545    -1.973563
H      -2.495912     3.409472    -1.908951
H      -2.202998     1.748925    -2.492930
H      -0.897915     2.966782    -2.534456
C      -2.145712    -2.370287     0.822439
C      -1.946489    -3.890864     0.703630
C      -1.616998    -1.862466     2.171537
H      -2.266919    -4.256672    -0.275530
H      -2.531801    -4.406435     1.468914
H      -0.895900    -4.150529     0.851026
H      -0.546627    -2.069510     2.247186
H      -2.128230    -2.368420     2.994771
H      -1.767149    -0.787833     2.277791
C      -3.596414    -2.106739     0.748097
N      -4.725846    -1.905920     0.678097
48
     -1091.835265     -1091.503170   1.52   1.81
C       0.169440    -1.279027    -0.062193
C      -0.351920    -0.093955    -0.671419
C      -1.212840     0.780379     0.070828
C      -1.529868     0.503626     1.355611
C      -1.014820    -0.695861     2.086350
C      -0.149810    -1.562220     1.226092
C       1.038132    -2.211402    -0.834986
C       2.283783    -2.581572    -0.329408
C       3.095830    -3.462467    -1.032103
C       2.668595    -3.985301    -2.247046
C       1.425694    -3.623862    -2.753463
C       0.613879    -2.742527    -2.051875
H      -2.219563     1.167734     1.864749
H      -1.886147    -1.295940     2.397708
H       0.225270    -2.479257     1.669244
H       2.620335    -2.170344     0.617595
H       4.064843    -3.739818    -0.629367
H       3.302252    -4.673285    -2.797499
H       1.084992    -4.027989    -3.701082
H      -0.357068    -2.470225    -2.451753
C      -0.047246     0.223971    -2.022148
N       0.187437     0.499601    -3.117646
C      -1.113287     2.928288    -1.160645
O      -1.628400     3.655681    -1.987306
C       0.293842     3.194120    -0.692659
C       0.567999     3.251551     0.606434
H       1.552657     3.544551     0.959246
H      -0.189944     3.056448     1.357274
C       1.268369     3.563332    -1.773821
H       0.876918     4.414555    -2.337301
H       1.402877     2.742771    -2.483650
H       2.236726     3.826657    -1.343145
N      -1.819944     1.890786    -0.587898
C      -3.198313     1.702812    -1.048130
H      -3.708208     1.031567    -0.354817
H      -3.226196     1.275867    -2.056340
H      -3.704852     2.667081    -1.068495
C      -0.287429    -0.319035     3.435245
C       1.015115     0.452174     3.177212
C      -1.216104     0.482621     4.362395
H       0.793693     1.387511     2.660519
H       1.703003    -0.127974     2.558823
H       1.511778     0.685115     4.122809
H      -0.755629     0.598318     5.346614
H      -2.177955    -0.020962     4.492950
H      -1.392141     1.479762     3.952544
C       0.040677    -1.586815     4.118103
N       0.287853    -2.578226     4.644167
48
     -1091.835694     -1091.503154   1.25   1.82
C       0.571456    -1.253194    -0.563757
C       0.094908     0.027687    -0.990859
C      -1.048857     0.615791    -0.361968
C      -1.603779     0.028564     0.722747
C      -1.002486    -1.167292     1.392000
C       0.014437    -1.843063     0.522937
C       1.676714    -1.926077    -1.299808
C       2.827363    -2.313289    -0.614263
C       3.861281    -2.952607    -1.286537
C       3.753530    -3.210850    -2.648213
C       2.609032    -2.823188    -3.335939
C       1.575561    -2.182535    -2.665910
H      -2.499911     0.465207     1.148458
H      -1.808634    -1.876620     1.627678
H       0.361974    -2.828712     0.811343
H       2.915010    -2.093264     0.445447
H       4.754687    -3.247403    -0.745135
H       4.561208    -3.710518    -3.173425
H       2.520499    -3.017801    -4.399770
H       0.683647    -1.881670    -3.206328
C       0.755898     0.739777    -2.029661
N       1.279666     1.330298    -2.871248
C      -1.915637     2.923835    -0.221335
O      -2.720593     3.730319    -0.651441
C      -1.202918     3.187193     1.076408
C       0.105125     2.987917     1.195481
H       0.636724     3.255258     2.103175
H       0.702053     2.569200     0.393004
C      -2.052617     3.825862     2.140820
H      -2.486950     4.754884     1.762474
H      -1.458035     4.038761     3.031935
H      -2.891436     3.178981     2.424039
N      -1.606150     1.788336    -0.940573
C      -2.250618     1.647431    -2.248691
H      -3.331907     1.523259    -2.137063
H      -1.835351     0.774104    -2.752230
H      -2.059515     2.534954    -2.851233
C      -0.371558    -0.817677     2.802711
C      -1.314089     0.065948     3.634796
C      -0.052744    -2.108163     3.576460
H      -1.452501     1.044855     3.174233
H      -0.901542     0.214190     4.636154
H      -2.288968    -0.422073     3.734152
H      -0.972399    -2.679761     3.732149
H       0.372387    -1.865416     4.553457
H       0.664829    -2.735538     3.045035
C       0.892926    -0.090034     2.581033
N       1.893200     0.451156     2.418032
48
     -1091.835694     -1091.503151   1.25   1.82
C       1.155563    -1.073208    -0.098323
C       0.681072     0.101021    -0.766329
C      -0.722023     0.380203    -0.820466
C      -1.594282    -0.389913    -0.130897
C      -1.154301    -1.471869     0.804669
C       0.281166    -1.846449     0.592074
C       2.598488    -1.435509    -0.151957
C       3.248548    -1.609077    -1.372425
C       4.591274    -1.960326    -1.406249
C       5.297151    -2.138658    -0.221737
C       4.654427    -1.961622     0.998107
C       3.310506    -1.611921     1.033715
H      -2.654958    -0.189788    -0.230196
H      -1.788828    -2.354331     0.639678
H       0.650206    -2.751262     1.061746
H       2.700955    -1.471011    -2.299334
H       5.088165    -2.092637    -2.361783
H       6.347071    -2.412074    -0.249585
H       5.201421    -2.093562     1.926324
H       2.809238    -1.454795     1.984040
C       1.591615     1.012263    -1.369383
N       2.316400     1.761186    -1.864477
C      -2.035554     2.428724    -1.240117
O      -2.678470     3.069774    -2.051943
C      -2.139814     2.746498     0.226036
C      -1.056691     2.827877     0.990950
H      -1.120503     3.138224     2.029021
H      -0.064224     2.607581     0.613975
C      -3.523464     3.107284     0.693177
H      -3.514110     3.379058     1.750999
H      -4.223178     2.275313     0.550022
H      -3.907957     3.944943     0.105489
N      -1.164920     1.442450    -1.654559
C      -1.026028     1.259171    -3.101438
H      -0.766837     2.208155    -3.569950
H      -1.960673     0.894273    -3.537764
H      -0.231736     0.536234    -3.288949
C      -1.403122    -1.096393     2.323723
C      -2.804457    -0.500951     2.531632
C      -1.230534    -2.339297     3.213177
H      -2.988312    -0.339316     3.596979
H      -3.562313    -1.194886     2.154091
H      -2.911312     0.455176     2.017868
H      -1.412982    -2.081236     4.259267
H      -0.224414    -2.755772     3.141107
H      -1.951223    -3.106701     2.915808
C      -0.395305    -0.097485     2.728713
N       0.403506     0.658293     3.061441
48
     -1091.835694     -1091.503149   1.25   1.82
C       1.052812    -1.052876    -0.144943
C       0.621189     0.198438    -0.690953
C      -0.773333     0.518244    -0.741594
C      -1.678619    -0.298743    -0.156431
C      -1.285191    -1.486314     0.664776
C       0.145304    -1.872996     0.440663
C       2.487552    -1.444682    -0.209615
C       3.159966    -1.502692    -1.428935
C       4.494389    -1.883035    -1.474655
C       5.169627    -2.206129    -0.302990
C       4.504638    -2.144799     0.916223
C       3.168945    -1.766154     0.963527
H      -2.731791    -0.061545    -0.253926
H      -1.936720    -2.329048     0.392938
H       0.482313    -2.832435     0.816658
H       2.636306    -1.251459    -2.345856
H       5.008876    -1.924582    -2.429133
H       6.213114    -2.502152    -0.339997
H       5.027816    -2.390070     1.835096
H       2.650782    -1.699277     1.915426
C       1.566189     1.145311    -1.174192
N       2.319281     1.924074    -1.571305
C      -2.028184     2.633598    -0.962227
O      -2.637428     3.375092    -1.712130
C      -2.157354     2.793931     0.527429
C      -1.089799     2.764242     1.317566
H      -1.169202     2.962341     2.381724
H      -0.094726     2.560245     0.938294
C      -3.542076     3.137972     1.003932
H      -4.257966     2.344767     0.757766
H      -3.893489     4.043890     0.503226
H      -3.549721     3.293609     2.084977
N      -1.172413     1.675355    -1.464137
C      -1.005926     1.645663    -2.919388
H      -0.713421     2.632436    -3.277136
H      -1.939248     1.354906    -3.410764
H      -0.225463     0.926350    -3.168713
C      -1.558435    -1.270429     2.210466
C      -2.949484    -0.664663     2.454505
C      -1.435047    -2.606021     2.963250
H      -3.152869    -0.614060     3.527335
H      -3.715096    -1.293952     1.989464
H      -3.022279     0.343714     2.045325
H      -1.634364    -2.457572     4.027404
H      -0.437743    -3.038288     2.866010
H      -2.166998    -3.317929     2.570610
C      -0.536354    -0.347520     2.740672
N       0.272662     0.346976     3.168663
48
     -1091.835694     -1091.503144   1.25   1.82
C      -0.072197    -1.509358    -0.173383
C      -0.145645    -0.260630    -0.870164
C      -0.866162     0.838446    -0.302369
C      -1.368193     0.746208     0.950189
C      -1.103898    -0.424735     1.843791
C      -0.576618    -1.602736     1.081978
C       0.562831    -2.691710    -0.817553
C       1.616474    -3.343435    -0.178025
C       2.210261    -4.455016    -0.762396
C       1.755746    -4.924642    -1.989310
C       0.707463    -4.275340    -2.631683
C       0.114109    -3.163201    -2.049864
H      -1.954182     1.571981     1.337042
H      -2.044524    -0.703687     2.339772
H      -0.545452    -2.564480     1.581525
H       1.980300    -2.962296     0.771417
H       3.032160    -4.953912    -0.258626
H       2.219503    -5.793216    -2.445789
H       0.350861    -4.634149    -3.591654
H      -0.704139    -2.659250    -2.554425
C       0.505744    -0.087732    -2.122726
N       1.027376     0.069147    -3.139883
C      -0.828283     3.278013    -0.683243
O      -1.368999     4.226152    -1.223621
C       0.169990     3.505269     0.418240
C       1.322809     2.845752     0.448571
H       2.080356     3.066718     1.193739
H       1.567509     2.074767    -0.273466
C      -0.178633     4.625250     1.360032
H       0.614242     4.769297     2.097282
H      -1.118189     4.425011     1.888626
H      -0.326126     5.551360     0.798384
N      -1.080674     1.990037    -1.107393
C      -1.976117     1.844601    -2.257780
H      -1.609356     2.446431    -3.088772
H      -2.988853     2.172549    -2.004999
H      -1.998122     0.795839    -2.554946
C      -0.128987    -0.065144     3.039897
C      -0.523007     1.263421     3.704116
C      -0.136137    -1.191032     4.087772
H      -1.567605     1.220572     4.028780
H      -0.398216     2.103420     3.019735
H       0.101836     1.442424     4.582990
H       0.528331    -0.936808     4.917253
H       0.199652    -2.140802     3.668120
H      -1.148322    -1.318945     4.482551
C       1.240896     0.056609     2.504988
N       2.314958     0.124459     2.102753
48
     -1091.834839     -1091.503013   1.79   1.91
C       1.197193    -0.970935     0.041062
C       0.565121     0.244279    -0.380553
C      -0.853663     0.290449    -0.543310
C      -1.626504    -0.772638    -0.238551
C      -1.072359    -2.012009     0.382957
C       0.425527    -2.037020     0.371976
C       2.681952    -1.064802     0.120036
C       3.352965    -2.077315    -0.564178
C       4.735875    -2.182968    -0.486180
C       5.462118    -1.277776     0.278899
C       4.798200    -0.267696     0.965149
C       3.415886    -0.161417     0.887429
H      -2.695476    -0.696118    -0.396885
H      -1.439526    -2.884353    -0.177884
H       0.906653    -2.954108     0.697227
H       2.785708    -2.778691    -1.168681
H       5.246951    -2.973762    -1.026224
H       6.542648    -1.359120     0.339772
H       5.357945     0.443752     1.563542
H       2.904880     0.627762     1.429077
C       1.321033     1.407582    -0.689983
N       1.898314     2.371604    -0.954942
C      -2.037754     2.329023    -0.119117
O      -2.190898     2.003032     1.044538
C      -2.443060     3.693929    -0.616311
C      -3.720437     3.962800    -0.851274
H      -4.037355     4.947636    -1.181384
H      -4.493077     3.213411    -0.709198
C      -1.314860     4.681386    -0.738100
H      -1.670905     5.632483    -1.139278
H      -0.514118     4.299944    -1.379579
H      -0.869877     4.859672     0.246496
N      -1.437840     1.498432    -1.032554
C      -1.307225     1.785761    -2.458325
H      -0.294943     2.109710    -2.719041
H      -2.013635     2.565839    -2.738079
H      -1.546711     0.880990    -3.024177
C      -1.635367    -2.198424     1.852199
C      -1.157653    -1.074807     2.785093
C      -3.172007    -2.267003     1.844733
H      -1.555295    -1.231996     3.791404
H      -1.513796    -0.111155     2.412825
H      -0.067711    -1.048565     2.846223
H      -3.588493    -1.286014     1.605845
H      -3.538494    -2.558763     2.832090
H      -3.535536    -2.997640     1.116450
C      -1.127127    -3.493022     2.348119
N      -0.732621    -4.507805     2.716594
48
     -1091.834839     -1091.503011   1.79   1.91
C       0.574931    -1.326095    -0.263710
C      -0.055463    -0.084003    -0.601198
C      -1.171999     0.378758     0.160906
C      -1.606390    -0.297572     1.244502
C      -0.894027    -1.496882     1.777011
C       0.159351    -2.000298     0.838198
C       1.675396    -1.870988    -1.107310
C       2.815904    -1.113961    -1.371562
C       3.841613    -1.637883    -2.147146
C       3.740215    -2.923499    -2.665731
C       2.606622    -3.684178    -2.404060
C       1.580218    -3.160684    -1.628070
H      -2.468666     0.082580     1.778914
H      -1.627141    -2.300524     1.941421
H       0.642972    -2.937543     1.095122
H       2.904427    -0.110870    -0.967468
H       4.722683    -1.037077    -2.347900
H       4.542244    -3.331411    -3.272549
H       2.519113    -4.688462    -2.806505
H       0.690475    -3.750997    -1.430514
C       0.372983     0.689637    -1.713989
N       0.687103     1.344820    -2.611132
C      -1.527678     2.729925     0.449898
O      -0.854520     2.711440     1.464938
C      -2.035734     4.023014    -0.136831
C      -3.081556     4.632542     0.405326
H      -3.445571     5.579159     0.017086
H      -3.600352     4.214003     1.262314
C      -1.228291     4.552580    -1.290234
H      -1.143890     3.814727    -2.094369
H      -0.208160     4.773239    -0.958760
H      -1.672435     5.466558    -1.689833
N      -1.816293     1.585199    -0.250475
C      -2.692451     1.522113    -1.416995
H      -3.316612     2.413762    -1.451408
H      -3.341747     0.646937    -1.323971
H      -2.125907     1.445945    -2.350194
C      -0.285248    -1.193740     3.208081
C       0.809254    -0.117546     3.137998
C      -1.387770    -0.768493     4.192796
H       1.214910     0.066607     4.136512
H       0.385756     0.813418     2.753288
H       1.628185    -0.428658     2.486104
H      -2.221946    -1.475962     4.188014
H      -1.759387     0.224658     3.931228
H      -0.985678    -0.722688     5.207950
C       0.301886    -2.454793     3.703286
N       0.745241    -3.446118     4.080002
48
     -1091.832561     -1091.502987   3.22   1.92
C       0.895579    -0.775473    -0.398998
C       0.828047     0.412789     0.397236
C      -0.441635     0.942388     0.785028
C      -1.581956     0.275413     0.496587
C      -1.586685    -1.079192    -0.138698
C      -0.246001    -1.440752    -0.701821
C       2.207237    -1.263511    -0.909266
C       2.407880    -1.429920    -2.278296
C       3.624107    -1.900364    -2.757620
C       4.649126    -2.210596    -1.871368
C       4.452225    -2.048010    -0.504744
C       3.237547    -1.577160    -0.024664
H      -2.528511     0.718779     0.783545
H      -2.342611    -1.113766    -0.935855
H      -0.179791    -2.319305    -1.333625
H       1.609177    -1.178498    -2.969828
H       3.771191    -2.023202    -3.825990
H       5.599639    -2.577811    -2.244867
H       5.248563    -2.286978     0.192592
H       3.086369    -1.457024     1.043129
C       2.005065     1.146659     0.711652
N       2.952592     1.750678     0.973901
C      -1.174988     3.270632     1.070002
O      -1.534313     4.141152     1.841576
C      -1.448473     3.402409    -0.405603
C      -0.477674     3.221966    -1.294307
H      -0.646697     3.403172    -2.351659
H       0.522933     2.923550    -0.999428
C      -2.828346     3.886869    -0.750339
H      -3.035403     4.820230    -0.219998
H      -3.591038     3.165079    -0.435550
H      -2.925547     4.048679    -1.825911
N      -0.472382     2.171203     1.506426
C      -0.160418     2.091880     2.935410
H       0.265424     3.038874     3.264705
H       0.562563     1.290659     3.093100
H      -1.060771     1.887074     3.524171
C      -2.057596    -2.172228     0.910217
C      -3.462205    -1.850614     1.447477
C      -2.054061    -3.578885     0.290077
H      -3.796640    -2.644028     2.120387
H      -4.169918    -1.785243     0.615355
H      -3.481455    -0.911093     2.001963
H      -2.456694    -4.302869     1.002829
H      -1.047918    -3.899885     0.016599
H      -2.685341    -3.590525    -0.603861
C      -1.096354    -2.134538     2.028217
N      -0.331500    -2.074075     2.883537
48
     -1091.834366     -1091.502796   2.09   2.04
C       1.454093    -0.410679    -0.217202
C       0.571007     0.604458     0.278844
C      -0.777043     0.667826    -0.185389
C      -1.264229    -0.251364    -1.044576
C      -0.468002    -1.437783    -1.483699
C       0.966119    -1.356910    -1.057396
C       2.890907    -0.416599     0.174685
C       3.676084     0.725112     0.020131
C       5.018597     0.707448     0.373313
C       5.592689    -0.450653     0.884599
C       4.816311    -1.592903     1.040882
C       3.473418    -1.575482     0.686782
H      -2.295676    -0.175102    -1.372182
H      -0.495238    -1.493135    -2.582445
H       1.655394    -2.090801    -1.460373
H       3.236097     1.631527    -0.382513
H       5.617644     1.603737     0.249606
H       6.642047    -0.462568     1.161200
H       5.256076    -2.500787     1.441581
H       2.865073    -2.465288     0.819333
C       0.997539     1.556718     1.243414
N       1.302574     2.355526     2.018895
C      -2.322049     1.483514     1.441408
O      -2.363951     0.376253     1.945834
C      -3.014239     2.661606     2.079584
C      -4.297040     2.896202     1.837630
H      -4.819979     3.716796     2.319901
H      -4.872378     2.268822     1.163524
C      -2.152563     3.449805     3.026634
H      -1.805499     2.803480     3.839067
H      -2.706974     4.288418     3.452556
H      -1.255877     3.830533     2.526567
N      -1.604818     1.728235     0.297651
C      -1.446897     3.040242    -0.320668
H      -1.455824     2.920987    -1.407423
H      -0.507019     3.518647    -0.024094
H      -2.278740     3.681423    -0.033226
C      -1.148639    -2.777133    -0.985833
C      -0.395542    -4.008885    -1.515546
C      -1.251848    -2.817808     0.546675
H       0.582864    -4.088579    -1.036492
H      -0.255797    -3.954252    -2.598854
H      -0.957729    -4.918412    -1.290007
H      -1.814103    -1.967092     0.935600
H      -0.247618    -2.795963     0.978372
H      -1.744695    -3.740510     0.864698
C      -2.508671    -2.807807    -1.560852
N      -3.558978    -2.828360    -2.027049
48
     -1091.834366     -1091.502795   2.09   2.04
C       0.905322    -1.108929    -0.268742
C       0.716805     0.285665     0.006905
C      -0.526626     0.913559    -0.303563
C      -1.562150     0.205606    -0.800509
C      -1.511816    -1.279493    -0.962823
C      -0.138503    -1.835566    -0.739721
C       2.233890    -1.746611    -0.053529
C       2.337671    -2.912623     0.704239
C       3.571183    -3.521105     0.897253
C       4.715459    -2.970477     0.332130
C       4.618775    -1.809127    -0.425572
C       3.385918    -1.200446    -0.617826
H      -2.494560     0.715040    -1.019863
H      -1.820368    -1.532359    -1.988445
H       0.031107    -2.877806    -0.986812
H       1.445784    -3.337643     1.155134
H       3.638080    -4.426467     1.492275
H       5.680083    -3.444536     0.482370
H       5.507648    -1.372258    -0.868906
H       3.317709    -0.296603    -1.214246
C       1.739835     1.072648     0.601203
N       2.544571     1.752189     1.073575
C      -1.107242     2.692940     1.178174
O      -1.520329     1.878035     1.982859
C      -1.024468     4.159280     1.520654
C      -2.082219     4.944140     1.364730
H      -2.050782     5.993242     1.643699
H      -3.019053     4.563604     0.969038
C       0.295919     4.588657     2.097595
H       0.294917     5.657286     2.321391
H       1.121020     4.367147     1.412605
H       0.497751     4.032510     3.018573
N      -0.650241     2.316476    -0.059531
C      -0.072341     3.224353    -1.044621
H       1.022489     3.222919    -1.005337
H      -0.433543     4.235706    -0.864630
H      -0.391113     2.910938    -2.042368
C      -2.581026    -1.975920    -0.026455
C      -2.609649    -3.496116    -0.257002
C      -2.325222    -1.653055     1.453818
H      -1.688616    -3.951941     0.113190
H      -2.721302    -3.735507    -1.318273
H      -3.448563    -3.942063     0.282920
H      -2.336294    -0.577669     1.639652
H      -1.347624    -2.045252     1.746736
H      -3.088373    -2.125976     2.077806
C      -3.903198    -1.443765    -0.413683
N      -4.928101    -1.034563    -0.734675
48
     -1091.833491     -1091.502612   2.63   2.16
C       1.179208    -0.240827    -0.304021
C       0.574711     0.829166     0.428418
C      -0.773473     0.707678     0.900805
C      -1.476202    -0.429813     0.696694
C      -0.917896    -1.615013    -0.023075
C       0.472829    -1.379581    -0.524318
C       2.562502    -0.108086    -0.841960
C       2.913477     0.966285    -1.657783
C       4.200906     1.069292    -2.167309
C       5.151317     0.099827    -1.869207
C       4.806867    -0.976175    -1.059568
C       3.518829    -1.079971    -0.550268
H      -2.499088    -0.474247     1.050574
H      -1.560494    -1.823916    -0.893960
H       0.928306    -2.174081    -1.106591
H       2.176998     1.725371    -1.899280
H       4.461979     1.912550    -2.798347
H       6.157573     0.182441    -2.267213
H       5.542931    -1.737680    -0.822038
H       3.252073    -1.918852     0.085584
C       1.282981     2.036687     0.680734
N       1.843423     3.021630     0.898349
C      -2.550218     2.369733     1.239324
O      -3.197790     3.024156     2.033331
C      -3.001287     2.185223    -0.188256
C      -4.247611     1.774053    -0.391432
H      -4.646151     1.645353    -1.393385
H      -4.908353     1.564513     0.443841
C      -2.049684     2.560827    -1.294634
H      -1.231505     1.843225    -1.402041
H      -1.598801     3.538647    -1.097552
H      -2.583699     2.610379    -2.245836
N      -1.342688     1.809219     1.599758
C      -0.882551     2.044809     2.970122
H      -0.879905     3.114512     3.176736
H       0.131151     1.656812     3.074813
H      -1.539968     1.549536     3.691752
C      -0.998053    -2.920324     0.862428
C      -0.143195    -2.783915     2.131505
C      -2.454791    -3.255862     1.224766
H       0.899703    -2.573614     1.885517
H      -0.182625    -3.706220     2.716919
H      -0.526367    -1.964961     2.745598
H      -2.504367    -4.231676     1.714161
H      -3.087059    -3.288792     0.333238
H      -2.856463    -2.511106     1.915572
C      -0.472542    -4.036798     0.051510
N      -0.068278    -4.902400    -0.587322
48
     -1091.833491     -1091.502601   2.63   2.16
C       0.551590    -1.109348    -0.094977
C       0.452794     0.162422    -0.742736
C      -0.190091     1.260033    -0.081319
C      -0.674532     1.121150     1.173830
C      -0.584172    -0.155592     1.945997
C       0.053817    -1.258127     1.159758
C       1.174183    -2.270865    -0.790497
C       2.203478    -2.981156    -0.173858
C       2.780378    -4.075872    -0.804721
C       2.331357    -4.473975    -2.058448
C       1.302381    -3.772686    -2.676032
C       0.725964    -2.677885    -2.046068
H      -1.172182     1.967889     1.630862
H      -1.606677    -0.474075     2.206888
H       0.106124    -2.233982     1.631672
H       2.557973    -2.668520     0.803781
H       3.583296    -4.618069    -0.315393
H       2.781744    -5.328740    -2.552725
H       0.946381    -4.076905    -3.654891
H      -0.079588    -2.139171    -2.533721
C       0.963683     0.357953    -2.055809
N       1.375779     0.536342    -3.118785
C      -1.489400     3.159877    -0.939315
O      -1.518764     4.351555    -1.178288
C      -2.750995     2.336181    -0.865830
C      -3.733463     2.783249    -0.092169
H      -4.678522     2.254189    -0.013016
H      -3.620994     3.700647     0.476951
C      -2.858557     1.110946    -1.736428
H      -2.538176     1.337015    -2.758444
H      -3.893361     0.763502    -1.766073
H      -2.234705     0.288018    -1.376566
N      -0.290314     2.498176    -0.776233
C       0.932201     3.293572    -0.910000
H       1.793710     2.625486    -0.886165
H       1.012539     4.022935    -0.097700
H       0.919294     3.827903    -1.859357
C       0.140614     0.057117     3.333013
C       1.595512     0.509164     3.135857
C      -0.624447     1.063023     4.209819
H       2.093011     0.620331     4.102835
H       1.613500     1.473653     2.621999
H       2.156551    -0.212148     2.538097
H      -0.557602     2.066861     3.784314
H      -0.191273     1.091921     5.212667
H      -1.678549     0.787041     4.301315
C       0.136035    -1.240782     4.037073
N       0.123366    -2.252437     4.582230
48
     -1091.832302     -1091.502141   3.38   2.45
C       0.712786    -1.176330     0.396594
C       0.629800     0.219319     0.089447
C      -0.639715     0.876366     0.080678
C      -1.773330     0.214341     0.391627
C      -1.784354    -1.234639     0.761040
C      -0.422462    -1.856366     0.695964
C       2.026807    -1.878009     0.379139
C       2.193295    -3.029920    -0.388355
C       3.411049    -3.698114    -0.400009
C       4.474930    -3.221982     0.357378
C       4.314407    -2.074877     1.125759
C       3.097394    -1.406487     1.137504
H      -2.714827     0.744594     0.312588
H      -2.432586    -1.760467     0.041396
H      -0.354503    -2.915588     0.923379
H       1.364866    -3.395644    -0.987568
H       3.529058    -4.592101    -1.004197
H       5.426844    -3.743162     0.348207
H       5.140492    -1.695734     1.718528
H       2.978225    -0.513552     1.742397
C       1.779977     0.973170    -0.270361
N       2.688221     1.627495    -0.552409
C      -0.921457     2.556407    -1.603240
O      -1.321806     1.712005    -2.383713
C      -0.671275     3.964322    -2.077371
C       0.542487     4.493012    -1.973041
H       0.764564     5.467996    -2.397402
H       1.359721     3.962248    -1.494257
C      -1.826471     4.607968    -2.790339
H      -2.675860     4.753615    -2.113049
H      -2.168122     3.956953    -3.599932
H      -1.537573     5.577900    -3.200506
N      -0.669793     2.257808    -0.285973
C      -0.339780     3.228170     0.753465
H      -0.795507     2.897872     1.690533
H      -0.748596     4.202540     0.490893
H       0.740632     3.328015     0.899215
C      -2.455300    -1.476297     2.168988
C      -1.631960    -0.830750     3.293901
C      -3.902355    -0.955823     2.191240
H      -0.611426    -1.218592     3.309793
H      -2.094554    -1.026860     4.264731
H      -1.589983     0.250604     3.140274
H      -4.396166    -1.258607     3.117859
H      -4.479208    -1.353175     1.351639
H      -3.913513     0.135272     2.142679
C      -2.504576    -2.935444     2.389816
N      -2.548654    -4.072334     2.552058
48
     -1091.832302     -1091.502134   3.38   2.46
C       0.733680    -1.186115    -0.100004
C       0.277412     0.137603    -0.397754
C      -0.625442     0.800551     0.490395
C      -1.037862     0.216667     1.634528
C      -0.588366    -1.147680     2.050029
C       0.313654    -1.789697     1.040226
C       1.650742    -1.898119    -1.033469
C       2.854702    -1.318533    -1.431173
C       3.709668    -1.995459    -2.290713
C       3.371920    -3.258952    -2.761392
C       2.173575    -3.843003    -2.367655
C       1.318087    -3.166277    -1.507581
H      -1.767557     0.738273     2.242233
H      -1.484948    -1.779868     2.155214
H       0.658825    -2.795368     1.258792
H       3.126448    -0.333921    -1.064943
H       4.642543    -1.531861    -2.594625
H       4.040466    -3.786829    -3.433884
H       1.901745    -4.828515    -2.732424
H       0.377191    -3.617722    -1.207553
C       0.652308     0.803396    -1.596434
N       0.942698     1.387665    -2.548748
C      -2.285523     2.172068    -0.558688
O      -3.029854     1.212284    -0.643644
C      -2.655485     3.474860    -1.218593
C      -1.861164     3.997202    -2.145863
H      -2.158608     4.882334    -2.700896
H      -0.908931     3.545017    -2.405859
C      -4.015837     4.002830    -0.861145
H      -4.067284     4.273418     0.199766
H      -4.768109     3.227805    -1.032642
H      -4.258991     4.884501    -1.457803
N      -1.090996     2.099388     0.116228
C      -0.211415     3.228435     0.403516
H      -0.791884     4.149085     0.434012
H       0.580969     3.337136    -0.344022
H       0.244802     3.069144     1.384013
C       0.074902    -1.136319     3.482105
C       1.375905    -0.319354     3.484347
C      -0.901848    -0.600207     4.542245
H       1.836881    -0.340560     4.475315
H       1.154469     0.719224     3.225482
H       2.091191    -0.712527     2.759127
H      -1.859002    -1.127257     4.501591
H      -1.079158     0.466624     4.389268
H      -0.481327    -0.733641     5.542000
C       0.388671    -2.535536     3.834302
N       0.622066    -3.627331     4.106873
48
     -1091.833082     -1091.502050   2.89   2.51
C       1.048785    -0.764001    -0.104319
C       0.825435     0.620493     0.193530
C      -0.478267     1.073819     0.568133
C      -1.506689     0.199786     0.673362
C      -1.365938    -1.265343     0.412809
C       0.020412    -1.643438    -0.006538
C       2.392145    -1.233930    -0.545451
C       3.027686    -2.271165     0.135740
C       4.271370    -2.729674    -0.279596
C       4.891570    -2.156401    -1.383397
C       4.261933    -1.123343    -2.067992
C       3.019352    -0.664329    -1.652499
H      -2.486237     0.566890     0.960048
H      -2.052252    -1.535966    -0.406433
H       0.202912    -2.675535    -0.284218
H       2.547645    -2.713573     1.003659
H       4.756898    -3.535453     0.261754
H       5.863435    -2.513089    -1.708973
H       4.740662    -0.669469    -2.929534
H       2.533450     0.140323    -2.194337
C       1.883223     1.567020     0.099539
N       2.732419     2.345242     0.030508
C      -1.652391     3.204332     0.246345
O      -2.068087     4.224632     0.759940
C      -2.153360     2.732929    -1.095977
C      -3.467827     2.670552    -1.274342
H      -3.897238     2.364508    -2.223711
H      -4.151799     2.932943    -0.473529
C      -1.144844     2.446047    -2.178417
H      -1.647175     2.368050    -3.144877
H      -0.600219     1.514009    -2.003439
H      -0.402988     3.248872    -2.236011
N      -0.658681     2.458164     0.847459
C      -0.138473     2.948018     2.125490
H      -0.883446     2.835512     2.920458
H       0.115294     4.003034     2.032403
H       0.757762     2.383003     2.384240
C      -1.856817    -2.114872     1.649740
C      -1.837952    -3.619988     1.334846
C      -1.016620    -1.812138     2.899682
H      -2.324852    -4.176984     2.139019
H      -0.809692    -3.978190     1.250557
H      -2.365970    -3.836466     0.402119
H      -1.071633    -0.754776     3.166837
H       0.028938    -2.067501     2.709217
H      -1.371332    -2.403004     3.748168
C      -3.258933    -1.733231     1.913125
N      -4.352542    -1.436865     2.105685
48
     -1091.834397     -1091.502023   2.07   2.53
C       0.601177    -0.676524    -0.391732
C       0.302634     0.425752     0.474007
C      -1.054348     0.723206     0.811951
C      -2.038742    -0.148082     0.494114
C      -1.756598    -1.490605    -0.107610
C      -0.379633    -1.558319    -0.699010
C       1.964560    -0.808422    -0.972994
C       2.540654     0.265858    -1.649927
C       3.805231     0.145028    -2.209138
C       4.506879    -1.050219    -2.096970
C       3.937772    -2.124059    -1.422228
C       2.671570    -2.004044    -0.863794
H      -3.063611     0.117284     0.727972
H      -2.491801    -1.695373    -0.898265
H      -0.159098    -2.361765    -1.393157
H       1.992005     1.198829    -1.741591
H       4.244532     0.987906    -2.732776
H       5.496134    -1.144008    -2.533280
H       4.481627    -3.058575    -1.328025
H       2.231691    -2.837644    -0.324533
C       1.339255     1.245810     0.992674
N       2.163726     1.926558     1.425912
C      -0.977474     3.176366     1.083550
O      -1.003873     4.125190     1.843726
C      -0.581947     3.375255    -0.358263
C      -1.282304     2.832523    -1.349390
H      -1.046991     3.057457    -2.385513
H      -2.129952     2.180296    -1.170007
C       0.543807     4.348374    -0.569001
H       0.720250     4.506230    -1.635264
H       1.466148     3.990309    -0.101976
H       0.294348     5.301760    -0.096128
N      -1.354877     1.920836     1.513420
C      -1.751076     1.795844     2.918900
H      -0.887136     1.923477     3.578104
H      -2.175992     0.803229     3.072917
H      -2.488496     2.560800     3.161640
C      -1.989191    -2.640296     0.954744
C      -3.442567    -2.629914     1.457144
C      -1.658100    -4.018786     0.361657
H      -3.687412    -1.700160     1.973175
H      -3.604770    -3.455086     2.154981
H      -4.126104    -2.754600     0.611839
H      -1.893519    -4.804911     1.083407
H      -0.601731    -4.103529     0.101734
H      -2.257746    -4.187977    -0.538099
C      -1.093112    -2.378406     2.095708
N      -0.397742    -2.153104     2.982081
48
     -1091.832044     -1091.501917   3.54   2.59
C       0.474627    -1.250445    -0.263388
C       0.597375     0.124796     0.114621
C      -0.572577     0.932416     0.268539
C      -1.805735     0.396763     0.167497
C      -2.030895    -1.066079    -0.054701
C      -0.761400    -1.802404    -0.358811
C       1.689810    -2.054726    -0.569999
C       1.888415    -3.292872     0.039289
C       3.014168    -4.051164    -0.255645
C       3.952508    -3.579320    -1.166036
C       3.758859    -2.346513    -1.778608
C       2.634274    -1.587926    -1.483446
H      -2.674484     1.039680     0.263281
H      -2.704534    -1.181333    -0.917213
H      -0.840562    -2.830592    -0.694561
H       1.161051    -3.657729     0.758587
H       3.158773    -5.011820     0.228546
H       4.832832    -4.170419    -1.397267
H       4.487588    -1.971128    -2.489635
H       2.485710    -0.628626    -1.968467
C       1.862170     0.724860     0.354759
N       2.861840     1.256237     0.578206
C       0.127095     3.099878    -0.442194
O       0.351916     2.644540    -1.547624
C       0.454763     4.537645    -0.131370
C      -0.507663     5.444600    -0.022836
H      -0.276803     6.494930     0.128699
H      -1.556670     5.174460    -0.102362
C       1.927772     4.824268    -0.070204
H       2.405267     4.232769     0.718898
H       2.113509     5.884491     0.113008
H       2.399825     4.531430    -1.012640
N      -0.406161     2.321828     0.556925
C      -0.507021     2.706156     1.960819
H      -0.440725     3.787608     2.052771
H       0.295641     2.248369     2.550573
H      -1.471391     2.376699     2.358883
C      -2.804513    -1.719327     1.158882
C      -3.182614    -3.177597     0.852028
C      -1.986926    -1.635019     2.456550
H      -2.286042    -3.800161     0.811648
H      -3.710919    -3.257176    -0.101872
H      -3.833495    -3.571326     1.636602
H      -2.545291    -2.077358     3.285855
H      -1.753119    -0.599125     2.709803
H      -1.048840    -2.182110     2.335424
C      -4.057341    -0.958694     1.337960
N      -5.032293    -0.364022     1.467082
48
     -1091.833890     -1091.501882   2.38   2.62
C      -0.076523    -1.207545    -0.703872
C       0.392578     0.130817    -0.904272
C      -0.334589     1.233783    -0.354920
C      -1.435503     1.020903     0.402546
C      -1.923663    -0.342558     0.777297
C      -1.173919    -1.425236     0.062304
C       0.638165    -2.355965    -1.328568
C       1.983499    -2.589204    -1.048455
C       2.639934    -3.671151    -1.619166
C       1.959226    -4.530810    -2.473855
C       0.616942    -4.304048    -2.754763
C      -0.041006    -3.221923    -2.183404
H      -1.986238     1.881951     0.760460
H      -2.987517    -0.413577     0.498504
H      -1.516028    -2.446337     0.186210
H       2.516741    -1.924263    -0.376919
H       3.688111    -3.841616    -1.396078
H       2.473933    -5.375603    -2.920193
H       0.079489    -4.970350    -3.422062
H      -1.087415    -3.038771    -2.408568
C       1.558162     0.389455    -1.677199
N       2.502006     0.614586    -2.301705
C       0.362719     3.493129     0.306824
O       0.352704     4.682175     0.054950
C       0.731951     2.969346     1.671325
C       0.018453     3.370604     2.716607
H       0.256182     3.035482     3.721828
H      -0.814857     4.056948     2.596702
C       1.952235     2.093799     1.763902
H       2.822955     2.627634     1.368301
H       1.845304     1.172004     1.187320
H       2.144403     1.814427     2.800319
N       0.094583     2.554046    -0.668839
C      -0.188980     3.044971    -2.017747
H      -0.160159     2.205489    -2.713500
H       0.566804     3.775955    -2.302006
H      -1.173604     3.522352    -2.063161
C      -1.934620    -0.567067     2.340371
C      -2.703407     0.559488     3.051701
C      -2.570280    -1.923018     2.692270
H      -3.716041     0.633173     2.642743
H      -2.203644     1.522768     2.941240
H      -2.780315     0.341320     4.119767
H      -3.582689    -1.975544     2.280357
H      -2.634161    -2.033597     3.777423
H      -1.987075    -2.760122     2.305818
C      -0.543900    -0.567409     2.830565
N       0.531293    -0.583679     3.234261
48
     -1091.833988     -1091.501714   2.32   2.72
C      -0.210259    -1.101190    -0.458045
C       0.197979     0.242753    -0.732054
C      -0.543336     1.341928    -0.193180
C      -1.649452     1.121545     0.553037
C      -2.156657    -0.244357     0.896731
C      -1.319306    -1.327184     0.287833
C       0.576458    -2.243777    -1.001123
C       1.935923    -2.360734    -0.716216
C       2.665240    -3.434315    -1.208734
C       2.043711    -4.401387    -1.990536
C       0.688197    -4.290144    -2.277331
C      -0.042392    -3.216581    -1.783739
H      -2.200648     1.983485     0.910473
H      -3.184527    -0.337148     0.506312
H      -1.613780    -2.355228     0.462991
H       2.422351    -1.610534    -0.100845
H       3.723319    -3.514599    -0.981752
H       2.614919    -5.239771    -2.376054
H       0.197104    -5.040371    -2.888898
H      -1.099039    -3.123205    -2.015901
C       1.283051     0.506763    -1.610238
N       2.158190     0.745001    -2.323271
C       1.083915     3.207813    -0.267200
O       1.452890     4.215574    -0.839799
C       1.960324     2.555966     0.767884
C       1.463572     2.156536     1.934125
H       2.104316     1.760897     2.715154
H       0.408445     2.228717     2.169198
C       3.427068     2.551861     0.438052
H       3.759777     3.573561     0.236975
H       3.628072     1.964547    -0.462679
H       4.003283     2.139339     1.268905
N      -0.165286     2.674271    -0.522309
C      -0.981931     3.366642    -1.521422
H      -0.967101     4.437471    -1.321314
H      -2.004786     2.991816    -1.456951
H      -0.595496     3.197833    -2.532061
C      -2.331476    -0.448032     2.452150
C      -3.188438     0.672862     3.065860
C      -2.985867    -1.806902     2.757539
H      -2.693276     1.643272     3.009579
H      -3.383415     0.458224     4.119256
H      -4.148790     0.734464     2.544554
H      -3.945533    -1.880838     2.237020
H      -3.168933    -1.898186     3.830771
H      -2.355054    -2.644014     2.456140
C      -0.998406    -0.419803     3.082521
N       0.033741    -0.404863     3.586544
48
     -1091.833828     -1091.501677   2.42   2.74
C       0.629954    -0.524451    -0.547629
C       0.262192     0.478906     0.406150
C      -1.092116     0.577377     0.855020
C      -1.997925    -0.363474     0.503319
C      -1.626663    -1.592206    -0.265902
C      -0.277742    -1.464578    -0.906046
C       1.995207    -0.530802    -1.144258
C       2.153419    -0.441926    -2.526053
C       3.422945    -0.463441    -3.090240
C       4.544650    -0.576867    -2.277111
C       4.390880    -0.668867    -0.898508
C       3.122833    -0.646523    -0.333251
H      -3.022545    -0.243059     0.836431
H      -2.381072    -1.781826    -1.042434
H       0.006309    -2.201564    -1.648850
H       1.276262    -0.345237    -3.158992
H       3.535350    -0.390062    -4.167309
H       5.536727    -0.593390    -2.716839
H       5.262195    -0.756842    -0.257798
H       3.008192    -0.724335     0.742835
C       1.210731     1.430068     0.867312
N       1.963215     2.213343     1.255963
C      -1.340004     2.976017     1.416335
O      -1.398870     3.820596     2.289572
C      -1.177205     3.389929    -0.023664
C      -1.924987     2.855671    -0.984209
H      -1.867717     3.224698    -2.003949
H      -2.638826     2.063139    -0.788807
C      -0.242082     4.546377    -0.239189
H       0.774263     4.293714     0.076297
H      -0.566226     5.394581     0.369407
H      -0.228047     4.836963    -1.291722
N      -1.473337     1.637797     1.722828
C      -1.651884     1.299768     3.138050
H      -1.936936     0.249438     3.211859
H      -2.430250     1.930247     3.567211
H      -0.725739     1.461242     3.698503
C      -1.688322    -2.870131     0.669462
C      -3.101316    -3.057228     1.246603
C      -1.270083    -4.138756    -0.091068
H      -3.823672    -3.152243     0.430187
H      -3.396136    -2.220334     1.881505
H      -3.142920    -3.967699     1.849490
H      -0.225492    -4.097975    -0.403346
H      -1.900374    -4.263294    -0.977071
H      -1.398156    -5.017012     0.546571
C      -0.746430    -2.641507     1.780515
N      -0.012125    -2.433618     2.639394
48
     -1091.831160     -1091.501646   4.10   2.76
C       1.081062    -0.372408    -0.306297
C       0.694704     0.675017     0.589570
C      -0.677290     0.823777     0.966759
C      -1.614994    -0.040106     0.515084
C      -1.296306    -1.215712    -0.353357
C       0.144880    -1.241560    -0.762447
C       2.496412    -0.497744    -0.755691
C       3.141321     0.562281    -1.390383
C       4.454066     0.426504    -1.821518
C       5.135645    -0.768756    -1.622872
C       4.497943    -1.829054    -0.989576
C       3.184212    -1.694205    -0.558923
H      -2.645667     0.121855     0.805868
H      -1.916429    -1.165452    -1.262886
H       0.455080    -1.997314    -1.474741
H       2.614917     1.497597    -1.549979
H       4.946605     1.259493    -2.312400
H       6.162123    -0.872904    -1.959438
H       5.024574    -2.764249    -0.827871
H       2.688399    -2.517362    -0.053243
C       1.650219     1.606263     1.081248
N       2.414376     2.370858     1.484961
C      -2.027791     2.787738     1.538685
O      -2.628189     3.385511     2.410270
C      -2.299996     3.035893     0.075895
C      -3.570349     3.076600    -0.309572
H      -3.844479     3.274848    -1.341597
H      -4.372856     2.920966     0.404276
C      -1.136001     3.300835    -0.846074
H      -0.620771     2.381658    -1.138635
H      -0.396855     3.948742    -0.364540
H      -1.488370     3.793185    -1.754931
N      -1.025732     1.888688     1.846248
C      -0.726500     1.672199     3.263548
H       0.237159     1.168620     3.349725
H      -1.499578     1.059221     3.739556
H      -0.680853     2.634741     3.770262
C      -1.733936    -2.571061     0.332308
C      -3.235995    -2.558284     0.666137
C      -1.426665    -3.775830    -0.573170
H      -3.815788    -2.370620    -0.242839
H      -3.484475    -1.797208     1.407185
H      -3.535838    -3.528108     1.070324
H      -1.814742    -4.691055    -0.119734
H      -0.355104    -3.908289    -0.728005
H      -1.911197    -3.642198    -1.545306
C      -0.972707    -2.713355     1.587445
N      -0.382077    -2.822947     2.566810
48
     -1091.832290     -1091.501603   3.39   2.79
C       0.544225    -1.231458     0.073426
C       0.538234     0.188560     0.234002
C      -0.694911     0.913692     0.160615
C      -1.874366     0.275891     0.029725
C      -1.979207    -1.216298    -0.013090
C      -0.638880    -1.884939    -0.059779
C       1.829789    -1.982880     0.036670
C       2.013602    -3.100485     0.849920
C       3.206315    -3.811153     0.810789
C       4.227112    -3.413144    -0.044652
C       4.047896    -2.302476    -0.861014
C       2.856104    -1.591255    -0.821921
H      -2.773985     0.871771    -0.073585
H      -2.525768    -1.494063    -0.927521
H      -0.630968    -2.959678    -0.210474
H       1.219262    -3.409108     1.522982
H       3.338357    -4.677320     1.451526
H       5.159670    -3.967442    -0.075472
H       4.839866    -1.985664    -1.531766
H       2.719811    -0.729018    -1.466414
C       1.730181     0.920414     0.480911
N       2.665616     1.559945     0.700344
C      -0.179201     2.997655    -0.880548
O       0.059306     2.403977    -1.914771
C       0.057934     4.482571    -0.772288
C      -0.948239     5.337644    -0.900334
H      -0.780927     6.410619    -0.884325
H      -1.969443     4.997452    -1.044897
C       1.502031     4.860433    -0.602932
H       2.088014     4.467784    -1.439493
H       1.918047     4.416385     0.308227
H       1.620341     5.945007    -0.559560
N      -0.645375     2.341083     0.233441
C      -0.734897     2.933711     1.564663
H       0.171520     2.742828     2.150794
H      -1.592317     2.501443     2.087445
H      -0.883137     4.008249     1.479440
C      -2.858523    -1.774231     1.174615
C      -2.212828    -1.477848     2.536385
C      -4.285836    -1.204643     1.118691
H      -1.206590    -1.897039     2.597190
H      -2.816164    -1.902589     3.343053
H      -2.147540    -0.396991     2.683186
H      -4.918224    -1.699371     1.860001
H      -4.733720    -1.355297     0.132718
H      -4.275097    -0.135412     1.341918
C      -2.953825    -3.237533     1.001807
N      -3.029884    -4.375145     0.857454
48
     -1091.832290     -1091.501603   3.39   2.79
C       1.451626    -0.130772     0.197629
C       0.230509     0.530528     0.535016
C      -0.989444     0.161942    -0.118990
C      -1.032815    -0.863680    -0.991488
C       0.167598    -1.699423    -1.307720
C       1.419946    -1.165798    -0.681139
C       2.743041     0.318238     0.788644
C       3.118125     1.660092     0.737520
C       4.328570     2.071361     1.279195
C       5.178130     1.147199     1.876123
C       4.811845    -0.192754     1.926893
C       3.601382    -0.604930     1.384641
H      -1.968335    -1.069670    -1.498861
H       0.309140    -1.694305    -2.399517
H       2.351903    -1.648066    -0.958107
H       2.462269     2.385287     0.267049
H       4.607513     3.119100     1.235281
H       6.123478     1.470318     2.300119
H       5.469590    -0.920700     2.391317
H       3.313918    -1.651121     1.430294
C       0.177804     1.550199     1.522331
N       0.076745     2.370885     2.327595
C      -2.249747     2.173869    -0.356970
O      -1.418784     2.582554    -1.145282
C      -3.390040     3.054874     0.086292
C      -4.591227     2.931242    -0.463067
H      -5.404379     3.599571    -0.195398
H      -4.799307     2.172741    -1.211978
C      -3.002443     4.092039     1.101643
H      -2.202651     4.722011     0.700584
H      -2.607502     3.622183     2.009231
H      -3.855962     4.719898     1.365236
N      -2.170245     0.911166     0.180287
C      -2.985434     0.434217     1.293563
H      -3.170837    -0.635381     1.163526
H      -3.940182     0.956022     1.300019
H      -2.484057     0.593378     2.255263
C      -0.061557    -3.216424    -0.931886
C      -0.260399    -3.394496     0.580710
C      -1.254508    -3.801999    -1.705678
H      -0.381003    -4.453065     0.825696
H      -1.159237    -2.859787     0.897317
H       0.590944    -3.002875     1.140873
H      -2.187351    -3.350805    -1.360095
H      -1.317963    -4.880379    -1.540508
H      -1.153886    -3.626472    -2.780158
C       1.146472    -3.959023    -1.343483
N       2.086695    -4.532085    -1.672671
48
     -1091.832816     -1091.501541   3.06   2.83
C       1.376924    -0.075196    -0.367513
C       0.318455     0.570336     0.349541
C      -1.004398     0.029616     0.314860
C      -1.257005    -1.148593    -0.291573
C      -0.180031    -1.979817    -0.914758
C       1.135254    -1.264025    -0.974782
C       2.717935     0.565104    -0.460847
C       2.841654     1.886882    -0.887305
C       4.094201     2.477009    -0.987799
C       5.236748     1.754073    -0.664583
C       5.120634     0.435632    -0.240094
C       3.867675    -0.155390    -0.140204
H      -2.275796    -1.519627    -0.331725
H      -0.484974    -2.213230    -1.946093
H       1.931975    -1.716416    -1.555057
H       1.953443     2.454314    -1.145605
H       4.176762     3.507135    -1.318722
H       6.215038     2.217386    -0.742737
H       6.007619    -0.135162     0.016142
H       3.777282    -1.182250     0.201746
C       0.547112     1.739812     1.123285
N       0.690759     2.678282     1.779536
C      -2.447591     1.928581     0.330951
O      -2.065197     2.210751    -0.790124
C      -3.365207     2.862623     1.074838
C      -2.973040     3.403873     2.221909
H      -3.579258     4.152919     2.723053
H      -2.020989     3.148584     2.676948
C      -4.627515     3.223400     0.344303
H      -5.190166     3.981936     0.892453
H      -5.267750     2.344559     0.205921
H      -4.380745     3.602164    -0.651615
N      -2.048307     0.768544     0.948827
C      -2.552361     0.268554     2.221870
H      -1.883313     0.521586     3.051858
H      -2.643699    -0.819032     2.160987
H      -3.535461     0.690242     2.423149
C      -0.045366    -3.383394    -0.201141
C       0.934934    -4.294857    -0.957466
C       0.383295    -3.229346     1.265682
H       0.913612    -5.302999    -0.536279
H       1.953826    -3.911712    -0.867318
H       0.675515    -4.361968    -2.017434
H       1.360480    -2.742758     1.313420
H       0.457101    -4.209628     1.743988
H      -0.332155    -2.624103     1.825617
C      -1.375515    -4.023062    -0.241940
N      -2.412980    -4.515834    -0.283038
48
     -1091.832147     -1091.501476   3.48   2.87
C       0.637203    -0.724688    -0.408003
C       0.499492     0.429548     0.427402
C      -0.798522     0.851409     0.858958
C      -1.878329     0.071473     0.635483
C      -1.768718    -1.299199     0.041045
C      -0.443329    -1.513393    -0.627778
C       1.946815    -1.027536    -1.047285
C       2.605222    -0.054991    -1.798807
C       3.819325    -0.342812    -2.407242
C       4.388105    -1.604113    -2.270563
C       3.736899    -2.576963    -1.521039
C       2.521418    -2.290134    -0.913082
H      -2.850662     0.431924     0.951729
H      -2.570034    -1.442611    -0.697168
H      -0.341856    -2.357009    -1.301420
H       2.162517     0.929746    -1.910116
H       4.323429     0.422269    -2.988692
H       5.337853    -1.827783    -2.745675
H       4.177048    -3.562471    -1.406744
H       2.019276    -3.044873    -0.315283
C       1.635491     1.176787     0.838763
N       2.542167     1.798101     1.189307
C      -0.717518     3.301830     0.963737
O      -0.619908     4.321424     1.615893
C      -0.689880     3.320198    -0.546766
C       0.456688     3.528944    -1.181494
H       0.493589     3.583175    -2.265898
H       1.388171     3.663049    -0.641312
C      -2.023949     3.191075    -1.231694
H      -1.907423     3.269732    -2.314691
H      -2.697031     3.986271    -0.893528
H      -2.506125     2.236114    -1.001495
N      -0.931443     2.080850     1.564022
C      -0.952107     2.021051     3.026940
H       0.059490     2.098894     3.438205
H      -1.390899     1.069250     3.331202
H      -1.548453     2.848726     3.410157
C      -2.039362    -2.404681     1.141300
C      -3.440685    -2.236900     1.752034
C      -1.899096    -3.818018     0.554162
H      -4.196568    -2.293803     0.962869
H      -3.546000    -1.283928     2.272761
H      -3.634223    -3.036348     2.471447
H      -0.880269    -4.017644     0.218607
H      -2.579923    -3.935108    -0.294636
H      -2.159446    -4.565186     1.307974
C      -1.033976    -2.221621     2.203994
N      -0.248401    -2.053436     3.025239
48
     -1091.832220     -1091.501113   3.43   3.10
C       1.360466    -0.040932    -0.373215
C       0.298469     0.561336     0.375409
C      -1.015726     0.001989     0.327370
C      -1.264769    -1.137082    -0.350954
C      -0.194391    -1.902726    -1.061537
C       1.120177    -1.184212    -1.062976
C       2.713376     0.582655    -0.402504
C       3.312452     0.890229    -1.623258
C       4.580086     1.457135    -1.662466
C       5.262522     1.720723    -0.480670
C       4.670609     1.415208     0.739364
C       3.403452     0.849000     0.779295
H      -2.280004    -1.517106    -0.395277
H      -0.511410    -2.038584    -2.107108
H       1.930450    -1.613654    -1.641846
H       2.774353     0.694480    -2.545989
H       5.034345     1.695204    -2.619115
H       6.252636     2.164162    -0.510297
H       5.195831     1.620034     1.666561
H       2.949069     0.611211     1.735413
C       0.498696     1.741256     1.141308
N       0.622224     2.686113     1.792501
C      -2.549040     1.826944     0.435385
O      -2.239907     2.135859    -0.700943
C      -3.471829     2.709140     1.234445
C      -3.048307     3.259904     2.365720
H      -3.663574     3.974672     2.904500
H      -2.063112     3.047680     2.769405
C      -4.785569     3.014137     0.572387
H      -4.608104     3.411955    -0.430829
H      -5.355177     3.740423     1.155917
H      -5.389289     2.106526     0.457645
N      -2.061653     0.684274     1.020844
C      -2.472708     0.147309     2.311911
H      -1.770002     0.416867     3.108326
H      -2.522834    -0.942425     2.238679
H      -3.459540     0.525148     2.573234
C      -0.049338    -3.366346    -0.484081
C       0.917625    -4.205307    -1.335859
C       0.402864    -3.345915     0.983877
H       0.643757    -4.172040    -2.393813
H       0.896466    -5.248392    -1.010706
H       1.939730    -3.836999    -1.223554
H       1.381491    -2.865819     1.060010
H       0.482415    -4.365596     1.369964
H      -0.303591    -2.794341     1.607251
C      -1.380191    -4.001053    -0.562026
N      -2.418107    -4.489723    -0.631254
48
     -1091.830629     -1091.500535   4.43   3.46
C      -0.202956    -1.448410    -0.501630
C       0.393100    -0.143522    -0.518109
C      -0.382581     1.000428    -0.155904
C      -1.623601     0.850434     0.356357
C      -2.184340    -0.491720     0.699673
C      -1.446272    -1.602636     0.014585
C       0.548981    -2.619742    -1.028348
C       0.755442    -3.732365    -0.213910
C       1.448234    -4.835236    -0.697110
C       1.940071    -4.835911    -1.997352
C       1.740173    -3.726604    -2.811347
C       1.049398    -2.622998    -2.329230
H      -2.199407     1.734164     0.599369
H      -3.243503    -0.517451     0.410120
H      -1.899235    -2.587707    -0.004490
H       0.386922    -3.718877     0.807297
H       1.606711    -5.695550    -0.054457
H       2.481103    -5.697740    -2.374700
H       2.125367    -3.718608    -3.825785
H       0.894542    -1.758786    -2.967550
C       1.759164     0.033211    -0.870131
N       2.862392     0.221307    -1.152843
C       0.332527     3.129336     0.728795
O      -0.069200     2.850605     1.842070
C       1.096650     4.404497     0.472141
C       0.463904     5.516550     0.123752
H       1.002361     6.448157    -0.022605
H      -0.613412     5.541717    -0.010840
C       2.575355     4.295231     0.722957
H       3.024534     3.508276     0.107408
H       2.754725     4.023138     1.768153
H       3.078506     5.240822     0.510797
N       0.185095     2.291845    -0.350876
C       0.583614     2.683826    -1.705430
H       1.658891     2.856334    -1.781316
H       0.048193     3.582234    -2.019519
H       0.320970     1.871086    -2.383296
C      -2.199595    -0.728333     2.269119
C      -2.691765     0.519565     3.020024
C      -3.088645    -1.935989     2.610208
H      -2.782072     0.299352     4.086941
H      -3.678696     0.810693     2.645983
H      -2.001657     1.356043     2.898157
H      -4.115072    -1.738403     2.287504
H      -3.093775    -2.108567     3.689298
H      -2.738138    -2.849038     2.124860
C      -0.823670    -1.030758     2.707695
N       0.237915    -1.300345     3.054879
48
     -1091.830629     -1091.500249   4.43   3.64
C       1.313736    -0.527271    -0.669352
C       0.671445     0.480659     0.124298
C      -0.705965     0.791282    -0.094080
C      -1.453138     0.035351    -0.928000
C      -0.931113    -1.224068    -1.540412
C       0.566446    -1.289467    -1.504027
C       2.782057    -0.742666    -0.557707
C       3.677188     0.305115    -0.766588
C       5.045001     0.087868    -0.669449
C       5.531132    -1.177384    -0.359730
C       4.642330    -2.224392    -0.144503
C       3.273528    -2.008867    -0.242996
H      -2.487481     0.307076    -1.094980
H      -1.279066    -1.282963    -2.580474
H       1.065488    -2.028416    -2.121122
H       3.300995     1.294018    -1.009154
H       5.733021     0.910676    -0.834181
H       6.600483    -1.346042    -0.282946
H       5.015299    -3.212994     0.104120
H       2.574718    -2.818516    -0.055975
C       1.379460     1.168661     1.147364
N       1.917874     1.753071     1.984614
C      -2.335045     1.723574     1.423627
O      -2.887005     0.648793     1.560109
C      -2.754316     2.924171     2.235148
C      -3.684075     3.756038     1.785742
H      -4.020559     4.599079     2.381812
H      -4.154248     3.616512     0.816816
C      -2.088446     3.019184     3.580138
H      -2.419108     3.910272     4.117666
H      -0.997903     3.048633     3.481184
H      -2.330111     2.133449     4.176559
N      -1.262437     1.912328     0.585329
C      -0.672780     3.233803     0.354500
H      -1.419033     3.924070    -0.044366
H       0.124066     3.124189    -0.381741
H      -0.239816     3.652883     1.264808
C      -1.553846    -2.507091    -0.843651
C      -3.064507    -2.341845    -0.611457
C      -1.283633    -3.754716    -1.701296
H      -3.483760    -3.271867    -0.218721
H      -3.561756    -2.116225    -1.560422
H      -3.273061    -1.542092     0.101063
H      -0.214984    -3.924131    -1.847417
H      -1.757649    -3.636498    -2.680104
H      -1.702832    -4.641896    -1.220228
C      -0.893269    -2.693743     0.462385
N      -0.361661    -2.867278     1.466096
48
     -1091.831598     -1091.499639   3.82   4.02
C       1.185751     0.076589    -0.268374
C       0.209728     1.042892     0.145045
C      -1.164147     0.871401    -0.217926
C      -1.525398    -0.106939    -1.081272
C      -0.541926    -1.035769    -1.722272
C       0.826794    -0.910713    -1.125602
C       2.579382     0.163918     0.247181
C       3.661631     0.131990    -0.630684
C       4.962050     0.196346    -0.146854
C       5.193342     0.291640     1.220353
C       4.118007     0.324953     2.100788
C       2.818305     0.261713     1.617812
H      -2.571618    -0.209065    -1.351624
H      -0.464529    -0.755295    -2.788789
H       1.585846    -1.620733    -1.432885
H       3.481389     0.071444    -1.699813
H       5.796514     0.174167    -0.840538
H       6.209243     0.342170     1.598745
H       4.290656     0.402860     3.169310
H       1.982389     0.288910     2.310141
C       0.603209     2.214927     0.847687
N       0.908884     3.179569     1.401422
C      -2.286560     2.040470     1.638662
O      -2.873177     3.038058     2.007856
C      -1.751713     1.032236     2.626162
C      -1.121978     1.508870     3.693500
H      -0.735484     0.848469     4.464566
H      -0.970110     2.575123     3.817595
C      -2.009989    -0.440534     2.413609
H      -2.022092    -0.952880     3.378230
H      -1.237257    -0.905136     1.796270
H      -2.973905    -0.609196     1.923529
N      -2.138504     1.772301     0.289920
C      -2.707359     2.744390    -0.645014
H      -2.104825     3.658146    -0.675736
H      -3.715591     3.005306    -0.325745
H      -2.737990     2.295999    -1.639372
C      -1.056035    -2.521347    -1.741399
C      -0.103695    -3.433115    -2.534339
C      -1.262839    -3.064207    -0.319261
H      -0.565131    -4.411735    -2.687050
H       0.828479    -3.583693    -1.985684
H       0.126959    -3.008045    -3.514986
H      -0.324404    -2.999106     0.238557
H      -1.576276    -4.110717    -0.353916
H      -2.026019    -2.493885     0.212374
C      -2.355836    -2.524473    -2.442496
N      -3.364110    -2.517821    -2.993972
48
     -1091.831659     -1091.499626   3.78   4.03
C       0.877135    -0.656432    -0.298373
C       0.565298     0.740401    -0.266079
C      -0.798155     1.171946    -0.372775
C      -1.778011     0.285213    -0.662741
C      -1.513335    -1.166337    -0.915687
C      -0.103911    -1.550386    -0.580382
C       2.265010    -1.118467    -0.022393
C       2.944998    -0.674566     1.111364
C       4.233230    -1.118805     1.375934
C       4.856083    -2.011582     0.511442
C       4.183581    -2.458195    -0.620129
C       2.894287    -2.014684    -0.884906
H      -2.791070     0.658948    -0.757509
H      -1.656285    -1.350345    -1.996363
H       0.141110    -2.607347    -0.603377
H       2.463735     0.021947     1.790989
H       4.752585    -0.763962     2.260230
H       5.863680    -2.357615     0.718388
H       4.664374    -3.153351    -1.301012
H       2.372793    -2.355770    -1.774105
C       1.598578     1.715438    -0.207176
N       2.424566     2.520145    -0.177948
C      -0.714857     3.299414     0.868718
O      -0.692955     4.512457     0.810772
C      -0.376143     2.566109     2.143400
C       0.687290     2.988281     2.817093
H       0.978575     2.531926     3.758858
H       1.299167     3.798380     2.436681
C      -1.274890     1.457214     2.636989
H      -1.204574     1.385902     3.724665
H      -0.994158     0.487838     2.218077
H      -2.320369     1.644581     2.372715
N      -1.104043     2.552542    -0.228752
C      -1.454001     3.295447    -1.440930
H      -1.939733     2.613349    -2.140646
H      -0.561863     3.723025    -1.909789
H      -2.132872     4.108105    -1.184804
C      -2.562756    -2.102647    -0.213269
C      -2.500702    -1.970527     1.315973
C      -3.988417    -1.824104    -0.720587
H      -1.489174    -2.152261     1.687037
H      -3.177152    -2.687425     1.788207
H      -2.805044    -0.962987     1.607669
H      -4.334683    -0.847544    -0.375017
H      -4.677048    -2.580230    -0.335741
H      -4.030942    -1.847717    -1.812854
C      -2.229021    -3.492769    -0.584109
N      -1.969230    -4.571758    -0.882334
48
     -1091.831659     -1091.499623   3.78   4.03
C       0.883597    -0.595964    -0.455244
C       0.667886     0.799796    -0.221228
C      -0.660740     1.337102    -0.272578
C      -1.694171     0.573058    -0.695394
C      -1.525558    -0.841295    -1.156062
C      -0.151643    -1.368201    -0.871242
C       2.231682    -1.189655    -0.240692
C       2.812377    -1.992891    -1.220854
C       4.063588    -2.559728    -1.015310
C       4.746053    -2.330843     0.173819
C       4.171492    -1.531743     1.155477
C       2.921386    -0.964284     0.950251
H      -2.677468     1.026909    -0.741078
H      -1.662654    -0.855737    -2.252945
H       0.020595    -2.425194    -1.046827
H       2.283693    -2.163506    -2.153781
H       4.506934    -3.180524    -1.787360
H       5.723926    -2.773274     0.334553
H       4.699054    -1.346696     2.085561
H       2.477690    -0.341918     1.721240
C       1.764569     1.680763    -0.013778
N       2.643273     2.412532     0.138050
C      -0.452002     3.250421     1.266858
O      -0.345550     4.454417     1.386726
C      -0.185896     2.317810     2.423031
C       0.892531     2.561876     3.158163
H       1.135957     1.954312     4.025130
H       1.564850     3.373544     2.904112
C      -1.166828     1.215077     2.743523
H      -2.192463     1.512241     2.503212
H      -1.119318     0.981356     3.809441
H      -0.946824     0.299649     2.188934
N      -0.873536     2.700155     0.069675
C      -1.151260     3.634070    -1.023214
H      -1.671163     3.096845    -1.818128
H      -0.224103     4.061129    -1.418901
H      -1.776672     4.446796    -0.655504
C      -2.648408    -1.793577    -0.604954
C      -2.603026    -1.889868     0.927537
C      -4.042886    -1.344640    -1.075424
H      -3.334939    -2.618364     1.285485
H      -2.842255    -0.916531     1.361404
H      -1.612727    -2.194378     1.274649
H      -4.788147    -2.098332    -0.809756
H      -4.068638    -1.206176    -2.159663
H      -4.327041    -0.406773    -0.593090
C      -2.404745    -3.135025    -1.172845
N      -2.214694    -4.174768    -1.623909
48
     -1091.830193     -1091.499113   4.70   4.35
C       0.751817    -1.200089    -0.120020
C       0.430476     0.192615    -0.065298
C      -0.903325     0.604711     0.242908
C      -1.845686    -0.291960     0.594353
C      -1.525174    -1.738918     0.808712
C      -0.187559    -2.109337     0.240338
C       2.097862    -1.647426    -0.576046
C       3.249566    -1.202033     0.070511
C       4.500166    -1.634557    -0.349946
C       4.612872    -2.516373    -1.418690
C       3.467390    -2.965294    -2.065721
C       2.215515    -2.533574    -1.645336
H      -2.855513     0.059128     0.770529
H      -2.302094    -2.361340     0.343366
H       0.059021    -3.162820     0.169437
H       3.166711    -0.518585     0.909048
H       5.389860    -1.279110     0.159588
H       5.591185    -2.852729    -1.746759
H       3.547446    -3.652723    -2.901920
H       1.320327    -2.875887    -2.155956
C       1.384963     1.191773    -0.392280
N       2.130480     2.039101    -0.633356
C      -1.361967     2.551524    -1.062025
O      -1.364061     1.866166    -2.066840
C      -1.493994     4.050811    -1.150893
C      -2.656840     4.642246    -0.909850
H      -2.778545     5.714867    -1.029049
H      -3.531415     4.075332    -0.604278
C      -0.244955     4.748898    -1.608473
H       0.059392     4.360466    -2.585154
H       0.585139     4.555323    -0.920243
H      -0.404250     5.826436    -1.684167
N      -1.215633     1.998375     0.186548
C      -0.959828     2.765633     1.405499
H      -1.524769     3.695757     1.382793
H       0.105322     2.995916     1.521675
H      -1.282392     2.169946     2.261975
C      -1.597113    -2.093344     2.351359
C      -3.002093    -1.814446     2.910970
C      -1.223080    -3.562077     2.607519
H      -3.265437    -0.758053     2.841025
H      -3.051476    -2.104660     3.963338
H      -3.742125    -2.400199     2.357347
H      -1.361044    -3.804969     3.664069
H      -0.183510    -3.766565     2.347239
H      -1.871575    -4.216982     2.017412
C      -0.628898    -1.222680     3.043771
N       0.125144    -0.527737     3.562181
48
     -1091.830193     -1091.499099   4.70   4.36
C       0.677393    -1.275193    -0.079950
C       0.585132     0.130245     0.169226
C      -0.653543     0.811850    -0.042804
C      -1.773312     0.136602    -0.367964
C      -1.818507    -1.359878    -0.397497
C      -0.445964    -1.964524    -0.399207
C       1.991877    -1.972004     0.000616
C       2.469308    -2.693650    -1.091982
C       3.687656    -3.357278    -1.017651
C       4.438374    -3.307060     0.151198
C       3.964825    -2.590714     1.244410
C       2.747668    -1.926644     1.170895
H      -2.677877     0.698401    -0.568459
H      -2.363567    -1.694574    -1.291052
H      -0.359065    -3.024207    -0.611750
H       1.886299    -2.724013    -2.007650
H       4.051515    -3.913325    -1.875913
H       5.390426    -3.824757     0.209928
H       4.545600    -2.546246     2.159969
H       2.379667    -1.374057     2.028993
C       1.719298     0.897027     0.546054
N       2.608507     1.557905     0.869202
C      -0.130934     2.980473    -0.895577
O       0.242903     2.471439    -1.935051
C       0.025340     4.461828    -0.662424
C      -1.005988     5.282361    -0.814731
H      -0.891202     6.357051    -0.707951
H      -1.994905     4.912649    -1.069692
C       1.430823     4.886133    -0.344019
H       2.101677     4.581123    -1.152930
H       1.790844     4.393649     0.565944
H       1.493023     5.968528    -0.214608
N      -0.684786     2.232196     0.114197
C      -0.928795     2.725241     1.469676
H      -1.707526     2.110137     1.925381
H      -1.265355     3.759716     1.432266
H      -0.027517     2.663701     2.090145
C      -2.670969    -1.906439     0.821170
C      -4.111524    -1.371253     0.763740
C      -2.693217    -3.443187     0.845711
H      -4.577011    -1.666982    -0.181310
H      -4.145135    -0.284038     0.847654
H      -4.700710    -1.790439     1.583059
H      -3.072653    -3.822638    -0.108081
H      -3.353802    -3.795592     1.641805
H      -1.700421    -3.859823     1.021884
C      -2.030811    -1.414931     2.055490
N      -1.519732    -1.012946     3.002844
48
     -1091.830732     -1091.498930   4.37   4.47
C       1.256883    -0.037747    -0.193554
C       0.325313     0.999207     0.143913
C      -1.047616     0.878406    -0.243593
C      -1.453977    -0.157924    -1.014947
C      -0.526748    -1.214688    -1.525526
C       0.850277    -1.086079    -0.952114
C       2.672127     0.040101     0.267017
C       3.476584     1.125767    -0.075066
C       4.799292     1.176412     0.344103
C       5.332397     0.144587     1.107920
C       4.535814    -0.941381     1.450949
C       3.212605    -0.993239     1.031115
H      -2.497633    -0.213649    -1.308110
H      -0.437197    -1.076279    -2.618351
H       1.588510    -1.831414    -1.225016
H       3.068902     1.933534    -0.673432
H       5.414819     2.028142     0.073896
H       6.366231     0.187198     1.435315
H       4.943891    -1.750583     2.048249
H       2.587661    -1.838049     1.305352
C       0.753995     2.159035     0.846288
N       1.095537     3.112630     1.398189
C      -2.196646     2.308701     1.419778
O      -2.725126     3.381433     1.636768
C      -1.819486     1.379533     2.546038
C      -1.316635     1.943524     3.638093
H      -1.042406     1.351308     4.506212
H      -1.154532     3.014283     3.682099
C      -2.080183    -0.103817     2.437497
H      -2.232289    -0.520296     3.435819
H      -1.241273    -0.632505     1.978033
H      -2.973672    -0.309982     1.840463
N      -1.975100     1.894059     0.118809
C      -2.391673     2.814423    -0.941514
H      -1.720647     3.677948    -0.998026
H      -3.399004     3.173382    -0.734120
H      -2.377034     2.279777    -1.892652
C      -1.120127    -2.662214    -1.361354
C      -0.211549    -3.713913    -2.020674
C      -1.362976    -3.009821     0.114637
H      -0.720870    -4.680053    -2.053379
H       0.708415    -3.837795    -1.445248
H       0.046519    -3.429434    -3.044417
H      -0.426884    -2.916539     0.672214
H      -1.723750    -4.037287     0.208732
H      -2.102568    -2.343169     0.559339
C      -2.414941    -2.685746    -2.070870
N      -3.419503    -2.696223    -2.628987
48
     -1091.830732     -1091.498919   4.37   4.48
C      -0.059960    -1.215011    -0.196790
C      -0.236005     0.085870    -0.774464
C      -0.863727     1.124522    -0.014964
C      -1.385155     0.861403     1.206908
C      -1.366606    -0.497088     1.832498
C      -0.566052    -1.478273     1.033784
C       0.657410    -2.283595    -0.948197
C       1.777395    -2.895896    -0.387412
C       2.443852    -3.906016    -1.069557
C       1.994278    -4.315327    -2.319313
C       0.876572    -3.709975    -2.881952
C       0.210509    -2.699640    -2.201208
H      -1.871093     1.664589     1.751907
H      -2.407909    -0.866962     1.850991
H      -0.452902    -2.482977     1.424619
H       2.132899    -2.570562     0.585852
H       3.316616    -4.372526    -0.623738
H       2.513820    -5.103973    -2.854036
H       0.520853    -4.023275    -3.857983
H      -0.662785    -2.234370    -2.645744
C       0.191192     0.353009    -2.104291
N       0.516081     0.574246    -3.188769
C       0.043942     3.174435    -1.066930
O      -0.166708     4.097421    -1.829067
C       1.438249     2.856549    -0.588484
C       2.412315     2.962241    -1.484882
H       3.448935     2.776889    -1.219138
H       2.190766     3.224262    -2.512989
C       1.692745     2.510351     0.859104
H       2.709171     2.804726     1.130147
H       1.593511     1.438003     1.045175
H       0.996525     3.031531     1.523115
N      -1.009428     2.421876    -0.579529
C      -2.348175     2.791566    -1.044292
H      -3.085993     2.285598    -0.419508
H      -2.494899     2.501265    -2.089910
H      -2.473701     3.870711    -0.965026
C      -0.939356    -0.453730     3.345733
C      -1.065322    -1.840572     3.999264
C       0.485182     0.094168     3.515671
H      -0.937966    -1.756806     5.081239
H      -0.292077    -2.512414     3.620429
H      -2.045903    -2.283368     3.804404
H       0.554379     1.125182     3.167243
H       1.184734    -0.518084     2.939790
H       0.780689     0.064850     4.567580
C      -1.878615     0.451064     4.038305
N      -2.616675     1.153479     4.569934
