48
     -1091.831133     -1091.498673   0.00   0.00
C       0.177037    -0.808443    -0.436748
C      -0.005198     0.451915    -0.954785
C      -0.201599     1.598838    -0.130402
C      -0.037074     1.459269     1.271132
C       0.148102     0.245789     1.833702
C       0.048764    -1.032569     1.051867
C       0.519549    -1.963730    -1.300462
C       1.597023    -2.789001    -0.967290
C       1.914825    -3.888823    -1.751625
C       1.162298    -4.180689    -2.883965
C       0.092174    -3.363340    -3.226738
C      -0.227928    -2.264393    -2.441512
H      -0.054575     2.349793     1.889406
H       0.297946     0.161539     2.904508
H       0.849378    -1.709280     1.373898
H       2.207962    -2.558464    -0.100021
H       2.757647    -4.516775    -1.481025
H       1.412031    -5.039528    -3.498481
H      -0.498792    -3.579370    -4.110686
H      -1.071146    -1.639251    -2.714646
C       0.136723     0.697883    -2.370942
N       0.249665     0.937481    -3.490057
C       0.108121     4.021231    -0.354878
O      -0.424098     5.094277    -0.565530
C       1.492557     3.957191     0.231572
C       2.415706     3.166888    -0.305597
H       3.441074     3.181463     0.052027
H       2.195043     2.505552    -1.136901
C       1.762553     4.945128     1.330983
H       1.521158     5.955057     0.989425
H       1.132382     4.745996     2.205488
H       2.809023     4.904307     1.639693
N      -0.513599     2.839250    -0.713299
C      -1.765622     2.967556    -1.468364
H      -1.600993     3.564668    -2.365253
H      -2.108835     1.974395    -1.756618
H      -2.529638     3.454344    -0.856383
C      -1.297160    -1.796435     1.430085
C      -1.322409    -3.243876     0.908540
C      -2.535653    -1.030312     0.941553
H      -0.411728    -3.781503     1.183114
H      -2.175680    -3.772820     1.341806
H      -1.423166    -3.263292    -0.176378
H      -3.445697    -1.544651     1.261518
H      -2.556575    -0.012235     1.335184
H      -2.533107    -0.984781    -0.150480
C      -1.340291    -1.873020     2.905368
N      -1.366485    -1.944579     4.052251
48
     -1091.831133     -1091.498669  -0.00   0.00
C       0.105263    -0.694887     0.025418
C       0.703367     0.534397    -0.120207
C      -0.012146     1.688581    -0.555541
C      -1.421866     1.601410    -0.681770
C      -2.062092     0.420370    -0.545517
C      -1.332176    -0.883961    -0.399648
C       0.828418    -1.848519     0.612092
C       2.086197    -2.232833     0.141549
C       2.739740    -3.329542     0.686381
C       2.146908    -4.061154     1.708152
C       0.896212    -3.685516     2.185994
C       0.243100    -2.587802     1.643541
H      -1.984228     2.506210    -0.883486
H      -3.143224     0.377750    -0.619771
H      -1.842586    -1.494429     0.354962
H       2.555490    -1.675283    -0.661771
H       3.717319    -3.611240     0.309209
H       2.658582    -4.918298     2.133704
H       0.429359    -4.245967     2.989636
H      -0.721721    -2.290749     2.042828
C       2.068097     0.748292     0.301580
N       3.148336     0.962485     0.632919
C       0.246373     4.118984    -0.353999
O       0.609027     5.146363    -0.894399
C      -0.617814     4.167256     0.877073
C      -0.319088     3.426959     1.939173
H      -0.881516     3.522316     2.863331
H       0.510850     2.728156     1.939413
C      -1.706024     5.202923     0.848532
H      -2.437795     4.986432     0.061657
H      -2.227393     5.243102     1.806983
H      -1.278761     6.183529     0.623253
N       0.675511     2.887178    -0.812884
C       1.679620     2.907206    -1.883171
H       2.547241     3.487942    -1.570065
H       1.990291     1.884869    -2.096628
H       1.261631     3.357905    -2.787250
C      -1.454082    -1.727180    -1.745817
C      -1.001186    -3.187477    -1.572172
C      -0.685933    -1.062469    -2.898024
H      -1.269450    -3.760979    -2.463633
H       0.079072    -3.245283    -1.440733
H      -1.482202    -3.653064    -0.708675
H       0.382540    -1.048623    -2.668266
H      -0.831038    -1.628596    -3.821900
H      -1.022605    -0.037228    -3.063539
C      -2.889914    -1.763655    -2.094018
N      -4.008170    -1.803495    -2.356816
48
     -1091.830815     -1091.498342   0.20   0.21
C      -0.152988    -0.860804     0.223861
C       0.340833     0.330013     0.706460
C      -0.371971     1.555740     0.597182
C      -1.672102     1.537860     0.033191
C      -2.205464     0.403229    -0.468968
C      -1.441110    -0.885746    -0.568456
C       0.542033    -2.146028     0.481618
C       1.888541    -2.324227     0.158293
C       2.513295    -3.543145     0.384774
C       1.802710    -4.602085     0.936265
C       0.462184    -4.433539     1.265635
C      -0.162507    -3.214823     1.041334
H      -2.252095     2.454984     0.046920
H      -3.216747     0.408343    -0.860512
H      -2.071847    -1.697961    -0.183349
H       2.451444    -1.507313    -0.279741
H       3.560959    -3.662680     0.129211
H       2.292200    -5.554276     1.113439
H      -0.097938    -5.252706     1.705106
H      -1.203388    -3.087978     1.323075
C       1.612348     0.379078     1.390283
N       2.622467     0.457580     1.934193
C       0.225073     3.916066     0.437992
O       0.275774     4.996331     0.994405
C       0.308217     3.823821    -1.063422
C       1.163492     2.982282    -1.634036
H       1.305779     2.971116    -2.710906
H       1.776451     2.303790    -1.049300
C      -0.509228     4.837385    -1.811726
H      -1.580885     4.681302    -1.643186
H      -0.272473     5.842107    -1.451685
H      -0.313999     4.778825    -2.884496
N       0.153302     2.740508     1.156249
C       0.219108     2.860425     2.618219
H       1.134843     3.376891     2.905632
H      -0.637987     3.426151     2.994177
H       0.217787     1.863416     3.056827
C      -1.205721    -1.254544    -2.100729
C      -0.736992    -2.705539    -2.310785
C      -0.229361    -0.273625    -2.765800
H      -0.780789    -2.948138    -3.376103
H       0.289853    -2.838094    -1.972623
H      -1.375126    -3.411302    -1.773846
H       0.757277    -0.366547    -2.304660
H      -0.133477    -0.501298    -3.830678
H      -0.567031     0.758999    -2.659344
C      -2.518537    -1.139769    -2.771072
N      -3.541159    -1.067750    -3.290906
48
     -1091.830816     -1091.498342   0.20   0.21
C       0.309685    -0.832903     0.135847
C       0.443577     0.435895     0.652599
C      -0.668687     1.293018     0.877638
C      -1.971831     0.795380     0.626797
C      -2.166662    -0.436206     0.107892
C      -1.040087    -1.323258    -0.338826
C       1.466718    -1.757655     0.049826
C       1.373676    -3.037398     0.602624
C       2.434850    -3.926806     0.509467
C       3.607533    -3.549493    -0.135788
C       3.711727    -2.276815    -0.683384
C       2.649850    -1.387157    -0.592286
H      -2.820675     1.414810     0.897844
H      -3.174845    -0.807652    -0.039150
H      -1.206530    -2.331110     0.064115
H       0.471411    -3.335118     1.128153
H       2.348302    -4.915872     0.947834
H       4.438405    -4.243923    -0.207037
H       4.624260    -1.970782    -1.184212
H       2.740083    -0.399148    -1.030209
C       1.741241     0.946374     1.029761
N       2.757905     1.388297     1.335437
C      -1.037256     3.704625     0.912917
O      -1.239616     4.696963     1.586306
C      -1.323439     3.711931    -0.566175
C      -0.402350     3.291055    -1.426258
H      -0.553806     3.378973    -2.498335
H       0.546071     2.880257    -1.095002
C      -2.619611     4.358655    -0.962624
H      -3.475972     3.792951    -0.578124
H      -2.679750     5.361362    -0.531219
H      -2.705424     4.423257    -2.049290
N      -0.484418     2.565371     1.460137
C      -0.085601     2.642833     2.871168
H       0.619714     3.461872     3.011238
H      -0.958900     2.816672     3.506097
H       0.391789     1.706543     3.157287
C      -1.097568    -1.510431    -1.920263
C      -0.205094    -2.656819    -2.428692
C      -0.757304    -0.202088    -2.648450
H       0.849427    -2.394583    -2.354163
H      -0.377083    -3.575566    -1.863056
H      -0.435440    -2.854613    -3.479164
H      -1.407400     0.613894    -2.327176
H       0.279129     0.076155    -2.440778
H      -0.868178    -0.332030    -3.728179
C      -2.488305    -1.886556    -2.252527
N      -3.564678    -2.195641    -2.511484
48
     -1091.829892     -1091.497644   0.78   0.65
C      -0.066623    -0.693557     0.074951
C       0.624248     0.491920     0.008407
C       0.081225     1.665481    -0.597014
C      -1.280160     1.653044    -0.994806
C      -2.008680     0.515615    -0.941374
C      -1.404321    -0.819832    -0.616220
C       0.455064    -1.859583     0.828246
C       1.754014    -2.331910     0.626835
C       2.219470    -3.438390     1.323819
C       1.394629    -4.091995     2.231081
C       0.100531    -3.628504     2.441053
C      -0.364832    -2.520841     1.746537
H      -1.734255     2.575771    -1.336017
H      -3.055763     0.530296    -1.223580
H      -2.087931    -1.369796     0.041671
H       2.404614    -1.835925    -0.085317
H       3.232387    -3.789066     1.155699
H       1.759377    -4.956846     2.775662
H      -0.547913    -4.127761     3.153906
H      -1.368935    -2.155397     1.938265
C       1.890081     0.650706     0.684895
N       2.895119     0.820958     1.217283
C       0.446409     4.079882    -0.407464
O       0.952350     5.062169    -0.912409
C      -0.612634     4.189021     0.660359
C      -1.560946     5.102611     0.483300
H      -2.339999     5.262531     1.222632
H      -1.575943     5.721730    -0.407729
C      -0.492282     3.336383     1.899401
H       0.545735     3.290917     2.242732
H      -1.101390     3.762237     2.699389
H      -0.826390     2.308777     1.733185
N       0.882773     2.809721    -0.746365
C       2.055176     2.732903    -1.624703
H       2.363239     1.691452    -1.715391
H       1.816457     3.130744    -2.614913
H       2.873945     3.314356    -1.201569
C      -1.316583    -1.709686    -1.934978
C      -0.995042    -3.183768    -1.632684
C      -0.302820    -1.135541    -2.936020
H      -1.121720    -3.778378    -2.541494
H       0.034480    -3.293974    -1.292773
H      -1.660078    -3.586718    -0.865135
H       0.700826    -1.170584    -2.504650
H      -0.302970    -1.730582    -3.853069
H      -0.537984    -0.101187    -3.194246
C      -2.658733    -1.682842    -2.553113
N      -3.706484    -1.672960    -3.025615
48
     -1091.829892     -1091.497641   0.78   0.65
C       0.248497    -0.572547    -0.044184
C       0.591544     0.753532    -0.148709
C      -0.364388     1.774917    -0.434384
C      -1.739982     1.429402    -0.446333
C      -2.133024     0.140545    -0.338189
C      -1.164628    -1.006741    -0.356678
C       1.226326    -1.599734     0.389364
C       0.891049    -2.497175     1.406682
C       1.785743    -3.479727     1.806611
C       3.031962    -3.579719     1.197888
C       3.376853    -2.688933     0.188811
C       2.481625    -1.707419    -0.213593
H      -2.477164     2.218561    -0.534904
H      -3.189737    -0.103021    -0.321733
H      -1.476149    -1.748208     0.388833
H      -0.068808    -2.415445     1.907208
H       1.511086    -4.165944     2.601322
H       3.732504    -4.346640     1.511974
H       4.348351    -2.755332    -0.289752
H       2.759254    -1.023828    -1.008620
C       1.926145     1.201135     0.173277
N       2.974041     1.599388     0.429859
C      -0.535875     4.188385    -0.054419
O      -0.445416     5.292758    -0.552420
C      -1.229295     3.964112     1.265656
C      -2.374111     4.607742     1.466739
H      -2.916422     4.521911     2.403564
H      -2.794693     5.246232     0.696735
C      -0.554175     3.110097     2.310438
H      -0.983490     3.321743     3.291885
H      -0.671930     2.040815     2.115504
H       0.519300     3.318502     2.350972
N       0.066576     3.094192    -0.653080
C       0.913184     3.369477    -1.819006
H       1.415908     2.449838    -2.117802
H       0.307984     3.741589    -2.650298
H       1.660128     4.121317    -1.565377
C      -1.262152    -1.774880    -1.749193
C      -0.530135    -3.128196    -1.729897
C      -0.751047    -0.906833    -2.908809
H      -0.775148    -3.688224    -2.636474
H       0.549629    -2.984269    -1.698302
H      -0.826698    -3.728646    -0.866599
H      -1.287069     0.042658    -2.963764
H       0.313989    -0.701821    -2.773603
H      -0.881117    -1.433965    -3.857632
C      -2.693825    -2.066259    -1.971880
N      -3.805919    -2.304910    -2.137500
48
     -1091.830071     -1091.497213   0.67   0.92
C       0.048408    -0.716040     0.017347
C       0.635492     0.455983    -0.394480
C      -0.080278     1.686329    -0.469278
C      -1.396139     1.734966     0.059841
C      -2.020842     0.613991     0.480139
C      -1.437157    -0.755933     0.292517
C       0.822075    -1.967988     0.180578
C       0.705440    -2.711956     1.357124
C       1.397673    -3.903160     1.509857
C       2.218843    -4.368717     0.489018
C       2.344081    -3.634499    -0.683176
C       1.650025    -2.443134    -0.837847
H      -1.889542     2.697653     0.136577
H      -3.003706     0.687177     0.931749
H      -1.609402    -1.342363     1.203559
H       0.077195    -2.352461     2.165969
H       1.293753    -4.472200     2.427691
H       2.757464    -5.303385     0.606778
H       2.980542    -3.991695    -1.485776
H       1.743337    -1.885877    -1.763478
C       2.056390     0.521438    -0.646459
N       3.184002     0.623298    -0.847403
C       0.480000     4.074855    -0.435012
O       0.663406     5.081137    -1.093065
C       0.270534     4.163624     1.052630
C       0.931654     3.357420     1.876258
H       0.856618     3.474753     2.953351
H       1.593467     2.578511     1.512450
C      -0.595461     5.305632     1.504028
H      -1.619755     5.198754     1.128668
H      -0.627887     5.359422     2.594037
H      -0.207679     6.245686     1.102997
N       0.529302     2.824849    -1.023924
C       0.941727     2.787208    -2.432160
H       0.217118     3.320442    -3.053101
H       1.918102     3.257618    -2.549078
H       1.002956     1.748394    -2.755177
C      -2.225488    -1.536457    -0.846926
C      -1.894673    -0.987297    -2.242576
C      -3.744497    -1.469749    -0.597703
H      -2.131598     0.078929    -2.285380
H      -0.838576    -1.121757    -2.484804
H      -2.487375    -1.506901    -3.000074
H      -4.114368    -0.457883    -0.775293
H      -4.262364    -2.147771    -1.280433
H      -3.992764    -1.765176     0.425623
C      -1.860974    -2.966038    -0.794626
N      -1.645491    -4.094214    -0.764520
48
     -1091.830071     -1091.497210   0.67   0.92
C       0.233067    -0.697840    -0.096415
C       0.654060     0.582666    -0.362839
C      -0.228995     1.701150    -0.333244
C      -1.548244     1.506950     0.152234
C      -2.013936     0.270487     0.431122
C      -1.236507    -0.975443     0.121535
C       1.174788    -1.839052    -0.038379
C       2.081863    -2.079969    -1.071642
C       2.936301    -3.171802    -1.018526
C       2.894826    -4.039125     0.065371
C       1.995784    -3.806960     1.100262
C       1.143138    -2.715237     1.049120
H      -2.175855     2.376799     0.312135
H      -3.005699     0.155582     0.853654
H      -1.340573    -1.675555     0.959734
H       2.112314    -1.418039    -1.930103
H       3.632817    -3.346927    -1.831567
H       3.559404    -4.896145     0.103275
H       1.956669    -4.481137     1.949367
H       0.454301    -2.537377     1.868893
C       2.055529     0.873857    -0.557310
N       3.160592     1.154176    -0.707383
C      -0.017433     4.126734    -0.030008
O       0.032628     5.214149    -0.572499
C      -0.266222     4.023402     1.450620
C       0.487480     3.233452     2.207800
H       0.375564     3.221606     3.288014
H       1.260960     2.599218     1.787647
C      -1.295437     4.976836     1.988736
H      -2.286382     4.768664     1.568990
H      -1.356392     4.906980     3.076611
H      -1.038557     5.999899     1.701931
N       0.221840     2.967324    -0.744343
C       0.662553     3.140897    -2.133689
H      -0.118958     3.630975    -2.720232
H       1.563334     3.753879    -2.166962
H       0.878566     2.162208    -2.561157
C      -1.882700    -1.730666    -1.119876
C      -1.606977    -0.992454    -2.438161
C      -3.400144    -1.905194    -0.917743
H      -0.538019    -0.950337    -2.656452
H      -2.104378    -1.504846    -3.265888
H      -1.993276     0.028273    -2.377395
H      -3.623316    -2.341732     0.059877
H      -3.907614    -0.942013    -1.001239
H      -3.802238    -2.571116    -1.685134
C      -1.318282    -3.092108    -1.204785
N      -0.944076    -4.175434    -1.285382
48
     -1091.829831     -1091.496826   0.82   1.16
C       0.195735    -0.930609    -0.118801
C       0.279415     0.175703     0.693977
C      -0.847483     0.986438     1.001052
C      -2.119108     0.596258     0.509155
C      -2.262248    -0.472100    -0.304823
C      -1.097351    -1.256889    -0.833170
C       1.356533    -1.825798    -0.338070
C       1.222994    -3.198217    -0.116524
C       2.288812    -4.055664    -0.341142
C       3.504483    -3.552976    -0.791086
C       3.647556    -2.189295    -1.011126
C       2.581060    -1.330278    -0.786901
H      -2.989626     1.152882     0.841764
H      -3.256164    -0.781462    -0.606877
H      -1.307769    -2.327201    -0.703907
H       0.280606    -3.598873     0.243902
H       2.169503    -5.120126    -0.168916
H       4.337580    -4.224223    -0.972443
H       4.592344    -1.789481    -1.363668
H       2.700259    -0.268597    -0.972497
C       1.535129     0.547908     1.303912
N       2.514816     0.881142     1.805061
C      -1.219920     3.329542     1.572228
O      -1.484627     4.139956     2.439644
C      -1.361229     3.693450     0.117113
C      -0.363342     3.461782    -0.729064
H      -0.409173     3.805739    -1.758464
H       0.546356     2.957550    -0.418792
C      -2.608855     4.452789    -0.232679
H      -2.704456     5.326282     0.417701
H      -2.588324     4.775164    -1.275765
H      -3.502067     3.837455    -0.075259
N      -0.724784     2.080275     1.883768
C      -0.458427     1.816299     3.303613
H      -1.384451     1.874637     3.882229
H      -0.027856     0.821023     3.404915
H       0.245835     2.552193     3.691725
C      -0.975140    -1.056155    -2.405841
C      -0.445592     0.341574    -2.755417
C      -2.336288    -1.288967    -3.091431
H      -0.414503     0.470880    -3.840445
H      -1.106285     1.101730    -2.331430
H       0.561518     0.498702    -2.364380
H      -2.201805    -1.326867    -4.175106
H      -2.785686    -2.234039    -2.773522
H      -3.023578    -0.472371    -2.861896
C      -0.062731    -2.072712    -2.965462
N       0.595457    -2.870938    -3.465082
48
     -1091.830150     -1091.496792   0.62   1.18
C      -0.042053    -0.755257     0.115571
C       0.588161     0.420296    -0.206188
C      -0.127286     1.574529    -0.647691
C      -1.542150     1.574711    -0.534180
C      -2.207711     0.441485    -0.219000
C      -1.519932    -0.892976    -0.175355
C       0.674964    -1.902867     0.720459
C       0.134763    -2.554767     1.832580
C       0.782140    -3.644023     2.399258
C       1.981916    -4.098922     1.864015
C       2.528428    -3.456742     0.759320
C       1.880683    -2.369351     0.190409
H      -2.078931     2.502483    -0.692520
H      -3.283124     0.467200    -0.084122
H      -1.983031    -1.523649     0.591604
H      -0.788232    -2.194744     2.276522
H       0.350822    -4.134854     3.265833
H       2.489905    -4.949041     2.307695
H       3.465072    -3.802635     0.334678
H       2.308583    -1.886692    -0.681168
C       1.999574     0.606322     0.035023
N       3.116000     0.804638     0.226076
C       0.313021     3.982152    -0.733329
O       0.637884     4.924518    -1.428140
C      -0.311657     4.176696     0.626136
C      -1.247598     5.113173     0.736612
H      -1.720054     5.334133     1.689044
H      -1.559127     5.690797    -0.127559
C       0.216788     3.379284     1.793197
H      -0.070185     3.862736     2.729314
H      -0.170720     2.357118     1.809682
H       1.308492     3.313258     1.757989
N       0.576606     2.685069    -1.135430
C       1.380036     2.518267    -2.353445
H       0.868948     2.978672    -3.201919
H       2.354522     2.991065    -2.228626
H       1.504646     1.454023    -2.549541
C      -1.780010    -1.687361    -1.530095
C      -3.284156    -1.711981    -1.856478
C      -1.257745    -3.131949    -1.457933
H      -3.673213    -0.713012    -2.058291
H      -3.463066    -2.329813    -2.739816
H      -3.837449    -2.145167    -1.017381
H      -0.174813    -3.175179    -1.355672
H      -1.708508    -3.644937    -0.603610
H      -1.535731    -3.668779    -2.368825
C      -1.078110    -0.985369    -2.620608
N      -0.528974    -0.441982    -3.471221
48
     -1091.830150     -1091.496792   0.62   1.18
C       0.344642     0.181060     0.654589
C       0.434449     0.620478    -0.642128
C      -0.553663     0.308280    -1.624576
C      -1.770819    -0.280644    -1.192805
C      -1.907424    -0.728114     0.075113
C      -0.738170    -0.811943     1.014020
C       1.280886     0.628440     1.713036
C       2.663611     0.622404     1.512159
C       3.525580     1.027647     2.521336
C       3.022332     1.441907     3.748753
C       1.648256     1.451095     3.960204
C       0.785059     1.048464     2.950510
H      -2.593405    -0.354139    -1.894172
H      -2.859135    -1.127800     0.406573
H      -1.073258    -0.626951     2.040631
H       3.068855     0.285884     0.564405
H       4.596172     1.018097     2.345250
H       3.697877     1.758602     4.536758
H       1.245416     1.779162     4.913091
H      -0.286491     1.084960     3.121009
C       1.454990     1.557558    -1.048645
N       2.238856     2.316255    -1.412199
C      -1.256333     1.262909    -3.767656
O      -1.200876     1.174893    -4.978247
C      -2.284322     2.127901    -3.081185
C      -3.526928     2.082767    -3.549237
H      -4.314787     2.700580    -3.128820
H      -3.785064     1.428462    -4.375520
C      -1.837802     3.057531    -1.979566
H      -2.585232     3.839958    -1.832761
H      -1.701021     2.539640    -1.026500
H      -0.884692     3.532074    -2.232163
N      -0.321711     0.626909    -2.970430
C       0.799563    -0.028264    -3.656273
H       0.423250    -0.805382    -4.325278
H       1.360142     0.701134    -4.241482
H       1.448698    -0.485987    -2.910815
C      -0.177645    -2.301185     1.058570
C      -1.323051    -3.297369     1.314016
C       0.894727    -2.478737     2.146365
H      -0.919871    -4.306581     1.427809
H      -1.845628    -3.030796     2.237985
H      -2.041293    -3.310924     0.493056
H       1.186682    -3.530595     2.205881
H       1.787894    -1.889465     1.946167
H       0.489504    -2.177427     3.116530
C       0.423823    -2.608997    -0.252217
N       0.896282    -2.849745    -1.271622
48
     -1091.829170     -1091.496756   1.23   1.20
C       0.696152    -0.643777    -0.250766
C       0.891974     0.716890    -0.311827
C       0.390643     1.606504     0.680182
C      -0.233356     1.061100     1.829701
C      -0.461204    -0.265974     1.941340
C      -0.188655    -1.231732     0.825091
C       1.343978    -1.568686    -1.213110
C       2.070455    -2.663970    -0.738876
C       2.661734    -3.556509    -1.621853
C       2.538150    -3.366822    -2.993812
C       1.822186    -2.277720    -3.475140
C       1.228677    -1.385465    -2.592683
H      -0.500749     1.733694     2.637429
H      -0.909150    -0.666252     2.844122
H       0.305218    -2.119983     1.238516
H       2.193466    -2.809845     0.329903
H       3.226469    -4.399653    -1.237103
H       3.002066    -4.063355    -3.684629
H       1.723897    -2.117913    -4.543783
H       0.665801    -0.543944    -2.981198
C       1.669171     1.304323    -1.377776
N       2.281834     1.801568    -2.214325
C      -0.406052     3.902667     0.633400
O      -0.237405     5.059942     0.959113
C      -1.750724     3.383395     0.186310
C      -2.766245     3.410318     1.040365
H      -3.757086     3.070674     0.753411
H      -2.639490     3.782481     2.052132
C      -1.862518     2.954439    -1.252551
H      -2.869752     2.592108    -1.468841
H      -1.650051     3.802908    -1.911457
H      -1.145594     2.169268    -1.505877
N       0.636801     2.996578     0.589387
C       1.976832     3.481259     0.931851
H       2.723246     2.807337     0.511005
H       2.108839     4.476695     0.510971
H       2.108037     3.538830     2.017862
C      -1.568000    -1.775829     0.239965
C      -1.391225    -3.001904    -0.672956
C      -2.340335    -0.668503    -0.492789
H      -0.775330    -3.767535    -0.195348
H      -2.370708    -3.437201    -0.889176
H      -0.926445    -2.720749    -1.617232
H      -1.786502    -0.365073    -1.384720
H      -3.319453    -1.039184    -0.807543
H      -2.487671     0.204992     0.145363
C      -2.370572    -2.224636     1.397402
N      -2.988734    -2.589684     2.295029
48
     -1091.829170     -1091.496751   1.23   1.21
C       0.108031    -0.782922     0.349639
C       0.678902     0.463438     0.468714
C      -0.096671     1.649451     0.605403
C      -1.502569     1.530937     0.738181
C      -2.120068     0.334933     0.620798
C      -1.392839    -0.917219     0.225520
C       0.927970    -2.019425     0.351053
C       2.007185    -2.181014    -0.520308
C       2.745213    -3.356776    -0.519181
C       2.416092    -4.389177     0.350447
C       1.345320    -4.237088     1.224427
C       0.608167    -3.061294     1.225437
H      -2.074474     2.423794     0.966301
H      -3.193005     0.261503     0.759747
H      -1.725953    -1.738786     0.871956
H       2.269362    -1.385960    -1.209571
H       3.581872    -3.463428    -1.201695
H       2.994068    -5.307626     0.350734
H       1.086603    -5.034966     1.913125
H      -0.211066    -2.945487     1.928393
C       2.114132     0.617807     0.509346
N       3.253082     0.772934     0.543278
C       0.218255     3.955974    -0.094636
O       0.407943     5.112936     0.220450
C      -0.310470     3.571872    -1.455003
C      -1.518148     3.987507    -1.815809
H      -1.927966     3.756326    -2.794620
H      -2.131483     4.581003    -1.145117
C       0.629287     2.811852    -2.352806
H       0.148162     2.580075    -3.305374
H       1.521902     3.414019    -2.552383
H       0.971623     1.879315    -1.896926
N       0.533595     2.907710     0.749274
C       1.131465     3.232686     2.047279
H       0.365450     3.544718     2.765475
H       1.655920     2.358101     2.432592
H       1.838563     4.049802     1.913909
C      -1.839302    -1.354640    -1.240884
C      -1.403271    -2.786135    -1.599548
C      -1.337063    -0.360193    -2.298442
H      -0.325264    -2.839597    -1.747086
H      -1.683808    -3.494912    -0.816885
H      -1.892031    -3.091999    -2.528624
H      -0.245635    -0.393901    -2.343058
H      -1.728317    -0.629997    -3.282959
H      -1.649542     0.660081    -2.067493
C      -3.317498    -1.349247    -1.252063
N      -4.466816    -1.361944    -1.257116
48
     -1091.829368     -1091.496244   1.11   1.52
C       0.111695    -0.833613     0.308614
C       0.830371     0.335455     0.375958
C       0.209515     1.606489     0.531261
C      -1.200220     1.650565     0.691215
C      -1.957661     0.537539     0.605060
C      -1.398824    -0.803758     0.229482
C       0.786754    -2.153746     0.257371
C       0.489400    -3.121676     1.218739
C       1.081970    -4.375476     1.161824
C       1.981296    -4.675038     0.143852
C       2.284169    -3.714939    -0.813662
C       1.690422    -2.460669    -0.760012
H      -1.656846     2.605129     0.931119
H      -3.022832     0.603936     0.794729
H      -1.806102    -1.558880     0.916087
H      -0.199140    -2.886851     2.025255
H       0.845850    -5.118552     1.916768
H       2.447316    -5.654241     0.099839
H       2.986076    -3.940515    -1.609630
H       1.914009    -1.719749    -1.519539
C       2.274355     0.299630     0.318674
N       3.423313     0.298404     0.276738
C       0.667539     3.943986    -0.026164
O       1.088416     5.017961     0.362067
C      -0.153996     3.851385    -1.281764
C       0.098427     2.916441    -2.191283
H      -0.433882     2.890546    -3.136702
H       0.852863     2.151861    -2.047778
C      -1.147284     4.964018    -1.471267
H      -1.916827     4.945092    -0.690751
H      -0.643436     5.931373    -1.397956
H      -1.637090     4.881053    -2.443626
N       0.979853     2.777607     0.650588
C       1.892283     2.921638     1.793810
H       1.494360     3.660226     2.493399
H       1.988664     1.960050     2.295381
H       2.876133     3.249738     1.456514
C      -1.920690    -1.275562    -1.204892
C      -3.362661    -0.800399    -1.463018
C      -1.881705    -2.807880    -1.352647
H      -3.427898     0.287822    -1.507507
H      -3.716875    -1.202577    -2.415367
H      -4.024630    -1.164828    -0.671378
H      -0.875494    -3.213985    -1.274538
H      -2.504121    -3.262396    -0.576103
H      -2.287674    -3.090273    -2.327643
C      -1.057015    -0.680159    -2.240440
N      -0.386224    -0.228725    -3.057054
48
     -1091.829368     -1091.496243   1.11   1.52
C       0.301942    -0.811995     0.344780
C       0.801443     0.465706     0.420313
C      -0.024273     1.595024     0.681039
C      -1.402318     1.374277     0.940084
C      -1.951364     0.145188     0.851313
C      -1.190812    -1.056471     0.371721
C       1.197608    -1.983400     0.181461
C       2.060776    -2.082406    -0.909880
C       2.864663    -3.203911    -1.066725
C       2.814100    -4.237423    -0.139551
C       1.956544    -4.144883     0.951697
C       1.154147    -3.023743     1.111692
H      -2.003477     2.219687     1.258120
H      -2.993251     0.008392     1.117262
H      -1.401450    -1.897926     1.046324
H       2.088260    -1.285939    -1.645216
H       3.532368    -3.268008    -1.919476
H       3.443960    -5.112447    -0.264295
H       1.916793    -4.945601     1.683220
H       0.498689    -2.948502     1.974484
C       2.219522     0.697144     0.261755
N       3.343228     0.908049     0.140647
C      -0.038935     3.995486     0.209929
O       0.210075     5.113591     0.621166
C      -0.924332     3.799481    -0.989096
C      -0.578414     2.960070    -1.959045
H      -1.168403     2.871335    -2.865619
H       0.310055     2.341883    -1.905966
C      -2.113198     4.717544    -1.054350
H      -1.787534     5.757512    -0.968197
H      -2.653308     4.581461    -1.993517
H      -2.804495     4.529869    -0.224503
N       0.529560     2.882352     0.804693
C       1.486014     3.149733     1.888175
H       2.365351     3.665581     1.500821
H       1.016071     3.776149     2.649784
H       1.793082     2.204525     2.332923
C      -1.728012    -1.563341    -1.044933
C      -3.247447    -1.351168    -1.179030
C      -1.425398    -3.056200    -1.271075
H      -3.595655    -1.776530    -2.123489
H      -3.770201    -1.859158    -0.362708
H      -3.510638    -0.292403    -1.164772
H      -0.359551    -3.273726    -1.282870
H      -1.894273    -3.644948    -0.477011
H      -1.847660    -3.372517    -2.228579
C      -1.067762    -0.782608    -2.106689
N      -0.553956    -0.186587    -2.944171
48
     -1091.828475     -1091.496224   1.67   1.54
C       0.093144    -0.566162    -0.307999
C       0.025132     0.790759    -0.102894
C      -1.051622     1.404779     0.597371
C      -2.063333     0.575917     1.146659
C      -2.059951    -0.762053     0.959239
C      -1.072320    -1.454137     0.068382
C       1.278533    -1.209377    -0.925123
C       1.900037    -2.275472    -0.271164
C       2.988255    -2.916123    -0.843214
C       3.471702    -2.498895    -2.078181
C       2.862911    -1.436749    -2.733555
C       1.772865    -0.795317    -2.162158
H      -2.819154     1.040754     1.772308
H      -2.809287    -1.371184     1.451456
H      -0.687987    -2.341437     0.588703
H       1.536247    -2.600830     0.698643
H       3.458288    -3.745836    -0.325872
H       4.319987    -3.003133    -2.529487
H       3.233185    -1.106530    -3.698212
H       1.298270     0.025038    -2.688809
C       1.079570     1.655282    -0.575342
N       1.889837     2.376893    -0.954855
C      -0.166132     3.602424     1.338481
O      -0.198756     4.807670     1.184022
C       0.885710     2.978762     2.217611
C       0.591511     1.987724     3.054024
H       1.336805     1.606763     3.746028
H      -0.395828     1.544246     3.110120
C       2.218031     3.672690     2.187974
H       2.649249     3.647623     1.184136
H       2.088948     4.723452     2.459902
H       2.910253     3.198527     2.886713
N      -1.139579     2.799978     0.766549
C      -2.224914     3.493712     0.065552
H      -2.564517     4.340035     0.661876
H      -1.882165     3.868442    -0.903877
H      -3.049422     2.796013    -0.089501
C      -1.812348    -2.026759    -1.218752
C      -2.192089    -0.903847    -2.195281
C      -3.069557    -2.822240    -0.815210
H      -1.308648    -0.396241    -2.586693
H      -2.752514    -1.313892    -3.039583
H      -2.820182    -0.169578    -1.683993
H      -3.462999    -3.356750    -1.683227
H      -2.842308    -3.558796    -0.039300
H      -3.846240    -2.147631    -0.449556
C      -0.927633    -2.987513    -1.906748
N      -0.301567    -3.781553    -2.452215
48
     -1091.828818     -1091.495969   1.45   1.70
C       0.157076    -0.644956     0.009136
C       0.754542     0.534732    -0.360237
C       0.016545     1.738956    -0.563426
C      -1.358253     1.757070    -0.210892
C      -1.993916     0.625151     0.166134
C      -1.349693    -0.728154     0.095359
C       0.941904    -1.865226     0.306913
C       1.908748    -2.336396    -0.582716
C       2.614230    -3.498460    -0.305375
C       2.361939    -4.206913     0.862191
C       1.401579    -3.745037     1.755228
C       0.697766    -2.582945     1.480082
H      -1.889177     2.701635    -0.231316
H      -3.028657     0.676205     0.485632
H      -1.619159    -1.297315     0.993725
H       2.103171    -1.799676    -1.504786
H       3.359881    -3.853177    -1.008929
H       2.910037    -5.118888     1.075400
H       1.197912    -4.294263     2.668407
H      -0.041030    -2.226229     2.190780
C       2.192943     0.645558    -0.427172
N       3.333156     0.783906    -0.481665
C       0.503332     4.138600    -0.500140
O       0.716126     5.139472    -1.155075
C       0.136677     4.205743     0.961005
C      -0.743688     5.132220     1.324164
H      -1.034374     5.263037     2.362189
H      -1.191269     5.791823     0.587886
C       0.845303     3.296318     1.934404
H       0.445257     2.278930     1.922907
H       1.912195     3.229950     1.700376
H       0.738600     3.687740     2.948181
N       0.663530     2.882569    -1.060850
C       1.226338     2.836289    -2.414761
H       1.398768     1.796431    -2.691654
H       0.537451     3.295193    -3.129214
H       2.172048     3.377201    -2.442768
C      -1.962263    -1.563627    -1.111553
C      -1.473797    -1.038969    -2.469821
C      -3.501911    -1.542894    -1.058051
H      -1.735889     0.017154    -2.573553
H      -0.391928    -1.143701    -2.573266
H      -1.949568    -1.597487    -3.280217
H      -3.877343    -0.549360    -1.311367
H      -3.907466    -2.255866    -1.779993
H      -3.869043    -1.820126    -0.065854
C      -1.563027    -2.977893    -0.970979
N      -1.317729    -4.096636    -0.879611
48
     -1091.828818     -1091.495966   1.45   1.70
C       0.246388    -0.637676    -0.508045
C      -0.458539     0.504125    -0.798619
C      -0.364870     1.687283    -0.006500
C       0.615225     1.738627     1.018898
C       1.341882     0.645144     1.340971
C       1.068083    -0.710317     0.758544
C       0.213006    -1.828622    -1.387935
C       1.405981    -2.440601    -1.779531
C       1.388286    -3.575406    -2.575407
C       0.177190    -4.115268    -2.993657
C      -1.014218    -3.512051    -2.612286
C      -0.997604    -2.377458    -1.813889
H       0.785692     2.678739     1.530394
H       2.123656     0.725783     2.087762
H       2.023664    -1.198304     0.529739
H       2.358116    -2.021829    -1.469328
H       2.322857    -4.042329    -2.867957
H       0.163025    -5.006059    -3.613220
H      -1.963675    -3.928217    -2.931889
H      -1.934385    -1.923756    -1.509457
C      -1.232020     0.606147    -2.013969
N      -1.850346     0.737163    -2.974544
C      -0.734072     4.082391    -0.361993
O      -1.483906     5.021754    -0.185052
C       0.708462     4.277725    -0.755486
C       1.384778     5.234047    -0.128321
H       2.418020     5.455671    -0.378121
H       0.915218     5.827581     0.649331
C       1.274667     3.455594    -1.886953
H       2.176415     3.934323    -2.274260
H       1.539630     2.441810    -1.575054
H       0.552441     3.367116    -2.704265
N      -1.202454     2.781858    -0.278983
C      -2.649982     2.616362    -0.107951
H      -3.180749     3.151204    -0.895332
H      -2.894861     1.555986    -0.165761
H      -2.966484     3.012117     0.860968
C       0.386440    -1.646985     1.848472
C      -1.072290    -1.243880     2.109949
C       1.187923    -1.618961     3.164014
H      -1.685656    -1.359155     1.214067
H      -1.498503    -1.870236     2.898024
H      -1.114755    -0.200402     2.432746
H       1.076193    -0.650718     3.656200
H       0.815836    -2.391599     3.841205
H       2.250418    -1.807764     2.986377
C       0.421026    -3.044252     1.373352
N       0.465795    -4.151164     1.068645
48
     -1091.826376     -1091.494876   2.99   2.38
C       0.073919    -1.084672    -0.132907
C       0.108874     0.152679     0.453584
C      -1.071086     0.925238     0.663758
C      -2.330742     0.316995     0.472284
C      -2.423656    -0.905541    -0.104829
C      -1.231386    -1.595443    -0.698620
C       1.282421    -1.924929    -0.288909
C       1.243691    -3.278921     0.052709
C       2.359093    -4.083154    -0.122209
C       3.531979    -3.545944    -0.640645
C       3.581219    -2.200475    -0.981700
C       2.464938    -1.395296    -0.809210
H      -3.224452     0.842762     0.793458
H      -3.391616    -1.382768    -0.207361
H      -1.306538    -2.671597    -0.503754
H       0.338017    -3.707070     0.470406
H       2.312259    -5.133767     0.144514
H       4.404195    -4.176169    -0.781280
H       4.490775    -1.773971    -1.391180
H       2.507563    -0.350718    -1.096604
C       1.327970     0.693256     1.006663
N       2.256406     1.164286     1.494088
C      -0.268449     3.154911     0.383383
O       0.207040     2.849605    -0.693099
C      -0.056739     4.534620     0.950836
C      -1.018766     5.446800     0.901821
H      -0.849165     6.461924     1.248110
H      -1.999945     5.222670     0.494120
C       1.338104     4.771660     1.456365
H       1.587380     4.068019     2.258330
H       2.057179     4.594344     0.651214
H       1.453366     5.792734     1.825143
N      -0.970562     2.245982     1.148369
C      -1.666741     2.596224     2.384507
H      -1.097868     3.349308     2.928580
H      -2.672420     2.989355     2.200470
H      -1.743027     1.702740     3.006507
C      -1.258809    -1.465424    -2.285292
C      -0.924699    -0.040029    -2.749391
C      -2.631311    -1.896684    -2.836228
H      -0.993302     0.021322    -3.838782
H      -1.632580     0.670021    -2.316173
H       0.081155     0.260266    -2.452622
H      -2.588601    -1.968124    -3.925806
H      -2.928262    -2.873612    -2.444044
H      -3.393291    -1.160775    -2.571598
C      -0.270441    -2.403144    -2.854002
N       0.451985    -3.153311    -3.339401
48
     -1091.827344     -1091.494763   2.38   2.45
C       0.327098    -0.687876     0.212554
C       0.815033     0.581605     0.028435
C       0.065619     1.749062     0.354691
C      -1.217194     1.580187     0.936864
C      -1.759047     0.355797     1.112331
C      -1.108546    -0.910277     0.636694
C       1.178079    -1.880509    -0.027060
C       1.736491    -2.125285    -1.281246
C       2.499933    -3.265384    -1.496275
C       2.712016    -4.171297    -0.464500
C       2.160436    -3.931513     0.789705
C       1.399187    -2.791428     1.007309
H      -1.741627     2.462016     1.286414
H      -2.713422     0.269999     1.618605
H      -1.124292    -1.639561     1.459472
H       1.557344    -1.428317    -2.092514
H       2.929343    -3.444303    -2.476419
H       3.309497    -5.061144    -0.635232
H       2.328319    -4.631422     1.601974
H       0.984209    -2.599604     1.992594
C       2.151379     0.772401    -0.488485
N       3.210244     0.953693    -0.897911
C      -0.034574     4.091168    -0.335739
O       0.302845     5.236444    -0.109653
C      -1.151885     3.761425    -1.291491
C      -2.335943     4.325137    -1.082749
H      -3.173003     4.146905    -1.750904
H      -2.498377     4.990024    -0.240077
C      -0.819107     2.894535    -2.475301
H      -1.696540     2.759665    -3.109857
H      -0.028578     3.364299    -3.070194
H      -0.462853     1.903914    -2.187333
N       0.641925     3.027779     0.236413
C       1.804881     3.368173     1.066772
H       2.573327     3.851106     0.462294
H       1.503520     4.050730     1.864982
H       2.211712     2.456492     1.501852
C      -1.965436    -1.618938    -0.509560
C      -3.476137    -1.410581    -0.293342
C      -1.692062    -3.132964    -0.579065
H      -3.755145    -0.358746    -0.372173
H      -4.035087    -1.969184    -1.048061
H      -3.768545    -1.783621     0.693017
H      -2.333890    -3.583828    -1.340600
H      -0.658638    -3.365063    -0.826834
H      -1.931764    -3.588702     0.386234
C      -1.607965    -1.014661    -1.805632
N      -1.328863    -0.553234    -2.820321
48
     -1091.827344     -1091.494759   2.38   2.46
C       0.159684    -0.862445    -0.000062
C       0.852462     0.294665     0.254340
C       0.235441     1.456464     0.802541
C      -1.141126     1.387752     1.139274
C      -1.878263     0.285805     0.882630
C      -1.345328    -0.911580     0.151479
C       0.856494    -2.089957    -0.460093
C       0.754971    -3.264261     0.287763
C       1.368215    -4.430778    -0.147917
C       2.092960    -4.434625    -1.335138
C       2.202073    -3.267449    -2.080801
C       1.587156    -2.099831    -1.647844
H      -1.585017     2.230482     1.656578
H      -2.909588     0.253292     1.214017
H      -1.613269    -1.813770     0.720104
H       0.203966    -3.261444     1.223806
H       1.285146    -5.337252     0.443050
H       2.574990    -5.345499    -1.675604
H       2.768088    -3.262131    -3.006374
H       1.658655    -1.194265    -2.240172
C       2.272721     0.356935    -0.007228
N       3.402443     0.434737    -0.205637
C       0.602384     3.872564     0.808904
O       1.057698     4.833479     1.397084
C      -0.363206     4.022035    -0.338210
C      -1.470349     4.725611    -0.131928
H      -2.192198     4.890223    -0.926096
H      -1.681186     5.165591     0.837877
C       0.044550     3.447652    -1.667673
H       0.195130     2.367224    -1.633393
H      -0.716094     3.652475    -2.422793
H       0.988379     3.897454    -1.993831
N       1.003871     2.588356     1.133570
C       2.037707     2.473061     2.170738
H       1.702157     2.967773     3.085346
H       2.223186     1.419378     2.374010
H       2.963514     2.942253     1.836269
C      -2.078885    -1.120460    -1.251590
C      -3.557152    -0.693357    -1.183052
C      -2.021330    -2.587125    -1.717869
H      -4.048457    -0.918982    -2.132670
H      -4.071456    -1.248642    -0.392662
H      -3.661252     0.375674    -0.991340
H      -1.005413    -2.937987    -1.885298
H      -2.492658    -3.225184    -0.964420
H      -2.576374    -2.693262    -2.653720
C      -1.412487    -0.277722    -2.260773
N      -0.893209     0.371169    -3.054308
48
     -1091.826638     -1091.494706   2.82   2.49
C      -0.067199    -0.990979     0.256710
C       0.348962     0.268317    -0.102352
C      -0.538525     1.383129    -0.122566
C      -1.815607     1.247698     0.478473
C      -2.270013     0.028111     0.841325
C      -1.545984    -1.231092     0.459235
C       0.870271    -2.124048     0.432477
C       0.770226    -2.944337     1.560280
C       1.625822    -4.023753     1.730782
C       2.598188    -4.301806     0.776728
C       2.707522    -3.492375    -0.347618
C       1.850764    -2.414546    -0.520182
H      -2.399281     2.140798     0.660370
H      -3.223036    -0.063215     1.350073
H      -1.686748    -1.988897     1.237802
H       0.032998    -2.723743     2.325971
H       1.536437    -4.645954     2.615561
H       3.269007    -5.144304     0.910313
H       3.463309    -3.699429    -1.098132
H       1.934809    -1.800823    -1.410035
C       1.744580     0.561089    -0.330279
N       2.842474     0.850758    -0.512953
C      -0.184801     3.759813     0.053758
O      -0.620548     3.784794     1.188182
C       0.374562     5.004217    -0.590959
C      -0.431816     5.862851    -1.200728
H      -0.052204     6.786658    -1.627173
H      -1.499407     5.681927    -1.281844
C       1.851559     5.205429    -0.389476
H       2.190215     6.121908    -0.877182
H       2.072975     5.270710     0.680767
H       2.427485     4.361815    -0.782841
N      -0.111948     2.600310    -0.688966
C       0.367987     2.588453    -2.078710
H       1.453303     2.687271    -2.142125
H       0.071648     1.643022    -2.533317
H      -0.102275     3.398709    -2.636302
C      -2.214756    -1.882759    -0.829257
C      -3.736286    -2.011395    -0.636016
C      -1.627290    -3.269387    -1.140769
H      -3.945412    -2.593296     0.266972
H      -4.217721    -1.036655    -0.546776
H      -4.178021    -2.532030    -1.489206
H      -1.731391    -3.918334    -0.266631
H      -2.172411    -3.721540    -1.973611
H      -0.573847    -3.219614    -1.411071
C      -1.964725    -0.997355    -1.981722
N      -1.765716    -0.313413    -2.883507
48
     -1091.826283     -1091.494675   3.04   2.51
C      -0.028897    -1.066960     0.052139
C       0.308105     0.262139     0.163237
C      -0.577155     1.310280    -0.219247
C      -1.912592     0.989098    -0.560504
C      -2.296849    -0.301675    -0.685182
C      -1.328875    -1.447184    -0.616127
C       0.837298    -2.143992     0.586299
C       2.200570    -2.198258     0.285430
C       2.992844    -3.227357     0.775095
C       2.436642    -4.220857     1.571409
C       1.081319    -4.175761     1.879266
C       0.289058    -3.145969     1.392226
H      -2.621344     1.795848    -0.695216
H      -3.329456    -0.538553    -0.916724
H      -1.788183    -2.265762    -0.049240
H       2.644764    -1.434515    -0.343590
H       4.049977    -3.250428     0.531700
H       3.056697    -5.025089     1.953979
H       0.639597    -4.942813     2.507315
H      -0.762028    -3.109688     1.660998
C       1.533325     0.666673     0.811777
N       2.493163     1.042175     1.322209
C      -0.772197     3.581959     0.560293
O      -1.820353     3.337508     1.126510
C      -0.128489     4.934521     0.715997
C       1.092119     5.028087     1.231107
H       1.536815     5.996088     1.443634
H       1.674416     4.147979     1.486729
C      -1.018975     6.105283     0.410109
H      -0.521935     7.045427     0.657717
H      -1.295245     6.124952    -0.650403
H      -1.946668     6.022513     0.983286
N      -0.110334     2.644142    -0.205668
C       1.001633     2.985583    -1.101731
H       1.005122     2.270819    -1.926728
H       0.848353     3.984239    -1.511450
H       1.971714     2.953580    -0.602731
C      -1.096461    -2.051549    -2.071710
C      -0.361839    -3.403087    -2.039516
C      -0.353391    -1.061430    -2.981005
H      -0.383916    -3.854763    -3.035034
H       0.679565    -3.270516    -1.746983
H      -0.834359    -4.095752    -1.339109
H       0.649907    -0.882121    -2.586205
H      -0.257823    -1.475494    -3.988289
H      -0.881073    -0.107963    -3.045714
C      -2.434886    -2.305752    -2.644374
N      -3.474543    -2.518649    -3.085747
48
     -1091.827810     -1091.494540   2.09   2.59
C       0.108075    -1.024286     0.296505
C       0.417020     0.254500    -0.099954
C      -0.578960     1.258773    -0.272127
C      -1.890809     1.005865     0.200669
C      -2.243344    -0.237951     0.595695
C      -1.347898    -1.423511     0.377107
C       1.143094    -2.029457     0.631681
C       2.239918    -2.254354    -0.204749
C       3.189281    -3.214121     0.116280
C       3.058697    -3.969004     1.275734
C       1.971319    -3.755129     2.115307
C       1.022677    -2.793598     1.796304
H      -2.586378     1.832266     0.263381
H      -3.230288    -0.411855     1.009241
H      -1.481293    -2.142400     1.193158
H       2.343848    -1.683681    -1.120771
H       4.034458    -3.371697    -0.545669
H       3.802043    -4.719148     1.525469
H       1.863716    -4.334824     3.026529
H       0.193009    -2.619474     2.474366
C       1.787636     0.694239    -0.216665
N       2.859964     1.097518    -0.316820
C      -0.471826     3.664208    -0.191744
O      -1.110989     3.702247     0.843344
C       0.109842     4.931435    -0.761503
C       1.423711     5.039706    -0.921418
H       1.873482     5.976840    -1.236847
H       2.094826     4.211249    -0.716114
C      -0.869646     6.054247    -0.955562
H      -0.355491     6.969822    -1.255031
H      -1.610880     5.803025    -1.722915
H      -1.416251     6.231894    -0.025121
N      -0.216079     2.487339    -0.862462
C       0.316912     2.447555    -2.233244
H      -0.013803     1.519423    -2.700522
H      -0.086862     3.285137    -2.802771
H       1.406424     2.495094    -2.259598
C      -1.808644    -2.229143    -0.915522
C      -3.315994    -2.533517    -0.847440
C      -1.035829    -3.548732    -1.077117
H      -3.915744    -1.622743    -0.870977
H      -3.609398    -3.155508    -1.696617
H      -3.540336    -3.081351     0.073025
H       0.024929    -3.385977    -1.260004
H      -1.143617    -4.152192    -0.171451
H      -1.444550    -4.113486    -1.919256
C      -1.556960    -1.388653    -2.100573
N      -1.358144    -0.738715    -3.027125
48
     -1091.827080     -1091.494299   2.54   2.74
C       0.238001    -1.149143    -0.036454
C       0.330499     0.132250     0.436467
C      -0.792372     0.829027     0.977113
C      -1.975611     0.103492     1.242024
C      -2.119536    -1.168420     0.797854
C      -1.116618    -1.814755    -0.110589
C       1.414816    -1.898416    -0.531996
C       2.301406    -1.323421    -1.444418
C       3.382282    -2.046351    -1.927472
C       3.591382    -3.354169    -1.509286
C       2.714053    -3.936011    -0.601132
C       1.634936    -3.213598    -0.116139
H      -2.773342     0.574010     1.806476
H      -3.014442    -1.727319     1.046877
H      -1.009252    -2.869636     0.168498
H       2.136126    -0.309484    -1.791140
H       4.059318    -1.585735    -2.639030
H       4.434084    -3.920735    -1.892150
H       2.869517    -4.957885    -0.271413
H       0.964293    -3.674558     0.602048
C       1.603198     0.805478     0.534855
N       2.587799     1.383470     0.668611
C      -0.314507     3.061871     0.293913
O      -0.282998     2.697559    -0.865452
C       0.078057     4.469443     0.652264
C       1.094333     4.676449     1.481585
H       1.464127     5.679064     1.675120
H       1.615613     3.852166     1.958678
C      -0.638353     5.546823    -0.111350
H      -1.705822     5.563426     0.136262
H      -0.213918     6.527398     0.113285
H      -0.558492     5.353922    -1.184817
N      -0.666993     2.190250     1.314863
C      -1.201138     2.638574     2.598129
H      -2.296135     2.680026     2.590224
H      -0.877910     1.953365     3.384889
H      -0.821666     3.632410     2.820593
C      -1.666141    -1.842551    -1.603968
C      -1.653173    -0.447152    -2.244990
C      -3.088564    -2.432931    -1.642316
H      -0.643086    -0.041289    -2.316663
H      -2.075311    -0.496724    -3.252263
H      -2.254262     0.243435    -1.649261
H      -3.391090    -2.606665    -2.677885
H      -3.137618    -3.387393    -1.110330
H      -3.798983    -1.737452    -1.190874
C      -0.819327    -2.749717    -2.403806
N      -0.216193    -3.483591    -3.050289
48
     -1091.825715     -1091.494213   3.40   2.80
C       0.233615    -0.999215    -0.156276
C       0.246800     0.357861     0.070370
C      -0.871922     1.190088    -0.222220
C      -2.101877     0.581110    -0.573768
C      -2.171563    -0.748125    -0.804123
C      -0.955460    -1.627967    -0.843506
C       1.347958    -1.875169     0.275994
C       1.081035    -3.040565     1.000148
C       2.111750    -3.883985     1.389698
C       3.428204    -3.576008     1.064417
C       3.705195    -2.417544     0.348951
C       2.674551    -1.574688    -0.043219
H      -2.988108     1.200680    -0.632694
H      -3.124489    -1.207251    -1.043162
H      -1.187384    -2.575326    -0.342206
H       0.060692    -3.280488     1.282480
H       1.886419    -4.782380     1.955433
H       4.234426    -4.234559     1.370917
H       4.729026    -2.165174     0.093221
H       2.902651    -0.678358    -0.609690
C       1.354250     0.979537     0.758114
N       2.213381     1.515610     1.303342
C      -1.653679     3.245931     0.741219
O      -2.446022     2.651652     1.445663
C      -1.595331     4.752219     0.770342
C      -2.001437     5.463132    -0.274102
H      -2.040884     6.547703    -0.236124
H      -2.336429     4.990018    -1.192308
C      -1.179680     5.334647     2.091712
H      -1.238746     6.424735     2.073675
H      -1.828142     4.950242     2.884576
H      -0.153819     5.042148     2.342828
N      -0.770068     2.591183    -0.091082
C       0.281658     3.299533    -0.827020
H       0.834865     3.974086    -0.171981
H       0.980129     2.566545    -1.227975
H      -0.134955     3.868881    -1.661217
C      -0.629997    -2.041747    -2.346384
C       0.408056    -3.174040    -2.435408
C      -0.174675    -0.833463    -3.178087
H       0.137306    -4.013264    -1.790359
H       0.464586    -3.537990    -3.464933
H       1.395727    -2.817177    -2.144043
H       0.767416    -0.447881    -2.780110
H      -0.012438    -1.131978    -4.217212
H      -0.917019    -0.033414    -3.157983
C      -1.885431    -2.566387    -2.923176
N      -2.856842    -2.989175    -3.368908
48
     -1091.825215     -1091.493776   3.71   3.07
C       0.316458    -0.475423    -0.233317
C      -0.519990     0.606054    -0.085589
C      -0.703537     1.573391    -1.114924
C      -0.031299     1.389652    -2.349324
C       0.820125     0.358367    -2.543918
C       1.210052    -0.588884    -1.448796
C       0.406068    -1.546494     0.788786
C       0.694531    -1.260883     2.123304
C       0.807277    -2.285793     3.052230
C       0.634446    -3.606774     2.660631
C       0.343073    -3.900657     1.333394
C       0.229515    -2.877603     0.404778
H      -0.262776     2.073578    -3.159758
H       1.261818     0.208368    -3.522359
H       1.156541    -1.616094    -1.833387
H       0.842309    -0.234131     2.438578
H       1.036307    -2.048656     4.085652
H       0.729196    -4.406989     3.387372
H       0.207918    -4.930481     1.020048
H      -0.008152    -3.115873    -0.627442
C      -1.264397     0.790191     1.138394
N      -1.846029     0.975633     2.112150
C      -2.885466     2.617104    -0.628138
O      -3.464304     3.570803    -0.149363
C      -3.608200     1.339148    -0.973014
C      -4.501204     0.897145    -0.095140
H      -5.085323     0.001370    -0.284248
H      -4.659211     1.415637     0.843587
C      -3.362758     0.674235    -2.306601
H      -3.232181     1.415151    -3.101620
H      -2.473407     0.038183    -2.299740
H      -4.219964     0.048264    -2.563572
N      -1.536815     2.697386    -0.940511
C      -0.876217     3.987945    -0.732725
H      -0.619537     4.131463     0.322145
H       0.035175     4.021827    -1.333242
H      -1.548592     4.788566    -1.037703
C       2.741392    -0.377110    -1.070404
C       2.951036     0.921841    -0.278258
C       3.619082    -0.369152    -2.337626
H       4.015930     1.075714    -0.085096
H       2.576137     1.769852    -0.857342
H       2.431073     0.895911     0.681046
H       3.408402    -1.233999    -2.973105
H       3.451518     0.544292    -2.911692
H       4.674196    -0.406200    -2.056084
C       3.209459    -1.518787    -0.260113
N       3.640060    -2.406387     0.328673
48
     -1091.825215     -1091.493681   3.71   3.13
C       0.117691    -0.539286    -0.365768
C       0.161843     0.834774    -0.332130
C      -0.963357     1.624243     0.041461
C      -2.156759     0.966493     0.432103
C      -2.265608    -0.380076     0.397375
C      -1.193706    -1.266046    -0.163614
C       1.325045    -1.359249    -0.630107
C       1.674085    -2.374196     0.263518
C       2.777378    -3.178102     0.021997
C       3.548462    -2.977853    -1.117372
C       3.211366    -1.968243    -2.009146
C       2.106652    -1.163332    -1.768735
H      -2.969271     1.575318     0.815894
H      -3.167315    -0.852335     0.769974
H      -1.031260    -2.105253     0.525789
H       1.083688    -2.531441     1.160979
H       3.034088    -3.965744     0.722504
H       4.409006    -3.610025    -1.310499
H       3.807218    -1.806813    -2.901084
H       1.846877    -0.385314    -2.477716
C       1.380473     1.533553    -0.668057
N       2.328498     2.114936    -0.958109
C      -0.014270     3.777668     0.782505
O       0.221739     4.931691     0.488671
C       0.596482     3.125403     1.997407
C       1.881317     3.368428     2.228975
H       2.386327     2.961123     3.099859
H       2.463876     3.971575     1.542062
C      -0.271334     2.314573     2.930275
H       0.193520     2.276672     3.917772
H      -1.264170     2.762442     3.038697
H      -0.409686     1.286263     2.585327
N      -0.918031     3.033526     0.039263
C      -1.611798     3.718526    -1.053704
H      -0.972633     3.789512    -1.940080
H      -2.516486     3.161230    -1.305438
H      -1.876033     4.726014    -0.735524
C      -1.701529    -1.941852    -1.512120
C      -1.734494    -0.932975    -2.669606
C      -3.097742    -2.565195    -1.316382
H      -2.369742    -0.085167    -2.399974
H      -0.736263    -0.560798    -2.906907
H      -2.145035    -1.404263    -3.566453
H      -3.353768    -3.177132    -2.184650
H      -3.126774    -3.206341    -0.430791
H      -3.853430    -1.783666    -1.215601
C      -0.805247    -3.059068    -1.869366
N      -0.171647    -3.970329    -2.166153
48
     -1091.825286     -1091.493406   3.67   3.31
C       0.121712    -1.025515     0.219872
C       0.608058     0.262899     0.205670
C      -0.123650     1.350022     0.746322
C      -1.332396     1.099428     1.434188
C      -1.867539    -0.142027     1.465983
C      -1.299948    -1.277022     0.667874
C       0.915592    -2.182224    -0.252041
C       1.004154    -3.331329     0.538307
C       1.711879    -4.438729     0.097998
C       2.344028    -4.415225    -1.140152
C       2.263767    -3.277580    -1.932484
C       1.553803    -2.169209    -1.493714
H      -1.810077     1.924228     1.952651
H      -2.766338    -0.326813     2.043088
H      -1.327575    -2.190324     1.274563
H       0.524380    -3.356921     1.511618
H       1.767769    -5.324712     0.721677
H       2.894589    -5.283532    -1.487329
H       2.750302    -3.251741    -2.901710
H       1.483170    -1.293863    -2.129291
C       1.919348     0.560183    -0.321218
N       2.959499     0.846356    -0.719589
C      -0.233680     3.462520    -0.319203
O      -1.076296     3.010432    -1.076320
C       0.163621     4.912356    -0.413493
C       0.004081     5.726699     0.622931
H       0.205188     6.790420     0.537866
H      -0.357924     5.369403     1.581771
C       0.602719     5.352468    -1.781359
H       1.517946     4.830735    -2.083031
H      -0.168310     5.100927    -2.514847
H       0.788633     6.428163    -1.803084
N       0.366900     2.678159     0.633576
C       1.502280     3.087170     1.460407
H       1.176142     3.563755     2.390218
H       2.089806     2.203675     1.709890
H       2.142588     3.776998     0.912027
C      -2.246141    -1.584794    -0.577525
C      -2.113303    -0.515606    -1.672409
C      -3.714803    -1.698039    -0.124949
H      -2.306637     0.476895    -1.259234
H      -1.114956    -0.515733    -2.113683
H      -2.835263    -0.710200    -2.469978
H      -3.819346    -2.376899     0.726295
H      -4.100539    -0.715240     0.153074
H      -4.325457    -2.086015    -0.943876
C      -1.884527    -2.902074    -1.137145
N      -1.667904    -3.943273    -1.572216
48
     -1091.825286     -1091.493405   3.67   3.31
C       0.208015    -1.074941     0.063092
C       0.572993     0.239840     0.249724
C      -0.283942     1.177104     0.879657
C      -1.499196     0.733585     1.448356
C      -1.918011    -0.541393     1.282009
C      -1.206045    -1.504645     0.380588
C       1.129552    -2.085099    -0.503723
C       1.828364    -1.849176    -1.689127
C       2.660040    -2.823350    -2.222366
C       2.803406    -4.047329    -1.582218
C       2.111781    -4.292601    -0.401252
C       1.282342    -3.319399     0.133524
H      -2.078135     1.436505     2.038282
H      -2.825275    -0.878616     1.770057
H      -1.181258    -2.491312     0.858948
H       1.710588    -0.904603    -2.207870
H       3.192474    -2.624738    -3.146405
H       3.449507    -4.810529    -2.003744
H       2.216529    -5.247282     0.103407
H       0.756334    -3.517737     1.062049
C       1.877163     0.716198    -0.147402
N       2.905880     1.141261    -0.436493
C      -0.531521     3.398095     0.094806
O      -1.287136     2.983890    -0.768368
C      -0.264863     4.875475     0.217117
C      -0.551700     5.524414     1.339347
H      -0.445148     6.602914     1.407693
H      -0.928359     5.010442     2.218009
C       0.201539     5.533522    -1.050542
H       0.289014     6.613873    -0.918830
H       1.174935     5.136492    -1.359927
H      -0.504654     5.320723    -1.857868
N       0.086817     2.544919     0.974258
C       1.135263     2.932042     1.918232
H       0.718918     3.250629     2.879052
H       1.786506     2.074847     2.088573
H       1.738460     3.740006     1.505873
C      -2.051978    -1.718406    -0.953515
C      -1.961032    -0.502126    -1.887321
C      -3.525690    -2.016854    -0.616395
H      -2.618370    -0.646424    -2.748894
H      -2.267408     0.404533    -1.360787
H      -0.944943    -0.357204    -2.258778
H      -3.611714    -2.812177     0.129565
H      -4.015312    -1.117684    -0.237248
H      -4.053326    -2.339617    -1.517224
C      -1.540120    -2.911135    -1.656744
N      -1.204632    -3.860669    -2.210040
48
     -1091.824931     -1091.492739   3.89   3.72
C      -0.127248    -0.938364     0.094862
C       0.332577     0.355288     0.015376
C      -0.545516     1.469145    -0.109236
C      -1.939127     1.259613     0.047846
C      -2.443445     0.009439     0.134290
C      -1.603635    -1.218423    -0.062987
C       0.782176    -2.086052     0.309914
C       1.918484    -2.265200    -0.481287
C       2.744686    -3.363283    -0.290760
C       2.446661    -4.299624     0.690679
C       1.318103    -4.130025     1.484885
C       0.493270    -3.032120     1.296540
H      -2.584887     2.125487     0.127110
H      -3.503749    -0.126498     0.314563
H      -1.897874    -1.970400     0.679765
H       2.151845    -1.548753    -1.261170
H       3.621477    -3.488960    -0.917106
H       3.090067    -5.161439     0.835281
H       1.077801    -4.858159     2.252443
H      -0.377902    -2.904279     1.931132
C       1.735238     0.648574     0.196895
N       2.840408     0.932663     0.339526
C      -0.369063     3.762368     0.580956
O      -1.012703     3.541966     1.588361
C       0.108322     5.159830     0.277341
C      -0.417074     5.848551    -0.728028
H      -0.140119     6.883172    -0.907340
H      -1.162132     5.416506    -1.389401
C       1.094193     5.710916     1.268560
H       1.336493     6.750927     1.041029
H       0.676366     5.649414     2.277810
H       2.020526     5.125324     1.265835
N      -0.029188     2.766568    -0.310539
C       0.865964     3.008465    -1.446370
H       1.152057     2.049032    -1.874545
H       0.368990     3.596058    -2.221731
H       1.773858     3.524396    -1.130418
C      -1.930095    -1.889140    -1.466693
C      -1.363315    -1.066927    -2.633254
C      -3.450093    -2.073144    -1.637414
H      -1.770656    -0.053271    -2.600540
H      -0.273969    -1.008447    -2.587779
H      -1.641783    -1.525231    -3.585949
H      -3.936239    -1.104714    -1.770765
H      -3.653590    -2.683397    -2.520729
H      -3.889138    -2.574831    -0.770504
C      -1.342914    -3.243051    -1.504772
N      -0.944712    -4.319050    -1.565964
48
     -1091.824931     -1091.492732   3.89   3.73
C      -0.038478    -1.044481     0.011764
C       0.223059     0.280662     0.270361
C      -0.684221     1.319101    -0.084282
C      -1.979501     0.966295    -0.540915
C      -2.290392    -0.321078    -0.806900
C      -1.273569    -1.424110    -0.771516
C       0.866174    -2.127738     0.457475
C       0.349206    -3.239485     1.127327
C       1.180589    -4.276951     1.519357
C       2.543304    -4.219473     1.249412
C       3.067881    -3.117301     0.586980
C       2.236102    -2.079432     0.192431
H      -2.721319     1.748914    -0.642106
H      -3.303384    -0.576025    -1.096861
H      -1.726544    -2.306855    -0.303229
H      -0.710821    -3.290240     1.354831
H       0.763204    -5.135473     2.034916
H       3.193516    -5.033694     1.552526
H       4.129418    -3.065196     0.369514
H       2.653787    -1.231032    -0.338350
C       1.380064     0.663074     1.045928
N       2.284233     1.016527     1.662371
C      -1.129437     3.481044     0.861374
O      -2.081027     3.048869     1.482197
C      -0.777869     4.945236     0.935743
C      -0.954597     5.735550    -0.115596
H      -0.781634     6.805699    -0.051060
H      -1.305242     5.349974    -1.068261
C      -0.356932     5.416801     2.299035
H      -1.127236     5.160323     3.032387
H       0.568384     4.922225     2.615587
H      -0.197079     6.496846     2.306285
N      -0.323610     2.672147     0.087957
C       0.903523     3.167925    -0.543127
H       1.471620     2.316962    -0.915697
H       0.675784     3.824415    -1.386102
H       1.526369     3.705445     0.173408
C      -0.915395    -1.890414    -2.248374
C      -0.057287    -0.847758    -2.979562
C      -2.198815    -2.177245    -3.050861
H       0.903669    -0.702280    -2.482007
H       0.134542    -1.172173    -4.005805
H      -0.585782     0.108472    -3.008125
H      -2.868473    -2.846130    -2.503015
H      -2.726339    -1.246152    -3.267108
H      -1.944533    -2.655564    -3.999870
C      -0.172638    -3.164721    -2.187169
N       0.367852    -4.178573    -2.194811
48
     -1091.823329     -1091.489839   4.90   5.54
C      -0.050184    -0.826120     0.110208
C       0.646087     0.273360    -0.418442
C      -0.007045     1.471955    -0.745678
C      -1.385217     1.621379    -0.375626
C      -2.108156     0.546641    -0.021089
C      -1.544613    -0.848684    -0.134907
C       0.576075    -1.838704     0.967070
C       1.768847    -1.563126     1.661790
C       2.355482    -2.506635     2.487981
C       1.759829    -3.749953     2.669838
C       0.559015    -4.026986     2.028132
C      -0.030213    -3.084877     1.199833
H      -1.827580     2.610774    -0.392285
H      -3.140114     0.660121     0.292600
H      -2.018084    -1.480230     0.620991
H       2.238151    -0.592382     1.579616
H       3.281424    -2.263562     2.998859
H       2.221541    -4.490668     3.314757
H       0.073392    -4.987161     2.168119
H      -0.958982    -3.345956     0.713901
C       2.074474     0.250258    -0.608040
N       3.209302     0.269410    -0.797683
C       0.599180     3.836949    -0.972949
O       0.833541     4.749108    -1.741751
C       0.284748     4.116905     0.471739
C       0.864381     3.412328     1.437779
H       0.712516     3.665398     2.482880
H       1.535292     2.587175     1.224439
C      -0.585458     5.318185     0.710292
H      -0.702460     5.505007     1.779582
H      -0.143765     6.196123     0.231841
H      -1.579127     5.182652     0.267997
N       0.684269     2.519653    -1.386289
C       1.171933     2.298588    -2.752733
H       0.446178     2.666532    -3.483968
H       2.112536     2.829026    -2.896271
H       1.337779     1.233138    -2.904487
C      -1.978332    -1.460237    -1.540139
C      -1.344113    -0.746851    -2.745617
C      -3.514551    -1.427088    -1.662048
H      -1.715950    -1.201999    -3.667574
H      -1.613494     0.310372    -2.750212
H      -0.257192    -0.841729    -2.739813
H      -3.862593    -0.397135    -1.765557
H      -3.831518    -1.985161    -2.546446
H      -3.992390    -1.876106    -0.786951
C      -1.576943    -2.877727    -1.624470
N      -1.302756    -3.987642    -1.741793
48
     -1091.821912     -1091.488717   5.79   6.25
C       0.231597    -0.627948     0.318709
C       0.596822     0.461685    -0.484267
C      -0.361523     1.343618    -1.015597
C      -1.723064     1.213115    -0.582863
C      -2.121020     0.099335     0.056590
C      -1.205724    -1.091217     0.200464
C       1.120836    -1.220729     1.325474
C       0.883501    -2.498751     1.857901
C       1.716764    -3.039776     2.824495
C       2.799340    -2.315768     3.308259
C       3.027085    -1.031365     2.826445
C       2.195942    -0.487975     1.861544
H      -2.417254     2.020658    -0.782247
H      -3.139991     0.011003     0.417381
H      -1.477845    -1.636664     1.107600
H       0.058864    -3.099859     1.503549
H       1.516353    -4.038554     3.198113
H       3.452860    -2.742976     4.062021
H       3.854032    -0.442076     3.208985
H       2.378178     0.529165     1.542416
C       1.975505     0.775660    -0.761321
N       3.060757     1.052429    -1.025438
C      -0.419141     3.669627    -1.782197
O      -0.479180     4.400468    -2.750307
C      -0.735972     4.162486    -0.392639
C      -1.754320     5.007660    -0.270674
H      -2.027501     5.431605     0.690945
H      -2.336731     5.302669    -1.137203
C       0.151131     3.755331     0.758513
H       1.202855     3.739756     0.456719
H       0.039226     4.469127     1.577267
H      -0.093678     2.761706     1.143206
N       0.018319     2.360574    -1.912828
C       0.499052     1.961867    -3.240263
H      -0.332409     1.896703    -3.948718
H       1.210978     2.700466    -3.605810
H       0.994668     0.994780    -3.165488
C      -1.484137    -2.094746    -1.004910
C      -1.095141    -1.531067    -2.381644
C      -2.972973    -2.493694    -1.005561
H      -1.647071    -0.613244    -2.589397
H      -0.024643    -1.329882    -2.444036
H      -1.344084    -2.265754    -3.152137
H      -3.290894    -2.844062    -0.019731
H      -3.591676    -1.641438    -1.294589
H      -3.143861    -3.298949    -1.724171
C      -0.711838    -3.338513    -0.820465
N      -0.146721    -4.334482    -0.722895
48
     -1091.821912     -1091.488706   5.79   6.25
C       0.268463    -0.773317    -0.146124
C       0.186358     0.404932    -0.901363
C      -0.505638     1.536892    -0.434014
C      -0.990930     1.530783     0.915969
C      -1.059772     0.375280     1.599990
C      -0.780593    -0.948464     0.932437
C       1.370682    -1.735236    -0.271031
C       2.612697    -1.345981    -0.805840
C       3.664368    -2.240752    -0.908207
C       3.521366    -3.548437    -0.457409
C       2.317707    -3.941020     0.114658
C       1.262826    -3.047730     0.217688
H      -1.300131     2.465957     1.367218
H      -1.391919     0.370506     2.632428
H      -0.403934    -1.648361     1.682592
H       2.774775    -0.326137    -1.127211
H       4.604533    -1.909481    -1.336913
H       4.344528    -4.250717    -0.540829
H       2.192389    -4.953779     0.483341
H       0.342053    -3.397622     0.661167
C       0.855247     0.544995    -2.169856
N       1.355330     0.694956    -3.195310
C      -0.434079     3.956599    -0.809802
O      -0.991937     4.903522    -1.326638
C       0.594542     4.136272     0.278229
C       0.357261     5.081701     1.181603
H       1.062933     5.294077     1.979094
H      -0.550790     5.673918     1.138855
C       1.861103     3.316197     0.243645
H       2.226403     3.201844    -0.781504
H       2.635670     3.813846     0.830822
H       1.720366     2.312988     0.654705
N      -0.673050     2.666659    -1.258093
C      -1.532437     2.534469    -2.439684
H      -1.185585     3.211684    -3.218831
H      -1.479858     1.510484    -2.807328
H      -2.568727     2.785544    -2.193644
C      -2.160109    -1.562617     0.425162
C      -2.823860    -0.748697    -0.697970
C      -3.129540    -1.696768     1.615964
H      -3.025415     0.270313    -0.364538
H      -2.200348    -0.718475    -1.592764
H      -3.773869    -1.218540    -0.966537
H      -4.016229    -2.259749     1.314508
H      -2.660897    -2.222177     2.452631
H      -3.450910    -0.709208     1.953775
C      -1.947426    -2.923571    -0.103978
N      -1.845859    -3.992148    -0.514662
48
     -1091.821030     -1091.487994   6.34   6.70
C       0.075191    -0.946310     0.128356
C       0.678427     0.289897     0.393110
C      -0.075856     1.424674     0.733880
C      -1.488349     1.283959     0.903256
C      -2.115541     0.159715     0.514377
C      -1.399003    -0.940188    -0.217440
C       0.805919    -2.217127     0.189996
C       0.360845    -3.350002    -0.510008
C       1.049708    -4.551257    -0.437815
C       2.191940    -4.662351     0.345925
C       2.628716    -3.560671     1.073265
C       1.941601    -2.359824     1.005090
H      -2.032716     2.093055     1.379178
H      -3.181576     0.045920     0.678928
H      -1.828562    -1.892755     0.101866
H      -0.524399    -3.307066    -1.129946
H       0.686567    -5.405816    -0.999458
H       2.731102    -5.602701     0.398529
H       3.507677    -3.636424     1.705016
H       2.282663    -1.531563     1.612788
C       2.103280     0.470278     0.267918
N       3.231016     0.662879     0.146467
C       0.101913     3.841167     0.511202
O       0.314961     4.905078     1.058503
C      -0.601515     3.788621    -0.820192
C      -0.035280     3.146806    -1.836679
H      -0.468283     3.177546    -2.832791
H       0.901820     2.611622    -1.720412
C      -1.849108     4.616584    -0.925690
H      -1.640929     5.641135    -0.605817
H      -2.225326     4.624940    -1.950890
H      -2.636613     4.228567    -0.269496
N       0.552256     2.650414     1.044352
C       1.388290     2.741866     2.247045
H       1.713221     1.741579     2.530039
H       2.263687     3.358420     2.042939
H       0.825684     3.189881     3.070703
C      -1.675667    -0.840644    -1.816243
C      -0.391906    -0.612630    -2.633323
C      -2.687668     0.262394    -2.184345
H      -0.635431    -0.605102    -3.699379
H       0.041686     0.355187    -2.376072
H       0.355487    -1.387742    -2.461048
H      -2.860427     0.245259    -3.263948
H      -3.649828     0.118538    -1.688783
H      -2.290665     1.241240    -1.911751
C      -2.277648    -2.119695    -2.238505
N      -2.754513    -3.115141    -2.559967
48
     -1091.820242     -1091.486946   6.83   7.36
C       0.282619    -1.138449    -0.270306
C       0.621881     0.234209    -0.154685
C      -0.178226     1.119892     0.558922
C      -1.342763     0.623514     1.237195
C      -1.797371    -0.611283     0.980474
C      -1.183070    -1.471351    -0.094677
C       1.275879    -2.188688    -0.459724
C       0.909707    -3.497053    -0.829720
C       1.859569    -4.492336    -0.989337
C       3.205524    -4.227557    -0.765411
C       3.587754    -2.953109    -0.359124
C       2.642181    -1.955928    -0.197877
H      -1.831438     1.267642     1.958724
H      -2.660219    -0.996980     1.512433
H      -1.281722    -2.518497     0.202691
H      -0.123308    -3.745776    -1.025030
H       1.541825    -5.483489    -1.296066
H       3.948089    -5.008253    -0.895029
H       4.631317    -2.733578    -0.158125
H       2.972797    -0.990300     0.159847
C       1.768159     0.774779    -0.838892
N       2.656427     1.249342    -1.395974
C      -0.749275     3.424038     0.307872
O      -1.790349     3.116688    -0.243347
C      -0.416551     4.874320     0.546280
C      -0.461262     5.385513     1.769956
H      -0.298586     6.445049     1.943665
H      -0.688539     4.773702     2.637939
C      -0.166676     5.669282    -0.704377
H      -1.019034     5.569288    -1.383085
H      -0.013622     6.724988    -0.471704
H       0.715931     5.295379    -1.235709
N       0.172090     2.484036     0.708076
C       1.474702     2.848585     1.274558
H       2.049942     1.937775     1.431174
H       2.036290     3.495827     0.598529
H       1.354208     3.348248     2.237645
C      -2.045117    -1.312799    -1.425696
C      -1.929902     0.080427    -2.064738
C      -3.523403    -1.629717    -1.123942
H      -2.584649     0.126240    -2.939490
H      -2.233479     0.860044    -1.364823
H      -0.911841     0.284169    -2.401259
H      -3.628521    -2.582255    -0.596652
H      -3.959701    -0.835844    -0.514340
H      -4.088958    -1.693566    -2.056784
C      -1.598655    -2.295884    -2.431652
N      -1.302450    -3.055582    -3.241774
48
     -1091.820242     -1091.486946   6.83   7.36
C       0.130620    -1.197514    -0.058719
C       0.588452     0.126080    -0.284922
C       0.154420     1.186628     0.502903
C      -0.733668     0.927528     1.601446
C      -1.338389    -0.263756     1.712957
C      -1.202117    -1.321436     0.647234
C       0.915801    -2.378189    -0.397725
C       2.300797    -2.285593    -0.648193
C       3.055118    -3.404608    -0.953621
C       2.463021    -4.662692    -0.998683
C       1.107912    -4.784566    -0.714656
C       0.348875    -3.667095    -0.409006
H      -0.891619     1.712689     2.331432
H      -1.987487    -0.469659     2.557071
H      -1.267353    -2.302598     1.124452
H       2.805136    -1.331187    -0.581416
H       4.116365    -3.292655    -1.150696
H       3.054530    -5.539477    -1.241697
H       0.631513    -5.759291    -0.734280
H      -0.702672    -3.808377    -0.205493
C       1.460607     0.430192    -1.389992
N       2.131138     0.717241    -2.280252
C      -0.298028     3.493950     0.090810
O      -1.485486     3.251319    -0.024074
C       0.202231     4.910155    -0.031572
C       0.624039     5.572556     1.038007
H       0.914263     6.617090     0.974978
H       0.669031     5.107558     2.018372
C       0.058576     5.504555    -1.404383
H       0.359970     6.553945    -1.408775
H       0.671050     4.960370    -2.132292
H      -0.981635     5.426539    -1.734586
N       0.633609     2.504667     0.305496
C       2.074930     2.773216     0.338252
H       2.600419     1.825056     0.437545
H       2.411380     3.256116    -0.580944
H       2.334590     3.400657     1.193014
C      -2.459946    -1.225570    -0.326700
C      -2.473063     0.051375    -1.182250
C      -3.759320    -1.316531     0.498017
H      -3.386406     0.067825    -1.783513
H      -2.455749     0.944199    -0.555824
H      -1.624129     0.083595    -1.867434
H      -4.617603    -1.426328    -0.169381
H      -3.743482    -2.174979     1.175681
H      -3.896436    -0.404573     1.082600
C      -2.465286    -2.374783    -1.252458
N      -2.526414    -3.260923    -1.981975
48
     -1091.818693     -1091.485967   7.81   7.97
C       0.125349    -1.082404    -0.097935
C       0.427439     0.285693    -0.234035
C      -0.525001     1.274435     0.024276
C      -1.791139     0.899733     0.574072
C      -2.168871    -0.391020     0.557879
C      -1.345338    -1.441756    -0.146418
C       1.130010    -2.101279     0.213026
C       2.368867    -1.747767     0.782174
C       3.316689    -2.706730     1.096043
C       3.053698    -4.054574     0.876652
C       1.820471    -4.429392     0.357285
C       0.869791    -3.472288     0.041085
H      -2.409779     1.671249     1.015789
H      -3.107537    -0.692350     1.009823
H      -1.490945    -2.397527     0.363470
H       2.589736    -0.714012     1.010421
H       4.264800    -2.396950     1.523328
H       3.798392    -4.805637     1.119746
H       1.593226    -5.477334     0.191200
H      -0.071594    -3.807473    -0.369537
C       1.739857     0.750253    -0.607405
N       2.756873     1.179120    -0.933139
C      -0.060985     3.442035     0.922278
O      -0.353447     3.042752     2.035199
C       0.513555     4.821647     0.744015
C       1.688003     4.974823     0.142229
H       2.168088     5.948049     0.093241
H       2.221755     4.135288    -0.293302
C      -0.244493     5.922588     1.429648
H       0.293460     6.869623     1.351964
H      -1.240275     6.049019     0.989728
H      -0.387963     5.670158     2.483817
N      -0.199514     2.640674    -0.188278
C      -0.137199     3.102648    -1.575677
H      -0.991335     2.697494    -2.124235
H      -0.194330     4.188592    -1.599976
H       0.787143     2.789591    -2.068686
C      -1.924206    -1.648815    -1.615014
C      -1.805649    -0.400076    -2.504007
C      -3.398398    -2.088757    -1.527243
H      -0.764754    -0.105154    -2.645557
H      -2.231394    -0.616844    -3.487428
H      -2.358582     0.429993    -2.062424
H      -3.765559    -2.370266    -2.517226
H      -3.517001    -2.948755    -0.862547
H      -4.014681    -1.267628    -1.154976
C      -1.194593    -2.731272    -2.302970
N      -0.671010    -3.572266    -2.885436
48
     -1091.818555     -1091.485550   7.89   8.23
C       0.312897    -0.795879     0.092033
C       0.471140     0.535582     0.495188
C      -0.631901     1.387153     0.695166
C      -1.949337     0.847156     0.564363
C      -2.137168    -0.373981     0.033133
C      -1.005438    -1.172089    -0.547648
C       1.341926    -1.825653     0.273680
C       2.334786    -1.701975     1.260458
C       3.297998    -2.682119     1.436089
C       3.288670    -3.827044     0.647509
C       2.291989    -3.986367    -0.308000
C       1.327846    -3.006724    -0.488188
H      -2.784390     1.434440     0.928732
H      -3.135701    -0.792519    -0.032565
H      -1.197459    -2.225792    -0.334224
H       2.346764    -0.842820     1.917978
H       4.056661    -2.551400     2.200781
H       4.044213    -4.593839     0.784748
H       2.259651    -4.881534    -0.920586
H       0.568171    -3.174462    -1.240721
C       1.777769     1.117362     0.674336
N       2.801619     1.628005     0.795513
C      -1.075641     3.783872     0.586928
O      -1.229656     4.827603     1.187441
C      -1.474083     3.624239    -0.858769
C      -2.750736     3.752318    -1.196597
H      -3.074154     3.675606    -2.230545
H      -3.512385     3.949067    -0.448700
C      -0.348412     3.432095    -1.839725
H       0.281484     4.327786    -1.859859
H       0.299613     2.597903    -1.559853
H      -0.734422     3.259128    -2.846652
N      -0.449905     2.702028     1.176853
C       0.083643     2.903243     2.528934
H       0.811316     3.715049     2.525927
H      -0.723723     3.156590     3.221160
H       0.570575     1.986294     2.858882
C      -0.979319    -1.044060    -2.168160
C       0.372403    -0.552300    -2.717928
C      -2.084798    -0.122159    -2.717539
H       0.334798    -0.539683    -3.810707
H       0.565588     0.464323    -2.372406
H       1.206286    -1.184718    -2.414766
H      -3.082473    -0.463244    -2.435352
H      -1.945106     0.894161    -2.346094
H      -2.031024    -0.106217    -3.809553
C      -1.232955    -2.393636    -2.706852
N      -1.429322    -3.451492    -3.111768
48
     -1091.818555     -1091.485545   7.89   8.24
C       0.199481    -0.806946     0.357194
C       0.844665     0.420460     0.163362
C       0.229833     1.643053     0.493686
C      -1.053788     1.618580     1.123020
C      -1.763150     0.477596     1.183210
C      -1.306118    -0.780711     0.502856
C       0.906062    -2.089988     0.440143
C       0.232530    -3.303901     0.220293
C       0.896220    -4.517542     0.311576
C       2.245828    -4.559762     0.641015
C       2.920646    -3.371726     0.897896
C       2.260164    -2.157098     0.809871
H      -1.424070     2.533179     1.571776
H      -2.721165     0.457110     1.691488
H      -1.600834    -1.624336     1.130673
H      -0.819227    -3.318426    -0.034935
H       0.349876    -5.436317     0.124518
H       2.764112    -5.510776     0.708911
H       3.969175    -3.388075     1.176696
H       2.804169    -1.254742     1.055711
C       2.153647     0.496214    -0.435527
N       3.182264     0.601579    -0.940062
C       0.362642     3.962882    -0.250386
O       0.782873     5.083611    -0.047696
C      -0.740951     3.687210    -1.240522
C      -1.941353     4.213902    -1.035571
H      -2.753815     4.065070    -1.740757
H      -2.146009     4.820744    -0.159199
C      -0.352252     2.903908    -2.465953
H       0.367021     3.478385    -3.059299
H       0.134128     1.959420    -2.209987
H      -1.225158     2.696107    -3.088591
N       0.930857     2.861723     0.361598
C       2.108380     3.106683     1.202262
H       2.898142     3.571695     0.611849
H       1.850643     3.771269     2.031176
H       2.467330     2.156701     1.596536
C      -2.080224    -0.987232    -0.911796
C      -1.126027    -1.150644    -2.109305
C      -3.062560     0.155305    -1.233400
H      -0.427096    -1.976791    -1.982029
H      -1.710878    -1.336257    -3.014421
H      -0.554311    -0.233101    -2.255869
H      -2.522038     1.097505    -1.335807
H      -3.570542    -0.061190    -2.177183
H      -3.824696     0.271908    -0.460823
C      -2.877612    -2.221776    -0.785505
N      -3.491801    -3.187018    -0.673005
48
     -1091.818292     -1091.485532   8.06   8.25
C       0.172966    -1.142149    -0.200713
C       0.500630     0.212876    -0.018062
C      -0.446062     1.225505    -0.215090
C      -1.815233     0.860796    -0.428285
C      -2.123992    -0.403241    -0.762714
C      -1.047501    -1.421429    -1.052747
C       0.858518    -2.233747     0.496793
C       0.769668    -3.564641     0.054426
C       1.406232    -4.591000     0.734221
C       2.132707    -4.328316     1.889248
C       2.197446    -3.024705     2.369211
C       1.562035    -1.997066     1.693029
H      -2.578273     1.618412    -0.298753
H      -3.159671    -0.699912    -0.886752
H      -1.429886    -2.415076    -0.805111
H       0.223457    -3.811006    -0.844514
H       1.334328    -5.604208     0.352506
H       2.633747    -5.133039     2.417640
H       2.740274    -2.804467     3.282620
H       1.593794    -1.003435     2.119264
C       1.808009     0.624060     0.427682
N       2.844397     1.004900     0.751875
C      -0.686364     3.359550     0.838949
O      -1.411724     2.873136     1.685953
C      -0.415396     4.841758     0.834618
C      -0.837921     5.601917    -0.168099
H      -0.723751     6.681564    -0.142867
H      -1.337860     5.179827    -1.034469
C       0.226713     5.361768     2.089502
H       1.225721     4.931563     2.223605
H       0.314329     6.449706     2.061008
H      -0.370229     5.068133     2.957781
N      -0.082168     2.590837    -0.130118
C       0.900853     3.117291    -1.078962
H       1.506648     2.293694    -1.453086
H       0.416317     3.608145    -1.928084
H       1.565562     3.827655    -0.588065
C      -0.772624    -1.445912    -2.620352
C      -0.148922    -0.147589    -3.158322
C      -2.088047    -1.742398    -3.366844
H       0.834748     0.033270    -2.722175
H      -0.026548    -0.230029    -4.241684
H      -0.798053     0.703413    -2.947133
H      -2.581326    -2.631187    -2.963891
H      -2.768185    -0.892268    -3.282496
H      -1.886356    -1.915976    -4.426707
C       0.161404    -2.537969    -2.955948
N       0.873665    -3.380475    -3.277965
