48
     -1091.834382     -1091.503926   0.00   0.00
C       1.548394     0.039333    -0.031616
C       0.763274     1.191676    -0.240889
C       1.275758     2.306040    -0.913693
C       2.574226     2.268664    -1.403000
C       3.343548     1.124781    -1.241181
C       2.842239     0.026249    -0.560340
C       1.029984    -1.119040     0.706405
C       1.293595    -2.443833     0.256589
C       0.785241    -3.527075     0.889983
C      -0.133398    -3.421838     2.070926
C      -0.213114    -2.017864     2.590202
C       0.303842    -0.960986     1.923607
H       2.971128     3.136814    -1.917305
H       4.354254     1.098280    -1.635648
H       3.467703    -0.846085    -0.406029
H       1.900070    -2.585395    -0.632810
H       1.006196    -4.523864     0.521192
H       0.244134    -4.075365     2.871986
H      -0.718992    -1.851694     3.535188
H       0.196171     0.033776     2.342516
C      -0.624609     1.204426     0.141080
N      -1.738164     1.206744     0.431247
C       0.289931     4.076201    -2.290759
O       0.002181     5.254431    -2.381245
C       0.389595     3.219377    -3.525219
C      -0.246797     2.055188    -3.588059
H      -0.258679     1.472970    -4.504760
H      -0.801696     1.658012    -2.744531
C       1.111603     3.851079    -4.681427
H       1.054185     3.215791    -5.567621
H       0.673197     4.827831    -4.902679
H       2.167837     4.021527    -4.443240
N       0.471776     3.469204    -1.064747
C       0.256775     4.288812     0.128934
H      -0.627303     4.906615    -0.019475
H       0.101364     3.633788     0.987248
H       1.114435     4.943064     0.320208
C      -1.571174    -3.987376     1.729455
C      -2.244158    -3.178384     0.610632
C      -2.460785    -4.017928     2.983650
H      -1.639604    -3.183985    -0.298002
H      -3.225942    -3.599987     0.378056
H      -2.374184    -2.142116     0.931171
H      -2.702451    -3.000643     3.298822
H      -3.397672    -4.538203     2.769246
H      -1.963544    -4.534705     3.809052
C      -1.394145    -5.380988     1.275075
N      -1.248630    -6.468694     0.933428
48
     -1091.834382     -1091.503917   0.00   0.01
C      -1.126871    -0.248212    -0.276475
C      -0.413101     0.621417    -1.126391
C      -0.993534     1.797242    -1.613892
C      -2.288723     2.124653    -1.236897
C      -2.987374     1.299075    -0.366944
C      -2.419013     0.125529     0.103569
C      -0.537674    -1.502398     0.208455
C      -0.722151    -1.917253     1.557801
C      -0.147848    -3.043117     2.043238
C       0.765813    -3.907342     1.225970
C       0.762152    -3.509699    -0.219369
C       0.180762    -2.372518    -0.663658
H      -2.738564     3.032759    -1.622529
H      -3.995720     1.566508    -0.067692
H      -2.990405    -0.530626     0.750837
H      -1.321279    -1.299434     2.219791
H      -0.309308    -3.331457     3.077261
H       0.430429    -4.952450     1.307144
H       1.259532    -4.162110    -0.928946
H       0.229404    -2.130277    -1.719869
C       0.972505     0.370111    -1.425103
N       2.084655     0.177076    -1.648859
C      -0.119675     3.982659    -2.293545
O       0.096314     4.752432    -3.210059
C      -0.170841     4.483329    -0.874147
C       0.534518     3.880868     0.076528
H       0.578971     4.287317     1.082650
H       1.114750     2.985260    -0.119472
C      -0.932913     5.763170    -0.678140
H      -0.839715     6.115669     0.351075
H      -0.554908     6.527667    -1.362140
H      -1.996840     5.629249    -0.905157
N      -0.261450     2.626624    -2.507386
C      -0.093154     2.141675    -3.878284
H       0.750749     2.655749    -4.335281
H       0.105189     1.069282    -3.854745
H      -0.988751     2.333663    -4.479335
C       2.234178    -3.905318     1.815531
C       2.854329    -2.500599     1.779375
C       3.127224    -4.909169     1.067137
H       3.859116    -2.520299     2.210372
H       2.922549    -2.153532     0.745745
H       2.248865    -1.787971     2.342140
H       4.093205    -5.002692     1.569677
H       2.664144    -5.898962     1.028924
H       3.307960    -4.564621     0.046732
C       2.140237    -4.353235     3.219273
N       2.059646    -4.713691     4.307656
48
     -1091.834382     -1091.503910   0.00   0.01
C      -0.892904     0.528502     0.396304
C       0.332811     1.225411     0.388907
C       0.371939     2.623591     0.363100
C      -0.817685     3.337733     0.322544
C      -2.030342     2.663445     0.286470
C      -2.070509     1.278437     0.328569
C      -0.942083    -0.937309     0.461503
C      -0.114304    -1.669768     1.362682
C      -0.121953    -3.021408     1.402664
C      -0.935666    -3.855921     0.460009
C      -1.899959    -3.022360    -0.330506
C      -1.868528    -1.668838    -0.334399
H      -0.784194     4.421457     0.310353
H      -2.956410     3.227733     0.243914
H      -3.025682     0.765124     0.340221
H       0.511566    -1.122652     2.059515
H       0.492151    -3.532776     2.136084
H      -1.503795    -4.597024     1.042526
H      -2.619611    -3.549605    -0.948996
H      -2.551764    -1.124142    -0.978898
C       1.576734     0.506555     0.298491
N       2.569230    -0.068862     0.208734
C       1.958140     4.275407    -0.506858
O       2.778276     5.134840    -0.246185
C       1.325690     4.215024    -1.872266
C       1.295643     3.072311    -2.548715
H       0.926861     3.036137    -3.569573
H       1.664268     2.144217    -2.124501
C       0.896835     5.540856    -2.433880
H       0.544140     5.430408    -3.461321
H       0.092017     5.982803    -1.835247
H       1.734968     6.242342    -2.408394
N       1.625132     3.294385     0.404949
C       2.334583     3.298751     1.685377
H       3.387945     3.507807     1.506473
H       1.933718     4.064968     2.358023
H       2.233772     2.317728     2.151592
C      -0.006767    -4.713259    -0.491698
C       0.872771    -5.676864     0.322688
C       0.861429    -3.817931    -1.388229
H       1.404003    -6.359179    -0.345631
H       1.615137    -5.116607     0.895059
H       0.271105    -6.273852     1.013483
H       1.517248    -3.200913    -0.769609
H       1.478301    -4.431612    -2.050503
H       0.245049    -3.157564    -2.000702
C      -0.892934    -5.531311    -1.343428
N      -1.589626    -6.172956    -1.994515
48
     -1091.835037     -1091.503339  -0.41   0.37
C       1.107457     1.264741     0.152443
C       1.596675     0.304999    -0.756104
C       2.921553     0.338769    -1.205959
C       3.748210     1.378747    -0.801960
C       3.262295     2.362129     0.049481
C       1.963948     2.302362     0.530952
C      -0.258102     1.184749     0.684570
C      -0.804208    -0.053781     1.134372
C      -2.075614    -0.153773     1.582764
C      -3.032189     1.000350     1.565663
C      -2.337465     2.294576     1.261361
C      -1.056434     2.354607     0.827404
H       4.775003     1.401190    -1.150718
H       3.914351     3.172351     0.359197
H       1.612099     3.049844     1.233423
H      -0.165883    -0.930731     1.149740
H      -2.432682    -1.106965     1.957534
H      -3.512514     1.079089     2.552508
H      -2.920085     3.205207     1.359658
H      -0.631508     3.316776     0.557838
C       0.712181    -0.682141    -1.313350
N       0.007526    -1.463283    -1.779068
C       3.350277    -2.001659    -1.896887
O       3.507870    -2.778215    -2.818871
C       3.154286    -2.519966    -0.495960
C       3.807753    -1.986115     0.531101
H       3.736489    -2.422346     1.523108
H       4.454670    -1.122906     0.421104
C       2.314159    -3.761869    -0.396021
H       2.278160    -4.117845     0.635755
H       1.294720    -3.574924    -0.745953
H       2.736015    -4.541160    -1.035947
N       3.415757    -0.637893    -2.108550
C       3.716398    -0.199496    -3.473063
H       2.854745    -0.353961    -4.130507
H       3.970202     0.861215    -3.454493
H       4.556343    -0.773389    -3.863839
C      -4.221125     0.739267     0.554195
C      -5.020438    -0.510743     0.959006
C      -3.715081     0.610885    -0.890330
H      -5.328699    -0.461339     2.006934
H      -5.918158    -0.601010     0.342256
H      -4.415695    -1.407989     0.811044
H      -3.184198     1.511543    -1.203320
H      -3.030160    -0.236691    -0.968588
H      -4.554992     0.447790    -1.571225
C      -5.130788     1.898791     0.643792
N      -5.839028     2.800038     0.728415
48
     -1091.835037     -1091.503337  -0.41   0.37
C      -0.559311     0.983523     0.676019
C       0.342649     1.461097    -0.295722
C       0.465972     2.829363    -0.563046
C      -0.264718     3.736247     0.193113
C      -1.115933     3.281887     1.191666
C      -1.272005     1.924490     1.424463
C      -0.745725    -0.454673     0.902167
C      -0.870608    -0.976991     2.220457
C      -0.984875    -2.305904     2.452619
C      -0.928780    -3.329565     1.357523
C      -0.996518    -2.696453     0.000351
C      -0.871985    -1.363818    -0.189635
H      -0.168457     4.795852    -0.017628
H      -1.682209     3.997261     1.779146
H      -1.976248     1.581263     2.174282
H      -0.849549    -0.290740     3.061654
H      -1.078598    -2.672705     3.469983
H      -1.779354    -4.018215     1.471798
H      -1.135741    -3.344170    -0.858487
H      -0.905375    -0.966495    -1.198475
C       1.226401     0.551489    -0.973133
N       1.950641    -0.166352    -1.505858
C       1.374091     2.881853    -2.867704
O       2.338322     3.093178    -3.577302
C       0.147056     2.217917    -3.436232
C      -1.069490     2.686297    -3.176410
H      -1.943791     2.263930    -3.662886
H      -1.238657     3.517366    -2.500809
C       0.425696     1.122426    -4.426373
H       0.969650     0.297939    -3.956277
H      -0.506709     0.741021    -4.847949
H       1.058182     1.508170    -5.230069
N       1.363485     3.306255    -1.552896
C       2.543068     4.041067    -1.091245
H       2.312144     4.513460    -0.135536
H       3.396769     3.367426    -0.965048
H       2.808977     4.802021    -1.824612
C       0.355962    -4.243400     1.495809
C       1.648237    -3.423372     1.366209
C       0.332954    -5.381281     0.461399
H       1.695675    -2.640283     2.124830
H       2.520341    -4.072825     1.481597
H       1.689920    -2.951418     0.381755
H      -0.611659    -5.930795     0.498290
H       0.467375    -4.977804    -0.544481
H       1.145999    -6.085159     0.656189
C       0.309469    -4.858865     2.837096
N       0.259210    -5.342255     3.878644
48
     -1091.834193     -1091.503273   0.12   0.41
C      -1.224951    -0.172498    -0.501434
C      -0.580714     1.046148    -0.205941
C      -1.037712     2.256024    -0.739082
C      -2.132972     2.253768    -1.592008
C      -2.750165     1.056067    -1.925027
C      -2.308050    -0.141420    -1.384104
C      -0.772712    -1.440360     0.085292
C      -0.450093    -1.547146     1.468349
C       0.006852    -2.700895     2.006598
C       0.289835    -3.924073     1.187000
C      -0.234650    -3.790957    -0.211366
C      -0.702111    -2.621857    -0.708701
H      -2.489711     3.193931    -1.997674
H      -3.599225     1.060426    -2.600983
H      -2.824279    -1.065219    -1.621122
H      -0.604125    -0.687273     2.111284
H       0.223741    -2.753558     3.068734
H      -0.191964    -4.790777     1.664425
H      -0.223274    -4.671704    -0.844909
H      -1.017034    -2.573409    -1.746895
C       0.632709     1.056383     0.568638
N       1.612457     1.061682     1.172065
C       0.031479     4.379360    -1.330496
O       0.165220     5.559368    -1.068013
C       0.395657     3.856440    -2.694997
C       1.180065     2.791725    -2.818974
H       1.524780     2.461440    -3.794443
H       1.530757     2.233564    -1.957186
C      -0.060366     4.708434    -3.845351
H      -1.154365     4.741238    -3.904522
H       0.282011     5.736874    -3.702949
H       0.326550     4.322253    -4.790542
N      -0.393084     3.471947    -0.381271
C      -0.630561     3.977372     0.971877
H      -0.627947     3.139450     1.670301
H       0.165672     4.671212     1.236218
H      -1.589831     4.502620     1.036222
C       1.835523    -4.262826     1.195509
C       2.668566    -3.112671     0.610141
C       2.116678    -5.574085     0.442795
H       3.732180    -3.364916     0.637618
H       2.376651    -2.943615    -0.429033
H       2.515470    -2.185510     1.164961
H       3.158014    -5.874317     0.583630
H       1.475734    -6.383195     0.803681
H       1.944928    -5.438459    -0.627183
C       2.224996    -4.466438     2.605223
N       2.517760    -4.636516     3.703544
48
     -1091.834193     -1091.503269   0.12   0.41
C       0.735032    -0.329590     1.034117
C       1.430618     0.369586     0.026763
C       2.819279     0.262465    -0.103698
C       3.522702    -0.564380     0.761527
C       2.845115    -1.291337     1.730403
C       1.470944    -1.173079     1.870843
C      -0.717508    -0.191468     1.199403
C      -1.528560    -1.333243     1.463746
C      -2.875838    -1.245981     1.563212
C      -3.621759     0.037848     1.354362
C      -2.694715     1.213332     1.271830
C      -1.352868     1.082610     1.162267
H       4.599912    -0.639494     0.662981
H       3.400060    -1.944184     2.396484
H       0.959006    -1.715939     2.657799
H      -1.048859    -2.301711     1.570185
H      -3.451081    -2.137191     1.791383
H      -4.311168     0.187795     2.199024
H      -3.144658     2.200937     1.260227
H      -0.739470     1.972761     1.073647
C       0.708470     1.127799    -0.961212
N       0.129358     1.718311    -1.761200
C       4.380373     0.437035    -1.983678
O       5.262827     1.081502    -2.517655
C       4.183981    -1.016092    -2.326953
C       2.979922    -1.472590    -2.652713
H       2.842225    -2.495174    -2.991563
H       2.099049    -0.839758    -2.624456
C       5.446919    -1.824876    -2.416562
H       5.944231    -1.891808    -1.442080
H       5.234721    -2.836742    -2.767738
H       6.149197    -1.340333    -3.100095
N       3.493908     1.019385    -1.100679
C       3.625808     2.458513    -0.867531
H       3.817092     2.955595    -1.817057
H       2.695706     2.836803    -0.441219
H       4.454505     2.675047    -0.184464
C      -4.553649    -0.035478     0.077541
C      -5.575613    -1.177478     0.205798
C      -3.733012    -0.185012    -1.212287
H      -5.070434    -2.143750     0.143669
H      -6.115186    -1.121360     1.155229
H      -6.305530    -1.123715    -0.605798
H      -3.035950     0.644689    -1.341093
H      -3.158645    -1.113580    -1.173032
H      -4.397186    -0.221492    -2.080158
C      -5.307982     1.232653     0.020391
N      -5.901100     2.216642    -0.010015
48
     -1091.834193     -1091.503265   0.12   0.41
C      -1.026194     0.097222    -0.883747
C      -0.437858     1.156398    -0.163011
C      -0.717359     2.490629    -0.476988
C      -1.573384     2.777026    -1.531639
C      -2.125825     1.744415    -2.276509
C      -1.862243     0.421690    -1.955609
C      -0.765862    -1.305069    -0.534350
C      -0.790858    -1.752085     0.817645
C      -0.510775    -3.032976     1.150086
C      -0.072425    -4.056087     0.145556
C      -0.239176    -3.562927    -1.260580
C      -0.538946    -2.275597    -1.553131
H      -1.794246     3.811999    -1.767831
H      -2.785669     1.975734    -3.106530
H      -2.332085    -0.375876    -2.520600
H      -1.071495    -1.051851     1.597000
H      -0.559108    -3.345215     2.188409
H      -0.679434    -4.964789     0.276012
H      -0.099995    -4.273417    -2.068698
H      -0.591859    -1.964608    -2.592293
C       0.551863     0.885457     0.846698
N       1.356205     0.668818     1.640522
C       0.524934     4.592607    -0.276573
O       0.626188     5.665484     0.287225
C       1.192880     4.365145    -1.607023
C       1.953195     3.293708    -1.802497
H       2.513726     3.166126    -2.723902
H       2.069191     2.526057    -1.044562
C       1.052767     5.492521    -2.590160
H       0.006841     5.631177    -2.887190
H       1.379927     6.428409    -2.129426
H       1.645279     5.300247    -3.486925
N      -0.143773     3.532942     0.301869
C      -0.686805     3.734627     1.646216
H       0.040895     4.280332     2.244493
H      -1.618430     4.310230     1.615132
H      -0.875898     2.762405     2.103343
C       1.415243    -4.517907     0.424206
C       2.397022    -3.339512     0.340781
C       1.833232    -5.641515    -0.539027
H       2.369976    -2.913319    -0.664854
H       2.140352    -2.554065     1.053581
H       3.414909    -3.680843     0.548284
H       1.929170    -5.250898    -1.554388
H       2.800782    -6.053349    -0.241376
H       1.101641    -6.454213    -0.540845
C       1.446328    -5.070579     1.793154
N       1.459809    -5.511295     2.854537
48
     -1091.834193     -1091.503255   0.12   0.42
C      -0.521195     0.275412    -1.371076
C       0.654622    -0.502215    -1.357086
C       1.509032    -0.545040    -2.463891
C       1.204298     0.209006    -3.588900
C       0.072330     1.012027    -3.599824
C      -0.783537     1.042306    -2.509580
C      -1.440931     0.294486    -0.226520
C      -2.021847     1.518430     0.215985
C      -2.826728     1.576261     1.302953
C      -3.128178     0.377710     2.151976
C      -2.641800    -0.890664     1.517433
C      -1.828475    -0.904792     0.436713
H       1.864335     0.167885    -4.448198
H      -0.154089     1.607307    -4.478579
H      -1.685607     1.643118    -2.546649
H      -1.795192     2.431004    -0.327344
H      -3.267992     2.525590     1.588056
H      -4.217460     0.309247     2.293307
H      -2.934190    -1.824671     1.986560
H      -1.484978    -1.856017     0.044717
C       1.057490    -1.186981    -0.156559
N       1.388132    -1.718742     0.808822
C       3.915290    -0.900622    -2.755953
O       4.793819    -1.639905    -3.156990
C       4.193981     0.562304    -2.531973
C       3.859171     1.141959    -1.384729
H       4.137762     2.170587    -1.175519
H       3.327166     0.606952    -0.605018
C       4.991892     1.230982    -3.615201
H       4.436669     1.252579    -4.560018
H       5.240793     2.256758    -3.335814
H       5.911284     0.668620    -3.798663
N       2.661253    -1.377794    -2.432880
C       2.442118    -2.820776    -2.545040
H       2.290144    -3.118712    -3.588286
H       3.314597    -3.343256    -2.156359
H       1.564397    -3.094293    -1.957900
C      -2.538622     0.539508     3.611568
C      -3.116100     1.785126     4.304370
C      -1.003460     0.589834     3.597861
H      -2.733747     2.691378     3.829752
H      -4.208455     1.794791     4.255668
H      -2.820746     1.802920     5.356419
H      -0.577881    -0.310566     3.151709
H      -0.672430     1.452095     3.014253
H      -0.619962     0.689749     4.616980
C      -2.971745    -0.641269     4.385273
N      -3.323756    -1.556510     4.984746
48
     -1091.833880     -1091.503011   0.32   0.57
C      -0.731965     0.541238     0.471767
C       0.320320     1.196782    -0.198552
C       0.402845     2.592715    -0.225729
C      -0.564935     3.346157     0.423928
C      -1.603436     2.713816     1.093218
C      -1.683800     1.330189     1.123647
C      -0.847388    -0.923793     0.483696
C      -1.195265    -1.609324     1.683693
C      -1.267350    -2.960076     1.741597
C      -0.943199    -3.839653     0.571345
C      -0.763902    -3.046728    -0.688537
C      -0.686719    -1.696069    -0.701653
H      -0.493841     4.428070     0.403329
H      -2.358699     3.308603     1.596857
H      -2.512861     0.847301     1.629291
H      -1.392162    -1.026937     2.579031
H      -1.562357    -3.437276     2.670271
H      -1.769247    -4.552612     0.426412
H      -0.657229    -3.602993    -1.614359
H      -0.529144    -1.184720    -1.644910
C       1.363579     0.437894    -0.837532
N       2.205553    -0.167057    -1.336613
C       1.306659     4.198111    -1.837013
O       2.153159     5.038378    -2.074969
C       0.031293     4.155286    -2.637628
C      -0.389069     3.015137    -3.173723
H      -1.255389     2.989632    -3.828067
H       0.131379     2.077907    -3.007286
C      -0.605277     5.492326    -2.890362
H       0.126460     6.172808    -3.333826
H      -1.463313     5.392967    -3.558314
H      -0.943706     5.952284    -1.954837
N       1.499589     3.225928    -0.876970
C       2.777374     3.230946    -0.162027
H       2.940848     2.249687     0.285007
H       3.576582     3.443706    -0.869939
H       2.789635     3.996286     0.622102
C       0.324762    -4.741300     0.857405
C       0.100608    -5.633409     2.089870
C       1.593683    -3.892500     1.026701
H       0.915673    -6.354960     2.186752
H       0.077435    -5.024822     2.996406
H      -0.838966    -6.187349     2.012182
H       1.470091    -3.218264     1.877480
H       2.457073    -4.536951     1.213789
H       1.792747    -3.291471     0.137911
C       0.495589    -5.629495    -0.309782
N       0.614748    -6.326663    -1.215701
48
     -1091.833880     -1091.503009   0.32   0.58
C       0.577899    -0.569406    -1.311081
C       1.387213    -0.244563    -0.203897
C       2.770700    -0.447579    -0.234224
C       3.356750    -0.984128    -1.372201
C       2.571147    -1.314422    -2.467656
C       1.199347    -1.116869    -2.436900
C      -0.872762    -0.334213    -1.304033
C      -1.428895     0.893354    -0.844603
C      -2.765196     1.101946    -0.809976
C      -3.763909     0.043813    -1.172058
C      -3.107769    -1.150811    -1.797015
C      -1.764208    -1.315097    -1.827627
H       4.429298    -1.143430    -1.388841
H       3.035754    -1.730939    -3.355632
H       0.598524    -1.356199    -3.307492
H      -0.761058     1.693094    -0.543854
H      -3.154295     2.057607    -0.473418
H      -4.483435     0.466826    -1.889701
H      -3.746425    -1.912540    -2.231839
H      -1.348840    -2.226172    -2.248323
C       0.797791     0.266516     1.006052
N       0.326741     0.661798     1.978590
C       4.664087     0.673045     0.837990
O       5.573493     0.595918     1.641897
C       4.690775     1.722725    -0.242211
C       3.635642     2.502297    -0.449589
H       3.675613     3.321456    -1.161423
H       2.711018     2.373495     0.103082
C       6.017669     1.898814    -0.924205
H       6.298793     0.997508    -1.480909
H       5.987535     2.740489    -1.619137
H       6.797950     2.068827    -0.177604
N       3.557085    -0.147182     0.914382
C       3.507518    -1.108974     2.017284
H       2.475100    -1.425949     2.169189
H       4.131540    -1.984949     1.807454
H       3.874923    -0.627306     2.921796
C      -4.635882    -0.364129     0.083245
C      -3.764438    -0.925057     1.216924
C      -5.729981    -1.371253    -0.308827
H      -3.015225    -0.200282     1.539709
H      -4.386948    -1.190769     2.075784
H      -3.247565    -1.822568     0.869057
H      -6.415894    -1.527959     0.527427
H      -6.309716    -1.013241    -1.164058
H      -5.281968    -2.333895    -0.564421
C      -5.308692     0.861312     0.558657
N      -5.839240     1.816473     0.915191
48
     -1091.834860     -1091.502891  -0.30   0.65
C      -1.005998     0.554283     0.703819
C      -0.074634     1.457818     0.154615
C      -0.242543     2.841511     0.280977
C      -1.311065     3.329709     1.021385
C      -2.205623     2.448885     1.614526
C      -2.064374     1.079821     1.450111
C      -0.872132    -0.894064     0.505166
C      -1.118726    -1.802292     1.575349
C      -0.943998    -3.137210     1.434313
C      -0.430466    -3.757224     0.169116
C      -0.387136    -2.768806    -0.957511
C      -0.555738    -1.439985    -0.771952
H      -1.439720     4.402528     1.115996
H      -3.037165     2.838537     2.192690
H      -2.797639     0.405003     1.877877
H      -1.438890    -1.405830     2.534390
H      -1.168689    -3.794205     2.268037
H      -1.093782    -4.588881    -0.112425
H      -0.167400    -3.153717    -1.948201
H      -0.478924    -0.772420    -1.623382
C       1.123686     0.970961    -0.473382
N       2.095275     0.593207    -0.959985
C       1.067135     3.751785    -1.615148
O       2.070898     4.338470    -1.970340
C       0.182474     3.080765    -2.633366
C      -1.138800     3.220305    -2.593031
H      -1.765344     2.814153    -3.381658
H      -1.640536     3.762821    -1.799520
C       0.916403     2.405758    -3.757569
H       1.581253     3.124339    -4.243742
H       1.542175     1.590207    -3.383511
H       0.211533     2.007951    -4.490701
N       0.688556     3.749198    -0.286363
C       1.532227     4.510206     0.637539
H       2.483018     3.995743     0.810271
H       1.742721     5.492279     0.214675
H       1.004937     4.621418     1.585936
C       0.987998    -4.424187     0.386911
C       0.924069    -5.513909     1.470127
C       2.056873    -3.377101     0.734189
H       0.118319    -6.225300     1.269174
H       1.866454    -6.066148     1.506278
H       0.758702    -5.061269     2.450196
H       1.786411    -2.876164     1.666644
H       3.029144    -3.859683     0.866145
H       2.145805    -2.621313    -0.047977
C       1.355967    -5.080229    -0.883840
N       1.629369    -5.599560    -1.872025
48
     -1091.834860     -1091.502890  -0.30   0.65
C       0.481537     1.398006     0.598917
C       0.189924     1.465914    -0.777961
C       0.228165     2.681726    -1.470139
C       0.491072     3.851973    -0.770372
C       0.725818     3.805989     0.597357
C       0.733140     2.595948     1.273417
C       0.517604     0.113432     1.308579
C       1.169045    -1.023243     0.749312
C       1.171240    -2.222778     1.373594
C       0.421558    -2.475892     2.647188
C      -0.078718    -1.202504     3.261245
C      -0.045718    -0.015543     2.611277
H       0.521937     4.792465    -1.309785
H       0.929087     4.725220     1.137043
H       0.966044     2.569159     2.332227
H       1.703481    -0.913121    -0.188092
H       1.695296    -3.063259     0.929905
H       1.093159    -2.974129     3.362461
H      -0.493834    -1.249378     4.262597
H      -0.475171     0.862526     3.084573
C      -0.244444     0.291977    -1.485481
N      -0.612195    -0.636350    -2.056825
C       0.593122     1.989882    -3.821150
O       0.114148     1.864848    -4.931488
C       1.934233     1.381914    -3.502626
C       2.862331     2.071573    -2.846987
H       3.858937     1.664982    -2.702398
H       2.678719     3.067338    -2.459098
C       2.177924     0.034888    -4.122519
H       3.193009    -0.306755    -3.909324
H       1.464964    -0.704618    -3.746404
H       2.034463     0.098816    -5.204218
N      -0.050796     2.744870    -2.859716
C      -1.297002     3.398501    -3.264986
H      -1.154623     3.891091    -4.226580
H      -2.105317     2.667111    -3.366071
H      -1.570282     4.135722    -2.508887
C      -0.756894    -3.505333     2.410939
C      -1.766559    -2.980617     1.379082
C      -1.462024    -3.848799     3.733718
H      -2.562411    -3.714016     1.223021
H      -2.213282    -2.053466     1.745672
H      -1.288426    -2.775207     0.419863
H      -0.742674    -4.155818     4.497894
H      -2.017740    -2.982896     4.099992
H      -2.170358    -4.667211     3.582624
C      -0.147598    -4.747674     1.895221
N       0.335407    -5.715541     1.506761
48
     -1091.834073     -1091.502827   0.19   0.69
C       0.948497     0.998766    -0.199912
C       1.250771    -0.219674    -0.840866
C       2.512333    -0.450412    -1.398984
C       3.482138     0.539724    -1.326221
C       3.196388     1.746816    -0.703527
C       1.945149     1.977627    -0.153373
C      -0.362482     1.244044     0.416673
C      -0.992012     0.269059     1.244817
C      -2.212096     0.475008     1.790988
C      -3.028325     1.701722     1.514718
C      -2.237225     2.742886     0.779964
C      -1.011497     2.500925     0.257813
H       4.457184     0.357165    -1.764359
H       3.959870     2.516095    -0.647422
H       1.740387     2.915227     0.351720
H      -0.458692    -0.647692     1.471567
H      -2.630165    -0.277686     2.450664
H      -3.365567     2.125666     2.472923
H      -2.703468     3.713353     0.641338
H      -0.516239     3.277810    -0.316896
C       0.247124    -1.243124    -0.973862
N      -0.558993    -2.055729    -1.091962
C       3.860180    -2.463279    -1.748276
O       4.355505    -3.233336    -2.548843
C       4.384116    -2.391403    -0.337718
C       3.550799    -2.459503     0.694270
H       3.923520    -2.501371     1.713416
H       2.475443    -2.509049     0.559677
C       5.881379    -2.393083    -0.215372
H       6.184518    -2.441981     0.832470
H       6.296034    -3.247875    -0.756248
H       6.315582    -1.491129    -0.661744
N       2.775366    -1.675698    -2.075329
C       2.226394    -1.814488    -3.425619
H       2.216709    -2.869085    -3.695576
H       1.206776    -1.427645    -3.438557
H       2.833069    -1.269956    -4.157866
C      -4.359782     1.341388     0.740070
C      -5.238543     0.391442     1.571173
C      -4.062514     0.733341    -0.638686
H      -5.402361     0.783789     2.578547
H      -6.212244     0.261935     1.092060
H      -4.765170    -0.589721     1.647490
H      -4.996097     0.513589    -1.163970
H      -3.471421     1.416382    -1.251261
H      -3.500329    -0.195578    -0.518272
C      -5.111961     2.598816     0.558374
N      -5.696615     3.580107     0.430947
48
     -1091.834073     -1091.502823   0.19   0.69
C      -0.793755     0.355165     0.495051
C       0.047507     1.206385    -0.249604
C      -0.198560     2.581103    -0.326173
C      -1.286492     3.118163     0.347747
C      -2.119718     2.292733     1.089945
C      -1.874391     0.930723     1.169290
C      -0.564818    -1.094770     0.560538
C      -0.699930    -1.792257     1.794015
C      -0.456494    -3.120553     1.893831
C       0.022697    -3.948732     0.738747
C      -0.029971    -3.187262    -0.551515
C      -0.271942    -1.857744    -0.607716
H      -1.470149     4.185291     0.288453
H      -2.970446     2.718297     1.612439
H      -2.545562     0.291630     1.732522
H      -0.985526    -1.236454     2.682068
H      -0.570391    -3.622113     2.849797
H      -0.620061    -4.838030     0.651367
H       0.143712    -3.732651    -1.472867
H      -0.280631    -1.361825    -1.572218
C       1.210710     0.682204    -0.916410
N       2.147807     0.265477    -1.438222
C       0.237034     4.280530    -2.032797
O       0.853683     5.282559    -2.340908
C      -1.026279     3.909694    -2.764824
C      -1.192262     2.681161    -3.241485
H      -2.055966     2.428023    -3.849161
H      -0.461408     1.897534    -3.071947
C      -1.966680     5.051377    -3.027470
H      -2.362381     5.461135    -2.091085
H      -1.433046     5.862392    -3.530108
H      -2.805888     4.727630    -3.646481
N       0.691850     3.421617    -1.053271
C       1.962553     3.752846    -0.405577
H       1.829618     4.533828     0.351492
H       2.368762     2.856357     0.064249
H       2.659492     4.113306    -1.160225
C       1.472697    -4.521597     1.007072
C       2.504634    -3.394225     1.159377
C       1.894441    -5.492717    -0.108459
H       2.234638    -2.720576     1.974536
H       3.493540    -3.812601     1.366304
H       2.555299    -2.813784     0.235276
H       2.050558    -4.948773    -1.042450
H       2.832065    -5.987720     0.156584
H       1.135104    -6.262534    -0.270836
C       1.411394    -5.289922     2.266368
N       1.352771    -5.895552     3.241439
48
     -1091.834073     -1091.502800   0.19   0.71
C      -0.534506     0.108766    -1.171971
C       0.821557    -0.275736    -1.165325
C       1.515599    -0.501949    -2.358399
C       0.856395    -0.351335    -3.570398
C      -0.480586     0.020817    -3.591819
C      -1.170106     0.241608    -2.409727
C      -1.268306     0.378407     0.072148
C      -0.704417     1.170839     1.114648
C      -1.361141     1.398421     2.274929
C      -2.691541     0.782829     2.588726
C      -3.288750     0.107003     1.390261
C      -2.601460    -0.091247     0.240517
H       1.398120    -0.532119    -4.492276
H      -0.989765     0.139667    -4.542846
H      -2.207876     0.555181    -2.438768
H       0.263359     1.633611     0.954878
H      -0.910063     2.044945     3.019938
H      -3.377482     1.575111     2.925486
H      -4.304782    -0.263266     1.485062
H      -3.069552    -0.642085    -0.569784
C       1.514262    -0.487375     0.078784
N       2.064171    -0.669499     1.073034
C       3.860641    -0.263338    -3.017317
O       4.885058    -0.820356    -3.363070
C       3.663943     1.205057    -3.290203
C       3.279247     2.024767    -2.318534
H       3.223190     3.097236    -2.479777
H       3.039876     1.662013    -1.324519
C       4.076374     1.657022    -4.662210
H       5.104825     1.344337    -4.861380
H       3.447822     1.199520    -5.434811
H       4.000924     2.742646    -4.751574
N       2.873724    -0.928452    -2.318949
C       3.113718    -2.335099    -1.990854
H       2.926242    -2.981268    -2.855773
H       4.151805    -2.453625    -1.685128
H       2.458350    -2.627549    -1.169632
C      -2.587879    -0.211459     3.814810
C      -2.120854     0.525504     5.081350
C      -1.657484    -1.393479     3.504571
H      -1.080183     0.838359     4.973130
H      -2.736553     1.408046     5.275280
H      -2.187820    -0.135595     5.949036
H      -0.648557    -1.025510     3.304325
H      -1.619306    -2.078009     4.356483
H      -2.002067    -1.946771     2.629177
C      -3.947253    -0.725658     4.074831
N      -5.010276    -1.112567     4.277983
48
     -1091.834162     -1091.502366   0.14   0.98
C       0.750330    -0.730668     1.117023
C       1.467523    -0.924636    -0.080549
C       2.828403    -1.251331    -0.065954
C       3.472757    -1.425427     1.151356
C       2.778643    -1.238004     2.338695
C       1.438824    -0.883146     2.323598
C      -0.679175    -0.388684     1.116312
C      -1.612179    -1.074814     0.284326
C      -2.921697    -0.737837     0.251046
C      -3.480556     0.422656     1.018031
C      -2.485602     0.974191     1.995598
C      -1.183780     0.601748     2.005788
H       4.526092    -1.684565     1.154778
H       3.290985    -1.367793     3.286404
H       0.901766    -0.756687     3.257257
H      -1.266489    -1.913925    -0.309526
H      -3.601894    -1.318111    -0.363028
H      -4.371236     0.087049     1.570541
H      -2.838339     1.732039     2.688148
H      -0.498497     1.085498     2.695358
C       0.823216    -0.740959    -1.352969
N       0.317799    -0.589740    -2.375219
C       3.682571    -0.522388    -2.279508
O       4.037203    -0.857651    -3.393170
C       3.453829     0.933242    -1.965474
C       3.919828     1.476839    -0.845429
H       3.834124     2.545012    -0.669238
H       4.426264     0.894610    -0.084130
C       2.826686     1.726199    -3.077401
H       1.822890     1.357065    -3.304939
H       2.765934     2.782213    -2.806115
H       3.424806     1.617027    -3.985793
N       3.549455    -1.459160    -1.272760
C       3.875453    -2.845463    -1.612965
H       3.075353    -3.303580    -2.204177
H       4.793957    -2.867364    -2.198301
H       4.011502    -3.411952    -0.690206
C      -4.009596     1.550603     0.042437
C      -5.136529     1.014354    -0.856294
C      -2.874037     2.137685    -0.809089
H      -5.588599     1.831967    -1.423371
H      -4.737423     0.288268    -1.567731
H      -5.920354     0.534301    -0.264048
H      -3.259715     2.926730    -1.460568
H      -2.087686     2.559182    -0.180479
H      -2.434973     1.352966    -1.429659
C      -4.581639     2.620678     0.883686
N      -5.035050     3.443824     1.545397
48
     -1091.833975     -1091.502361   0.26   0.98
C       0.846172    -0.529400     1.303204
C       1.695797     0.117722     0.384007
C       3.074532    -0.122659     0.377495
C       3.618583    -0.984747     1.320007
C       2.793558    -1.628620     2.231765
C       1.424005    -1.414777     2.216906
C      -0.603377    -0.284814     1.320547
C      -1.514313    -1.371439     1.464670
C      -2.855620    -1.190514     1.429290
C      -3.485193     0.148330     1.185243
C      -2.475739     1.255784     1.237524
C      -1.141517     1.032314     1.261396
H       4.688815    -1.161505     1.313015
H       3.225032    -2.307360     2.960212
H       0.791066    -1.909591     2.945446
H      -1.115528    -2.373829     1.590348
H      -3.511439    -2.043315     1.570143
H      -4.248465     0.326612     1.957792
H      -2.852957     2.273125     1.213465
H      -0.463486     1.878696     1.266789
C       1.152979     1.007890    -0.606468
N       0.728220     1.715894    -1.407389
C       3.814008     0.471270    -1.916131
O       4.370600     1.286642    -2.625890
C       3.044996    -0.667915    -2.533173
C       3.174082    -1.910641    -2.079183
H       2.691203    -2.740243    -2.587084
H       3.782263    -2.153248    -1.215290
C       2.281726    -0.311430    -3.777698
H       1.818686    -1.201085    -4.209624
H       1.504989     0.427791    -3.563477
H       2.961667     0.136271    -4.507135
N       3.933526     0.538616    -0.541350
C       4.770143     1.612782    -0.002730
H       5.686750     1.684563    -0.587087
H       4.251267     2.576140    -0.050110
H       5.011283     1.383881     1.036671
C      -4.279368     0.173532    -0.183209
C      -5.385344    -0.894898    -0.198430
C      -3.338993    -0.003369    -1.384864
H      -6.017527    -0.823071     0.690883
H      -6.019509    -0.769427    -1.079609
H      -4.944022    -1.893116    -0.237804
H      -2.837434    -0.971525    -1.315516
H      -3.908327     0.029507    -2.317867
H      -2.576529     0.776931    -1.413225
C      -4.934126     1.493654    -0.278360
N      -5.451416     2.518173    -0.339410
48
     -1091.834162     -1091.502361   0.14   0.98
C       0.044229     0.281445    -1.837240
C       1.331430    -0.002265    -1.338433
C       2.478856     0.490747    -1.970335
C       2.346698     1.240083    -3.131527
C       1.085091     1.526843    -3.634333
C      -0.052171     1.065228    -2.990277
C      -1.168995    -0.230889    -1.184540
C      -2.306756     0.608372    -1.017514
C      -3.420977     0.181864    -0.377082
C      -3.526235    -1.174998     0.253477
C      -2.373297    -2.055036    -0.125460
C      -1.274501    -1.588607    -0.761535
H       3.240760     1.613664    -3.619144
H       0.989276     2.120073    -4.537874
H      -1.032257     1.280206    -3.401806
H      -2.268470     1.625333    -1.396270
H      -4.271839     0.847036    -0.267711
H      -4.460554    -1.649960    -0.082206
H      -2.426667    -3.106206     0.136579
H      -0.465049    -2.273207    -0.990393
C       1.492304    -0.768761    -0.132401
N       1.630381    -1.375414     0.835181
C       4.223115     0.504238    -0.204478
O       5.210545    -0.037732     0.253432
C       3.514874     1.575245     0.583632
C       3.122890     2.707486     0.007847
H       2.698639     3.513320     0.599470
H       3.235836     2.888099    -1.055011
C       3.452744     1.329699     2.064963
H       4.462921     1.170995     2.451220
H       2.997712     2.181636     2.574472
H       2.875464     0.428618     2.289547
N       3.777625     0.195020    -1.475167
C       4.561072    -0.785469    -2.229316
H       4.372245    -1.801691    -1.867122
H       4.285194    -0.721232    -3.283191
H       5.622012    -0.567928    -2.111605
C      -3.668873    -1.065675     1.825604
C      -2.433430    -0.409078     2.459500
C      -3.926514    -2.447115     2.450506
H      -2.265927     0.589829     2.052946
H      -2.562916    -0.327335     3.542235
H      -1.548123    -1.016223     2.256345
H      -4.162920    -2.342974     3.512438
H      -4.763726    -2.952635     1.961514
H      -3.035913    -3.072783     2.361105
C      -4.852185    -0.225718     2.098043
N      -5.781218     0.419677     2.301446
48
     -1091.833975     -1091.502355   0.26   0.99
C       1.321837     0.577306     0.934832
C       1.782259    -0.355655    -0.015511
C       3.135759    -0.427796    -0.364185
C       4.045838     0.409085     0.267388
C       3.606368     1.332533     1.205818
C       2.261131     1.425490     1.527250
C      -0.097059     0.662381     1.310051
C      -0.864498    -0.500031     1.606296
C      -2.180150    -0.425336     1.913115
C      -2.950593     0.860629     1.883383
C      -2.046108     2.048088     1.741031
C      -0.728630     1.932221     1.451352
H       5.094190     0.343315    -0.003391
H       4.322468     1.988965     1.689334
H       1.931396     2.138549     2.274943
H      -0.373171    -1.466789     1.616069
H      -2.730962    -1.328801     2.154387
H      -3.516705     0.957420     2.822177
H      -2.478652     3.035283     1.865767
H      -0.134692     2.829791     1.305707
C       0.856279    -1.226215    -0.688396
N       0.123166    -1.921888    -1.237713
C       3.158184    -1.465235    -2.618802
O       3.360638    -2.469200    -3.274119
C       2.482028    -0.275226    -3.248531
C       2.945981     0.956793    -3.064096
H       2.512337     1.798721    -3.595589
H       3.784256     1.170071    -2.410754
C       1.380455    -0.614178    -4.212970
H       0.995714     0.291334    -4.686756
H       1.762886    -1.292622    -4.979973
H       0.559665    -1.128981    -3.706076
N       3.602630    -1.376504    -1.313632
C       4.335077    -2.528970    -0.785272
H       4.867577    -2.224295     0.117241
H       3.652762    -3.350693    -0.542795
H       5.045991    -2.878858    -1.532882
C      -4.051375     0.832167     0.746919
C      -3.424027     0.638880    -0.641832
C      -4.911487     2.106537     0.780639
H      -4.203923     0.610464    -1.407775
H      -2.752595     1.473334    -0.857614
H      -2.848755    -0.287029    -0.694531
H      -5.304342     2.292645     1.783993
H      -4.318919     2.969106     0.468240
H      -5.757052     2.009680     0.095057
C      -4.939310    -0.312163     1.034263
N      -5.633929    -1.196559     1.271548
48
     -1091.833387     -1091.501966   0.62   1.23
C       0.488288    -0.601007    -0.260999
C       1.492645     0.370409    -0.064600
C       2.838646     0.006605     0.058626
C       3.198269    -1.330464    -0.034071
C       2.226223    -2.293372    -0.265903
C       0.891536    -1.936667    -0.371078
C      -0.935825    -0.259863    -0.357340
C      -1.540650     0.726790     0.474995
C      -2.863789     1.003374     0.414388
C      -3.812143     0.281624    -0.495016
C      -3.096656    -0.686157    -1.389220
C      -1.770509    -0.935905    -1.295197
H       4.241780    -1.606432     0.069077
H       2.512456    -3.337160    -0.346373
H       0.138868    -2.704600    -0.510352
H      -0.925454     1.267649     1.184553
H      -3.263957     1.789024     1.046162
H      -4.324298     1.024427    -1.127649
H      -3.692195    -1.203217    -2.135329
H      -1.316926    -1.643888    -1.981956
C       1.180414     1.774940    -0.087406
N       0.948350     2.901702    -0.113676
C       4.958618     1.115147    -0.466466
O       5.972958     1.629515    -0.035290
C       4.894380     0.636037    -1.892794
C       3.881397     0.990610    -2.675396
H       3.870833     0.729082    -3.729412
H       3.047745     1.577660    -2.304489
C       6.107299    -0.112623    -2.367673
H       6.229364    -1.055447    -1.822135
H       6.031632    -0.336235    -3.433747
H       7.005706     0.481893    -2.181591
N       3.818977     1.007567     0.304023
C       3.861573     1.579736     1.650659
H       4.377194     2.537846     1.612594
H       2.841231     1.731016     2.005412
H       4.395227     0.920945     2.344589
C      -4.968885    -0.425929     0.313189
C      -5.789697     0.595794     1.118010
C      -4.416428    -1.522187     1.236078
H      -6.672331     0.115360     1.547475
H      -5.192207     1.000426     1.937568
H      -6.124177     1.421355     0.483991
H      -5.231597    -2.012012     1.775482
H      -3.871305    -2.277683     0.667206
H      -3.732871    -1.076271     1.962520
C      -5.876394    -1.045383    -0.673243
N      -6.584952    -1.516995    -1.445486
48
     -1091.833387     -1091.501965   0.62   1.23
C       0.202221     0.550141     0.217293
C       0.548890     1.059391    -1.052132
C       0.751939     2.429746    -1.252553
C       0.590173     3.308838    -0.191097
C       0.211472     2.827068     1.054017
C       0.026778     1.469165     1.258134
C       0.018033    -0.883266     0.472559
C      -1.030402    -1.327068     1.331131
C      -1.211192    -2.633882     1.630167
C      -0.308264    -3.720425     1.127899
C       0.724322    -3.190518     0.179069
C       0.869685    -1.874025    -0.097672
H       0.755580     4.368412    -0.351270
H       0.077568     3.518681     1.879633
H      -0.228080     1.103558     2.246570
H      -1.728931    -0.594461     1.723508
H      -2.038286    -2.933023     2.266663
H      -0.923500    -4.464120     0.596213
H       1.378164    -3.903883    -0.310951
H       1.663779    -1.565154    -0.767358
C       0.604484     0.200883    -2.205640
N       0.642604    -0.470667    -3.139293
C       0.480405     3.930396    -3.169120
O       1.027716     4.625822    -4.003507
C      -0.977894     4.128934    -2.849713
C      -1.810463     3.094007    -2.840863
H      -2.878352     3.236506    -2.703877
H      -1.464949     2.078040    -3.000881
C      -1.408483     5.561147    -2.706389
H      -2.490737     5.629267    -2.578611
H      -0.925716     6.035338    -1.844123
H      -1.108331     6.128335    -3.591498
N       1.147627     2.902876    -2.534263
C       2.531785     2.649822    -2.937586
H       2.605503     2.729104    -4.020900
H       3.215718     3.376178    -2.484844
H       2.814237     1.642813    -2.627760
C       0.351072    -4.519674     2.318835
C       1.232123    -3.606994     3.184563
C       1.160712    -5.720452     1.801142
H       1.667452    -4.172539     4.012834
H       2.041480    -3.197660     2.575304
H       0.654606    -2.776561     3.594936
H       0.564345    -6.336043     1.122318
H       2.052758    -5.376657     1.273452
H       1.482051    -6.346619     2.637178
C      -0.747321    -5.050938     3.150476
N      -1.606104    -5.470566     3.788629
48
     -1091.833387     -1091.501961   0.62   1.23
C      -0.164197    -0.212185    -0.844190
C       1.230877    -0.235156    -1.054412
C       1.770496    -0.571906    -2.301280
C       0.921249    -0.869028    -3.357763
C      -0.453469    -0.812722    -3.176627
C      -0.989009    -0.496235    -1.938602
C      -0.764074     0.099833     0.458321
C      -0.218593    -0.383461     1.683455
C      -0.803006    -0.131986     2.877646
C      -2.082358     0.636424     3.019494
C      -2.556707     1.174009     1.702633
C      -1.944092     0.897276     0.528754
H       1.345599    -1.135769    -4.319267
H      -1.114454    -1.037390    -4.007605
H      -2.064585    -0.497189    -1.801630
H       0.687467    -0.977559     1.659610
H      -0.324866    -0.494478     3.781250
H      -1.906653     1.486807     3.697922
H      -3.438178     1.807675     1.715775
H      -2.338091     1.328215    -0.386490
C       2.143057     0.186483    -0.024432
N       2.884608     0.530753     0.785333
C       3.825844     0.032796    -3.488194
O       4.905473    -0.337390    -3.908587
C       3.183824     1.281603    -4.032587
C       2.730930     2.218568    -3.207174
H       2.351232     3.162486    -3.587052
H       2.751858     2.093133    -2.129676
C       3.246536     1.429845    -5.526333
H       2.855532     2.401199    -5.835896
H       4.280750     1.326986    -5.865498
H       2.666673     0.645758    -6.026722
N       3.182213    -0.631982    -2.464551
C       3.871635    -1.777667    -1.868985
H       4.926452    -1.534923    -1.751839
H       3.436617    -1.985396    -0.890491
H       3.784080    -2.666612    -2.503373
C      -3.201098    -0.221546     3.729536
C      -2.761695    -0.649483     5.139920
C      -3.583842    -1.447728     2.887691
H      -1.955644    -1.383638     5.079117
H      -2.414905     0.207957     5.722966
H      -3.598549    -1.108663     5.672019
H      -2.708722    -2.089365     2.760110
H      -4.370136    -2.021095     3.386067
H      -3.941561    -1.150872     1.900035
C      -4.387985     0.644162     3.878492
N      -5.305538     1.325270     4.001058
48
     -1091.833387     -1091.501959   0.62   1.23
C      -0.451957     0.208385    -0.029006
C       0.159944     1.313665    -0.657396
C      -0.493127     2.548322    -0.749151
C      -1.773599     2.686194    -0.232408
C      -2.403489     1.597449     0.353863
C      -1.751841     0.379416     0.460688
C       0.216911    -1.089565     0.118239
C      -0.521633    -2.297309    -0.052736
C       0.041781    -3.515475     0.116094
C       1.467964    -3.705704     0.537933
C       2.198962    -2.400165     0.630295
C       1.598974    -1.200953     0.449252
H      -2.271392     3.647064    -0.300569
H      -3.408305     1.706919     0.749165
H      -2.240780    -0.450367     0.958710
H      -1.558606    -2.234686    -0.367985
H      -0.548493    -4.411404    -0.049998
H       1.970461    -4.335945    -0.213456
H       3.261657    -2.426717     0.845917
H       2.187464    -0.298714     0.568045
C       1.432619     1.181427    -1.315821
N       2.444606     1.089068    -1.855721
C      -0.413022     4.403251    -2.346662
O      -0.087662     5.557033    -2.552270
C      -1.428212     3.728810    -3.231339
C      -1.172162     2.537753    -3.760610
H      -1.855002     2.083717    -4.472680
H      -0.264123     1.990460    -3.530143
C      -2.631497     4.562621    -3.569075
H      -3.268336     4.048661    -4.291935
H      -3.226071     4.780373    -2.674375
H      -2.312223     5.523560    -3.981237
N       0.172501     3.654358    -1.346488
C       1.238079     4.287898    -0.568166
H       1.878829     4.855514    -1.240874
H       0.827257     4.969783     0.184546
H       1.826640     3.513634    -0.074233
C       1.567621    -4.525156     1.883442
C       0.881583    -3.784799     3.041001
C       3.031360    -4.840380     2.234854
H       1.376779    -2.824473     3.203382
H      -0.170861    -3.597801     2.819764
H       0.945968    -4.373093     3.960322
H       3.075271    -5.532339     3.079582
H       3.550679    -5.299546     1.389347
H       3.558132    -3.926769     2.518093
C       0.877252    -5.811911     1.664357
N       0.347475    -6.815967     1.485348
48
     -1091.833247     -1091.501865   0.71   1.29
C       0.424078    -0.354813    -0.853417
C       1.497378    -0.064394     0.015261
C       2.803079    -0.469391    -0.285269
C       3.054103    -1.150924    -1.467772
C       2.015060    -1.409709    -2.350410
C       0.719286    -1.024572    -2.046346
C      -0.962323     0.021144    -0.553105
C      -1.515402    -0.084118     0.754590
C      -2.808676     0.221712     1.010642
C      -3.778243     0.654152    -0.048421
C      -3.111041     0.812835    -1.381199
C      -1.813631     0.496651    -1.595916
H       4.066619    -1.467897    -1.691491
H       2.216684    -1.935511    -3.278195
H      -0.088372    -1.271252    -2.726408
H      -0.889413    -0.430836     1.568419
H      -3.187860     0.139753     2.024426
H      -4.204671     1.627364     0.243619
H      -3.698748     1.217431    -2.198499
H      -1.388749     0.651279    -2.583062
C       1.304228     0.746749     1.188092
N       1.170657     1.403154     2.123673
C       5.025723     0.411642     0.246498
O       6.062044     0.255660     0.863826
C       4.975990     1.343542    -0.935529
C       4.025777     2.267558    -1.022757
H       4.033426     3.003997    -1.820915
H       3.229876     2.343387    -0.289289
C       6.140290     1.236980    -1.879055
H       7.076854     1.338803    -1.324349
H       6.164232     0.256929    -2.369305
H       6.086352     2.008821    -2.649505
N       3.852942    -0.201950     0.636347
C       3.891644    -1.014088     1.853527
H       4.483805    -0.496589     2.606413
H       2.874370    -1.150068     2.222971
H       4.344407    -1.993282     1.662480
C      -5.016604    -0.321337    -0.128067
C      -4.582236    -1.747180    -0.498192
C      -6.068840     0.198493    -1.122174
H      -4.100755    -1.737785    -1.479087
H      -3.873583    -2.144599     0.230647
H      -5.450207    -2.410716    -0.539667
H      -6.980053    -0.400961    -1.054293
H      -6.328547     1.240005    -0.914188
H      -5.691983     0.126454    -2.144604
C      -5.643372    -0.344982     1.208581
N      -6.135552    -0.352386     2.247065
48
     -1091.833247     -1091.501843   0.71   1.31
C       0.430856    -0.396562    -0.745139
C       1.462161     0.029813     0.118314
C       2.795926    -0.324770    -0.115187
C       3.116593    -1.092090    -1.226131
C       2.118132    -1.486324    -2.105498
C       0.795268    -1.150560    -1.866523
C      -0.981863    -0.075453    -0.511160
C      -1.564352    -0.096867     0.787807
C      -2.879044     0.155953     0.986080
C      -3.841161     0.437650    -0.129109
C      -3.147005     0.516529    -1.455211
C      -1.828755     0.257275    -1.611312
H       4.150779    -1.369131    -1.397640
H       2.373880    -2.079239    -2.977823
H       0.021494    -1.501734    -2.540017
H      -0.943077    -0.334489     1.643344
H      -3.281095     0.141840     1.994252
H      -4.328312     1.406777     0.065160
H      -3.733138     0.813603    -2.318501
H      -1.385826     0.348623    -2.598408
C       1.192381     0.928385     1.209454
N       0.997095     1.655665     2.079481
C       4.951171     0.725340     0.386122
O       5.977184     0.683665     1.038010
C       4.882704     1.545786    -0.874939
C       3.885821     2.402680    -1.065405
H       3.874853     3.065640    -1.925533
H       3.067109     2.496758    -0.359684
C       6.076556     1.423843    -1.778847
H       6.990570     1.626894    -1.214436
H       6.167580     0.407718    -2.179630
H       6.001553     2.121178    -2.615710
N       3.803686     0.082046     0.802477
C       3.853506    -0.617247     2.087430
H       4.397322    -0.003925     2.803935
H       2.835547    -0.776478     2.445550
H       4.362599    -1.582844     1.993762
C      -5.021432    -0.610222    -0.149537
C      -4.499356    -2.035903    -0.380954
C      -6.072632    -0.240670    -1.209762
H      -3.790436    -2.326642     0.396374
H      -5.328113    -2.749018    -0.382788
H      -3.992109    -2.085199    -1.347565
H      -5.664171    -0.380571    -2.212837
H      -6.951098    -0.882924    -1.109421
H      -6.394789     0.798537    -1.101519
C      -5.682769    -0.552127     1.169283
N      -6.202400    -0.496374     2.192816
48
     -1091.834041     -1091.501731   0.21   1.38
C       1.367178     0.318386     0.146940
C       0.814822     1.600319    -0.055116
C       1.585390     2.650804    -0.568657
C       2.934870     2.446831    -0.821532
C       3.504446     1.203857    -0.581145
C       2.731847     0.152278    -0.116164
C       0.569880    -0.820905     0.614734
C       1.125098    -1.753778     1.539307
C       0.442140    -2.842581     1.960756
C      -0.929824    -3.190275     1.465482
C      -1.475626    -2.133384     0.553086
C      -0.760598    -1.054702     0.158860
H       3.525506     3.265003    -1.219254
H       4.559644     1.048942    -0.781626
H       3.180024    -0.825638     0.019472
H       2.112336    -1.559767     1.947214
H       0.890746    -3.513987     2.686459
H      -1.599673    -3.281936     2.335628
H      -2.496076    -2.242457     0.201919
H      -1.212008    -0.352806    -0.532508
C      -0.534726     1.896455     0.341043
N      -1.607265     2.165576     0.658679
C      -0.094933     4.185591    -1.550663
O      -0.692311     5.239812    -1.451897
C      -0.528678     3.163029    -2.568488
C       0.357670     2.543541    -3.341470
H       0.033400     1.878570    -4.136534
H       1.426009     2.694795    -3.234802
C      -2.016399     3.039980    -2.740934
H      -2.252447     2.334876    -3.540702
H      -2.491984     2.703785    -1.814929
H      -2.438632     4.019027    -2.981656
N       1.024306     3.937378    -0.780060
C       1.449302     5.007865     0.124306
H       0.771601     5.086070     0.980717
H       2.456937     4.788944     0.480440
H       1.444120     5.958330    -0.408534
C      -0.954170    -4.614757     0.785915
C      -0.037430    -4.662503    -0.445359
C      -2.387462    -5.026325     0.409430
H       0.992288    -4.416901    -0.179097
H      -0.053925    -5.659575    -0.893661
H      -0.384993    -3.938665    -1.186353
H      -3.064992    -4.922716     1.261269
H      -2.756002    -4.407542    -0.411363
H      -2.406399    -6.068935     0.082452
C      -0.462311    -5.584655     1.784812
N      -0.088384    -6.336716     2.569293
48
     -1091.833917     -1091.501589   0.29   1.47
C       0.391352     0.569644     0.973801
C       1.112051     1.437294     0.127031
C       1.214550     2.805707     0.406076
C       0.653551     3.308255     1.572044
C      -0.017085     2.457784     2.440358
C      -0.157441     1.112409     2.141489
C       0.204242    -0.853924     0.672449
C      -0.050688    -1.325288    -0.646871
C      -0.270721    -2.634388    -0.909083
C      -0.307466    -3.692065     0.153295
C       0.039890    -3.137376     1.501863
C       0.253748    -1.820275     1.722207
H       0.736897     4.369185     1.781618
H      -0.455258     2.855578     3.349975
H      -0.726834     0.471006     2.804806
H      -0.084223    -0.615989    -1.465459
H      -0.449545    -2.953638    -1.931027
H       0.429557    -4.470539    -0.101657
H       0.139513    -3.834283     2.327375
H       0.517015    -1.488100     2.721855
C       1.840097     0.933019    -1.005067
N       2.442799     0.559117    -1.910880
C       1.686725     3.822079    -1.804675
O       2.510045     4.344421    -2.530816
C       0.355374     3.387919    -2.360364
C      -0.777677     3.655620    -1.718967
H      -1.738964     3.424507    -2.168383
H      -0.794301     4.136397    -0.747282
C       0.413165     2.797474    -3.741025
H      -0.591933     2.572718    -4.104041
H       0.896811     3.503829    -4.420657
H       1.010903     1.881344    -3.750934
N       1.932583     3.678183    -0.453023
C       3.207378     4.202110     0.041797
H       3.374072     5.198980    -0.365355
H       3.170120     4.248880     1.131072
H       4.038224     3.558249    -0.264782
C      -1.696309    -4.441724     0.170914
C      -2.848769    -3.476421     0.485118
C      -1.682688    -5.610933     1.170123
H      -3.803111    -4.009919     0.483813
H      -2.694871    -3.035272     1.472919
H      -2.898479    -2.670355    -0.249129
H      -0.821082    -6.263127     1.003624
H      -1.646453    -5.233436     2.194210
H      -2.590435    -6.209750     1.062061
C      -1.904479    -5.011572    -1.175229
N      -2.058133    -5.463289    -2.220743
48
     -1091.833917     -1091.501585   0.29   1.47
C       0.734280    -0.717261     0.701309
C       1.788923     0.138774     0.321596
C       3.118755    -0.299918     0.327057
C       3.413369    -1.579365     0.777603
C       2.390648    -2.417068     1.201051
C       1.070907    -1.998736     1.152703
C      -0.674371    -0.312219     0.637924
C      -1.581858    -0.715279     1.663730
C      -2.898268    -0.407696     1.624964
C      -3.526760     0.342151     0.489315
C      -2.505413     0.793640    -0.511528
C      -1.194887     0.465580    -0.435328
H       4.445630    -1.912345     0.778996
H       2.625788    -3.416975     1.551099
H       0.279562    -2.682142     1.439627
H      -1.189156    -1.247640     2.524732
H      -3.533015    -0.695966     2.456270
H      -4.032878     1.231165     0.898860
H      -2.859204     1.398469    -1.340553
H      -0.527655     0.794331    -1.223389
C       1.544878     1.518146    -0.000540
N       1.383943     2.629227    -0.251838
C       4.243768     1.216224    -1.278878
O       5.002174     2.153467    -1.434999
C       3.416321     0.712608    -2.432780
C       3.311071    -0.587749    -2.687447
H       2.792097    -0.940503    -3.573838
H       3.757051    -1.341720    -2.048522
C       2.881364     1.786117    -3.338090
H       2.354326     1.344452    -4.186430
H       2.199338     2.449905    -2.798730
H       3.707525     2.401989    -3.702654
N       4.177221     0.560893    -0.064701
C       5.072701     1.040430     0.990104
H       5.099580     0.301674     1.792358
H       6.073591     1.179920     0.582586
H       4.724347     1.997881     1.391087
C      -4.674874    -0.494869    -0.197994
C      -5.785955    -0.841964     0.807331
C      -4.122204    -1.769236    -0.853159
H      -6.639049    -1.285628     0.288046
H      -5.421700    -1.565966     1.539254
H      -6.133532     0.049862     1.335802
H      -3.660351    -2.399980    -0.089679
H      -4.928491    -2.331304    -1.332085
H      -3.368634    -1.530053    -1.605660
C      -5.274025     0.358187    -1.243689
N      -5.745542     1.028781    -2.049129
48
     -1091.833075     -1091.501549   0.82   1.49
C      -1.182474     0.147854    -0.340373
C      -0.300865     0.758240    -1.255069
C      -0.585489     2.011039    -1.813365
C      -1.745498     2.676618    -1.439634
C      -2.598074     2.105943    -0.503549
C      -2.327709     0.857474     0.034039
C      -0.909961    -1.182156     0.217186
C      -1.157723    -1.458549     1.591678
C      -0.866448    -2.660779     2.141722
C      -0.214182    -3.770637     1.372123
C      -0.154631    -3.469832    -0.095162
C      -0.448924    -2.252467    -0.604898
H      -1.969233     3.641762    -1.878308
H      -3.497553     2.635801    -0.206964
H      -3.025320     0.406249     0.730925
H      -1.569613    -0.674119     2.219235
H      -1.068478    -2.838868     3.193340
H      -0.794932    -4.693523     1.521626
H       0.149686    -4.265325    -0.766792
H      -0.367790    -2.092266    -1.674673
C       0.975264     0.159398    -1.544779
N       2.003670    -0.308747    -1.762501
C       0.749811     3.879059    -2.670694
O       1.136902     4.476634    -3.655398
C       0.797390     4.498932    -1.296542
C       0.383614     5.755734    -1.181413
H       0.413317     6.278005    -0.229794
H       0.009217     6.298559    -2.043193
C       1.382693     3.702260    -0.156516
H       2.255839     3.131121    -0.486679
H       1.693655     4.377545     0.643294
H       0.666367     2.990910     0.262785
N       0.308949     2.572236    -2.761678
C       0.379808     1.939816    -4.080743
H       1.375045     2.084798    -4.499024
H       0.185615     0.872410    -3.973027
H      -0.355054     2.377306    -4.764150
C       1.223128    -4.097771     1.947233
C       2.169566    -2.895038     1.817219
C       1.822532    -5.333782     1.255596
H       3.148598    -3.137747     2.239509
H       2.296172    -2.636869     0.763273
H       1.772533    -2.022923     2.339633
H       1.128778    -6.178470     1.283889
H       2.058026    -5.105418     0.213963
H       2.747412    -5.633974     1.754481
C       1.055653    -4.425099     3.377193
N       0.914978    -4.689561     4.486819
48
     -1091.833075     -1091.501547   0.82   1.49
C       1.197579     0.177781     0.695851
C       1.322622    -0.675891    -0.418630
C       2.567505    -0.915817    -1.014382
C       3.696665    -0.280948    -0.514159
C       3.578175     0.598816     0.553923
C       2.350299     0.821165     1.156952
C      -0.097274     0.401687     1.349523
C      -0.988182    -0.677812     1.623218
C      -2.201103    -0.478435     2.186678
C      -2.736664     0.886809     2.496895
C      -1.684969     1.945147     2.344012
C      -0.475667     1.703068     1.785677
H       4.660516    -0.473596    -0.970091
H       4.462411     1.100647     0.933482
H       2.281451     1.477414     2.017482
H      -0.665296    -1.690121     1.404950
H      -2.825064    -1.335315     2.416753
H      -3.100658     0.897375     3.535518
H      -1.941804     2.949409     2.666385
H       0.217312     2.526751     1.643770
C       0.151238    -1.227743    -1.046615
N      -0.785702    -1.654055    -1.560992
C       3.336378    -1.493055    -3.268969
O       3.775687    -2.362502    -3.995363
C       3.443975    -0.031559    -3.625697
C       4.612407     0.397044    -4.089470
H       4.758403     1.429561    -4.392490
H       5.454739    -0.280409    -4.184499
C       2.215056     0.837687    -3.520378
H       2.336582     1.724683    -4.145577
H       1.324296     0.297298    -3.855216
H       2.029415     1.170649    -2.495863
N       2.655807    -1.814133    -2.109590
C       2.452183    -3.238040    -1.834038
H       1.750040    -3.342121    -1.006492
H       2.041373    -3.723085    -2.718595
H       3.397496    -3.725124    -1.574037
C      -4.010240     1.214608     1.617013
C      -5.141808     0.210577     1.894224
C      -3.669017     1.242680     0.119686
H      -6.058852     0.527131     1.391005
H      -4.870561    -0.776884     1.514813
H      -5.348467     0.132973     2.965141
H      -4.558608     1.491318    -0.465588
H      -2.894840     1.981611    -0.094244
H      -3.304951     0.261797    -0.194654
C      -4.489726     2.549909     2.025724
N      -4.862947     3.585008     2.357804
48
     -1091.833145     -1091.501536   0.78   1.50
C       0.771408     0.258495     0.398679
C       0.031694     1.440950     0.188682
C       0.670112     2.678386     0.048600
C       2.053816     2.748820     0.122025
C       2.795364     1.594619     0.331336
C       2.164467     0.369342     0.473576
C       0.143184    -1.063331     0.522767
C       0.630368    -1.994255     1.486357
C       0.116127    -3.239748     1.607975
C      -0.971502    -3.765631     0.719826
C      -1.478656    -2.713818    -0.220352
C      -0.938725    -1.475938    -0.308008
H       2.540227     3.712303     0.016767
H       3.877859     1.652648     0.383684
H       2.756611    -0.528561     0.611249
H       1.412815    -1.676685     2.168848
H       0.497309    -3.909412     2.372786
H      -1.807273    -4.099574     1.355686
H      -2.324037    -2.962143    -0.852939
H      -1.337300    -0.782529    -1.039119
C      -1.406693     1.422576     0.148252
N      -2.557006     1.426826     0.119081
C       0.118281     4.724698    -1.174897
O      -0.187326     5.900325    -1.112325
C       0.702036     4.156922    -2.442296
C       0.204847     3.046102    -2.974302
H       0.556217     2.678927    -3.934015
H      -0.587917     2.484556    -2.491500
C       1.747636     5.012822    -3.098844
H       2.636977     5.106505    -2.465105
H       2.048893     4.588584    -4.058811
H       1.357135     6.022441    -3.251626
N      -0.105961     3.860130    -0.123304
C      -0.747423     4.408045     1.073299
H      -0.029297     4.959347     1.690686
H      -1.540145     5.088870     0.767980
H      -1.175548     3.590969     1.655063
C      -0.509245    -5.062416    -0.052568
C       0.682372    -4.768156    -0.975717
C      -1.671508    -5.678608    -0.849349
H       0.999783    -5.679449    -1.489706
H       0.389368    -4.027305    -1.723459
H       1.529187    -4.373183    -0.411378
H      -2.551940    -5.821784    -0.217092
H      -1.940737    -5.032534    -1.687500
H      -1.378139    -6.651236    -1.252135
C      -0.093824    -6.051519     0.962046
N       0.218717    -6.821345     1.756101
48
     -1091.833003     -1091.501402   0.87   1.58
C      -0.700759    -0.162291    -0.616082
C      -0.690178     1.183799    -0.194846
C      -1.230958     2.196540    -0.995023
C      -1.792836     1.875145    -2.222259
C      -1.813516     0.554958    -2.649321
C      -1.281543    -0.449208    -1.856640
C      -0.119220    -1.251281     0.179571
C       1.117355    -1.117665     0.871661
C       1.665093    -2.145570     1.561381
C       1.052850    -3.512916     1.626831
C      -0.277183    -3.559986     0.937222
C      -0.790668    -2.508412     0.258628
H      -2.213533     2.665495    -2.834083
H      -2.249554     0.307570    -3.611910
H      -1.280960    -1.473142    -2.213564
H       1.645153    -0.171973     0.836790
H       2.603876    -1.998413     2.086049
H       0.904063    -3.779849     2.685572
H      -0.853491    -4.476534     1.006930
H      -1.767120    -2.605045    -0.206502
C      -0.156944     1.559345     1.087974
N       0.258614     1.878569     2.112365
C      -0.713160     4.571941    -1.275174
O      -1.084085     5.721459    -1.132115
C       0.391895     4.244411    -2.245272
C       1.422420     3.497618    -1.865204
H       2.267694     3.331540    -2.526454
H       1.475407     3.054961    -0.876177
C       0.297734     4.940120    -3.573434
H       1.180771     4.734696    -4.181972
H      -0.590345     4.615468    -4.127732
H       0.201755     6.018356    -3.420570
N      -1.240734     3.541024    -0.525346
C      -2.257140     3.884784     0.470785
H      -2.322941     3.081892     1.205885
H      -1.964977     4.807854     0.968516
H      -3.236701     4.032969     0.002506
C       2.038743    -4.611933     1.068477
C       2.376744    -4.361114    -0.408532
C       1.459867    -6.024206     1.258380
H       3.066672    -5.125446    -0.776195
H       1.460743    -4.400180    -1.003096
H       2.836330    -3.380720    -0.546241
H       1.143776    -6.186048     2.292473
H       0.601578    -6.173371     0.599856
H       2.212302    -6.776604     1.009374
C       3.280785    -4.531677     1.862767
N       4.241909    -4.474289     2.490220
48
     -1091.833003     -1091.501399   0.87   1.59
C       0.516389    -0.848332    -0.407108
C       1.609846    -0.036263    -0.773713
C       2.342963    -0.292388    -1.937890
C       1.995125    -1.365427    -2.745795
C       0.923676    -2.175387    -2.397012
C       0.199078    -1.925074    -1.242886
C      -0.296425    -0.598072     0.790346
C      -0.736931    -1.695092     1.590307
C      -1.526586    -1.526229     2.675623
C      -2.040511    -0.186206     3.108034
C      -1.481845     0.921804     2.266028
C      -0.692128     0.710326     1.187164
H       2.571206    -1.559324    -3.643849
H       0.651293    -3.011101    -3.033640
H      -0.651734    -2.550159    -0.995448
H      -0.387445    -2.692402     1.340557
H      -1.790482    -2.389819     3.276974
H      -1.736109    -0.019117     4.153854
H      -1.750605     1.936554     2.542240
H      -0.365165     1.563028     0.603969
C       2.033860     1.061563     0.054527
N       2.392182     1.939320     0.706537
C       3.582752     1.136383    -3.490560
O       4.665498     1.445381    -3.950597
C       2.316242     1.476057    -4.232215
C       1.312141     2.081602    -3.608321
H       0.432937     2.413018    -4.152822
H       1.344292     2.296725    -2.545491
C       2.357812     1.217301    -5.711476
H       2.461197     0.146814    -5.922882
H       1.447894     1.579900    -6.194011
H       3.227214     1.714350    -6.149945
N       3.466031     0.521640    -2.260993
C       4.700135     0.270087    -1.514481
H       4.456835     0.120724    -0.461953
H       5.222100    -0.613738    -1.898119
H       5.355444     1.133561    -1.615224
C      -3.618278    -0.147806     3.136153
C      -4.181509    -1.202495     4.103663
C      -4.207113    -0.335764     1.730217
H      -4.013608    -2.206688     3.708734
H      -3.711396    -1.127050     5.087916
H      -5.258304    -1.063287     4.227767
H      -3.903056    -1.308285     1.335450
H      -5.299172    -0.297671     1.766750
H      -3.853414     0.439677     1.048351
C      -4.015991     1.179228     3.646843
N      -4.322198     2.208856     4.055320
48
     -1091.833003     -1091.501395   0.87   1.59
C       0.550673    -0.554495     0.490804
C       1.478443     0.498225     0.347568
C       2.853960     0.247382     0.289261
C       3.318024    -1.057144     0.378556
C       2.417890    -2.103411     0.522703
C       1.055960    -1.856254     0.584053
C      -0.901521    -0.337820     0.528038
C      -1.707020    -1.086419     1.438095
C      -3.053340    -0.961867     1.481599
C      -3.818292    -0.064295     0.556404
C      -2.904774     0.739474    -0.320074
C      -1.559981     0.585484    -0.332128
H       4.385711    -1.242261     0.336789
H       2.783940    -3.123074     0.587530
H       0.362021    -2.684949     0.670958
H      -1.213547    -1.744145     2.147337
H      -3.611908    -1.517813     2.227236
H      -4.419781     0.629752     1.165366
H      -3.366779     1.463749    -0.983564
H      -0.973030     1.174040    -1.027264
C       1.046891     1.870031     0.293524
N       0.722140     2.973226     0.255210
C       4.723004     1.381091    -0.810975
O       5.753162     2.014197    -0.679043
C       4.427698     0.670198    -2.105918
C       3.254925     0.828544    -2.708979
H       3.064875     0.395324    -3.686485
H       2.458904     1.419076    -2.267916
C       5.588864    -0.074968    -2.700330
H       6.448715     0.593594    -2.794377
H       5.898302    -0.904910    -2.054753
H       5.329724    -0.476997    -3.681906
N       3.768142     1.334334     0.183759
C       4.031901     2.095789     1.406123
H       3.091844     2.261765     1.933448
H       4.729919     1.563281     2.061861
H       4.469567     3.055359     1.136256
C      -4.873437    -0.869691    -0.297758
C      -5.888603    -1.587180     0.607960
C      -4.185015    -1.871444    -1.236522
H      -6.696454    -2.011369     0.006540
H      -5.403975    -2.403687     1.147421
H      -6.328372    -0.896988     1.333006
H      -4.929075    -2.413658    -1.826230
H      -3.500311    -1.364844    -1.919083
H      -3.613957    -2.591176    -0.644937
C      -5.620354     0.110761    -1.110678
N      -6.207583     0.877487    -1.733608
48
     -1091.833003     -1091.501393   0.87   1.59
C      -0.660842     0.335335     0.168400
C       0.271088     1.372397     0.381846
C      -0.077569     2.711983     0.176308
C      -1.362329     3.030657    -0.239689
C      -2.291378     2.021809    -0.451102
C      -1.948595     0.695284    -0.244672
C      -0.328162    -1.084283     0.345130
C       0.908937    -1.640080    -0.086790
C       1.182159    -2.959898     0.038853
C       0.207743    -3.953460     0.597523
C      -1.040342    -3.288790     1.094791
C      -1.274902    -1.964340     0.950650
H      -1.625374     4.071547    -0.392426
H      -3.294061     2.274175    -0.781015
H      -2.676295    -0.084975    -0.438286
H       1.650433    -0.994171    -0.541885
H       2.142940    -3.341686    -0.291875
H       0.684349    -4.473652     1.444032
H      -1.773190    -3.902785     1.607620
H      -2.194270    -1.543825     1.346972
C       1.601656     1.093459     0.853863
N       2.667519     0.891267     1.237293
C       1.187663     4.691046    -0.510344
O       1.619585     5.784813    -0.199564
C       1.039420     4.316135    -1.961845
C       1.526858     3.166181    -2.413687
H       1.507047     2.927142    -3.472830
H       1.989655     2.440871    -1.752880
C       0.453711     5.387056    -2.837630
H      -0.582220     5.606489    -2.554789
H       1.020233     6.314329    -2.717653
H       0.469981     5.082181    -3.885988
N       0.873369     3.739432     0.437857
C       1.098450     4.088586     1.841747
H       0.294118     4.726262     2.225443
H       1.151220     3.173921     2.433296
H       2.040661     4.627632     1.924398
C      -0.114277    -5.092811    -0.446392
C      -0.762084    -4.520813    -1.715989
C      -1.009471    -6.177941     0.175534
H      -0.970058    -5.321389    -2.430973
H      -1.703077    -4.030388    -1.455017
H      -0.110869    -3.786624    -2.193733
H      -2.011883    -5.784158     0.356278
H      -1.097679    -7.029038    -0.504259
H      -0.595538    -6.537485     1.121494
C       1.167049    -5.730104    -0.809778
N       2.164683    -6.231490    -1.081965
48
     -1091.832883     -1091.500903   0.94   1.90
C       0.881255     0.930742     0.588519
C       1.385248     0.365096    -0.599733
C       2.759978     0.172729    -0.787162
C       3.641774     0.521925     0.227252
C       3.152656     1.036149     1.420962
C       1.794231     1.245912     1.599421
C      -0.554948     1.171858     0.773358
C      -1.184080     0.884380     2.019567
C      -2.516370     1.040686     2.201091
C      -3.437945     1.476247     1.101497
C      -2.682179     1.936511    -0.108792
C      -1.350533     1.751003    -0.256290
H       4.705713     0.380910     0.078433
H       3.845803     1.296786     2.214305
H       1.432081     1.688896     2.520624
H      -0.575922     0.512457     2.838779
H      -2.948139     0.834229     3.174842
H      -4.059449     2.306809     1.469129
H      -3.255105     2.399816    -0.905679
H      -0.868219     2.078921    -1.170806
C       0.484911    -0.140780    -1.602071
N      -0.233159    -0.564076    -2.395315
C       4.140599    -1.399862    -2.063335
O       4.849009    -1.563106    -3.037033
C       4.164292    -2.354364    -0.895793
C       5.354075    -2.746757    -0.454816
H       5.450976    -3.453274     0.364128
H       6.265908    -2.373802    -0.909746
C       2.856375    -2.873634    -0.351153
H       2.149628    -3.078666    -1.161126
H       3.028828    -3.800433     0.199943
H       2.378347    -2.162300     0.327403
N       3.229080    -0.361960    -2.015236
C       3.129100     0.487166    -3.204302
H       2.256162     1.132978    -3.106384
H       4.026881     1.102452    -3.322047
H       3.016850    -0.139166    -4.088373
C      -4.467134     0.335406     0.723009
C      -5.316956    -0.066375     1.940155
C      -3.757446    -0.890640     0.129146
H      -5.768610     0.809344     2.414319
H      -6.120008    -0.741233     1.633524
H      -4.699479    -0.586656     2.675536
H      -3.188130    -0.629195    -0.764380
H      -3.067134    -1.305199     0.867581
H      -4.489152    -1.659067    -0.135020
C      -5.380730     0.897539    -0.291783
N      -6.095988     1.346148    -1.071592
48
     -1091.832882     -1091.500902   0.94   1.90
C       0.284416     0.560468     1.036245
C       0.940334     1.090639    -0.092731
C       1.213424     2.460424    -0.198161
C       0.807303     3.316654     0.816960
C       0.118248     2.811873     1.911954
C      -0.134301     1.453862     2.026848
C       0.032262    -0.879511     1.170019
C       1.036022    -1.842123     0.862837
C       0.797216    -3.171048     0.942742
C      -0.551225    -3.736197     1.274620
C      -1.497902    -2.675244     1.750328
C      -1.214902    -1.353877     1.671062
H       1.026347     4.374925     0.738967
H      -0.206409     3.487498     2.696752
H      -0.634935     1.069833     2.908829
H       2.026777    -1.497731     0.586618
H       1.591030    -3.877319     0.721453
H      -0.435044    -4.488652     2.069337
H      -2.450492    -2.991166     2.162644
H      -1.963412    -0.630375     1.980210
C       1.237609     0.249062    -1.221715
N       1.457784    -0.417688    -2.133309
C       1.475952     4.046749    -2.048177
O       2.251106     4.708350    -2.709975
C      -0.003151     4.341154    -2.029244
C      -0.369004     5.612200    -1.908396
H      -1.414788     5.904658    -1.913963
H       0.373628     6.396918    -1.807341
C      -0.975829     3.205316    -2.230967
H      -0.606808     2.504201    -2.985847
H      -1.145814     2.637190    -1.312662
H      -1.937693     3.599110    -2.565852
N       1.912720     2.947575    -1.332978
C       3.329923     2.598809    -1.454710
H       3.604130     2.559399    -2.508146
H       3.959846     3.342306    -0.955851
H       3.494433     1.620633    -1.002165
C      -1.146446    -4.533508     0.044186
C      -1.316020    -3.628995    -1.185700
C      -2.481092    -5.202066     0.414075
H      -1.716777    -4.204211    -2.024855
H      -2.013930    -2.821861    -0.950898
H      -0.366628    -3.184650    -1.489141
H      -2.388438    -5.790902     1.330804
H      -3.254716    -4.444712     0.557861
H      -2.804544    -5.868831    -0.389139
C      -0.185690    -5.606925    -0.280152
N       0.560428    -6.448095    -0.518244
48
     -1091.833235     -1091.500892   0.72   1.90
C       0.415713     0.815071     0.411576
C       0.726391     1.326485    -0.865679
C       1.075252     2.671265    -1.042547
C       1.156787     3.507548     0.062111
C       0.857902     3.018223     1.325866
C       0.481871     1.695942     1.496970
C       0.045234    -0.587808     0.642595
C      -0.995756    -0.903096     1.564720
C      -1.344777    -2.178967     1.848605
C      -0.646241    -3.367907     1.259831
C       0.387525    -2.962209     0.252831
C       0.704561    -1.672170    -0.006328
H       1.433840     4.545869    -0.085384
H       0.916817     3.677331     2.185907
H       0.270088     1.321085     2.492149
H      -1.550563    -0.089804     2.022531
H      -2.161401    -2.375433     2.536505
H      -1.397549    -3.997610     0.756459
H       0.897484    -3.746500    -0.296082
H       1.490319    -1.461809    -0.722101
C       0.652218     0.495636    -2.036505
N       0.600646    -0.147818    -2.988704
C       0.557264     3.167082    -3.420175
O       0.993493     3.345568    -4.541056
C      -0.923780     2.993402    -3.205356
C      -1.556747     3.626728    -2.222839
H      -2.637515     3.570918    -2.132229
H      -1.036398     4.242868    -1.498545
C      -1.625340     2.204956    -4.275213
H      -1.248044     1.179636    -4.318146
H      -2.701232     2.182684    -4.089796
H      -1.432765     2.660993    -5.249801
N       1.401353     3.185029    -2.326926
C       2.817922     3.446010    -2.590069
H       3.305684     2.564459    -3.019409
H       2.909050     4.270171    -3.296750
H       3.308309     3.708135    -1.651061
C      -0.033102    -4.291988     2.383156
C       1.027700    -3.544468     3.204508
C       0.555834    -5.579874     1.783236
H       1.429734    -4.193164     3.987430
H       1.845824    -3.237096     2.548755
H       0.606560    -2.652794     3.672607
H      -0.167994    -6.080570     1.134549
H       1.451549    -5.351786     1.201806
H       0.836841    -6.272550     2.580452
C      -1.139466    -4.685638     3.278378
N      -2.005822    -4.997399     3.966187
48
     -1091.833235     -1091.500881   0.72   1.91
C       0.848290     0.839820    -0.447954
C       1.592597    -0.213087    -1.019666
C       2.875617     0.004313    -1.537351
C       3.409895     1.285207    -1.525246
C       2.688265     2.332330    -0.969711
C       1.432124     2.111487    -0.428916
C      -0.500106     0.656705     0.106114
C      -1.487422    -0.151212    -0.529614
C      -2.741716    -0.271714    -0.035560
C      -3.215670     0.452168     1.188643
C      -2.108072     1.223719     1.841414
C      -0.866293     1.321228     1.313451
H       4.402031     1.443554    -1.934168
H       3.112586     3.331002    -0.956699
H       0.870479     2.941889    -0.015708
H      -1.232950    -0.678667    -1.441226
H      -3.442085    -0.927858    -0.540967
H      -3.593639    -0.290012     1.910226
H      -2.338162     1.723898     2.777128
H      -0.110241     1.891471     1.844540
C       1.078003    -1.555065    -1.050326
N       0.689333    -2.637164    -1.087360
C       3.981727    -2.218219    -1.477711
O       4.349275    -3.189065    -2.110886
C       3.982432    -2.254520     0.028415
C       4.455239    -1.237682     0.742267
H       4.539216    -1.309625     1.822616
H       4.802300    -0.318258     0.284883
C       3.576828    -3.572850     0.625020
H       3.670443    -3.544862     1.712617
H       2.545687    -3.822498     0.360622
H       4.213871    -4.365751     0.224575
N       3.621653    -1.052709    -2.125645
C       3.725021    -1.050605    -3.586262
H       4.664623    -1.515234    -3.883037
H       2.901127    -1.612690    -4.038795
H       3.694690    -0.018712    -3.940053
C      -4.455919     1.376681     0.874307
C      -5.639998     0.554768     0.337824
C      -4.084163     2.494804    -0.110734
H      -5.864031    -0.290371     0.994304
H      -6.533099     1.180924     0.269861
H      -5.415937     0.175302    -0.661271
H      -3.755164     2.053776    -1.054699
H      -4.949332     3.134597    -0.304516
H      -3.274722     3.112604     0.282569
C      -4.881620     1.986735     2.149856
N      -5.215230     2.450919     3.146895
48
     -1091.832309     -1091.500857   1.30   1.93
C       0.803609     0.487172     0.695285
C       0.160671     1.261712    -0.290253
C       0.220962     2.660873    -0.266405
C       0.924788     3.296632     0.747714
C       1.560642     2.543831     1.725954
C       1.495361     1.159516     1.707102
C       0.771851    -0.982010     0.668388
C       1.020139    -1.713487    -0.527647
C       0.963562    -3.064833    -0.561305
C       0.561567    -3.892527     0.622489
C       0.478331    -3.071127     1.874047
C       0.557245    -1.719491     1.868616
H       0.966517     4.379332     0.766051
H       2.111880     3.046283     2.514285
H       2.014115     0.582721     2.464980
H       1.291930    -1.173317    -1.427810
H       1.178835    -3.591666    -1.485454
H       1.310097    -4.685950     0.770357
H       0.340652    -3.591700     2.815969
H       0.438690    -1.175570     2.801197
C      -0.604378     0.628005    -1.331742
N      -1.228015     0.123782    -2.156832
C       0.153792     4.427127    -1.961215
O      -0.492553     5.328585    -2.457560
C       1.649156     4.334100    -2.137967
C       2.347716     5.454408    -1.993016
H       3.424880     5.473086    -2.129522
H       1.855085     6.387418    -1.739624
C       2.260283     3.015433    -2.543354
H       3.244637     3.185710    -2.984315
H       2.383930     2.337434    -1.694922
H       1.634244     2.505175    -3.281868
N      -0.466486     3.411118    -1.258720
C      -1.926846     3.475735    -1.157504
H      -2.351456     3.623257    -2.149584
H      -2.296646     2.538086    -0.742889
H      -2.237380     4.307078    -0.516163
C      -0.792792    -4.660379     0.341901
C      -1.943952    -3.685649     0.052026
C      -1.151952    -5.591103     1.512303
H      -2.865957    -4.238693    -0.147509
H      -2.103585    -3.041940     0.920277
H      -1.723128    -3.052820    -0.809109
H      -1.431662    -5.003238     2.389176
H      -2.001147    -6.224482     1.243884
H      -0.311488    -6.239385     1.775048
C      -0.571353    -5.506481    -0.847835
N      -0.387886    -6.172303    -1.766505
48
     -1091.832309     -1091.500856   1.30   1.93
C      -0.902137     0.261100     0.182582
C       0.152185     1.154647    -0.090456
C      -0.032214     2.540651    -0.007674
C      -1.275406     3.043613     0.352190
C      -2.321557     2.172627     0.625916
C      -2.137874     0.800905     0.551247
C      -0.731373    -1.194653     0.073780
C      -1.273983    -2.059387     1.067911
C      -1.098503    -3.401159     1.022863
C      -0.285821    -4.076649    -0.040756
C       0.095731    -3.127712    -1.137105
C      -0.087835    -1.790239    -1.047977
H      -1.414285     4.116236     0.419346
H      -3.291816     2.571716     0.903606
H      -2.968832     0.132005     0.746847
H      -1.830536    -1.622677     1.892014
H      -1.552859    -4.022556     1.787449
H      -0.881028    -4.895719    -0.472660
H       0.571771    -3.550236    -2.016199
H       0.235905    -1.156662    -1.866341
C       1.459385     0.657985    -0.431236
N       2.508535     0.262685    -0.690002
C       0.951688     4.488971    -1.117782
O       1.682766     5.453450    -1.008078
C      -0.064864     4.387698    -2.227907
C      -0.788665     5.470566    -2.487899
H      -1.522602     5.483785    -3.288166
H      -0.658818     6.378104    -1.907457
C      -0.153238     3.112039    -3.028895
H      -0.634308     3.312239    -3.988524
H       0.842815     2.701161    -3.220594
H      -0.732579     2.339797    -2.516242
N       1.062482     3.411723    -0.258788
C       2.103298     3.492655     0.769421
H       3.050406     3.762175     0.304012
H       1.853210     4.250171     1.519440
H       2.202667     2.520744     1.252501
C       0.993052    -4.781990     0.567171
C       0.596519    -5.832569     1.617947
C       1.970100    -3.759101     1.165813
H      -0.155225    -6.522227     1.224327
H       1.471142    -6.415253     1.917721
H       0.194634    -5.342835     2.507540
H       1.477406    -3.215165     1.975189
H       2.848851    -4.268421     1.570973
H       2.299498    -3.036936     0.416971
C       1.662965    -5.491654    -0.540974
N       2.171854    -6.052258    -1.405664
48
     -1091.833100     -1091.500750   0.80   1.99
C       0.162618     1.030145     0.126423
C       0.059225     1.152889    -1.274895
C       0.048651     2.409308    -1.893465
C       0.099800     3.556134    -1.113364
C       0.197566     3.451927     0.266950
C       0.240153     2.208817     0.876922
C       0.177349    -0.266764     0.816594
C      -0.674384    -1.345146     0.444703
C      -0.681313    -2.516638     1.123115
C       0.162914    -2.772710     2.335708
C       1.081644    -1.624346     2.625326
C       1.057916    -0.469112     1.922051
H       0.084893     4.524247    -1.602400
H       0.243561     4.351180     0.872590
H       0.296473     2.141792     1.957711
H      -1.348064    -1.225059    -0.395342
H      -1.337548    -3.318413     0.799499
H       0.776123    -3.669830     2.152667
H       1.806238    -1.742158     3.424161
H       1.761767     0.318021     2.175293
C       0.006020    -0.008315    -2.120770
N      -0.037545    -0.919454    -2.821621
C       0.811694     1.991547    -4.219400
O       0.497683     1.881360    -5.388921
C       2.194776     1.599378    -3.768762
C       2.898139     2.374028    -2.948834
H       3.928038     2.131893    -2.703762
H       2.494230     3.283840    -2.519777
C       2.754918     0.381525    -4.448089
H       2.734106     0.526250    -5.531372
H       3.782259     0.202138    -4.124348
H       2.150650    -0.502898    -4.228719
N      -0.068671     2.535085    -3.304289
C      -1.366337     2.977001    -3.818951
H      -1.834139     3.630389    -3.080615
H      -1.219547     3.519761    -4.752043
H      -2.022995     2.122324    -4.013564
C      -0.725023    -3.139881     3.587944
C      -1.673288    -1.989646     3.957321
C       0.148810    -3.528190     4.792653
H      -2.286402    -2.263897     4.820029
H      -1.087667    -1.102621     4.210924
H      -2.333630    -1.741007     3.124575
H       0.678707    -2.652714     5.173854
H      -0.474379    -3.924047     5.598388
H       0.881060    -4.292867     4.519628
C      -1.529192    -4.323526     3.224121
N      -2.145312    -5.251687     2.941854
48
     -1091.833100     -1091.500745   0.80   2.00
C      -0.348729     0.483884     0.550520
C       0.328322     1.542710    -0.089739
C       0.127691     2.872550     0.300901
C      -0.720701     3.152786     1.363020
C      -1.390884     2.121583     2.005789
C      -1.217063     0.808810     1.598820
C      -0.168385    -0.924613     0.173475
C      -1.298231    -1.796667     0.136839
C      -1.186649    -3.112419    -0.156546
C       0.129163    -3.777460    -0.426817
C       1.258105    -2.790552    -0.440167
C       1.104293    -1.478988    -0.142118
H      -0.864226     4.185785     1.661242
H      -2.058037     2.345835     2.831736
H      -1.731412     0.010820     2.122676
H      -2.284331    -1.375333     0.307718
H      -2.084625    -3.717976    -0.219727
H       0.076118    -4.262580    -1.414844
H       2.244269    -3.171036    -0.686997
H       1.979685    -0.840623    -0.131027
C       1.214178     1.297840    -1.195193
N       1.927750     1.131452    -2.081982
C       0.750024     4.230270    -1.683050
O       1.580042     4.950735    -2.203166
C      -0.405546     3.702537    -2.492942
C      -1.646325     3.719968    -2.016239
H      -2.484873     3.425724    -2.640449
H      -1.878028     4.052877    -1.011014
C      -0.062785     3.331039    -3.908188
H       0.393382     4.188370    -4.409965
H       0.665781     2.516199    -3.934448
H      -0.959930     3.026374    -4.451076
N       0.818974     3.939506    -0.334488
C       1.916246     4.551712     0.417379
H       2.864448     4.043749     0.211391
H       2.014082     5.597310     0.127632
H       1.694314     4.482545     1.483612
C       0.406666    -4.955493     0.586382
C      -0.690395    -6.030152     0.501204
C       0.542090    -4.435166     2.024994
H      -0.849023    -6.352005    -0.531613
H      -0.407891    -6.904930     1.092162
H      -1.631163    -5.643120     0.898352
H      -0.389098    -3.948298     2.324877
H       0.742725    -5.262068     2.711555
H       1.353081    -3.709207     2.106331
C       1.679015    -5.588569     0.185863
N       2.663807    -6.086397    -0.135247
48
     -1091.832494     -1091.500664   1.18   2.05
C       0.938041     0.889934     0.053354
C       1.249826    -0.177230    -0.812057
C       2.536188    -0.325463    -1.346203
C       3.521570     0.596498    -1.019305
C       3.225564     1.653706    -0.169091
C       1.951163     1.805243     0.353984
C      -0.399247     1.044028     0.642767
C      -1.091979    -0.059791     1.220996
C      -2.335381     0.067968     1.737741
C      -3.110502     1.349787     1.679879
C      -2.259975     2.494180     1.214561
C      -1.012908     2.326234     0.714250
H       4.514798     0.481723    -1.437184
H       4.000697     2.369434     0.085240
H       1.738251     2.623275     1.033405
H      -0.590653    -1.019684     1.279888
H      -2.803696    -0.790341     2.207298
H      -3.490845     1.579272     2.686998
H      -2.698282     3.486431     1.255902
H      -0.471568     3.188418     0.336426
C       0.237255    -1.125876    -1.194438
N      -0.575499    -1.876451    -1.510883
C       3.901410    -2.222750    -2.076666
O       4.381091    -2.819965    -3.020069
C       4.430436    -2.400233    -0.675021
C       5.749549    -2.398783    -0.520030
H       6.206555    -2.546197     0.453972
H       6.408647    -2.256263    -1.370137
C       3.457487    -2.647925     0.451316
H       2.650577    -3.314316     0.131133
H       3.977050    -3.114036     1.291078
H       2.995997    -1.724720     0.811179
N       2.806390    -1.395604    -2.241704
C       2.258340    -1.290016    -3.596566
H       2.096418    -2.288823    -3.999652
H       1.307259    -0.759365    -3.555375
H       2.948371    -0.753486    -4.255978
C      -4.404789     1.196448     0.783121
C      -5.346569     0.124551     1.357091
C      -4.045054     0.873662    -0.674781
H      -4.897989    -0.865721     1.253524
H      -5.557189     0.308017     2.414236
H      -6.295075     0.125717     0.814185
H      -3.509323    -0.077317    -0.720235
H      -4.952845     0.794929    -1.279351
H      -3.407619     1.648644    -1.104051
C      -5.120380     2.487157     0.826743
N      -5.677241     3.491437     0.874912
48
     -1091.832494     -1091.500653   1.18   2.05
C      -0.801063     0.681306    -0.289707
C       0.501687     1.194370    -0.132874
C       0.736982     2.574481    -0.088930
C      -0.332349     3.453212    -0.199545
C      -1.621096     2.959290    -0.352282
C      -1.855597     1.593868    -0.388510
C      -1.061071    -0.763111    -0.364269
C      -2.164326    -1.334442     0.330093
C      -2.406132    -2.666713     0.313464
C      -1.511404    -3.647013    -0.385124
C      -0.483823    -2.957519    -1.231230
C      -0.269839    -1.622940    -1.181138
H      -0.147953     4.520369    -0.161138
H      -2.452558     3.651046    -0.441317
H      -2.864223     1.221041    -0.529197
H      -2.815597    -0.683507     0.905672
H      -3.257482    -3.069809     0.853002
H      -2.128506    -4.289888    -1.031282
H       0.114986    -3.564316    -1.901842
H       0.501025    -1.186891    -1.807093
C       1.622553     0.304518     0.019595
N       2.516934    -0.406678     0.155061
C       2.602027     4.035616    -0.708171
O       3.504906     4.745992    -0.312043
C       2.071423     4.140260    -2.116532
C       1.860428     5.360837    -2.595866
H       1.503566     5.518577    -3.609292
H       2.047456     6.237696    -1.984688
C       1.886205     2.881172    -2.927120
H       2.706022     2.178195    -2.749900
H       0.954035     2.364790    -2.683807
H       1.866807     3.127404    -3.990792
N       2.060396     3.056098     0.102873
C       2.635595     2.918073     1.443479
H       2.383303     3.781768     2.067378
H       2.248374     2.009867     1.905048
H       3.719791     2.848746     1.365970
C      -0.833738    -4.638614     0.644591
C       0.071485    -3.890655     1.634646
C      -0.042581    -5.735054    -0.088383
H       0.877927    -3.391894     1.092132
H      -0.489455    -3.135514     2.188093
H       0.510196    -4.592190     2.349608
H      -0.659485    -6.230736    -0.842906
H       0.834095    -5.304500    -0.576899
H       0.301907    -6.490749     0.622015
C      -1.921273    -5.299494     1.393192
N      -2.773886    -5.817798     1.963634
48
     -1091.831541     -1091.500596   1.78   2.09
C      -0.096287     0.499609    -0.409426
C       1.070740     0.139057    -1.113631
C       1.529674     0.901967    -2.193577
C       0.836608     2.044836    -2.567147
C      -0.293050     2.431718    -1.859991
C      -0.758012     1.668015    -0.801348
C      -0.630029    -0.294034     0.704353
C      -0.671874    -1.716750     0.677759
C      -1.258377    -2.430594     1.666219
C      -1.999307    -1.790605     2.803435
C      -1.723351    -0.317661     2.875740
C      -1.136360     0.362150     1.864740
H       1.192662     2.628211    -3.408983
H      -0.827865     3.329907    -2.151688
H      -1.667056     1.955452    -0.284986
H      -0.227812    -2.244272    -0.158233
H      -1.234845    -3.513665     1.620467
H      -1.703043    -2.266871     3.750313
H      -2.047357     0.218346     3.761093
H      -1.001210     1.435703     1.954016
C       1.882234    -0.967920    -0.681136
N       2.545774    -1.843853    -0.340027
C       3.738832     1.336239    -3.158760
O       4.491332     1.164334    -4.098796
C       3.980623     2.459881    -2.185461
C       3.989673     2.225650    -0.878096
H       4.254439     3.006875    -0.171671
H       3.766674     1.245764    -0.469064
C       4.350570     3.774757    -2.811125
H       5.197755     3.637184    -3.488277
H       3.524246     4.174459    -3.410157
H       4.610339     4.508587    -2.045458
N       2.683128     0.482788    -2.912777
C       2.528926    -0.669084    -3.802813
H       2.075734    -0.375437    -4.756060
H       3.509643    -1.098655    -4.000203
H       1.898480    -1.413682    -3.315044
C      -3.552961    -2.070362     2.701186
C      -4.300270    -1.460777     3.899094
C      -3.840121    -3.579301     2.631689
H      -3.890652    -1.861679     4.831269
H      -4.218437    -0.373230     3.917642
H      -5.361181    -1.718185     3.850524
H      -3.401609    -4.078508     3.501222
H      -4.918349    -3.756912     2.640530
H      -3.431852    -4.027846     1.725190
C      -4.047397    -1.436447     1.464831
N      -4.435728    -0.940263     0.504101
48
     -1091.831541     -1091.500577   1.78   2.10
C      -0.281001     0.089842    -0.620575
C       0.378924     1.253603    -0.175519
C      -0.106562     2.527458    -0.492468
C      -1.246163     2.649931    -1.275020
C      -1.885096     1.513408    -1.750338
C      -1.415158     0.251536    -1.423184
C       0.175435    -1.262994    -0.278938
C       0.159638    -2.288627    -1.269575
C       0.480228    -3.570445    -0.981568
C       0.755192    -4.037885     0.417306
C       0.958649    -2.880505     1.350526
C       0.637341    -1.607732     1.022729
H      -1.621821     3.639216    -1.511648
H      -2.772097     1.614306    -2.367517
H      -1.948499    -0.629282    -1.762771
H      -0.072475    -2.016151    -2.294579
H       0.503690    -4.305971    -1.778177
H       1.651496    -4.676471     0.421827
H       1.339684    -3.089542     2.343907
H       0.729556    -0.832827     1.774639
C       1.628113     1.168968     0.533951
N       2.632538     1.116022     1.092724
C       0.936743     4.721125    -0.807878
O       1.083872     5.849908    -0.379342
C       1.235013     4.409576    -2.250893
C       2.013093     3.381207    -2.569017
H       2.310655     3.202244    -3.598037
H       2.405300     2.704175    -1.817346
C       0.723080     5.419363    -3.238556
H       1.064673     5.181512    -4.247999
H      -0.372547     5.451108    -3.240341
H       1.070433     6.418026    -2.960697
N       0.555924     3.680095     0.013581
C       0.378346     3.976907     1.435920
H       1.184516     4.630302     1.765187
H      -0.577949     4.478950     1.619855
H       0.413590     3.044502     2.000893
C      -0.398540    -4.989820     0.932353
C      -0.117848    -5.474941     2.364152
C      -0.564266    -6.203752     0.002856
H      -0.118429    -4.650634     3.078389
H      -0.882536    -6.191350     2.674332
H       0.855869    -5.973085     2.400429
H      -1.317252    -6.885461     0.405885
H      -0.879752    -5.907972    -0.998534
H       0.384920    -6.743262    -0.070882
C      -1.656270    -4.219740     0.930937
N      -2.638058    -3.623014     0.927171
48
     -1091.832217     -1091.500159   1.36   2.36
C       0.828457    -0.949402     0.306631
C       1.946092    -0.194919    -0.102972
C       3.053532    -0.805552    -0.704118
C       3.078847    -2.186739    -0.840962
C       2.004320    -2.947211    -0.400192
C       0.889964    -2.338609     0.154116
C      -0.377252    -0.335984     0.876120
C      -1.036263    -0.951807     1.980617
C      -2.200928    -0.477388     2.477554
C      -2.952339     0.650769     1.834197
C      -2.103872     1.367940     0.825422
C      -0.936330     0.867493     0.360199
H       3.939483    -2.653661    -1.307661
H       2.028345    -4.026285    -0.512510
H       0.035309    -2.938198     0.446700
H      -0.558895    -1.799581     2.462492
H      -2.638741    -0.948072     3.350991
H      -3.283588     1.360049     2.607746
H      -2.473081     2.305852     0.425799
H      -0.417982     1.395138    -0.431796
C       2.020830     1.216193     0.160439
N       2.111161     2.344036     0.368309
C       4.111816     1.029753    -1.990791
O       5.038732     1.811911    -2.075467
C       2.909124     1.182950    -2.885282
C       2.378346     0.135895    -3.508707
H       1.572071     0.265106    -4.224718
H       2.740104    -0.874720    -3.355749
C       2.487181     2.603772    -3.133143
H       1.659712     2.639114    -3.844861
H       2.179928     3.089419    -2.202341
H       3.332755     3.172503    -3.528438
N       4.175107    -0.043043    -1.123261
C       5.409989    -0.189825    -0.349891
H       6.269295    -0.064316    -1.008093
H       5.465910     0.564575     0.441647
H       5.429098    -1.184427     0.097798
C      -4.298369     0.134619     1.183056
C      -5.074166     1.288953     0.527391
C      -5.188851    -0.550263     2.233304
H      -5.263925     2.072727     1.267181
H      -4.525638     1.721084    -0.310463
H      -6.035719     0.929715     0.152461
H      -6.141944    -0.841782     1.785218
H      -4.719996    -1.447188     2.640102
H      -5.391984     0.144987     3.053564
C      -3.950089    -0.852559     0.144196
N      -3.681537    -1.624645    -0.663111
48
     -1091.831571     -1091.499907   1.76   2.52
C      -0.372430     0.384356     0.385982
C       0.706884     1.289572     0.443938
C       0.492311     2.674503     0.434688
C      -0.803229     3.168039     0.366868
C      -1.874958     2.287487     0.307502
C      -1.664878     0.918461     0.324932
C      -0.192208    -1.073492     0.370378
C       0.826416    -1.709621    -0.396756
C       0.952812    -3.056278    -0.443964
C       0.023010    -3.993293     0.266455
C      -0.975796    -3.254977     1.106303
C      -1.070854    -1.905427     1.123928
H      -0.963160     4.239820     0.363618
H      -2.886459     2.676534     0.249666
H      -2.510054     0.242667     0.255818
H       1.516726    -1.099769    -0.967363
H       1.768408    -3.485635    -1.015754
H       0.618617    -4.643460     0.927454
H      -1.647373    -3.851950     1.715620
H      -1.813936    -1.436268     1.761600
C       2.064638     0.823619     0.540505
N       3.155943     0.468179     0.622827
C       1.765216     4.614042    -0.347383
O       2.411271     5.594027    -0.032593
C       1.163862     4.470292    -1.723534
C       0.547776     5.532265    -2.230232
H       0.111859     5.514487    -3.224676
H       0.470239     6.453341    -1.661866
C       1.357990     3.178185    -2.478057
H       2.370675     2.789533    -2.332549
H       0.660096     2.400822    -2.156455
H       1.203942     3.348298    -3.545640
N       1.602345     3.557682     0.528787
C       2.251730     3.678607     1.836624
H       3.293248     3.964784     1.697084
H       1.757890     4.440179     2.449140
H       2.207413     2.716137     2.346108
C      -0.686879    -4.982037    -0.738757
C       0.342047    -5.839630    -1.494571
C      -1.587692    -4.224509    -1.725400
H      -0.165983    -6.617938    -2.069414
H       0.911565    -5.221448    -2.191634
H       1.037036    -6.323784    -0.803197
H      -2.083816    -4.924942    -2.402632
H      -2.351090    -3.648699    -1.198848
H      -0.980742    -3.534754    -2.316745
C      -1.522493    -5.897156     0.064125
N      -2.163370    -6.613253     0.694458
48
     -1091.831571     -1091.499901   1.76   2.53
C       0.946697     0.282638     0.282861
C       0.160745     1.452732     0.253533
C       0.731727     2.702366    -0.023141
C       2.093836     2.794442    -0.273729
C       2.878895     1.649627    -0.249706
C       2.317405     0.415053     0.031769
C       0.386285    -1.049571     0.545905
C       1.097165    -1.968156     1.372240
C       0.646690    -3.222115     1.607379
C      -0.605353    -3.770065     0.990776
C      -1.332219    -2.730868     0.191429
C      -0.848974    -1.483892    -0.016457
H       2.530327     3.763846    -0.483575
H       3.942767     1.724272    -0.450814
H       2.938765    -0.473579     0.025447
H       2.008985    -1.634391     1.858134
H       1.204339    -3.882209     2.264617
H      -1.267970    -4.115884     1.800545
H      -2.294997    -2.996307    -0.231758
H      -1.416520    -0.800320    -0.636665
C      -1.250131     1.408772     0.531784
N      -2.378517     1.392287     0.756581
C      -0.066042     4.776529    -1.050242
O      -0.386195     5.935330    -0.872686
C       0.305511     4.257973    -2.417401
C       1.115067     5.011753    -3.152613
H       1.407686     4.718199    -4.156335
H       1.501518     5.950182    -2.768640
C      -0.313072     2.972141    -2.907851
H      -0.249547     2.924753    -3.996943
H       0.187907     2.089360    -2.502268
H      -1.367244     2.911439    -2.620126
N      -0.085124     3.865833    -0.010801
C      -0.516933     4.365781     1.297003
H      -1.453953     4.909215     1.183901
H      -0.668966     3.520758     1.968348
H       0.231351     5.042084     1.723321
C      -0.308689    -5.061752     0.133120
C       0.635255    -4.750577    -1.037737
C      -1.611041    -5.701172    -0.377204
H       0.843114    -5.658319    -1.610615
H       0.166131    -4.017993    -1.698858
H       1.581398    -4.338730    -0.681668
H      -1.400108    -6.670166    -0.836399
H      -2.321135    -5.857091     0.439415
H      -2.076015    -5.063248    -1.131690
C       0.344964    -6.039396     1.026016
N       0.844257    -6.800448     1.727688
48
     -1091.831438     -1091.499844   1.85   2.56
C       0.987901    -0.562253    -0.033268
C       1.606028     0.704386    -0.068069
C       2.821134     0.899517    -0.738506
C       3.429989    -0.169462    -1.381377
C       2.830992    -1.421626    -1.356422
C       1.634232    -1.617881    -0.687066
C      -0.295910    -0.806486     0.637649
C      -0.484815    -2.004206     1.390473
C      -1.660731    -2.303191     1.988760
C      -2.874272    -1.430193     1.880531
C      -2.582010    -0.161256     1.136924
C      -1.389104     0.101001     0.553265
H       4.371189    -0.013238    -1.895233
H       3.307006    -2.254366    -1.864160
H       1.167036    -2.596390    -0.695018
H       0.360298    -2.673479     1.521015
H      -1.733931    -3.202779     2.590768
H      -3.206733    -1.170902     2.898656
H      -3.386653     0.563171     1.059561
H      -1.271808     1.022883    -0.003806
C       1.024602     1.835621     0.604439
N       0.578126     2.750704     1.140373
C       3.875845     2.788280    -1.884688
O       4.757516     3.624190    -1.857192
C       3.177942     2.415044    -3.169112
C       3.939816     2.224310    -4.240203
H       3.509203     1.977937    -5.206192
H       5.019109     2.317581    -4.178063
C       1.670433     2.357306    -3.195237
H       1.283702     1.421461    -2.783610
H       1.238210     3.175354    -2.610660
H       1.316230     2.444250    -4.224497
N       3.432980     2.182671    -0.724046
C       4.068911     2.606258     0.526097
H       5.104083     2.252887     0.577234
H       4.068640     3.693994     0.580286
H       3.504292     2.203235     1.366735
C      -4.093937    -2.202964     1.242584
C      -4.472755    -3.432966     2.084766
C      -3.799487    -2.611884    -0.208212
H      -3.694295    -4.195470     2.012948
H      -4.608962    -3.165404     3.136104
H      -5.406538    -3.867132     1.718965
H      -2.933320    -3.277757    -0.229927
H      -4.657003    -3.137453    -0.636960
H      -3.580119    -1.739471    -0.826384
C      -5.250010    -1.284622     1.254496
N      -6.150811    -0.571272     1.275510
48
     -1091.831438     -1091.499831   1.85   2.57
C       0.891138     0.782666    -0.102494
C       1.698591    -0.372181    -0.057452
C       2.961304    -0.397614    -0.664871
C       3.429054     0.730913    -1.323923
C       2.643220     1.874128    -1.377337
C       1.398491     1.903501    -0.770237
C      -0.446977     0.845856     0.500308
C      -1.381087    -0.223815     0.405517
C      -2.627925    -0.131598     0.924502
C      -3.149781     1.100656     1.601098
C      -2.092805     2.155931     1.726422
C      -0.856317     2.024306     1.193611
H       4.407633     0.706385    -1.788784
H       3.009619     2.753297    -1.897585
H       0.786660     2.796080    -0.839368
H      -1.094907    -1.134492    -0.107041
H      -3.305969    -0.975193     0.841839
H      -3.488712     0.827501     2.613448
H      -2.334302     3.053050     2.286678
H      -0.132490     2.821617     1.333440
C       1.266096    -1.556894     0.634941
N       0.940288    -2.511843     1.187989
C       4.351727    -2.135641    -1.684282
O       5.350111    -2.821132    -1.583457
C       3.669294    -1.920618    -3.012501
C       4.444921    -1.650202    -4.056226
H       4.030039    -1.507599    -5.049602
H       5.521212    -1.571435    -3.942991
C       2.174140    -2.100057    -3.107097
H       1.627519    -1.222229    -2.752938
H       1.889429    -2.277357    -4.146279
H       1.844736    -2.954537    -2.507850
N       3.762651    -1.568085    -0.570291
C       4.393505    -1.843618     0.723075
H       5.356741    -1.329359     0.805553
H       3.731294    -1.507236     1.520711
H       4.560763    -2.915260     0.821568
C      -4.440772     1.650841     0.878356
C      -4.140787     2.051002    -0.573746
C      -5.046968     2.834466     1.651165
H      -3.388030     2.843049    -0.584816
H      -3.758443     1.203056    -1.144853
H      -5.046691     2.420992    -1.061419
H      -5.192662     2.584952     2.705664
H      -4.393190     3.706469     1.582201
H      -6.017146     3.104449     1.226753
C      -5.440033     0.563883     0.877325
N      -6.219589    -0.280467     0.888158
48
     -1091.828526     -1091.499785   3.67   2.60
C      -1.189909    -0.508680    -1.059417
C      -0.397033     0.654668    -1.138494
C      -0.897581     1.833955    -1.697183
C      -2.206660     1.883842    -2.146688
C      -3.010654     0.756663    -2.038812
C      -2.509820    -0.424295    -1.511924
C      -0.660370    -1.762908    -0.512042
C      -1.458381    -2.574907     0.345700
C      -0.975572    -3.703969     0.915275
C       0.441250    -4.160319     0.734259
C       1.150160    -3.368567    -0.323410
C       0.636737    -2.238131    -0.859877
H      -2.588937     2.810748    -2.557458
H      -4.038906     0.797354    -2.383231
H      -3.139774    -1.306239    -1.471146
H      -2.476628    -2.264267     0.559722
H      -1.627370    -4.304781     1.540936
H       0.436818    -5.221078     0.441101
H       2.133718    -3.713105    -0.626458
H       1.214004    -1.692848    -1.598686
C       0.917133     0.694252    -0.551873
N       1.966002     0.756798    -0.082257
C      -0.290022     4.025102    -0.932050
O      -1.210241     4.021401    -0.138483
C       0.674221     5.182565    -0.988906
C       0.636024     6.050194    -1.991640
H       1.284976     6.920786    -2.008662
H      -0.060316     5.937027    -2.817300
C       1.572639     5.288313     0.210838
H       0.967674     5.357092     1.119993
H       2.199420     4.394267     0.308156
H       2.218650     6.165872     0.140638
N      -0.048825     2.976158    -1.786024
C       1.126947     2.907406    -2.656009
H       1.219307     1.885052    -3.023787
H       1.025823     3.576371    -3.514632
H       2.039619     3.156160    -2.111374
C       1.240749    -4.119453     2.099159
C       0.572297    -5.013730     3.156708
C       1.392039    -2.682968     2.621877
H       1.210897    -5.096078     4.039761
H      -0.381294    -4.581324     3.467238
H       0.393968    -6.020343     2.768602
H       1.909088    -2.047906     1.900633
H       0.403326    -2.257132     2.808244
H       1.956339    -2.679585     3.558495
C       2.582458    -4.674409     1.830392
N       3.620287    -5.119589     1.616666
48
     -1091.828525     -1091.499767   3.67   2.61
C       0.631349     0.369164     1.318316
C       0.785430     1.088672     0.115463
C       1.041506     2.462619     0.122792
C       1.106490     3.146619     1.325355
C       0.917608     2.457059     2.515899
C       0.692130     1.088745     2.515206
C       0.402879    -1.080288     1.322002
C       1.146246    -1.953353     0.476739
C       0.909067    -3.284408     0.440322
C      -0.200262    -3.933127     1.212745
C      -0.814920    -2.989573     2.202850
C      -0.537604    -1.664766     2.219644
H       1.283768     4.215502     1.315925
H       0.960210     2.993666     3.458140
H       0.585729     0.559499     3.455901
H       1.944518    -1.540780    -0.130678
H       1.508368    -3.923523    -0.200226
H       0.204448    -4.801094     1.754975
H      -1.518990    -3.394802     2.922116
H      -1.057400    -1.021059     2.922910
C       0.580384     0.450361    -1.158602
N       0.411710    -0.032079    -2.189803
C       0.216258     3.972665    -1.548760
O      -0.792847     4.165739    -0.899912
C       0.396583     4.611923    -2.902106
C       1.240271     5.621805    -3.069589
H       1.330421     6.128192    -4.026042
H       1.851578     5.995377    -2.253407
C      -0.515737     4.063823    -3.962748
H      -0.376578     4.589759    -4.909528
H      -0.331011     2.994974    -4.121131
H      -1.557064     4.165931    -3.642622
N       1.222632     3.142805    -1.117165
C       2.382975     2.797579    -1.940845
H       2.083389     2.518984    -2.952822
H       3.095480     3.625124    -1.990742
H       2.880586     1.940417    -1.486248
C      -1.289146    -4.536161     0.235755
C      -1.917457    -3.449052    -0.649133
C      -2.375103    -5.291988     1.019584
H      -2.657449    -3.891071    -1.321984
H      -2.416464    -2.709471    -0.018550
H      -1.163095    -2.936484    -1.248338
H      -1.933779    -6.019111     1.706767
H      -2.983799    -4.589306     1.592703
H      -3.033444    -5.828020     0.331375
C      -0.599558    -5.515944    -0.627316
N      -0.058689    -6.286541    -1.286554
48
     -1091.832085     -1091.499677   1.44   2.67
C      -0.235583     0.504381     0.011398
C       0.969601     1.162585    -0.310473
C       1.111290     2.545808    -0.134163
C       0.040251     3.289825     0.341679
C      -1.165587     2.660469     0.620877
C      -1.300655     1.290420     0.467459
C      -0.405328    -0.946846    -0.121862
C      -1.637720    -1.481858    -0.599709
C      -1.854339    -2.813441    -0.697730
C      -0.845878    -3.839447    -0.275417
C       0.445706    -3.207535     0.148416
C       0.624011    -1.868709     0.228634
H       0.155948     4.357781     0.483453
H      -2.003857     3.246244     0.984215
H      -2.235014     0.809013     0.733496
H      -2.410334    -0.795940    -0.933087
H      -2.797218    -3.179773    -1.092051
H      -0.646425    -4.502573    -1.132611
H       1.275214    -3.861813     0.394060
H       1.576612    -1.488132     0.578258
C       2.054516     0.457317    -0.939051
N       2.927450    -0.088207    -1.453390
C       2.438451     4.306093    -1.203920
O       3.385450     5.060745    -1.102031
C       1.347838     4.534395    -2.220524
C       0.882543     5.772134    -2.345462
H       0.116297     6.019397    -3.074131
H       1.264310     6.574648    -1.722791
C       0.906594     3.382466    -3.089529
H       0.201034     2.723276    -2.577091
H       0.417865     3.765036    -3.987968
H       1.762459     2.772226    -3.393829
N       2.354720     3.163328    -0.431076
C       3.474915     2.890762     0.472070
H       3.376581     1.877831     0.863142
H       4.411441     2.975825    -0.077425
H       3.489836     3.603339     1.303172
C      -1.423788    -4.790337     0.844270
C      -1.781987    -4.004971     2.114570
C      -0.440013    -5.926724     1.170190
H      -2.195090    -4.675700     2.872764
H      -0.882486    -3.532527     2.516465
H      -2.515950    -3.225557     1.901549
H      -0.119423    -6.444453     0.262122
H       0.440812    -5.530767     1.679871
H      -0.913789    -6.657054     1.830832
C      -2.651116    -5.407854     0.303261
N      -3.600137    -5.893205    -0.126423
48
     -1091.832085     -1091.499673   1.44   2.67
C       0.637534     0.408222     0.140277
C       1.404999    -0.273794    -0.826755
C       2.796119    -0.116244    -0.893201
C       3.437873     0.705255     0.023539
C       2.698895     1.347993     1.007853
C       1.321599     1.210218     1.061725
C      -0.823764     0.298663     0.212774
C      -1.643166     0.266300    -0.953306
C      -2.993150     0.212726    -0.880102
C      -3.745585     0.219800     0.416405
C      -2.820828     0.180240     1.595932
C      -1.474373     0.237834     1.480198
H       4.512548     0.830155    -0.035564
H       3.204588     1.982460     1.728663
H       0.755403     1.755321     1.808613
H      -1.173151     0.293735    -1.929452
H      -3.565414     0.154277    -1.799667
H      -4.390583    -0.672962     0.451690
H      -3.275918     0.107737     2.578959
H      -0.865604     0.195559     2.378068
C       0.802451    -1.242941    -1.702679
N       0.339378    -2.030236    -2.402595
C       4.669220    -1.514383    -1.628683
O       5.510280    -1.708791    -2.483965
C       4.789420    -2.109617    -0.247994
C       5.977272    -2.041111     0.342287
H       6.148163    -2.470558     1.324936
H       6.814793    -1.556925    -0.149254
C       3.597424    -2.816309     0.349111
H       3.928507    -3.493571     1.139116
H       2.876847    -2.118591     0.783732
H       3.069249    -3.401359    -0.409998
N       3.526841    -0.788330    -1.908072
C       3.364795    -0.311035    -3.283098
H       3.537005    -1.134818    -3.974455
H       2.348268     0.061550    -3.411559
H       4.078016     0.489139    -3.506183
C      -4.741961     1.441008     0.504625
C      -5.779312     1.394710    -0.629910
C      -3.988500     2.779265     0.493421
H      -6.548227     2.154287    -0.468343
H      -5.300057     1.597245    -1.589964
H      -6.268358     0.418047    -0.678602
H      -3.282544     2.840409     1.323754
H      -3.431798     2.875984    -0.441755
H      -4.691969     3.612614     0.571194
C      -5.474525     1.316714     1.780657
N      -6.048874     1.209668     2.770353
48
     -1091.831503     -1091.499573   1.81   2.73
C      -0.128847     0.028911    -0.616227
C       0.492351     1.222200    -0.199449
C       0.000554     2.470355    -0.597374
C      -1.108279     2.533025    -1.429896
C      -1.711470     1.363835    -1.871906
C      -1.234547     0.127349    -1.465757
C       0.335178    -1.299405    -0.194615
C       0.427519    -2.351899    -1.151317
C       0.707118    -3.624509    -0.788018
C       0.782707    -4.040816     0.651805
C       0.961136    -2.854378     1.554049
C       0.689699    -1.590884     1.152394
H      -1.489911     3.502731    -1.729807
H      -2.576226     1.419871    -2.525305
H      -1.739928    -0.781479    -1.773903
H       0.308952    -2.107687    -2.202695
H       0.819638    -4.388965    -1.549015
H       1.613650    -4.746231     0.794586
H       1.261261    -3.034061     2.580474
H       0.736336    -0.784113     1.874943
C       1.707013     1.186036     0.571658
N       2.682703     1.165743     1.181060
C       1.023042     4.664100    -0.976179
O       1.136252     5.814592    -0.597826
C       1.385957     4.288506    -2.388913
C       2.191462     3.259126    -2.624722
H       2.534302     3.036092    -3.630783
H       2.561506     2.625106    -1.825790
C       0.900889     5.241106    -3.444605
H       1.221378     6.257645    -3.201485
H       1.287919     4.961009    -4.426434
H      -0.194054     5.254118    -3.492869
N       0.622360     3.658179    -0.121454
C       0.378891     4.020372     1.275784
H      -0.594811     4.508308     1.394850
H       0.410126     3.118079     1.887984
H       1.156399     4.707910     1.604446
C      -0.506678    -4.867370     1.056433
C      -0.457936    -5.280004     2.536278
C      -0.651593    -6.119364     0.175778
H      -0.476788    -4.412591     3.197418
H      -1.316343    -5.911091     2.779662
H       0.455332    -5.851164     2.729561
H      -1.511376    -6.710799     0.500202
H      -0.796643    -5.860641    -0.874009
H       0.246411    -6.738136     0.265838
C      -1.681965    -4.001924     0.841923
N      -2.596499    -3.328569     0.666823
48
     -1091.831943     -1091.499556   1.53   2.74
C      -0.232322     0.337606     0.263628
C       0.502224     1.272090    -0.495632
C       0.392741     2.648769    -0.256532
C      -0.472652     3.107363     0.727370
C      -1.234107     2.200262     1.452100
C      -1.111157     0.838161     1.231813
C      -0.111094    -1.111480     0.068627
C      -1.270236    -1.941333     0.146431
C      -1.205303    -3.286220     0.019127
C       0.084770    -4.024887    -0.172198
C       1.246014    -3.087295    -0.316978
C       1.138780    -1.744774    -0.184289
H      -0.549141     4.171919     0.914141
H      -1.916318     2.562357     2.214546
H      -1.679478     0.142221     1.838653
H      -2.240337    -1.468723     0.266367
H      -2.123632    -3.863693     0.036199
H       0.005497    -4.628370    -1.090785
H       2.215977    -3.529449    -0.521690
H       2.034097    -1.138922    -0.260485
C       1.299988     0.853354    -1.617192
N       1.932708     0.539968    -2.525760
C       0.637091     4.672830    -1.615962
O       1.325467     5.640783    -1.872671
C      -0.820064     4.611169    -2.000621
C      -1.556134     5.692367    -1.769712
H      -2.606189     5.732987    -2.043506
H      -1.121686     6.571290    -1.304694
C      -1.340698     3.376455    -2.694308
H      -2.262115     3.615486    -3.229340
H      -0.610421     2.995703    -3.414872
H      -1.559120     2.567651    -1.992134
N       1.181310     3.553652    -1.014776
C       2.621260     3.578360    -0.748871
H       2.858273     4.280070     0.057448
H       2.946919     2.576818    -0.466885
H       3.149910     3.889403    -1.648883
C       0.332802    -5.074744     0.980091
C      -0.799994    -6.113622     1.036793
C       0.499074    -4.382474     2.340918
H      -0.541070    -6.915951     1.732121
H      -1.723776    -5.647941     1.386581
H      -0.978661    -6.557628     0.053742
H      -0.412852    -3.831022     2.582523
H       0.679487    -5.122868     3.124910
H       1.334044    -3.679657     2.325805
C       1.579685    -5.795961     0.655785
N       2.544501    -6.363160     0.394703
48
     -1091.831943     -1091.499553   1.53   2.74
C       0.649488     0.469230     0.134367
C       1.270492     0.026179    -1.051952
C       2.545305     0.479587    -1.417579
C       3.224014     1.361153    -0.587238
C       2.641969     1.770820     0.604939
C       1.373250     1.340561     0.957326
C      -0.699947     0.047961     0.526932
C      -1.759894    -0.088633    -0.413850
C      -3.012399    -0.433320    -0.034518
C      -3.407362    -0.660807     1.394038
C      -2.229662    -0.572596     2.316946
C      -0.991674    -0.225289     1.897541
H       4.206317     1.715019    -0.876850
H       3.178730     2.453105     1.256263
H       0.915644     1.706891     1.869452
H      -1.565057     0.100636    -1.462977
H      -3.789344    -0.538877    -0.785151
H      -3.840759    -1.670208     1.480913
H      -2.383980    -0.818289     3.362371
H      -0.179258    -0.196628     2.617262
C       0.667991    -0.993647    -1.868413
N       0.208899    -1.817643    -2.527433
C       4.410738    -0.440015    -2.713349
O       5.035262    -0.398178    -3.754943
C       4.980662    -1.079327    -1.471769
C       6.241667    -0.795666    -1.165960
H       6.729444    -1.238166    -0.302540
H       6.822595    -0.115095    -1.779830
C       4.131872    -2.058813    -0.699149
H       4.771649    -2.697102    -0.086224
H       3.421190    -1.558420    -0.036232
H       3.554672    -2.695295    -1.376806
N       3.117381     0.041800    -2.640963
C       2.531759     0.556592    -3.880644
H       3.001013     1.501902    -4.172054
H       2.681537    -0.168268    -4.679635
H       1.463229     0.712157    -3.730009
C      -4.567437     0.315463     1.832967
C      -4.128746     1.784128     1.736521
C      -5.058048    -0.010070     3.253896
H      -4.946504     2.445816     2.034539
H      -3.279255     1.954668     2.402374
H      -3.826780     2.038921     0.719048
H      -5.955920     0.568675     3.484406
H      -5.300210    -1.071483     3.354948
H      -4.291566     0.248180     3.987650
C      -5.699683     0.093878     0.911577
N      -6.583174    -0.089029     0.199724
48
     -1091.828942     -1091.499217   3.41   2.95
C      -0.942058     0.322574     0.846574
C      -0.127666     1.151181     0.046284
C      -0.445479     2.496936    -0.155860
C      -1.600348     3.022465     0.401993
C      -2.432376     2.206857     1.156307
C      -2.105653     0.878345     1.384004
C      -0.593010    -1.080477     1.099801
C       0.738742    -1.465712     1.434353
C       1.083941    -2.759974     1.619332
C       0.123360    -3.891352     1.408223
C      -1.285153    -3.402246     1.244344
C      -1.591922    -2.094381     1.075259
H      -1.847570     4.061971     0.221844
H      -3.341116     2.617844     1.583863
H      -2.745210     0.263637     2.008027
H       1.484786    -0.691518     1.578412
H       2.098804    -3.000944     1.916833
H       0.166758    -4.562408     2.279244
H      -2.070476    -4.151303     1.220210
H      -2.623373    -1.809553     0.891510
C       0.996494     0.599842    -0.664174
N       1.894225     0.167016    -1.239748
C      -0.048158     3.751620    -2.159907
O      -1.122575     3.399094    -2.606559
C       0.824928     4.694313    -2.948614
C       1.112049     5.901935    -2.478411
H       1.667316     6.620436    -3.074008
H       0.779815     6.226638    -1.497235
C       1.198029     4.200630    -4.317568
H       1.812222     3.295420    -4.251867
H       0.293140     3.936780    -4.872478
H       1.753177     4.962113    -4.869083
N       0.417058     3.316993    -0.941435
C       1.770805     3.571309    -0.449174
H       2.024558     2.803168     0.281467
H       2.493903     3.517089    -1.263172
H       1.849374     4.548642     0.036290
C       0.562227    -4.789237     0.180975
C       1.948605    -5.409224     0.423510
C       0.550110    -3.993783    -1.132937
H       1.989452    -5.922397     1.388186
H       2.179969    -6.135066    -0.360110
H       2.716454    -4.632909     0.404066
H       0.837948    -4.639132    -1.967417
H      -0.440732    -3.584056    -1.336438
H       1.258880    -3.164817    -1.069795
C      -0.409871    -5.896068     0.081968
N      -1.164368    -6.760835     0.019237
48
     -1091.828942     -1091.499195   3.41   2.97
C       1.537884     0.197119     0.609524
C       0.589242     1.113931     0.109731
C       0.936682     2.442430    -0.149714
C       2.242932     2.862700     0.045643
C       3.195649     1.959662     0.496589
C       2.848731     0.647828     0.783392
C       1.171453    -1.188600     0.925779
C       2.034560    -2.266370     0.579548
C       1.690466    -3.556393     0.804618
C       0.361169    -3.954717     1.374102
C      -0.400274    -2.770788     1.889679
C      -0.025471    -1.496254     1.637565
H       2.505794     3.889822    -0.178131
H       4.219907     2.288342     0.639377
H       3.595214    -0.036085     1.172403
H       2.983132    -2.044914     0.100014
H       2.371321    -4.355636     0.528852
H       0.527012    -4.659654     2.202606
H      -1.295505    -2.954751     2.473839
H      -0.631069    -0.679973     2.016569
C      -0.735442     0.672608    -0.240842
N      -1.795183     0.327939    -0.528414
C       0.058133     3.807661    -1.913912
O       0.918487     3.401792    -2.671021
C      -0.933632     4.841887    -2.382734
C      -0.970899     6.044582    -1.822353
H      -1.620255     6.825119    -2.207586
H      -0.336116     6.302169    -0.980202
C      -1.736483     4.435716    -3.585814
H      -2.372550     3.573076    -3.357276
H      -2.369026     5.257192    -3.928278
H      -1.062534     4.134613    -4.392964
N      -0.054020     3.353354    -0.621230
C      -1.174308     3.678000     0.261486
H      -1.257496     2.897764     1.018186
H      -1.027163     4.636224     0.768613
H      -2.109608     3.709135    -0.297656
C      -0.493454    -4.764375     0.316254
C      -0.811442    -3.913422    -0.922302
C      -1.788584    -5.298105     0.951101
H      -1.385290    -4.499385    -1.645509
H      -1.401288    -3.041446    -0.630288
H       0.102543    -3.563921    -1.405558
H      -2.463432    -4.470862     1.181071
H      -2.299885    -5.970399     0.257539
H      -1.579916    -5.850121     1.871618
C       0.314277    -5.929687    -0.095431
N       0.944983    -6.840445    -0.401622
48
     -1091.831375     -1091.499156   1.89   2.99
C      -0.369068     0.116208     0.448953
C       0.451159     1.260363     0.475136
C      -0.099865     2.544925     0.414411
C      -1.476930     2.694353     0.329713
C      -2.296594     1.574760     0.298929
C      -1.751899     0.301810     0.362843
C       0.165939    -1.252587     0.482832
C       1.265584    -1.662806    -0.321361
C       1.642868    -2.960635    -0.394289
C       0.859002    -4.064305     0.254429
C      -0.080264    -3.527958     1.294727
C      -0.438249    -2.223831     1.332752
H      -1.897725     3.693012     0.287711
H      -3.372210     1.698004     0.223217
H      -2.393361    -0.570877     0.305064
H       1.809163    -0.920991    -0.895011
H       2.507404    -3.230768    -0.990508
H       1.545949    -4.791879     0.709827
H      -0.526208    -4.228591     1.992154
H      -1.177514    -1.891051     2.055247
C       1.880294     1.139520     0.595266
N       3.023210     1.053140     0.695310
C       0.704872     4.679651    -0.472197
O       1.062979     5.816559    -0.229778
C       0.252951     4.304756    -1.859726
C       0.753106     3.233315    -2.464518
H       0.504292     3.005542    -3.496757
H       1.449331     2.566797    -1.966547
C      -0.657511     5.299868    -2.521324
H      -1.612407     5.376875    -1.988820
H      -0.199368     6.292235    -2.499803
H      -0.859143     5.012965    -3.555394
N       0.750303     3.685546     0.482999
C       1.268668     4.043866     1.804429
H       1.584345     3.137379     2.322260
H       2.123728     4.706005     1.679887
H       0.508762     4.560030     2.401908
C       0.063815    -4.902419    -0.829429
C      -0.687429    -6.072227    -0.172705
C       1.008918    -5.441030    -1.915443
H      -1.446345    -5.722669     0.528621
H      -1.184713    -6.676362    -0.935597
H       0.021875    -6.709775     0.363796
H       0.457785    -6.077494    -2.612248
H       1.469363    -4.633419    -2.486052
H       1.798637    -6.040536    -1.452219
C      -0.921826    -4.003514    -1.459282
N      -1.693633    -3.303268    -1.943448
48
     -1091.831375     -1091.499156   1.89   2.99
C      -0.123744     0.686730    -0.787029
C       0.489334    -0.192748    -1.699827
C       1.491782     0.252169    -2.568479
C       1.886621     1.582055    -2.532089
C       1.293304     2.458547    -1.634304
C       0.297461     2.019601    -0.775932
C      -1.160910     0.258728     0.162747
C      -2.324288     1.061521     0.343805
C      -3.236184     0.791135     1.305934
C      -3.008299    -0.271413     2.340899
C      -1.930856    -1.225987     1.915141
C      -1.045049    -0.930330     0.935372
H       2.660921     1.921362    -3.211412
H       1.612978     3.495261    -1.604241
H      -0.140271     2.699630    -0.053196
H      -2.494590     1.887652    -0.340123
H      -4.134356     1.394378     1.380368
H      -3.942397    -0.821199     2.524873
H      -1.830399    -2.158290     2.459740
H      -0.224700    -1.611532     0.740869
C       0.079447    -1.569806    -1.784497
N      -0.244256    -2.671107    -1.862460
C       3.431423    -0.832688    -3.593968
O       3.962349    -1.220918    -4.617184
C       4.253457    -0.596453    -2.353623
C       3.881934    -1.117701    -1.189929
H       4.513130    -1.031331    -0.310478
H       2.956761    -1.673541    -1.080160
C       5.553998     0.120337    -2.581024
H       6.129524    -0.393678    -3.355432
H       5.384583     1.143788    -2.934809
H       6.138647     0.164048    -1.659860
N       2.066909    -0.649378    -3.509191
C       1.269993    -0.961006    -4.697083
H       1.660871    -1.867570    -5.155802
H       0.233329    -1.123089    -4.399470
H       1.316654    -0.148014    -5.430381
C      -2.658646     0.384793     3.739703
C      -2.400379    -0.691025     4.806783
C      -3.791942     1.313089     4.206608
H      -2.234644    -0.223308     5.780509
H      -3.271212    -1.349234     4.884561
H      -1.523785    -1.294377     4.567229
H      -3.932400     2.153830     3.525852
H      -4.727504     0.748875     4.268230
H      -3.565980     1.714560     5.197586
C      -1.433057     1.187405     3.566578
N      -0.482327     1.817681     3.427619
48
     -1091.830464     -1091.499064   2.46   3.05
C      -1.304824     0.183589     0.354119
C      -0.441931     1.102973    -0.270919
C      -0.832720     2.426752    -0.491712
C      -2.102543     2.840593    -0.129684
C      -2.981857     1.931446     0.449217
C      -2.588978     0.625928     0.692880
C      -0.881296    -1.191163     0.642509
C       0.410878    -1.468748     1.179158
C       0.832386    -2.732718     1.409600
C       0.015215    -3.937675     1.051748
C      -1.384878    -3.565477     0.662611
C      -1.772239    -2.285294     0.453130
H      -2.391635     3.873490    -0.290586
H      -3.978494     2.254404     0.732056
H      -3.270874    -0.059804     1.183888
H       1.055331    -0.636920     1.443109
H       1.805673    -2.892453     1.860928
H      -0.026305    -4.609475     1.922517
H      -2.089234    -4.377205     0.509553
H      -2.782419    -2.085876     0.108728
C       0.837486     0.692154    -0.785244
N       1.849957     0.383473    -1.236539
C       1.169675     3.734648    -0.388070
O       1.262936     3.497175     0.801537
C       2.270076     4.477101    -1.098796
C       2.931838     3.891999    -2.089925
H       3.791081     4.372482    -2.548830
H       2.665117     2.902666    -2.448393
C       2.630283     5.805218    -0.495630
H       1.799522     6.515212    -0.579521
H       2.841054     5.679941     0.570258
H       3.504815     6.232009    -0.991006
N       0.076320     3.329217    -1.117975
C      -0.197469     3.696429    -2.502128
H       0.129753     2.918432    -3.200772
H      -1.273697     3.843365    -2.621913
H       0.311347     4.626686    -2.748884
C       0.717476    -4.787166    -0.083266
C       2.092979    -5.293980     0.382009
C       0.850902    -3.985119    -1.386394
H       2.505790    -5.992016    -0.350640
H       2.788028    -4.457716     0.482718
H       2.020027    -5.810148     1.343174
H       1.320302    -4.598030    -2.160846
H      -0.124826    -3.655634    -1.747609
H       1.470166    -3.101812    -1.213907
C      -0.131698    -5.969200    -0.331651
N      -0.792214    -6.892542    -0.510990
48
     -1091.830464     -1091.499027   2.46   3.07
C       1.891386     0.032061    -0.162295
C       1.013912     1.003849    -0.678249
C       1.496527     2.193717    -1.230669
C       2.860365     2.412582    -1.313130
C       3.740817     1.441775    -0.847077
C       3.265630     0.273068    -0.275760
C       1.391479    -1.192742     0.472079
C       2.026401    -2.446121     0.242555
C       1.550063    -3.595667     0.775885
C       0.295753    -3.652375     1.596674
C      -0.204150    -2.282407     1.944565
C       0.295927    -1.157629     1.384936
H       3.225369     3.345394    -1.729029
H       4.810607     1.611574    -0.912673
H       3.963730    -0.455472     0.121962
H       2.902923    -2.480961    -0.397240
H       2.058293    -4.535054     0.581717
H       0.506725    -4.199950     2.527781
H      -1.008470    -2.201632     2.667784
H      -0.119780    -0.195073     1.663495
C      -0.404531     0.769941    -0.737487
N      -1.538154     0.595146    -0.829140
C      -0.183298     3.847297    -0.812981
O       0.055362     3.788314     0.378586
C      -1.334863     4.678916    -1.312542
C      -2.338161     4.100218    -1.961473
H      -3.221893     4.665425    -2.243101
H      -2.329576     3.040646    -2.197382
C      -1.311633     6.117642    -0.880123
H      -0.456332     6.646936    -1.315555
H      -2.228180     6.628512    -1.182293
H      -1.205781     6.173158     0.207051
N       0.572857     3.157295    -1.732037
C       0.463300     3.283983    -3.180344
H       0.035443     4.251073    -3.438863
H       1.462634     3.215009    -3.617129
H      -0.162373     2.494180    -3.610704
C      -0.824526    -4.501802     0.871122
C      -1.235036    -3.867482    -0.466168
C      -2.050846    -4.684192     1.781187
H      -1.994652    -4.481309    -0.958076
H      -1.647844    -2.871411    -0.290402
H      -0.378566    -3.771368    -1.135726
H      -2.563163    -3.729596     1.918485
H      -2.756024    -5.385755     1.328443
H      -1.761856    -5.073925     2.761075
C      -0.258213    -5.840841     0.613729
N       0.185913    -6.884392     0.427300
48
     -1091.830260     -1091.498860   2.59   3.18
C       0.384770    -1.531856     0.504788
C       1.266757    -0.824786    -0.333061
C       2.507152    -1.359126    -0.692952
C       2.866965    -2.621767    -0.255583
C       1.986638    -3.350537     0.537270
C       0.767564    -2.813493     0.916716
C      -0.893299    -0.951862     0.933349
C      -2.075313    -1.746548     0.981586
C      -3.277595    -1.220206     1.313277
C      -3.470283     0.238608     1.602473
C      -2.161420     0.960408     1.722567
C      -0.981446     0.401336     1.369771
H       3.837788    -3.022184    -0.526733
H       2.267191    -4.341437     0.879313
H       0.110126    -3.376579     1.570253
H      -2.007282    -2.800051     0.726927
H      -4.146780    -1.867777     1.362637
H      -4.021398     0.341961     2.549413
H      -2.190850     1.987960     2.070625
H      -0.071145     0.985965     1.449514
C       0.886500     0.432175    -0.921195
N       0.595084     1.420314    -1.433604
C       3.971121     0.510999    -0.993503
O       3.921710     0.741343     0.200119
C       4.684289     1.462150    -1.917587
C       4.012256     2.076986    -2.883479
H       4.485555     2.838412    -3.496646
H       2.962491     1.871434    -3.068312
C       6.111890     1.752011    -1.549645
H       6.164175     2.076009    -0.506319
H       6.733181     0.853669    -1.640594
H       6.528080     2.530135    -2.192809
N       3.375995    -0.604870    -1.535046
C       3.510085    -1.045164    -2.918466
H       4.430739    -0.652996    -3.347140
H       3.551463    -2.136984    -2.938836
H       2.665282    -0.715118    -3.533150
C      -4.394499     0.925771     0.517397
C      -5.776056     0.252412     0.463534
C      -3.735195     0.920960    -0.869993
H      -5.688442    -0.753874     0.048264
H      -6.223204     0.185871     1.459192
H      -6.451044     0.825947    -0.176651
H      -4.386031     1.411411    -1.599072
H      -2.773772     1.437091    -0.857165
H      -3.567355    -0.110192    -1.189617
C      -4.597437     2.324288     0.945758
N      -4.762362     3.407704     1.292109
48
     -1091.830260     -1091.498855   2.59   3.18
C      -0.559382     0.650408     1.220969
C      -0.188465     1.274812     0.015823
C      -0.398257     2.642052    -0.184847
C      -1.017158     3.395927     0.796815
C      -1.428962     2.783218     1.975670
C      -1.199484     1.433861     2.188066
C      -0.288850    -0.771931     1.460307
C       0.966381    -1.353021     1.119557
C       1.210872    -2.672025     1.292235
C       0.166006    -3.636121     1.769012
C      -1.056358    -2.928634     2.273189
C      -1.256828    -1.601432     2.097451
H      -1.161852     4.459199     0.639109
H      -1.915912     3.373214     2.745327
H      -1.487894     0.979399     3.129706
H       1.754772    -0.711227     0.740959
H       2.185251    -3.079159     1.041836
H       0.587058    -4.241229     2.586117
H      -1.809323    -3.517254     2.786840
H      -2.187608    -1.154408     2.433853
C       0.336831     0.512343    -1.085608
N       0.724765    -0.077206    -1.994368
C       1.352440     3.372544    -1.645115
O       2.168485     3.177815    -0.763990
C       1.809998     3.758548    -3.026733
C       1.538368     2.969724    -4.059483
H       1.942561     3.180278    -5.045409
H       0.939887     2.070808    -3.949067
C       2.695752     4.970770    -3.085074
H       3.534450     4.846925    -2.394072
H       3.078041     5.123745    -4.096414
H       2.152943     5.871512    -2.776344
N       0.002525     3.237895    -1.416610
C      -1.052251     3.596164    -2.357242
H      -1.406950     2.725673    -2.920173
H      -1.892652     4.018559    -1.800911
H      -0.687597     4.343822    -3.059520
C      -0.196178    -4.679413     0.635820
C      -0.747665    -3.982720    -0.617191
C      -1.190798    -5.732189     1.152937
H      -0.978458    -4.721693    -1.389421
H      -1.664619    -3.446528    -0.361658
H      -0.032328    -3.265351    -1.022856
H      -0.840668    -6.183348     2.085443
H      -2.166835    -5.274293     1.327350
H      -1.316536    -6.527875     0.414384
C       1.052602    -5.383253     0.281299
N       2.025477    -5.936546     0.019898
48
     -1091.831397     -1091.498534   1.87   3.38
C      -0.535665     0.338357    -0.329003
C       0.339711     1.430572    -0.177392
C      -0.141780     2.745052    -0.150691
C      -1.508846     2.971139    -0.234043
C      -2.383762     1.902676    -0.373252
C      -1.904373     0.603600    -0.430617
C      -0.077388    -1.058489    -0.361888
C      -0.608020    -1.948312    -1.340842
C      -0.333555    -3.272901    -1.326791
C       0.416447    -3.917246    -0.197924
C       1.159761    -2.897712     0.615277
C       0.871488    -1.576141     0.563628
H      -1.873666     3.992410    -0.207176
H      -3.451114     2.087058    -0.438927
H      -2.593555    -0.230012    -0.511061
H      -1.216598    -1.535319    -2.139789
H      -0.714471    -3.909359    -2.117981
H       1.120189    -4.663425    -0.593792
H       1.913385    -3.250678     1.310489
H       1.369424    -0.899945     1.248829
C       1.759897     1.226896    -0.084099
N       2.898668     1.084298    -0.007526
C       1.790713     4.150545    -0.824153
O       2.670460     4.909850    -0.466171
C       1.804776     3.583706    -2.220033
C       0.700723     3.546966    -2.959333
H       0.737149     3.225431    -3.995995
H      -0.264315     3.860687    -2.578049
C       3.170225     3.238948    -2.744458
H       3.107712     2.904666    -3.782118
H       3.817181     4.117867    -2.682900
H       3.634786     2.453136    -2.142590
N       0.737400     3.849308     0.016700
C       0.733806     4.498984     1.328946
H       0.995818     5.549958     1.212677
H      -0.263972     4.412123     1.762220
H       1.461815     4.031433     2.000513
C      -0.569914    -4.755856     0.714673
C       0.179349    -5.404128     1.889854
C      -1.282288    -5.843512    -0.106068
H       0.596656    -4.655242     2.564289
H      -0.499607    -6.038382     2.465276
H       0.993437    -6.028125     1.508371
H      -1.915791    -6.451914     0.544162
H      -1.912870    -5.413859    -0.885659
H      -0.539420    -6.497059    -0.573441
C      -1.585046    -3.829275     1.250536
N      -2.379059    -3.107170     1.661065
48
     -1091.830248     -1091.498245   2.59   3.56
C       0.043432     0.565956    -0.136495
C       0.322407     0.311445    -1.494259
C       0.134387     1.298531    -2.471138
C      -0.311810     2.558170    -2.094736
C      -0.550970     2.833295    -0.754876
C      -0.385306     1.852302     0.209267
C       0.189542    -0.453165     0.909634
C      -0.213885    -1.805181     0.720123
C      -0.167612    -2.709561     1.725336
C       0.204424    -2.344749     3.132529
C       0.818517    -0.977508     3.198745
C       0.749138    -0.099479     2.172670
H      -0.463340     3.316881    -2.853353
H      -0.892903     3.821311    -0.463825
H      -0.622289     2.066561     1.245351
H      -0.573663    -2.119421    -0.252621
H      -0.451845    -3.736529     1.524772
H       0.914305    -3.086077     3.529587
H       1.298927    -0.679143     4.124128
H       1.173503     0.892591     2.292710
C       0.916407    -0.932598    -1.905778
N       1.402812    -1.917202    -2.249102
C       1.152553     1.810668    -4.640603
O       1.018266     1.799689    -5.848336
C       2.201010     2.660439    -3.966803
C       2.333171     3.912288    -4.390367
H       3.083588     4.576547    -3.972204
H       1.694617     4.303410    -5.175703
C       3.089318     2.032105    -2.921376
H       3.369643     1.013719    -3.207441
H       4.000734     2.622931    -2.809013
H       2.602480     1.974731    -1.944333
N       0.387950     0.989885    -3.833625
C      -0.548342     0.085947    -4.505261
H      -0.933029    -0.629886    -3.778458
H      -1.381774     0.642713    -4.945802
H      -0.028340    -0.449564    -5.298433
C      -1.044061    -2.450935     4.098278
C      -0.644403    -2.132117     5.548699
C      -1.674120    -3.852143     4.036231
H       0.155396    -2.807658     5.867167
H      -0.300157    -1.102853     5.657872
H      -1.499803    -2.273755     6.213809
H      -0.919028    -4.606940     4.276450
H      -2.484291    -3.931872     4.765245
H      -2.085896    -4.067625     3.049501
C      -2.044353    -1.461450     3.656427
N      -2.823441    -0.688599     3.316218
48
     -1091.830248     -1091.498242   2.59   3.57
C      -0.267098     0.149736    -0.526394
C       0.404849     1.291978    -0.046913
C      -0.106785     2.578767    -0.262404
C      -1.283992     2.736055    -0.981338
C      -1.933407     1.620827    -1.493858
C      -1.439811     0.346930    -1.263948
C       0.215527    -1.215534    -0.286890
C       0.153446    -2.184377    -1.331421
C       0.497619    -3.477023    -1.133525
C       0.850441    -4.019061     0.220188
C       1.096218    -2.913676     1.204764
C       0.749526    -1.627738     0.966728
H      -1.680908     3.731773    -1.139769
H      -2.849630     1.748402    -2.061363
H      -1.983137    -0.517661    -1.628385
H      -0.135012    -1.857651    -2.325771
H       0.483166    -4.166626    -1.970416
H       1.749886    -4.648269     0.141060
H       1.531688    -3.174095     2.163004
H       0.877080    -0.895136     1.755037
C       1.694891     1.181352     0.580271
N       2.732444     1.110628     1.072602
C       0.863732     4.817363    -0.491287
O       1.038226     5.901766     0.028701
C       1.017715     4.616821    -1.978385
C       0.471736     5.528955    -2.774569
H       0.563116     5.466895    -3.854856
H      -0.077337     6.369176    -2.362226
C       1.842096     3.455656    -2.477296
H       1.280244     2.517979    -2.476015
H       2.170535     3.649735    -3.500448
H       2.727438     3.307340    -1.851446
N       0.578754     3.701366     0.272156
C       0.543077     3.883596     1.724874
H      -0.332322     4.468982     2.024292
H       0.507350     2.904959     2.204089
H       1.441192     4.409652     2.045730
C      -0.267811    -5.009130     0.741625
C       0.092012    -5.570055     2.127303
C      -0.474661    -6.171277    -0.244127
H       0.123844    -4.786631     2.885496
H      -0.650235    -6.309932     2.436891
H       1.069612    -6.059988     2.084295
H      -1.200641    -6.881396     0.159390
H      -0.844905    -5.823585    -1.209445
H       0.472802    -6.696793    -0.397750
C      -1.528890    -4.252210     0.849533
N      -2.513299    -3.665394     0.930793
48
     -1091.829076     -1091.498059   3.33   3.68
C       0.549125     0.385018     0.633575
C       1.409544    -0.009990    -0.412558
C       2.774243     0.291626    -0.378936
C       3.311013     0.968665     0.702094
C       2.481864     1.342975     1.751791
C       1.125722     1.061246     1.715946
C      -0.892856     0.115362     0.626363
C      -1.682522     0.214243    -0.556481
C      -3.020005     0.009014    -0.546464
C      -3.793416    -0.300590     0.699771
C      -2.891920    -0.462643     1.886856
C      -1.557760    -0.246327     1.835273
H       4.374746     1.173527     0.722135
H       2.898633     1.868415     2.604950
H       0.488173     1.392716     2.528117
H      -1.200713     0.471038    -1.492464
H      -3.565004     0.063295    -1.482700
H      -4.339532    -1.245509     0.547565
H      -3.354817    -0.762521     2.822019
H      -0.964541    -0.391676     2.732677
C       0.943765    -0.806220    -1.517452
N       0.612386    -1.438056    -2.420533
C       4.408499    -1.199898    -1.308772
O       4.581005    -1.706352    -0.215769
C       5.065243    -1.794343    -2.526911
C       4.319647    -2.188724    -3.552992
H       4.762222    -2.711045    -4.396377
H       3.245072    -2.034053    -3.572795
C       6.541636    -2.041000    -2.399231
H       6.740144    -2.625880    -1.496849
H       6.921946    -2.576643    -3.271508
H       7.092059    -1.098407    -2.300459
N       3.592692    -0.106347    -1.479361
C       3.511156     0.708026    -2.689156
H       3.457330     1.760493    -2.398024
H       4.404001     0.558611    -3.293499
H       2.632692     0.460914    -3.293471
C      -4.916455     0.775153     0.970156
C      -5.920915     0.834194    -0.193001
C      -4.310922     2.162103     1.231740
H      -6.769778     1.468517     0.074161
H      -5.447664     1.258460    -1.080935
H      -6.301436    -0.161239    -0.437405
H      -5.101069     2.890657     1.432426
H      -3.631736     2.140125     2.085983
H      -3.749742     2.486131     0.352041
C      -5.655980     0.343072     2.172970
N      -6.234882    -0.002937     3.103556
48
     -1091.829076     -1091.498051   3.33   3.69
C       1.147238    -0.039352    -0.637261
C       0.408627     1.162384    -0.669267
C       0.864280     2.271997    -1.387348
C       2.069363     2.215334    -2.065349
C       2.820592     1.047699    -2.023546
C       2.365802    -0.060436    -1.327143
C       0.693590    -1.236621     0.078860
C       1.633958    -2.049565     0.778291
C       1.270243    -3.185140     1.416742
C      -0.133076    -3.713144     1.411190
C      -1.076601    -2.774581     0.721276
C      -0.672503    -1.643964     0.097186
H       2.418132     3.092356    -2.597417
H       3.769403     0.999884    -2.548080
H       2.948990    -0.974650    -1.335380
H       2.667366    -1.721668     0.832331
H       2.013099    -3.761020     1.960117
H      -0.461734    -3.835250     2.455868
H      -2.133758    -3.017071     0.732572
H      -1.411086    -1.036127    -0.411909
C      -0.799504     1.330271     0.094907
N      -1.771515     1.505175     0.685825
C       0.454445     4.510137    -0.623994
O       1.538626     4.529626    -0.071649
C      -0.513794     5.646362    -0.423886
C      -1.725845     5.403338     0.062083
H      -2.401875     6.217109     0.308557
H      -2.071539     4.393147     0.259660
C       0.056191     7.017623    -0.651124
H       0.965536     7.141140    -0.056465
H       0.335577     7.159727    -1.701339
H      -0.666680     7.788337    -0.375674
N       0.061093     3.452497    -1.409592
C      -1.100939     3.441831    -2.294463
H      -0.821843     2.950865    -3.230629
H      -1.949629     2.909835    -1.853242
H      -1.405138     4.463637    -2.513774
C      -0.201452    -5.164634     0.794698
C       0.257175    -5.171833    -0.671021
C      -1.615355    -5.756293     0.921883
H       0.218516    -6.186304    -1.076918
H      -0.402341    -4.531843    -1.261985
H       1.278003    -4.797060    -0.765694
H      -2.307932    -5.227140     0.264060
H      -1.610383    -6.809812     0.631394
H      -1.981863    -5.686677     1.949619
C       0.709016    -6.018560     1.583501
N       1.411146    -6.681254     2.206953
48
     -1091.828952     -1091.497936   3.41   3.76
C      -0.217117     0.336282     0.707335
C       0.201660     1.243860    -0.288494
C       0.309285     2.611783    -0.020797
C      -0.018675     3.104145     1.230332
C      -0.456330     2.227121     2.214480
C      -0.548715     0.868276     1.959682
C      -0.316151    -1.109453     0.479436
C      -1.393073    -1.849376     1.055647
C      -1.506709    -3.189511     0.913949
C      -0.497598    -4.019423     0.179398
C       0.560287    -3.170430    -0.459768
C       0.638161    -1.829423    -0.294196
H       0.048383     4.169977     1.413061
H      -0.720840     2.608535     3.195412
H      -0.857919     0.195065     2.751615
H      -2.169401    -1.306665     1.586145
H      -2.372376    -3.693593     1.330660
H      -1.020491    -4.581793    -0.610902
H       1.302237    -3.679003    -1.067304
H       1.460323    -1.293713    -0.753695
C       0.458737     0.821262    -1.640212
N       0.679005     0.528125    -2.731097
C      -0.165547     4.258881    -1.700674
O      -1.307785     4.358536    -1.292915
C       0.248234     4.967346    -2.963774
C       0.744491     4.270240    -3.979676
H       0.954102     4.745958    -4.933481
H       0.927527     3.202472    -3.906199
C      -0.098640     6.428014    -3.018751
H       0.459929     6.994841    -2.265152
H       0.125765     6.842841    -4.003625
H      -1.161633     6.562109    -2.800010
N       0.767546     3.480335    -1.057479
C       2.203408     3.485759    -1.325466
H       2.478648     4.407642    -1.834502
H       2.736150     3.439708    -0.371849
H       2.509934     2.637372    -1.945302
C       0.136507    -5.125796     1.109483
C      -0.942909    -6.074353     1.657863
C       0.937791    -4.497726     2.259342
H      -0.476982    -6.918636     2.172035
H      -1.578354    -5.550432     2.374998
H      -1.569308    -6.467845     0.852727
H       1.739598    -3.862155     1.879260
H       0.273251    -3.885609     2.873937
H       1.377381    -5.277429     2.887204
C       1.050558    -5.930192     0.274342
N       1.752590    -6.561491    -0.380919
48
     -1091.828952     -1091.497931   3.41   3.76
C      -0.237123     0.432718     0.673031
C       0.102916     1.221077    -0.446627
C      -0.200565     2.585077    -0.489363
C      -0.824348     3.193414     0.585880
C      -1.143530     2.436576     1.705951
C      -0.860260     1.080839     1.746793
C       0.035432    -1.006699     0.748539
C      -0.117568    -1.874311    -0.370129
C       0.093852    -3.207808    -0.275955
C       0.463113    -3.895015     1.004607
C       0.679460    -2.915219     2.118080
C       0.458023    -1.587984     1.982551
H      -1.030968     4.256200     0.544905
H      -1.627018     2.909742     2.554493
H      -1.149651     0.499543     2.615313
H      -0.425962    -1.460808    -1.323011
H      -0.022572    -3.831986    -1.156343
H       1.400640    -4.451854     0.845793
H       1.047860    -3.295673     3.065003
H       0.650913    -0.931566     2.825499
C       0.844740     0.682495    -1.556335
N       1.432553     0.293937    -2.466266
C       1.236407     4.154491    -1.599490
O       1.794873     4.401403    -0.546842
C       1.767742     4.727623    -2.887005
C       2.114625     3.914529    -3.878391
H       2.593185     4.299408    -4.774402
H       1.963757     2.840938    -3.817825
C       2.014182     6.209502    -2.871841
H       1.075319     6.764563    -2.763957
H       2.642040     6.469189    -2.015021
H       2.504527     6.530262    -3.793300
N       0.139435     3.327791    -1.660623
C      -0.732552     3.163589    -2.820886
H      -1.769208     3.127003    -2.475431
H      -0.617832     4.014391    -3.490005
H      -0.510451     2.247234    -3.376652
C      -0.598821    -4.995898     1.393933
C      -1.986697    -4.378669     1.620920
C      -0.149068    -5.785807     2.634655
H      -2.710995    -5.155628     1.879982
H      -1.935088    -3.659426     2.441928
H      -2.337124    -3.858537     0.727626
H      -0.813547    -6.637366     2.800756
H       0.869234    -6.165201     2.513925
H      -0.185614    -5.150118     3.521860
C      -0.677919    -5.947249     0.267574
N      -0.728850    -6.692224    -0.606024
48
     -1091.829523     -1091.497611   3.05   3.96
C       0.756723     0.796256     0.526628
C       1.472970    -0.375601     0.214488
C       2.869068    -0.368953     0.131984
C       3.574206     0.791532     0.395840
C       2.883964     1.947673     0.743464
C       1.500945     1.951683     0.801693
C      -0.708628     0.841594     0.567516
C      -1.514567     0.141754    -0.377640
C      -2.865306     0.220321    -0.365992
C      -3.629511     1.069352     0.605063
C      -2.724279     1.716479     1.610286
C      -1.376345     1.614601     1.562522
H       4.655656     0.787006     0.314019
H       3.433290     2.860390     0.950458
H       0.976447     2.872644     1.031219
H      -1.031129    -0.463489    -1.135786
H      -3.429954    -0.360970    -1.086930
H      -4.344306     0.427408     1.144781
H      -3.194993     2.293386     2.400446
H      -0.782541     2.102831     2.329069
C       0.817364    -1.645151     0.048929
N       0.338906    -2.685399    -0.065307
C       3.468032    -2.019226    -1.495143
O       2.989944    -1.324829    -2.372442
C       3.972199    -3.401391    -1.816475
C       3.421401    -4.461100    -1.236621
H       3.704862    -5.468244    -1.528245
H       2.645300    -4.360864    -0.484256
C       4.989993    -3.462413    -2.920153
H       4.603358    -2.949907    -3.805635
H       5.916745    -2.953594    -2.631138
H       5.225574    -4.498028    -3.173857
N       3.555861    -1.575199    -0.196429
C       4.237929    -2.268390     0.889749
H       3.540924    -2.856475     1.497065
H       5.000241    -2.933178     0.487222
H       4.721958    -1.527885     1.531406
C      -4.525636     2.136745    -0.135797
C      -5.549949     1.457238    -1.060179
C      -3.667050     3.136993    -0.923913
H      -5.044624     0.995968    -1.911199
H      -6.115080     0.688476    -0.526279
H      -6.257361     2.195583    -1.445840
H      -3.092760     2.603228    -1.684878
H      -4.302021     3.877444    -1.417821
H      -2.968651     3.658975    -0.267177
C      -5.281176     2.869226     0.900080
N      -5.874583     3.429414     1.709339
48
     -1091.829524     -1091.497610   3.05   3.96
C       0.993949     0.086078     0.603386
C       0.481624     1.308593     0.127277
C       1.273473     2.460964     0.096183
C       2.571543     2.423935     0.572842
C       3.079854     1.233952     1.082248
C       2.307776     0.085059     1.091638
C       0.212774    -1.155191     0.599625
C       0.318733    -2.074422     1.684618
C      -0.352232    -3.248782     1.701117
C      -1.225085    -3.707952     0.571524
C      -1.343491    -2.665038    -0.499045
C      -0.657583    -1.498931    -0.475992
H       3.179826     3.320800     0.529506
H       4.097952     1.200423     1.456428
H       2.734155    -0.844766     1.451609
H       0.926599    -1.801640     2.541738
H      -0.265326    -3.908862     2.558723
H      -2.230626    -3.914519     0.972196
H      -2.018427    -2.859388    -1.325584
H      -0.765618    -0.810641    -1.306292
C      -0.893607     1.453135    -0.268741
N      -1.991294     1.621684    -0.570012
C       0.511413     3.767323    -1.759206
O       0.951747     2.931500    -2.525962
C      -0.288787     4.928957    -2.286558
C      -1.551203     5.092022    -1.909323
H      -2.171772     5.865098    -2.353151
H      -2.017233     4.438606    -1.178366
C       0.398308     5.739687    -3.348797
H       0.741772     5.079705    -4.150473
H      -0.278016     6.491024    -3.761643
H       1.282577     6.247879    -2.947416
N       0.719302     3.676943    -0.402688
C       0.360068     4.694814     0.577308
H      -0.602151     4.477578     1.054212
H       1.133030     4.729287     1.349123
H       0.301989     5.670267     0.097503
C      -0.732599    -5.088590    -0.013735
C       0.684542    -4.975652    -0.594897
C      -1.710558    -5.623844    -1.073232
H       1.015659    -5.943228    -0.981627
H       0.685736    -4.251371    -1.412943
H       1.395153    -4.641401     0.163282
H      -2.735964    -5.636347    -0.694018
H      -1.674170    -5.002563    -1.970474
H      -1.438285    -6.643711    -1.356180
C      -0.714886    -6.055959     1.101743
N      -0.712663    -6.807720     1.971049
48
     -1091.829860     -1091.497512   2.84   4.02
C      -0.152827     0.188975     0.499399
C       0.661702     1.333665     0.415775
C       0.106356     2.619721     0.442329
C      -1.269780     2.767969     0.550457
C      -2.083614     1.645426     0.624616
C      -1.534722     0.373141     0.606762
C       0.381360    -1.180065     0.452981
C       1.355324    -1.588380    -0.500262
C       1.717634    -2.886212    -0.628978
C       1.033301    -3.991199     0.121896
C       0.251611    -3.457200     1.286218
C      -0.096556    -2.153031     1.377760
H      -1.695023     3.764465     0.575122
H      -3.159416     1.767408     0.699315
H      -2.177242    -0.500176     0.635014
H       1.812743    -0.845572    -1.143431
H       2.488657    -3.155034    -1.342503
H       1.777575    -4.719997     0.473412
H      -0.091140    -4.159325     2.038335
H      -0.725583    -1.821790     2.198662
C       2.092381     1.213915     0.319438
N       3.237424     1.129270     0.245958
C       0.736650     4.792360    -0.495125
O       1.157132     5.909869    -0.268387
C       0.008866     4.464897    -1.775670
C      -0.916177     5.325592    -2.184813
H      -1.464754     5.172050    -3.109336
H      -1.143675     6.214121    -1.604992
C       0.415712     3.240725    -2.558251
H       0.080394     3.336554    -3.593015
H       1.503485     3.120363    -2.557057
H      -0.015030     2.323798    -2.147847
N       0.959913     3.755306     0.389977
C       1.733707     4.068866     1.593888
H       1.996080     3.139890     2.099945
H       2.644551     4.594688     1.310879
H       1.158015     4.705738     2.273528
C       0.091745    -4.826508    -0.840057
C      -0.559866    -5.997317    -0.085936
C       0.872929    -5.363240    -2.050184
H      -1.211628    -5.648878     0.716435
H      -1.160569    -6.599619    -0.771982
H       0.217734    -6.636335     0.343489
H       0.227974    -5.997645    -2.663312
H       1.248770    -4.554641    -2.678478
H       1.719644    -5.964445    -1.704837
C      -0.972314    -3.925476    -1.321860
N      -1.804091    -3.223356    -1.690148
48
     -1091.829860     -1091.497511   2.84   4.03
C       0.234328    -0.107856    -1.103940
C       1.543899    -0.418986    -0.692863
C       2.646913     0.277204    -1.204479
C       2.445340     1.292051    -2.130144
C       1.156959     1.613397    -2.536042
C       0.065972     0.919953    -2.036868
C      -0.955064    -0.794539    -0.578972
C      -1.979272    -1.212592    -1.477023
C      -3.155002    -1.715645    -1.035362
C      -3.519747    -1.722493     0.420229
C      -2.308542    -1.537591     1.287357
C      -1.141027    -1.047825     0.808573
H       3.301460     1.825130    -2.526787
H       1.004858     2.414118    -3.252645
H      -0.939929     1.195004    -2.334897
H      -1.785618    -1.158670    -2.544199
H      -3.890141    -2.070516    -1.749346
H      -4.021022    -2.666912     0.676065
H      -2.401512    -1.750842     2.346479
H      -0.333068    -0.837338     1.499629
C       1.787321    -1.476170     0.252429
N       1.993050    -2.321981     1.004737
C       4.868684     0.857298    -0.353764
O       6.064540     0.651089    -0.420510
C       4.315803     2.116522     0.267029
C       4.896168     3.263263    -0.067716
H       4.571229     4.208661     0.356418
H       5.720438     3.283729    -0.773118
C       3.204575     2.007346     1.281812
H       2.225690     1.878235     0.812941
H       3.364826     1.152134     1.945642
H       3.169996     2.913959     1.889442
N       3.958879    -0.084698    -0.793783
C       4.506888    -1.335341    -1.324879
H       5.235170    -1.737632    -0.622039
H       3.696209    -2.052322    -1.454006
H       5.003248    -1.167277    -2.286294
C      -4.604792    -0.608878     0.723838
C      -4.974164    -0.588097     2.215772
C      -5.871173    -0.835478    -0.118195
H      -5.775700     0.132828     2.395132
H      -5.326373    -1.577990     2.521876
H      -4.122726    -0.309756     2.838203
H      -6.274079    -1.832432     0.084681
H      -6.633392    -0.096628     0.141406
H      -5.667399    -0.749116    -1.186381
C      -4.023473     0.696963     0.359069
N      -3.570864     1.712171     0.067594
48
     -1091.828762     -1091.497410   3.53   4.09
C      -0.823767     0.281387     0.204523
C       0.080627     1.344957     0.023925
C      -0.363305     2.670540    -0.024203
C      -1.705051     2.960695     0.137060
C      -2.608140     1.923855     0.349939
C      -2.175960     0.609470     0.378891
C      -0.405005    -1.124292     0.209755
C       0.595113    -1.620627    -0.676948
C       0.948774    -2.926455    -0.700469
C       0.304389    -3.967043     0.165386
C      -0.683130    -3.363248     1.118745
C      -1.010690    -2.050951     1.108715
H      -2.034187     3.992772     0.085694
H      -3.662740     2.146147     0.476660
H      -2.898288    -0.189573     0.504525
H       1.079791    -0.934276    -1.361559
H       1.740308    -3.242569    -1.371322
H       1.089870    -4.470068     0.752167
H      -1.148264    -4.030822     1.837601
H      -1.727984    -1.680553     1.834571
C       1.501961     1.136311    -0.044851
N       2.647089     1.030799    -0.081580
C       1.187165     3.824716    -1.435086
O       0.857448     3.116040    -2.365824
C       2.295545     4.832126    -1.603627
C       2.022626     6.126270    -1.710688
H       2.806191     6.852721    -1.904711
H       1.007035     6.502607    -1.629642
C       3.660286     4.219720    -1.738061
H       3.919183     3.646794    -0.840725
H       3.667194     3.515133    -2.574935
H       4.418932     4.986831    -1.905623
N       0.582288     3.726409    -0.202860
C       1.072854     4.358334     1.018412
H       1.667504     5.233886     0.768417
H       0.221293     4.673153     1.627705
H       1.687751     3.663406     1.602343
C      -0.352780    -5.114674    -0.696189
C       0.696074    -5.825134    -1.568309
C      -1.500270    -4.575537    -1.563021
H       0.258119    -6.708427    -2.039811
H       1.046066    -5.158014    -2.358767
H       1.554251    -6.146017    -0.971661
H      -1.111696    -3.824802    -2.255264
H      -1.953693    -5.385336    -2.140987
H      -2.273123    -4.110913    -0.947915
C      -0.895631    -6.113623     0.246067
N      -1.307321    -6.893250     0.983320
48
     -1091.828763     -1091.497402   3.53   4.09
C       1.318251     0.155985     0.047870
C       0.581209     1.336094    -0.166211
C       1.217104     2.531191    -0.518237
C       2.593782     2.578881    -0.632072
C       3.340114     1.429593    -0.391145
C       2.713717     0.240355    -0.061631
C       0.685390    -1.127859     0.368204
C       1.293662    -2.014737     1.304729
C       0.765158    -3.224690     1.598399
C      -0.472003    -3.758368     0.940154
C      -1.092814    -2.748703     0.022039
C      -0.533656    -1.545229    -0.242169
H       3.070242     3.510550    -0.916908
H       4.421227     1.461487    -0.479648
H       3.306969    -0.655920     0.082460
H       2.187625    -1.688478     1.827187
H       1.244909    -3.858941     2.337534
H      -1.201214    -4.012069     1.726422
H      -2.039196    -3.000149    -0.444477
H      -1.022668    -0.884059    -0.948150
C      -0.841446     1.395958     0.036062
N      -1.973870     1.507631     0.206197
C      -0.367071     3.746828    -1.837036
O      -0.342246     2.862169    -2.670075
C      -1.308194     4.913295    -1.996468
C      -0.854020     6.102308    -2.371630
H      -1.531417     6.930048    -2.559588
H       0.205691     6.284768    -2.524415
C      -2.754505     4.560941    -1.797275
H      -3.396050     5.427171    -1.970907
H      -3.036357     3.758294    -2.485144
H      -2.926225     4.182801    -0.783372
N       0.439309     3.712006    -0.722347
C       0.302297     4.594520     0.432579
H      -0.179494     5.522523     0.133594
H      -0.292910     4.120998     1.222202
H       1.294827     4.824846     0.829260
C      -0.188279    -5.122147     0.197966
C       0.843336    -4.942907    -0.925624
C      -1.486527    -5.735959    -0.352695
H       1.039348    -5.898941    -1.418559
H       0.456342    -4.238779    -1.666052
H       1.785085    -4.551712    -0.536254
H      -1.868665    -5.134456    -1.180058
H      -1.296972    -6.745105    -0.726888
H      -2.254566    -5.797523     0.423030
C       0.355656    -6.061000     1.199514
N       0.769036    -6.791078     1.984976
48
     -1091.828619     -1091.497262   3.62   4.18
C       1.067620     0.247766     0.661087
C       0.767101     1.291292    -0.234719
C       0.921993     2.630553     0.138001
C       1.405665     2.951753     1.392384
C       1.738828     1.932126     2.278442
C       1.569042     0.606009     1.920774
C       0.871140    -1.166782     0.326816
C      -0.251372    -1.621666    -0.422217
C      -0.447942    -2.933601    -0.690012
C       0.460061    -4.020381    -0.196470
C       1.653772    -3.464679     0.520044
C       1.813819    -2.144619     0.766877
H       1.508993     3.995133     1.669566
H       2.118328     2.178757     3.264756
H       1.794432    -0.175260     2.638303
H      -0.979004    -0.900350    -0.775589
H      -1.310644    -3.237641    -1.274427
H       0.815217    -4.600905    -1.063158
H       2.426456    -4.158719     0.833735
H       2.711055    -1.807721     1.277097
C       0.360737     1.041345    -1.591524
N       0.056866     0.903414    -2.692587
C      -0.712775     3.848757    -1.114990
O      -1.595165     3.235295    -0.547330
C      -1.052265     4.828400    -2.209009
C      -0.993949     6.135540    -1.988211
H      -1.305566     6.848870    -2.745445
H      -0.653870     6.537949    -1.038455
C      -1.542251     4.183660    -3.473849
H      -1.819465     4.936019    -4.214919
H      -0.774838     3.526252    -3.897367
H      -2.410170     3.554777    -3.254588
N       0.613739     3.664861    -0.798060
C       1.735449     4.170348    -1.584039
H       1.424467     5.043499    -2.152897
H       2.545915     4.459705    -0.909561
H       2.107580     3.406366    -2.276744
C      -0.321754    -5.062680     0.694199
C      -0.915796    -4.395812     1.943666
C       0.582051    -6.242795     1.089414
H      -1.598729    -3.588870     1.672070
H      -1.461569    -5.129101     2.543512
H      -0.109382    -3.976626     2.550322
H      -0.008722    -7.024729     1.572995
H       1.071372    -6.676597     0.213145
H       1.348422    -5.913224     1.794123
C      -1.422860    -5.603986    -0.127179
N      -2.271947    -6.032219    -0.772492
48
     -1091.828619     -1091.497255   3.62   4.19
C       0.417667    -0.675427     0.736911
C       1.510075    -0.186823    -0.004465
C       2.758125    -0.816244     0.047766
C       2.947164    -1.919349     0.858947
C       1.886862    -2.395469     1.623668
C       0.645222    -1.787459     1.560421
C      -0.918908    -0.075034     0.670676
C      -1.718311     0.025712     1.849347
C      -2.972147     0.532316     1.830641
C      -3.646134     0.991993     0.573031
C      -2.724865     0.923988    -0.608401
C      -1.474258     0.410369    -0.547507
H       3.917920    -2.402435     0.879158
H       2.029652    -3.261610     2.261692
H      -0.181101    -2.196569     2.131253
H      -1.283795    -0.273741     2.798231
H      -3.516063     0.632115     2.764090
H      -3.961777     2.038640     0.711564
H      -3.106518     1.293984    -1.554805
H      -0.886705     0.353499    -1.456444
C       1.425543     1.015766    -0.788786
N       1.424911     1.983157    -1.411566
C       3.777230    -0.420060    -2.080829
O       2.884974    -1.047284    -2.617166
C       4.835927     0.256491    -2.913453
C       6.058991    -0.251637    -2.995247
H       6.807958     0.186080    -3.648548
H       6.348383    -1.132936    -2.430280
C       4.337990     1.446204    -3.683025
H       5.129225     1.869232    -4.305174
H       3.498213     1.149068    -4.318111
H       3.961977     2.218945    -3.003348
N       3.847298    -0.290288    -0.712558
C       4.730865     0.634006    -0.007924
H       5.070471     0.169076     0.921601
H       5.598084     0.858852    -0.624423
H       4.211763     1.569030     0.233426
C      -4.984278     0.199185     0.305195
C      -5.977814     0.379984     1.465335
C      -4.710609    -1.291440     0.056375
H      -5.615752    -0.135204     2.357551
H      -6.120693     1.437813     1.702083
H      -6.948988    -0.044946     1.199744
H      -5.646175    -1.823192    -0.136890
H      -4.045869    -1.432330    -0.797784
H      -4.235799    -1.726315     0.939263
C      -5.604162     0.778911    -0.903015
N      -6.090341     1.239640    -1.836889
48
     -1091.827216     -1091.496713   4.50   4.53
C      -0.667522     0.035151    -0.099003
C       0.056828     1.187578    -0.466755
C      -0.592942     2.399468    -0.718273
C      -1.967685     2.491416    -0.586172
C      -2.692741     1.370591    -0.202253
C      -2.055279     0.162565     0.031636
C      -0.033792    -1.265309     0.146377
C       1.028301    -1.764674    -0.659647
C       1.535387    -3.006454    -0.481859
C       0.958389    -3.989897     0.493591
C       0.003634    -3.324189     1.440279
C      -0.482869    -2.080731     1.227166
H      -2.452812     3.444075    -0.762310
H      -3.770212     1.439048    -0.092751
H      -2.639338    -0.713040     0.292602
H       1.438884    -1.138014    -1.442434
H       2.367129    -3.329874    -1.097722
H       1.771817    -4.462859     1.064487
H      -0.331548    -3.886745     2.304785
H      -1.203861    -1.665329     1.924420
C       1.495163     1.190215    -0.522613
N       2.643550     1.233351    -0.583706
C       0.420358     4.509646    -0.185579
O      -0.159530     4.529773     0.884050
C       1.455139     5.557758    -0.501229
C       2.695338     5.191224    -0.804097
H       3.479767     5.931069    -0.935558
H       2.976595     4.146784    -0.899489
C       1.013420     6.976710    -0.281376
H       1.847566     7.667982    -0.418314
H       0.212699     7.252861    -0.976919
H       0.612525     7.084525     0.730273
N       0.186813     3.526876    -1.118296
C       0.645017     3.551748    -2.505160
H       1.532326     2.929338    -2.657242
H      -0.161131     3.183032    -3.145017
H       0.881299     4.573735    -2.795832
C       0.262832    -5.196239    -0.256644
C      -0.278645    -6.227876     0.747133
C       1.241063    -5.885171    -1.222381
H      -0.695881    -7.086476     0.215272
H       0.535585    -6.581295     1.387135
H      -1.064170    -5.807809     1.376644
H       0.768975    -6.761826    -1.672729
H       1.552014    -5.218533    -2.027685
H       2.128948    -6.215324    -0.674429
C      -0.868250    -4.656033    -1.033689
N      -1.752305    -4.238943    -1.637383
48
     -1091.829159     -1091.496349   3.28   4.75
C      -0.759475     0.344903     0.865580
C       0.230919     1.203760     0.344261
C      -0.045938     2.549454     0.069623
C      -1.318698     3.050549     0.302803
C      -2.309756     2.210256     0.793227
C      -2.035153     0.883019     1.075979
C      -0.489245    -1.067584     1.149392
C       0.751088    -1.500015     1.705892
C       1.047314    -2.810629     1.847601
C       0.157439    -3.891685     1.309331
C      -1.231396    -3.377747     1.065903
C      -1.492686    -2.057161     0.932630
H      -1.525998     4.093295     0.093186
H      -3.305738     2.602784     0.970848
H      -2.812624     0.253743     1.493638
H       1.457620    -0.757067     2.057751
H       1.982184    -3.100628     2.314300
H       0.129615    -4.735073     2.013247
H      -2.026728    -4.100105     0.917218
H      -2.487627    -1.744131     0.633938
C       1.531083     0.711294    -0.027302
N       2.580242     0.351093    -0.331697
C       0.804587     4.165870    -1.561506
O       1.476635     5.161294    -1.747232
C      -0.209992     3.692762    -2.573079
C      -1.014404     4.608953    -3.099984
H      -1.752835     4.350241    -3.853017
H      -0.948716     5.648106    -2.794375
C      -0.206111     2.242683    -2.991848
H      -0.726159     1.600812    -2.276272
H      -0.703110     2.138558    -3.958665
H       0.815806     1.863139    -3.085579
N       0.984965     3.385445    -0.436310
C       2.044558     3.784472     0.491381
H       2.956140     3.987498    -0.068869
H       1.763414     4.687323     1.043671
H       2.226133     2.969835     1.193065
C       0.759060    -4.508797    -0.019702
C      -0.102698    -5.682673    -0.512507
C       2.205826    -4.980779     0.198107
H      -1.113064    -5.361443    -0.769848
H       0.345698    -6.131584    -1.402208
H      -0.163405    -6.447767     0.267412
H       2.578456    -5.478936    -0.700458
H       2.869330    -4.144366     0.422645
H       2.241409    -5.693901     1.027568
C       0.757240    -3.457936    -1.055027
N       0.750583    -2.648070    -1.869879
48
     -1091.825947     -1091.496282   5.29   4.80
C      -0.552926     0.219642    -0.908537
C       0.741660     0.776169    -0.959770
C       1.062182     1.773711    -1.885829
C       0.113694     2.206550    -2.796420
C      -1.156675     1.645685    -2.777911
C      -1.487630     0.675817    -1.845018
C      -0.945578    -0.800287     0.069906
C      -1.782357    -1.884078    -0.330005
C      -2.246694    -2.797412     0.552287
C      -2.022764    -2.676939     2.030923
C      -0.973600    -1.650394     2.342788
C      -0.524257    -0.759148     1.429452
H       0.384671     2.965088    -3.521372
H      -1.901722     1.979818    -3.492661
H      -2.496237     0.278791    -1.815103
H      -2.010750    -2.000175    -1.384941
H      -2.838030    -3.632663     0.193297
H      -1.715308    -3.652751     2.436514
H      -0.597736    -1.600158     3.358617
H       0.169939     0.010535     1.745449
C       1.808683     0.282171    -0.129659
N       2.690579    -0.081978     0.513924
C       3.242865     1.929932    -2.869499
O       2.916011     1.156897    -3.748459
C       4.649879     2.466905    -2.800974
C       4.909033     3.731809    -3.105648
H       5.926697     4.110570    -3.121598
H       4.119126     4.426773    -3.374700
C       5.683324     1.430865    -2.460867
H       5.495813     1.006198    -1.467911
H       5.628898     0.606493    -3.178111
H       6.687827     1.858754    -2.477935
N       2.376652     2.329054    -1.881416
C       2.785009     3.140111    -0.733189
H       2.878214     4.195904    -1.002140
H       2.021317     3.046026     0.039632
H       3.731864     2.789691    -0.318943
C      -3.376250    -2.356232     2.784027
C      -3.151242    -2.239013     4.300551
C      -4.430147    -3.440727     2.504363
H      -2.693666    -3.158844     4.677550
H      -2.505133    -1.396469     4.550118
H      -4.106389    -2.095364     4.811690
H      -4.039195    -4.419015     2.800312
H      -5.335798    -3.242609     3.082897
H      -4.705687    -3.476223     1.449557
C      -3.882016    -1.066165     2.279155
N      -4.280487    -0.063107     1.885369
48
     -1091.826821     -1091.496052   4.74   4.94
C      -0.653199     0.139005     0.556459
C      -0.044742     1.305398     0.058104
C      -0.781048     2.479484    -0.130680
C      -2.122849     2.518213     0.199514
C      -2.732516     1.381790     0.721705
C      -2.011772     0.212631     0.893053
C       0.069013    -1.127043     0.724916
C       1.016980    -1.595097    -0.228826
C       1.606883    -2.807021    -0.111266
C       1.239775    -3.791869     0.959941
C       0.405820    -3.150834     2.029964
C      -0.169670    -1.937161     1.874037
H      -2.682617     3.432692     0.036345
H      -3.786161     1.406837     0.980192
H      -2.509345    -0.678485     1.259562
H       1.267323    -0.968683    -1.077075
H       2.348080    -3.106266    -0.843897
H       2.155686    -4.206630     1.407808
H       0.234402    -3.708381     2.944264
H      -0.796953    -1.540785     2.666582
C       1.366370     1.373522    -0.211806
N       2.491512     1.490835    -0.421278
C       0.274708     3.628698    -1.945481
O      -0.000637     2.703579    -2.683982
C       1.096200     4.786183    -2.452997
C       0.525230     5.952354    -2.726268
H       1.093768     6.769688    -3.159948
H      -0.531955     6.124705    -2.546636
C       2.538035     4.447109    -2.701711
H       3.026517     4.123260    -1.775980
H       2.604047     3.609666    -3.402558
H       3.076805     5.303891    -3.111239
N      -0.130689     3.649185    -0.630643
C       0.351172     4.591798     0.374663
H      -0.466859     4.840529     1.056200
H       1.176273     4.162094     0.954827
H       0.694395     5.503831    -0.108182
C       0.505867    -5.052691     0.349120
C       0.183237    -6.083689     1.443740
C       1.361291    -5.715894    -0.743032
H      -0.518938    -5.688626     2.179031
H      -0.261697    -6.977180     0.998922
H       1.104421    -6.376282     1.956861
H       0.875683    -6.628392    -1.097636
H       1.506808    -5.056597    -1.599615
H       2.340006    -5.983472    -0.333002
C      -0.759570    -4.594229    -0.253841
N      -1.748059    -4.241895    -0.721505
48
     -1091.826703     -1091.495336   4.82   5.39
C      -0.774716    -0.211135    -0.559606
C      -0.207521     0.942668    -1.126644
C      -0.978244     2.087078    -1.354489
C      -2.325561     2.087885    -1.044186
C      -2.906290     0.944640    -0.503895
C      -2.142802    -0.184556    -0.261179
C       0.004222    -1.418753    -0.259732
C      -0.533228    -2.703738    -0.562500
C       0.081498    -3.844495    -0.174855
C       1.279680    -3.833295     0.728880
C       1.929996    -2.480435     0.756478
C       1.292271    -1.360705     0.343059
H      -2.907808     2.986736    -1.215650
H      -3.962278     0.944614    -0.253871
H      -2.591049    -1.055045     0.205839
H      -1.440404    -2.758265    -1.156788
H      -0.330683    -4.804069    -0.467343
H       2.005757    -4.589326     0.397462
H       2.924491    -2.400855     1.181400
H       1.768088    -0.396697     0.483501
C       1.164538     0.978705    -1.557016
N       2.248106     1.050115    -1.936740
C       0.527922     3.938369    -1.172486
O       0.725306     3.656441    -0.006906
C       1.293463     5.063371    -1.821111
C       0.711485     6.233391    -2.051123
H       1.272833     7.072388    -2.451525
H      -0.338341     6.400611    -1.828648
C       2.743105     4.753422    -2.062603
H       3.261471     5.613637    -2.490848
H       3.222515     4.475077    -1.119444
H       2.850612     3.896065    -2.736289
N      -0.374450     3.240885    -1.942277
C      -0.499567     3.360084    -3.391853
H      -0.136340     4.332762    -3.715531
H       0.072273     2.576637    -3.903025
H      -1.552549     3.266692    -3.671286
C       0.874622    -4.293723     2.189280
C       2.085328    -4.262283     3.135778
C       0.272193    -5.708220     2.168701
H       1.806148    -4.653334     4.117370
H       2.886118    -4.888484     2.730476
H       2.465433    -3.248743     3.270330
H      -0.652548    -5.745411     1.591214
H       0.990538    -6.407354     1.729834
H       0.048730    -6.037519     3.186497
C      -0.146399    -3.354626     2.691431
N      -0.947294    -2.627164     3.078406
