48
     -1091.835300     -1091.499900   0.00   0.00
C      -0.458323    -1.575237    -0.295767
C      -0.247747    -0.211765    -0.530845
C      -0.991841     0.456653    -1.502607
C      -1.949140    -0.238259    -2.234022
C      -2.158846    -1.588775    -2.007012
C      -1.418106    -2.253321    -1.039476
C       0.285229    -2.282827     0.783730
C       1.664359    -2.473905     0.707133
C       2.341708    -3.112266     1.737499
C       1.648791    -3.565909     2.854540
C       0.273261    -3.382815     2.934215
C      -0.405876    -2.747038     1.902633
H      -2.526723     0.292395    -2.983867
H      -2.906666    -2.123667    -2.582653
H      -1.582796    -3.309012    -0.851333
H       2.206301    -2.113465    -0.160453
H       3.415464    -3.253716     1.667875
H       2.179903    -4.062629     3.660348
H      -0.273969    -3.731619     3.804035
H      -1.476655    -2.583428     1.971848
C       0.743925     0.539735     0.316436
N       1.916528     0.659299    -0.072498
C       0.242152     2.536120    -2.126294
O       0.344557     3.744942    -1.998533
C       1.333126     1.781045    -2.839353
C       1.071158     0.777209    -3.670217
H       1.870320     0.311756    -4.239498
H       0.069773     0.400718    -3.835265
C       2.704107     2.380582    -2.687047
H       3.444875     1.773123    -3.211304
H       2.709384     3.394362    -3.096188
H       2.986671     2.452232    -1.634366
N      -0.875143     1.866448    -1.673625
C      -2.029403     2.643906    -1.217318
H      -2.343309     2.311043    -0.224092
H      -1.742924     3.693085    -1.186769
H      -2.871702     2.524788    -1.907227
C       0.321365     1.156210     1.677343
C       1.203881     0.593981     2.807508
C       0.453109     2.689888     1.602977
H       2.246383     0.849103     2.606635
H       0.905339     1.039370     3.760286
H       1.115007    -0.490816     2.881935
H      -0.155348     3.108491     0.801036
H       0.143630     3.133742     2.552766
H       1.496552     2.948654     1.412255
C      -1.085966     0.808387     1.956240
N      -2.182187     0.551754     2.185817
48
     -1091.835300     -1091.499875  -0.00   0.02
C       0.011832     0.134439     1.725223
C      -0.384307     0.295778     0.392688
C      -1.601542     0.905461     0.090609
C      -2.418244     1.357916     1.121435
C      -2.031710     1.197584     2.442161
C      -0.819944     0.590818     2.742064
C       1.338418    -0.456791     2.056129
C       2.319070     0.342654     2.642870
C       3.572633    -0.181366     2.932010
C       3.856010    -1.511027     2.642806
C       2.879307    -2.314830     2.065153
C       1.626920    -1.791309     1.772911
H      -3.360747     1.836099     0.875479
H      -2.675080     1.552266     3.240273
H      -0.507716     0.469111     3.773911
H       2.101899     1.386188     2.847822
H       4.330593     0.452876     3.380281
H       4.835372    -1.920945     2.868541
H       3.093174    -3.354412     1.838565
H       0.867893    -2.416559     1.315454
C       0.542374    -0.138085    -0.711416
N       0.431816    -1.276737    -1.192862
C      -2.240429     0.246867    -2.231904
O      -2.289729     0.560640    -3.409684
C      -2.538679    -1.176965    -1.841240
C      -3.233625    -1.479510    -0.749380
H      -3.511385    -2.508695    -0.541964
H      -3.570457    -0.730481    -0.044217
C      -2.161804    -2.197258    -2.880090
H      -2.388461    -3.204264    -2.523481
H      -2.716050    -2.004521    -3.802494
H      -1.097911    -2.138448    -3.120497
N      -1.966361     1.184240    -1.258286
C      -1.932966     2.600670    -1.629242
H      -1.004067     3.062383    -1.283108
H      -2.004326     2.670860    -2.712641
H      -2.776664     3.136705    -1.181463
C       1.643521     0.816669    -1.246893
C       3.028114     0.157451    -1.103686
C       1.354375     1.147605    -2.724040
H       3.254546    -0.074414    -0.061953
H       3.044071    -0.768464    -1.682196
H       3.796126     0.832545    -1.490597
H       2.117562     1.830742    -3.105829
H       1.378980     0.224681    -3.306896
H       0.373256     1.605953    -2.850034
C       1.630029     2.067744    -0.463332
N       1.629287     3.050257     0.132437
48
     -1091.833098     -1091.498293   1.38   1.01
C      -0.471876     0.209732     1.395833
C      -0.177886     0.299937     0.029211
C      -1.063048     0.961803    -0.825041
C      -2.218969     1.538820    -0.313329
C      -2.505144     1.460573     1.039521
C      -1.630174     0.801879     1.889838
C       0.418950    -0.527463     2.333885
C       1.080680     0.155601     3.352946
C       1.916141    -0.527211     4.227825
C       2.091018    -1.900117     4.097369
C       1.424301    -2.588201     3.089432
C       0.591556    -1.906111     2.212566
H      -2.891421     2.054275    -0.991138
H      -3.409472     1.914538     1.430529
H      -1.847269     0.726856     2.950123
H       0.957890     1.230562     3.438996
H       2.434931     0.016349     5.010784
H       2.744181    -2.433265     4.780811
H       1.553321    -3.660691     2.984567
H       0.072189    -2.443038     1.425895
C       1.076088    -0.345660    -0.514217
N       0.986603    -1.422533    -1.127057
C      -1.625480     0.660714    -3.198814
O      -1.577707     1.125315    -4.324406
C      -2.622025    -0.421452    -2.874958
C      -2.271432    -1.518696    -2.214580
H      -2.983510    -2.325775    -2.067464
H      -1.269701    -1.667612    -1.830242
C      -3.983380    -0.205994    -3.477487
H      -4.631825    -1.062301    -3.280946
H      -4.458392     0.692614    -3.066882
H      -3.893794    -0.054330    -4.556244
N      -0.767498     1.104881    -2.216283
C       0.075131     2.247344    -2.579642
H      -0.534137     3.133254    -2.789698
H       0.745674     2.470944    -1.749688
H       0.648141     2.011898    -3.476464
C       2.483221     0.292789    -0.321878
C       3.380508    -0.607692     0.548645
C       3.149969     0.489607    -1.697990
H       3.434449    -1.600178     0.096350
H       4.385895    -0.180389     0.589557
H       3.000419    -0.703647     1.564339
H       3.294864    -0.486587    -2.164732
H       2.542004     1.104403    -2.360541
H       4.122882     0.970197    -1.567363
C       2.340464     1.607182     0.333862
N       2.247971     2.637370     0.834145
48
     -1091.831731     -1091.496789   2.24   1.95
C      -0.116721    -1.605388    -0.254993
C      -0.143224    -0.232716    -0.528592
C      -0.913380     0.256459    -1.584756
C      -1.651597    -0.626520    -2.364888
C      -1.623502    -1.986022    -2.101274
C      -0.863051    -2.471928    -1.046419
C       0.645261    -2.133750     0.911452
C       2.038235    -2.086731     0.948676
C       2.726238    -2.561896     2.057236
C       2.030082    -3.088386     3.139704
C       0.641638    -3.142285     3.106316
C      -0.047461    -2.670041     1.996452
H      -2.246089    -0.233005    -3.182577
H      -2.202457    -2.668372    -2.714429
H      -0.845207    -3.534213    -0.826441
H       2.581842    -1.668832     0.108377
H       3.810496    -2.518347     2.075805
H       2.569009    -3.457235     4.006668
H       0.091049    -3.549009     3.948391
H      -1.132494    -2.691477     1.976625
C       0.636035     0.708791     0.352279
N       1.799596     1.011220     0.042196
C      -0.058391     2.520694    -2.216722
O      -0.201735     3.726401    -2.105866
C       1.188006     1.956958    -2.859462
C       2.279414     2.709590    -2.767352
H       3.216987     2.398188    -3.217877
H       2.258727     3.650620    -2.230169
C       1.174010     0.662612    -3.635034
H       1.226564    -0.213948    -2.985244
H       0.270678     0.568432    -4.244303
H       2.038376     0.638407    -4.302235
N      -1.054130     1.657611    -1.803476
C      -2.357603     2.207005    -1.423963
H      -2.292941     3.292205    -1.458231
H      -3.131556     1.871317    -2.122461
H      -2.633964     1.878920    -0.417999
C       0.013263     1.288748     1.650242
C       0.892848     0.929914     2.862711
C      -0.115736     2.818082     1.512038
H       0.452063     1.349637     3.770957
H       0.986403    -0.150455     2.982929
H       1.887970     1.356089     2.720297
H      -0.728182     3.096085     0.654085
H      -0.562488     3.234883     2.418471
H       0.878870     3.247051     1.374302
C      -1.328521     0.707123     1.850928
N      -2.376173     0.266036     2.018691
48
     -1091.830781     -1091.496755   2.84   1.97
C      -0.721492    -1.450954     0.118823
C      -0.486606    -0.115082    -0.236675
C      -1.460131     0.608357    -0.926445
C      -2.688448     0.017895    -1.207116
C      -2.935959    -1.293574    -0.835337
C      -1.952911    -2.025796    -0.184091
C       0.303959    -2.254118     0.841215
C       1.577699    -2.450820     0.306977
C       2.523860    -3.194143     0.999547
C       2.209964    -3.754503     2.232554
C       0.938659    -3.576969     2.765129
C      -0.008717    -2.835652     2.070839
H      -3.439936     0.598015    -1.733160
H      -3.893336    -1.749654    -1.063832
H      -2.133844    -3.060021     0.090008
H       1.826314    -2.019161    -0.655733
H       3.511398    -3.336227     0.572434
H       2.951558    -4.333744     2.773252
H       0.682308    -4.017787     3.723254
H      -1.000992    -2.696471     2.490024
C       0.792351     0.564408     0.168886
N       1.748223     0.604051    -0.622200
C      -0.405550     2.430887    -2.265970
O      -0.254353     3.629412    -2.421905
C       0.311952     1.469916    -3.177943
C      -0.283689     0.404094    -3.702895
H       0.236500    -0.213222    -4.429361
H      -1.300257     0.121269    -3.460511
C       1.684009     1.928346    -3.590263
H       2.317501     2.102592    -2.717597
H       2.158549     1.181972    -4.230731
H       1.604861     2.875746    -4.130075
N      -1.253835     1.970247    -1.284783
C      -2.005723     2.990856    -0.546832
H      -1.325749     3.640077     0.009487
H      -2.584820     3.611085    -1.234882
H      -2.682399     2.487201     0.145101
C       0.921707     1.207268     1.582120
C      -0.317841     0.957222     2.457476
C       2.187576     0.673715     2.278018
H      -1.228995     1.323791     1.981991
H      -0.425949    -0.111042     2.651598
H      -0.194740     1.472690     3.413328
H       3.073848     0.861101     1.670336
H       2.308683     1.168890     3.245077
H       2.089875    -0.402389     2.438192
C       1.062746     2.664015     1.388809
N       1.159825     3.803317     1.280525
48
     -1091.830781     -1091.496752   2.84   1.98
C       1.603804     0.449717     0.845566
C       0.552279     0.619675    -0.066315
C       0.423348     1.816104    -0.772585
C       1.376753     2.817047    -0.613464
C       2.432561     2.644556     0.266848
C       2.538753     1.469997     0.998834
C       1.758971    -0.809343     1.626062
C       2.943744    -1.541450     1.535219
C       3.101509    -2.724610     2.245399
C       2.078072    -3.186059     3.064551
C       0.901800    -2.453252     3.175097
C       0.743132    -1.272094     2.462991
H       1.269342     3.736842    -1.179536
H       3.168137     3.432136     0.391093
H       3.351624     1.338644     1.705569
H       3.744157    -1.183854     0.893998
H       4.026442    -3.286002     2.159509
H       2.199485    -4.110101     3.620648
H       0.101631    -2.801935     3.820075
H      -0.174486    -0.702569     2.555562
C      -0.412172    -0.503748    -0.330279
N      -1.487568    -0.552361     0.287984
C      -1.956707     2.193554    -1.421346
O      -2.771863     2.265894    -2.323529
C      -2.416672     2.346218     0.005226
C      -1.757234     3.083410     0.892933
H      -2.168420     3.246357     1.884803
H      -0.815803     3.568833     0.668817
C      -3.774474     1.757845     0.275235
H      -4.040937     1.881503     1.326980
H      -4.518890     2.256352    -0.351310
H      -3.797499     0.694747     0.025178
N      -0.624974     2.008492    -1.715822
C      -0.269793     2.011177    -3.138990
H      -0.596689     2.939613    -3.612965
H       0.814313     1.922495    -3.223676
H      -0.749375     1.176235    -3.654911
C      -0.058164    -1.609968    -1.368629
C       1.358559    -1.444763    -1.943833
C      -0.216061    -2.997225    -0.719043
H       1.495347    -0.465951    -2.406305
H       2.097914    -1.567129    -1.150779
H       1.532389    -2.212951    -2.701582
H      -0.024043    -3.773360    -1.464571
H       0.501987    -3.101667     0.097478
H      -1.223554    -3.128486    -0.322056
C      -1.022983    -1.491826    -2.479734
N      -1.745428    -1.422415    -3.369912
48
     -1091.831492     -1091.496662   2.39   2.03
C      -0.440557    -1.225056    -0.443572
C      -0.110514     0.133419    -0.372808
C      -0.538776     1.001858    -1.381783
C      -1.293796     0.515416    -2.442104
C      -1.628186    -0.827930    -2.507628
C      -1.208169    -1.690880    -1.507688
C       0.031853    -2.194931     0.583192
C       1.390521    -2.478846     0.719444
C       1.824638    -3.384720     1.678024
C       0.905672    -4.017010     2.508336
C      -0.450349    -3.743371     2.371524
C      -0.885927    -2.839833     1.410511
H      -1.619095     1.203444    -3.214610
H      -2.219492    -1.199703    -3.337577
H      -1.459657    -2.745339    -1.551366
H       2.108407    -1.984617     0.073537
H       2.884398    -3.596787     1.777164
H       1.245713    -4.722736     3.259523
H      -1.172787    -4.231427     3.017643
H      -1.942016    -2.608562     1.314556
C       0.746502     0.642840     0.763563
N       1.946619     0.883326     0.548927
C       0.397636     3.061118    -2.337197
O       0.290174     4.267646    -2.455819
C       1.239999     2.252494    -3.293749
C       1.087154     2.520209    -4.586182
H       1.665619     2.000457    -5.344134
H       0.383454     3.276083    -4.919156
C       2.241859     1.258275    -2.766781
H       2.820390     1.683643    -1.942515
H       1.766721     0.351841    -2.385667
H       2.928015     0.972307    -3.566871
N      -0.245039     2.397806    -1.311880
C      -1.166644     3.208492    -0.511839
H      -0.637905     4.066300    -0.096513
H      -1.990604     3.584358    -1.127973
H      -1.578549     2.592966     0.288033
C       0.176986     0.867155     2.194588
C       0.834378    -0.091119     3.206402
C       0.443284     2.321259     2.632484
H       1.917985     0.038699     3.168209
H       0.482489     0.153053     4.212184
H       0.596593    -1.132655     2.997001
H       0.014350     3.041046     1.936518
H       0.011619     2.489602     3.622374
H       1.521515     2.484964     2.681628
C      -1.279529     0.628754     2.184756
N      -2.415555     0.456925     2.192253
48
     -1091.831491     -1091.496657   2.39   2.04
C       1.056099    -0.225811     1.166685
C       0.031837     0.135390     0.283615
C      -1.242372     0.421752     0.783613
C      -1.482998     0.354191     2.150541
C      -0.466675     0.005280     3.025781
C       0.798232    -0.276033     2.533999
C       2.415988    -0.583724     0.676107
C       3.510028     0.215610     1.002963
C       4.780110    -0.112257     0.545759
C       4.969449    -1.246781    -0.234883
C       3.883105    -2.053831    -0.554605
C       2.612657    -1.725070    -0.100926
H      -2.476534     0.581471     2.520942
H      -0.661893    -0.043425     4.091703
H       1.600046    -0.555303     3.209379
H       3.355346     1.111656     1.595581
H       5.622997     0.523305     0.797131
H       5.961845    -1.502489    -0.592261
H       4.024754    -2.943030    -1.160536
H       1.765526    -2.354236    -0.352596
C       0.295074     0.164679    -1.204732
N      -0.121278    -0.772683    -1.906280
C      -3.505259     0.169518    -0.136100
O      -4.498547     0.729972    -0.561061
C      -3.559389    -1.259156     0.348040
C      -4.574351    -1.574124     1.145578
H      -4.703063    -2.582948     1.526315
H      -5.310448    -0.829734     1.430977
C      -2.540709    -2.260613    -0.130758
H      -2.389627    -2.180884    -1.210517
H      -1.564554    -2.116519     0.337190
H      -2.884174    -3.270768     0.102375
N      -2.293062     0.827668    -0.094531
C      -2.333765     2.253078    -0.430999
H      -1.319928     2.652929    -0.406819
H      -2.770564     2.386104    -1.420647
H      -2.948464     2.805839     0.287615
C       1.077758     1.325405    -1.884907
C       2.404547     0.819739    -2.483362
C       0.218415     1.935638    -3.010172
H       3.090070     0.464501    -1.715865
H       2.194529     0.001857    -3.175804
H       2.884360     1.634916    -3.031369
H       0.038369     1.174167    -3.771449
H      -0.742647     2.291404    -2.641073
H       0.752645     2.774199    -3.464014
C       1.370251     2.370716    -0.884841
N       1.597213     3.198674    -0.121225
48
     -1091.828274     -1091.495674   4.41   2.65
C      -0.675114    -1.709456    -0.038998
C      -0.311486    -0.407384    -0.399763
C      -1.062276     0.288397    -1.343031
C      -2.175013    -0.301910    -1.923422
C      -2.549092    -1.585680    -1.556845
C      -1.802576    -2.283549    -0.618152
C       0.115132    -2.471481     0.965440
C       1.445338    -2.809912     0.716693
C       2.182223    -3.502273     1.668167
C       1.598326    -3.863459     2.877557
C       0.271497    -3.533537     3.128611
C      -0.467807    -2.843839     2.175952
H      -2.737988     0.246424    -2.671375
H      -3.420313    -2.046521    -2.010132
H      -2.085268    -3.291578    -0.333209
H       1.900657    -2.523329    -0.225284
H       3.216955    -3.758628     1.464469
H       2.175864    -4.402431     3.621913
H      -0.189786    -3.809583     4.071384
H      -1.497275    -2.564944     2.377195
C       0.862019     0.267308     0.261901
N       1.959051     0.326531    -0.317908
C       0.204760     1.774089    -2.722041
O       0.641398     0.820846    -3.335881
C       0.677285     3.164800    -3.064847
C       1.370533     3.865240    -2.175859
H       1.803997     4.828140    -2.430797
H       1.558994     3.482001    -1.178519
C       0.434503     3.587891    -4.485369
H      -0.638558     3.670471    -4.692956
H       0.903963     4.552372    -4.690214
H       0.839214     2.834927    -5.167828
N      -0.695258     1.628565    -1.690824
C      -1.597056     2.681631    -1.233757
H      -2.538574     2.680284    -1.797332
H      -1.831491     2.520221    -0.178508
H      -1.122489     3.653996    -1.349921
C       0.710978     0.909366     1.671410
C       1.663447     0.236877     2.677126
C       1.021175     2.416033     1.580949
H       2.689925     0.341609     2.319341
H       1.573290     0.727237     3.650154
H       1.439482    -0.823475     2.795675
H       0.901852     2.879459     2.563585
H       2.052694     2.548533     1.247910
H       0.355876     2.916568     0.875893
C      -0.679560     0.750375     2.142182
N      -1.758897     0.657436     2.524964
48
     -1091.827993     -1091.495589   4.59   2.71
C       0.954043     0.040670     1.727874
C       0.019331     0.151121     0.693325
C      -1.216943     0.745624     0.936607
C      -1.527908     1.220971     2.201356
C      -0.601200     1.118843     3.228324
C       0.634239     0.535271     2.989193
C       2.291159    -0.565844     1.484680
C       3.439049     0.217948     1.595437
C       4.690718    -0.330238     1.344878
C       4.807089    -1.668349     0.986700
C       3.666074    -2.456487     0.882316
C       2.414266    -1.909057     1.129746
H      -2.501597     1.667181     2.374768
H      -0.844346     1.493033     4.217107
H       1.363969     0.450692     3.787696
H       3.342104     1.267735     1.853742
H       5.576579     0.291575     1.425264
H       5.784935    -2.096774     0.790783
H       3.749856    -3.502441     0.605053
H       1.522950    -2.521143     1.043133
C       0.364295    -0.324717    -0.694471
N      -0.008352    -1.442144    -1.089698
C      -2.963141    -0.160380    -0.435139
O      -2.869960    -1.224109     0.144466
C      -3.943843    -0.003864    -1.570889
C      -5.073368     0.673769    -1.414261
H      -5.814797     0.724102    -2.206170
H      -5.308993     1.183229    -0.484630
C      -3.562779    -0.768128    -2.807223
H      -4.345094    -0.703325    -3.566345
H      -2.628687    -0.382155    -3.230557
H      -3.388573    -1.817495    -2.552348
N      -2.156633     0.907706    -0.131414
C      -2.324232     2.257364    -0.660199
H      -2.717317     2.216911    -1.675375
H      -3.009031     2.857997    -0.049211
H      -1.351251     2.754114    -0.673412
C       1.188127     0.578678    -1.657044
C       2.510236    -0.109406    -2.044450
C       0.355881     0.866538    -2.921576
H       3.057743     0.521583    -2.749815
H       3.139327    -0.290545    -1.172632
H       2.286449    -1.065900    -2.521428
H       0.159886    -0.074478    -3.439569
H      -0.598338     1.332912    -2.672309
H       0.909908     1.532358    -3.588252
C       1.491540     1.860502    -0.990368
N       1.726930     2.870452    -0.495614
48
     -1091.827997     -1091.494529   4.58   3.37
C      -0.125224     0.567305     1.795768
C      -0.211912     0.387774     0.408455
C      -1.098076     1.162683    -0.338565
C      -1.858125     2.145270     0.280103
C      -1.744777     2.355539     1.645688
C      -0.888480     1.564676     2.398238
C       0.753670    -0.291575     2.635573
C       1.721833     0.282035     3.460434
C       2.550899    -0.515654     4.238927
C       2.414519    -1.898560     4.209662
C       1.438995    -2.477010     3.405291
C       0.612295    -1.679947     2.625271
H      -2.553338     2.726922    -0.316167
H      -2.342170     3.121961     2.127939
H      -0.821700     1.702250     3.472642
H       1.830799     1.362469     3.483535
H       3.303905    -0.055474     4.870886
H       3.061273    -2.523067     4.817565
H       1.319480    -3.555491     3.384114
H      -0.151613    -2.133298     2.003673
C       0.658532    -0.619535    -0.296062
N       0.190237    -1.717568    -0.641414
C      -2.131209    -0.020901    -2.134608
O      -2.841375    -0.589895    -1.326749
C      -2.211809    -0.382154    -3.594132
C      -1.119782    -0.730946    -4.263736
H      -1.185799    -1.085393    -5.288491
H      -0.133518    -0.707578    -3.813749
C      -3.607687    -0.465053    -4.146186
H      -4.098533     0.514770    -4.129003
H      -3.595224    -0.830487    -5.175219
H      -4.209522    -1.136088    -3.527294
N      -1.234259     0.945923    -1.746196
C      -0.581238     1.891419    -2.647426
H      -1.158963     1.993782    -3.565459
H      -0.536517     2.866031    -2.154723
H       0.434416     1.580106    -2.910688
C       2.148899    -0.283784    -0.612813
C       2.546585     1.129951    -0.155909
C       3.077464    -1.338347     0.017675
H       1.892392     1.891245    -0.584965
H       2.495593     1.197126     0.931393
H       3.573148     1.336943    -0.469002
H       4.108615    -1.147242    -0.291175
H       3.015710    -1.279909     1.105877
H       2.792489    -2.342809    -0.298513
C       2.303485    -0.348179    -2.080026
N       2.449772    -0.370388    -3.219202
48
     -1091.830253     -1091.494425   3.17   3.44
C      -1.036395    -0.520442     1.067119
C      -0.526445     0.190771    -0.027548
C      -1.390272     0.893333    -0.869983
C      -2.752996     0.925585    -0.590665
C      -3.258152     0.247457     0.506799
C      -2.403731    -0.476741     1.326000
C      -0.146553    -1.299434     1.972517
C       0.615482    -2.363051     1.489882
C       1.426013    -3.092021     2.348203
C       1.486774    -2.767154     3.697921
C       0.726332    -1.713166     4.187852
C      -0.089605    -0.987037     3.330588
H      -3.411427     1.480583    -1.251282
H      -4.322012     0.274456     0.717059
H      -2.795151    -1.026504     2.175565
H       0.571371    -2.619469     0.437497
H       2.019302    -3.912214     1.958077
H       2.130354    -3.330518     4.365365
H       0.771279    -1.451674     5.240001
H      -0.682268    -0.162539     3.715821
C       0.957675     0.233552    -0.268146
N       1.479242    -0.584623    -1.042975
C      -0.265906     1.150343    -3.088031
O       0.317117     1.911693    -3.842335
C      -0.346325    -0.314044    -3.421335
C      -1.447509    -1.027068    -3.206574
H      -1.507603    -2.059049    -3.539393
H      -2.325812    -0.617393    -2.724133
C       0.836084    -0.841760    -4.186162
H       1.764672    -0.676126    -3.635504
H       0.720964    -1.911475    -4.373133
H       0.922822    -0.312886    -5.139080
N      -0.899320     1.651304    -1.972385
C      -0.973527     3.111033    -1.876667
H       0.021043     3.548748    -1.751241
H      -1.409692     3.529667    -2.786108
H      -1.596343     3.371808    -1.019807
C       1.843363     1.287200     0.459206
C       2.739073     1.994302    -0.575321
C       1.006080     2.306585     1.249252
H       3.380114     1.276062    -1.087656
H       2.118657     2.495834    -1.321655
H       3.366152     2.735363    -0.073166
H       0.356217     2.864920     0.573642
H       0.390259     1.817048     2.005315
H       1.672878     3.012411     1.750703
C       2.711279     0.568868     1.412767
N       3.409689     0.060237     2.168936
48
     -1091.830253     -1091.494414   3.17   3.44
C       1.809558     0.262100     0.378897
C       0.559931     0.637849    -0.132400
C       0.359794     1.934655    -0.609589
C       1.418514     2.837457    -0.621394
C       2.663373     2.461677    -0.143302
C       2.853940     1.182665     0.360094
C       2.051417    -1.105405     0.917242
C       3.030657    -1.916208     0.343757
C       3.274809    -3.188367     0.843677
C       2.549108    -3.659921     1.930041
C       1.580200    -2.853197     2.514317
C       1.331513    -1.584179     2.011511
H       1.249295     3.840223    -1.000596
H       3.483641     3.171468    -0.152782
H       3.820805     0.888006     0.754500
H       3.598547    -1.550220    -0.506540
H       4.030636    -3.813986     0.380275
H       2.733791    -4.656570     2.316870
H       1.007649    -3.216007     3.361348
H       0.574409    -0.958222     2.469968
C      -0.553130    -0.370970    -0.208143
N      -1.379485    -0.445831     0.715617
C      -2.087444     2.431685    -0.491066
O      -3.124733     2.553380    -1.121761
C      -2.120950     2.456713     1.012342
C      -1.185739     3.072556     1.728753
H      -1.283104     3.151769     2.807459
H      -0.315523     3.535834     1.281436
C      -3.384657     1.906269     1.613665
H      -4.239962     2.497627     1.275983
H      -3.554165     0.875669     1.294184
H      -3.330479     1.934909     2.703961
N      -0.889599     2.337512    -1.164206
C      -0.943651     2.575454    -2.608481
H      -1.427931     3.531548    -2.818057
H       0.075794     2.589995    -2.996588
H      -1.515762     1.793133    -3.115601
C      -0.665517    -1.329499    -1.429691
C      -2.107624    -1.292211    -1.969594
C       0.344714    -0.984112    -2.536259
H      -2.816777    -1.602250    -1.201304
H      -2.360453    -0.276312    -2.281824
H      -2.196543    -1.963944    -2.827164
H       0.158302     0.021546    -2.916262
H       1.371289    -1.037360    -2.170443
H       0.234752    -1.692175    -3.361375
C      -0.380006    -2.698933    -0.958871
N      -0.167251    -3.782891    -0.645756
48
     -1091.827878     -1091.493419   4.66   4.07
C      -1.102003    -0.813674    -0.425099
C      -0.236929     0.274186    -0.236222
C      -0.419613     1.440400    -0.988663
C      -1.500266     1.543877    -1.856110
C      -2.384218     0.488098    -2.007489
C      -2.178309    -0.686268    -1.300626
C      -0.868116    -2.131279     0.228689
C       0.330349    -2.815268     0.027395
C       0.536359    -4.058727     0.606460
C      -0.451869    -4.635540     1.392666
C      -1.654193    -3.967460     1.588092
C      -1.864042    -2.726383     1.002932
H      -1.633509     2.461781    -2.418766
H      -3.223239     0.575564    -2.689615
H      -2.840431    -1.533867    -1.443135
H       1.104409    -2.371473    -0.588638
H       1.479011    -4.572725     0.452346
H      -0.284865    -5.602079     1.856194
H      -2.432138    -4.413275     2.199384
H      -2.807001    -2.208654     1.153829
C       0.914733     0.177768     0.734330
N       2.076712     0.143468     0.293039
C       1.172667     3.044841    -1.953639
O       1.640279     4.169826    -1.921642
C       1.363265     2.184327    -3.174838
C       1.807362     0.936925    -3.078042
H       2.027525     0.356622    -3.969490
H       1.996614     0.466610    -2.120386
C       1.149740     2.901241    -4.479297
H       0.108569     3.227564    -4.585304
H       1.771118     3.799871    -4.515731
H       1.396867     2.251626    -5.321454
N       0.485150     2.539863    -0.873812
C       0.317486     3.455556     0.253431
H       1.291954     3.755829     0.641570
H      -0.220817     4.358647    -0.051281
H      -0.251222     2.951630     1.033502
C       0.680715     0.144954     2.277159
C       1.616341     1.167949     2.953015
C      -0.782588     0.418447     2.663711
H       1.360516     2.178411     2.630041
H       1.499639     1.104500     4.037736
H       2.657460     0.969735     2.696190
H      -0.869310     0.434002     3.752949
H      -1.103177     1.388545     2.278864
H      -1.452736    -0.348221     2.277971
C       1.054089    -1.189260     2.786835
N       1.343386    -2.198111     3.252336
48
     -1091.826728     -1091.491652   5.38   5.18
C       0.179159     0.516018     1.582001
C      -0.301460     0.470960     0.265977
C      -1.474875     1.149749    -0.073339
C      -2.139416     1.904221     0.887894
C      -1.653093     1.973323     2.183115
C      -0.502263     1.278315     2.527208
C       1.415970    -0.209778     1.986336
C       2.506573     0.501049     2.486492
C       3.661584    -0.162636     2.878357
C       3.734460    -1.546493     2.784726
C       2.647155    -2.262608     2.299231
C       1.495210    -1.599460     1.901103
H      -3.047467     2.427385     0.606775
H      -2.176923     2.562758     2.928092
H      -0.124168     1.314220     3.543630
H       2.452132     1.583215     2.560368
H       4.507776     0.403490     3.253707
H       4.639038    -2.065509     3.083722
H       2.697917    -3.343416     2.220435
H       0.650590    -2.162499     1.520720
C       0.463361    -0.291909    -0.782324
N       0.163760    -1.473682    -1.019304
C      -2.451537     0.072012    -2.113146
O      -2.581625     0.162528    -3.322384
C      -2.878212    -1.174193    -1.377522
C      -2.865204    -2.299990    -2.083835
H      -3.178865    -3.242352    -1.645158
H      -2.529757    -2.302218    -3.114348
C      -3.376985    -1.128031     0.045574
H      -3.949040    -2.035082     0.252172
H      -2.563121    -1.071949     0.771952
H      -4.030571    -0.267490     0.215154
N      -1.970946     1.157056    -1.409862
C      -1.835069     2.403579    -2.166799
H      -2.773655     2.643824    -2.670297
H      -1.577296     3.205093    -1.472792
H      -1.058708     2.319588    -2.932535
C       1.634915     0.381623    -1.554026
C       1.428617     0.170210    -3.065825
C       1.771971     1.875865    -1.218356
H       1.397694    -0.893143    -3.305988
H       0.483341     0.619578    -3.378295
H       2.248476     0.636484    -3.618077
H       0.865869     2.412064    -1.503868
H       1.950990     2.030400    -0.153114
H       2.613377     2.296729    -1.774425
C       2.886742    -0.292362    -1.156869
N       3.888770    -0.781254    -0.882617
48
     -1091.826728     -1091.491622   5.38   5.19
C      -0.979596    -1.179286    -0.164360
C      -0.415802     0.067679    -0.467969
C      -1.049184     0.918353    -1.377894
C      -2.261261     0.542155    -1.947255
C      -2.835537    -0.677677    -1.629315
C      -2.193955    -1.534262    -0.745858
C      -0.324274    -2.121436     0.785832
C       0.939567    -2.647814     0.520556
C       1.528777    -3.538993     1.405932
C       0.864662    -3.913455     2.567598
C      -0.396868    -3.398280     2.836461
C      -0.989914    -2.511620     1.947525
H      -2.741025     1.215863    -2.649554
H      -3.780508    -0.965268    -2.077804
H      -2.629211    -2.498440    -0.504461
H       1.462811    -2.356967    -0.383167
H       2.515646    -3.934905     1.190814
H       1.332085    -4.600606     3.265004
H      -0.920212    -3.683766     3.743121
H      -1.976285    -2.109905     2.160128
C       0.860438     0.494077     0.206752
N       1.949126     0.274869    -0.349321
C       0.664477     2.480637    -2.325904
O       1.120333     3.610567    -2.272622
C       1.340113     1.408708    -3.144890
C       2.648609     1.553828    -3.327226
H       3.215144     0.844521    -3.922866
H       3.181422     2.381716    -2.874241
C       0.560772     0.291637    -3.793636
H       0.314573    -0.508455    -3.091946
H      -0.377436     0.653031    -4.224490
H       1.159916    -0.140314    -4.598071
N      -0.524059     2.208706    -1.680702
C      -1.238907     3.365970    -1.137596
H      -2.213928     3.034248    -0.777302
H      -0.682656     3.825416    -0.315607
H      -1.373845     4.123865    -1.911897
C       0.825814     1.187154     1.599635
C       1.672013     2.473010     1.542782
C      -0.608053     1.489075     2.065593
H       2.704184     2.244105     1.275246
H       1.265634     3.152259     0.790047
H       1.657770     2.966582     2.517841
H      -1.203552     0.577688     2.139259
H      -0.577294     1.961895     3.050374
H      -1.095878     2.172308     1.368989
C       1.440323     0.269034     2.578663
N       1.908216    -0.406308     3.380710
