48
     -1091.822308     -1091.492081   0.00   0.00
C      -1.992408     0.170458     0.476155
C      -0.868653    -0.168978    -0.292774
C      -0.971899    -0.323154    -1.680523
C      -2.186939    -0.080032    -2.306398
C      -3.288859     0.309010    -1.557974
C      -3.194316     0.424558    -0.175765
C      -1.883323     0.291195     1.954541
C      -1.348239    -0.748110     2.717853
C      -1.244540    -0.627775     4.097015
C      -1.675734     0.531742     4.732486
C      -2.215467     1.568217     3.980430
C      -2.319979     1.447285     2.599926
H      -2.260291    -0.194697    -3.382421
H      -4.233438     0.506383    -2.054161
H      -4.066080     0.697116     0.409590
H      -1.022299    -1.659395     2.226911
H      -0.828952    -1.445134     4.678244
H      -1.593314     0.625283     5.810639
H      -2.553547     2.476715     4.468831
H      -2.725289     2.264663     2.011639
C       0.426428    -0.348106     0.331582
N       1.407013     0.381956     0.429791
C       0.666002    -0.040906    -3.491044
O       1.397484    -0.568757    -4.310111
C       0.333082     1.423203    -3.607216
C       0.493715     2.236536    -2.568865
H       0.344686     3.307429    -2.674294
H       0.801721     1.873276    -1.594672
C      -0.031702     1.881493    -4.990756
H      -0.967564     1.418589    -5.324938
H      -0.151583     2.966481    -5.021531
H       0.744442     1.578759    -5.698710
N       0.171655    -0.740843    -2.416636
C       0.609243    -2.129449    -2.259068
H       1.687115    -2.189891    -2.404134
H       0.367563    -2.463596    -1.249772
H       0.117542    -2.781430    -2.988494
C       2.668372    -0.051287     1.077847
C       3.814696     0.778232     0.493163
C       2.532689     0.148182     2.591859
H       3.627071     1.835515     0.694301
H       4.766812     0.489388     0.945784
H       3.874812     0.632429    -0.587830
H       2.327620     1.201749     2.795799
H       1.706331    -0.449465     2.981570
H       3.456322    -0.144351     3.098092
C       2.915971    -1.482658     0.786962
N       3.135059    -2.588001     0.563194
48
     -1091.822022     -1091.491998   0.18   0.05
C      -1.009684    -0.706105    -1.481373
C      -0.581464     0.430118    -0.774679
C      -0.424150     1.659335    -1.423758
C      -0.641733     1.747261    -2.790604
C      -1.022215     0.619043    -3.505030
C      -1.213100    -0.593636    -2.853472
C      -1.199616    -2.005810    -0.783105
C      -1.919224    -2.082548     0.411079
C      -2.075433    -3.297671     1.063035
C      -1.523664    -4.455982     0.526666
C      -0.813694    -4.390688    -0.666231
C      -0.652153    -3.172918    -1.315706
H      -0.509755     2.701473    -3.289297
H      -1.186593     0.689534    -4.575250
H      -1.541962    -1.463780    -3.411574
H      -2.362772    -1.187321     0.833771
H      -2.633103    -3.337000     1.993166
H      -1.647815    -5.406208     1.036403
H      -0.377566    -5.289461    -1.090762
H      -0.076376    -3.121611    -2.234535
C      -0.283694     0.342534     0.637789
N       0.727384     0.050456     1.266720
C       1.051391     3.561022    -0.920746
O       1.158031     4.704020    -0.512376
C       2.176226     2.926777    -1.695171
C       2.654697     1.737523    -1.345477
H       3.524391     1.321391    -1.846114
H       2.221754     1.153443    -0.541431
C       2.778469     3.798243    -2.760621
H       3.652052     3.318277    -3.206682
H       2.052446     4.006526    -3.555149
H       3.069026     4.761539    -2.332994
N      -0.062763     2.801096    -0.651594
C      -1.118345     3.403376     0.161874
H      -1.768672     4.044604    -0.443878
H      -1.713950     2.608584     0.614600
H      -0.662211     4.009395     0.943458
C       0.764664    -0.026456     2.743149
C       1.395570    -1.369259     3.126660
C       1.582478     1.164112     3.256570
H       0.799010    -2.193054     2.728069
H       2.400265    -1.424910     2.701458
H       1.458078    -1.466800     4.213644
H       1.665463     1.130149     4.345970
H       2.581619     1.123792     2.817178
H       1.109596     2.104892     2.966172
C      -0.601698     0.035796     3.315546
N      -1.643020     0.067120     3.800047
48
     -1091.822022     -1091.491980   0.18   0.06
C      -0.957326    -1.228284    -1.095908
C      -0.752729     0.055556    -0.563292
C      -1.809304     0.767121     0.014930
C      -3.061612     0.179240     0.112132
C      -3.262143    -1.106729    -0.371741
C      -2.220988    -1.799271    -0.978313
C       0.162912    -1.972156    -1.732002
C       0.986230    -1.360742    -2.679697
C       2.039254    -2.058928    -3.253844
C       2.279457    -3.381436    -2.897339
C       1.459544    -4.000994    -1.961811
C       0.409001    -3.299858    -1.382463
H      -3.874529     0.733156     0.569272
H      -4.241655    -1.566259    -0.289571
H      -2.392140    -2.790850    -1.383600
H       0.802344    -0.332688    -2.973159
H       2.672093    -1.565464    -3.984387
H       3.102249    -3.927250    -3.348202
H       1.641304    -5.032224    -1.675879
H      -0.214374    -3.779300    -0.634174
C       0.561615     0.658024    -0.593879
N       1.523550     0.614644     0.165022
C      -1.810938     2.492674     1.766861
O      -1.955214     3.667006     2.057950
C      -1.837922     1.438474     2.841663
C      -0.861580     0.542339     2.937802
H      -0.833792    -0.159732     3.766353
H      -0.050177     0.491696     2.220766
C      -2.948920     1.586112     3.842276
H      -2.844959     0.856495     4.648091
H      -2.941131     2.596235     4.260387
H      -3.926873     1.443408     3.367919
N      -1.572130     2.095768     0.472006
C      -1.477366     3.134668    -0.552891
H      -0.960352     3.998116    -0.136537
H      -0.913953     2.744195    -1.402303
H      -2.471020     3.450577    -0.890364
C       2.809242     1.286199    -0.123463
C       2.942063     2.479302     0.829809
C       3.929280     0.259596     0.076088
H       2.888301     2.118316     1.859261
H       3.896888     2.988419     0.675079
H       2.130025     3.190977     0.665102
H       4.904853     0.715173    -0.112753
H       3.896159    -0.108073     1.104207
H       3.791870    -0.584434    -0.603718
C       2.855374     1.771601    -1.523710
N       2.938355     2.151810    -2.604741
48
     -1091.820264     -1091.491677   1.28   0.25
C      -1.814071    -0.802098    -0.000562
C      -0.653042    -0.264719    -0.580208
C      -0.703608     0.329603    -1.850977
C      -1.920741     0.435935    -2.510989
C      -3.076147    -0.060192    -1.923787
C      -3.019820    -0.685630    -0.683725
C      -1.764354    -1.471533     1.327906
C      -1.239081    -0.818523     2.444135
C      -1.201588    -1.454427     3.677491
C      -1.693439    -2.748204     3.814042
C      -2.226428    -3.401176     2.709489
C      -2.262241    -2.765469     1.474074
H      -1.953085     0.905493    -3.487406
H      -4.024954     0.031168    -2.442145
H      -3.923083    -1.077803    -0.228517
H      -0.867844     0.195645     2.346025
H      -0.791107    -0.935059     4.538012
H      -1.663852    -3.243543     4.779289
H      -2.612673    -4.410840     2.807248
H      -2.664337    -3.281660     0.607776
C       0.625173    -0.362407     0.091111
N       1.368355     0.447123     0.632718
C       0.646103     2.080708    -2.915309
O       1.509164     2.361445    -3.725881
C      -0.267388     3.133509    -2.337776
C      -0.862360     3.960333    -3.189792
H      -1.513437     4.758555    -2.845908
H      -0.705925     3.863647    -4.259421
C      -0.388747     3.243500    -0.838999
H      -0.818190     4.211587    -0.572073
H      -1.024015     2.461429    -0.415887
H       0.591837     3.151456    -0.362994
N       0.499635     0.794430    -2.448578
C       1.437787    -0.213431    -2.945905
H       1.361575    -1.107140    -2.326000
H       1.217491    -0.471921    -3.986792
H       2.454357     0.173430    -2.888559
C       2.696535     0.078313     1.183271
C       3.513376     1.360565     1.361426
C       2.496939    -0.659617     2.512097
H       3.626817     1.874260     0.404030
H       2.990127     2.022830     2.055257
H       4.503945     1.130847     1.762233
H       1.981571     0.000677     3.213635
H       1.889776    -1.555120     2.363328
H       3.462807    -0.947351     2.935086
C       3.398361    -0.807616     0.226918
N       3.966692    -1.486698    -0.504806
48
     -1091.825018     -1091.491501  -1.70   0.36
C      -0.328741    -1.544379    -1.368740
C      -0.637691    -0.792742    -0.223962
C      -1.764033    -1.099240     0.549528
C      -2.532265    -2.209291     0.232613
C      -2.208525    -2.983891    -0.873611
C      -1.123752    -2.645769    -1.672930
C       0.845654    -1.193592    -2.211705
C       1.064388     0.121586    -2.624671
C       2.173864     0.445856    -3.392238
C       3.073630    -0.544167    -3.771143
C       2.857710    -1.859023    -3.375520
C       1.751520    -2.180947    -2.598803
H      -3.392285    -2.450451     0.848805
H      -2.815417    -3.848152    -1.122203
H      -0.895064    -3.233861    -2.555299
H       0.363135     0.899523    -2.344785
H       2.333282     1.477338    -3.688387
H       3.941069    -0.291556    -4.372758
H       3.557009    -2.636953    -3.665479
H       1.599701    -3.204362    -2.270204
C       0.219130     0.303449     0.179825
N       1.171808     0.374753     0.947962
C      -2.266724     1.038099     1.654803
O      -2.112358     1.740667     2.639533
C      -2.742678     1.644594     0.361106
C      -3.714509     1.069307    -0.339499
H      -4.127025     1.550191    -1.221553
H      -4.150509     0.120528    -0.047882
C      -2.158279     2.988889     0.030687
H      -1.089539     2.910581    -0.191328
H      -2.658793     3.422695    -0.837246
H      -2.264937     3.660790     0.885943
N      -2.065077    -0.322962     1.707647
C      -1.656589    -0.894056     2.991044
H      -1.894783    -1.959612     2.993392
H      -0.580966    -0.765886     3.155442
H      -2.197644    -0.393440     3.792600
C       1.931147     1.622143     1.195669
C       1.399587     2.266971     2.481404
C       3.415044     1.259931     1.309990
H       1.961760     3.177721     2.704270
H       0.339956     2.511784     2.388258
H       1.520811     1.562102     3.307297
H       3.546525     0.552821     2.132066
H       3.765464     0.793929     0.386045
H       4.011541     2.154689     1.506093
C       1.762498     2.568492     0.066964
N       1.662845     3.321359    -0.795157
48
     -1091.825018     -1091.491500  -1.70   0.36
C      -1.821610    -0.465819    -0.962928
C      -0.728279     0.414235    -0.995436
C      -0.739658     1.537274    -1.831813
C      -1.802241     1.734654    -2.700599
C      -2.868503     0.844934    -2.705592
C      -2.882091    -0.237832    -1.835302
C      -1.825175    -1.636714    -0.045411
C      -2.160365    -2.902845    -0.524855
C      -2.153700    -4.003553     0.323071
C      -1.807396    -3.851805     1.660618
C      -1.474877    -2.592598     2.147570
C      -1.491215    -1.492532     1.302091
H      -1.793760     2.597295    -3.358827
H      -3.701091     1.005834    -3.382328
H      -3.732684    -0.910847    -1.818932
H      -2.406486    -3.029197    -1.574552
H      -2.412199    -4.983835    -0.064865
H      -1.796198    -4.712656     2.321689
H      -1.196318    -2.460463     3.187772
H      -1.241528    -0.513523     1.695125
C       0.435684     0.159324    -0.171399
N       1.489181    -0.431570    -0.380454
C       0.833329     3.063867    -0.719252
O       1.981115     3.467729    -0.637964
C      -0.136533     3.312571     0.405706
C      -1.361569     3.763649     0.156559
H      -2.032267     4.034963     0.966491
H      -1.728870     3.904606    -0.853658
C       0.434761     3.167191     1.787849
H       1.353124     3.753282     1.873846
H      -0.283390     3.504290     2.537937
H       0.691784     2.124968     2.000782
N       0.378253     2.422952    -1.849770
C       1.325766     2.243467    -2.949826
H       0.765889     2.081490    -3.873110
H       1.938608     3.138846    -3.042397
H       1.979997     1.383071    -2.770608
C       2.552189    -0.593540     0.638230
C       3.134186    -2.003358     0.497127
C       3.613975     0.488694     0.408331
H       3.933854    -2.160024     1.225717
H       2.356280    -2.753974     0.655443
H       3.537704    -2.122615    -0.510868
H       4.016998     0.380467    -0.601369
H       3.183334     1.487130     0.503728
H       4.426705     0.376098     1.130805
C       1.992815    -0.448939     2.003580
N       1.591175    -0.353821     3.075788
48
     -1091.825018     -1091.491478  -1.70   0.38
C      -0.902307    -0.587175    -2.010378
C      -0.366160     0.452367    -1.233956
C      -0.545928     1.789654    -1.608367
C      -1.183466     2.087606    -2.803206
C      -1.679209     1.063185    -3.599001
C      -1.549865    -0.260790    -3.198546
C      -0.744600    -2.005620    -1.590819
C      -0.301511    -2.962326    -2.503880
C      -0.139901    -4.286820    -2.116326
C      -0.415640    -4.669839    -0.808947
C      -0.860709    -3.723089     0.106963
C      -1.030918    -2.402615    -0.283708
H      -1.301514     3.126121    -3.094815
H      -2.182910     1.300175    -4.530232
H      -1.968702    -1.055482    -3.806628
H      -0.060862    -2.661736    -3.518837
H       0.210185    -5.019783    -2.836379
H      -0.283591    -5.703316    -0.504484
H      -1.073610    -4.006572     1.132335
H      -1.389688    -1.675214     0.435635
C       0.396080     0.150019    -0.039658
N       1.594814    -0.005491     0.164345
C      -0.316749     2.990470     0.524260
O       0.425745     3.582815     1.289086
C      -1.640155     2.463219     1.012775
C      -2.749961     2.662753     0.309374
H      -3.719574     2.369349     0.700795
H      -2.737620     3.146268    -0.660878
C      -1.620713     1.859191     2.388504
H      -1.145464     2.548889     3.090448
H      -2.635433     1.638835     2.725839
H      -1.043333     0.929640     2.402988
N       0.002606     2.833531    -0.805902
C       1.268506     3.403802    -1.266763
H       2.109177     2.743230    -1.027311
H       1.218601     3.542127    -2.348679
H       1.425327     4.364660    -0.778922
C       2.161787    -0.339121     1.491482
C       3.297384    -1.345725     1.283222
C       2.658347     0.955327     2.146658
H       4.055029    -0.898661     0.635763
H       3.752937    -1.609624     2.241184
H       2.919091    -2.253294     0.806932
H       3.108020     0.735130     3.118505
H       3.411517     1.412705     1.500768
H       1.840471     1.665557     2.281119
C       1.131985    -0.962627     2.356787
N       0.362084    -1.458863     3.050328
48
     -1091.820938     -1091.491304   0.86   0.49
C      -0.379932    -0.735063    -1.830257
C      -0.317867    -0.396118    -0.465423
C      -1.343859    -0.792242     0.406372
C      -2.411015    -1.534596    -0.076008
C      -2.477327    -1.868237    -1.422061
C      -1.464723    -1.474268    -2.289018
C       0.683900    -0.296057    -2.773144
C       0.342928     0.400797    -3.931851
C       1.325913     0.813224    -4.823548
C       2.662101     0.531101    -4.567205
C       3.009229    -0.168965    -3.416463
C       2.027641    -0.581910    -2.526136
H      -3.192962    -1.841420     0.610677
H      -3.316847    -2.445695    -1.794908
H      -1.509394    -1.746221    -3.338297
H      -0.699337     0.635958    -4.124112
H       1.046361     1.359623    -5.718819
H       3.431020     0.852897    -5.262342
H       4.050789    -0.398520    -3.213108
H       2.301429    -1.135579    -1.634759
C       0.700804     0.497047     0.027416
N       1.742896     0.404602     0.665010
C      -2.212199     0.292455     2.425250
O      -2.364416     0.251193     3.632714
C      -3.051707     1.215977     1.582814
C      -2.475440     2.084641     0.759885
H      -3.065858     2.817366     0.217962
H      -1.400304     2.127321     0.625865
C      -4.526907     1.164255     1.862778
H      -5.055502     1.938052     1.302130
H      -4.946490     0.189264     1.588598
H      -4.706791     1.301880     2.932521
N      -1.250638    -0.460188     1.789746
C      -0.404345    -1.324384     2.611726
H       0.523238    -1.526626     2.075033
H      -0.184275    -0.812147     3.547562
H      -0.908754    -2.270047     2.842560
C       2.559518     1.591411     1.021974
C       3.251092     1.314569     2.359191
C       3.569918     1.830161    -0.107253
H       3.876505     0.424288     2.260806
H       3.875759     2.163139     2.649631
H       2.507759     1.137586     3.139906
H       4.198128     0.943155    -0.217590
H       3.050508     2.011198    -1.050614
H       4.201867     2.691342     0.124504
C       1.698671     2.788320     1.165531
N       1.062225     3.736094     1.293520
48
     -1091.822713     -1091.491076  -0.25   0.63
C      -1.730232    -0.299338    -1.352433
C      -0.664402     0.565908    -1.043131
C      -0.702689     1.906443    -1.455273
C      -1.777389     2.366425    -2.202782
C      -2.825585     1.513955    -2.517384
C      -2.805196     0.193532    -2.082852
C      -1.704610    -1.722332    -0.918074
C      -1.909672    -2.741161    -1.847492
C      -1.892074    -4.073244    -1.451374
C      -1.671649    -4.401111    -0.119250
C      -1.471709    -3.389863     0.814688
C      -1.488920    -2.059336     0.419451
H      -1.785770     3.402068    -2.526592
H      -3.667140     1.882649    -3.094381
H      -3.634075    -0.468093    -2.310927
H      -2.065976    -2.486260    -2.891116
H      -2.047724    -4.856237    -2.186791
H      -1.657446    -5.440919     0.191595
H      -1.304552    -3.637812     1.858356
H      -1.340282    -1.273991     1.152565
C       0.548069     0.049063    -0.444148
N       1.062419     0.098907     0.663990
C       0.802172     3.124392     0.089059
O       1.940675     3.509754     0.295268
C      -0.201443     3.109016     1.212127
C      -1.455688     3.506586     1.019624
H      -2.145018     3.587270     1.855202
H      -1.832617     3.794978     0.046553
C       0.360076     2.800711     2.572123
H      -0.400684     2.952528     3.340739
H       0.714132     1.768787     2.627727
H       1.215634     3.449588     2.774854
N       0.396505     2.773555    -1.181988
C       1.371375     2.924070    -2.261958
H       2.052370     2.066199    -2.307531
H       0.835376     3.003304    -3.210124
H       1.957969     3.825459    -2.091821
C       2.390238    -0.498661     0.946331
C       2.390288    -1.989010     0.589975
C       3.477216     0.284252     0.201141
H       2.204203    -2.100012    -0.481155
H       3.358126    -2.433640     0.834988
H       1.605834    -2.516658     1.135844
H       4.465022    -0.098399     0.470307
H       3.329632     0.155803    -0.874492
H       3.419982     1.347776     0.442011
C       2.619219    -0.360289     2.404694
N       2.832754    -0.277056     3.529882
48
     -1091.821466     -1091.490664   0.53   0.89
C      -1.906338    -0.544143    -0.205133
C      -0.822110     0.273607     0.146735
C      -0.984447     1.656978     0.269747
C      -2.217840     2.230724    -0.007064
C      -3.281761     1.432690    -0.403385
C      -3.128288     0.054134    -0.494442
C      -1.734461    -2.018326    -0.303432
C      -1.222915    -2.749112     0.770256
C      -1.055078    -4.123507     0.671066
C      -1.399439    -4.786783    -0.501923
C      -1.917068    -4.067685    -1.572465
C      -2.084661    -2.691556    -1.472690
H      -2.335345     3.305150     0.084344
H      -4.241340     1.886789    -0.627744
H      -3.968677    -0.571121    -0.776991
H      -0.969156    -2.235469     1.691883
H      -0.658564    -4.679840     1.514790
H      -1.267696    -5.861321    -0.579062
H      -2.187877    -4.578219    -2.491261
H      -2.471437    -2.127640    -2.315805
C       0.495201    -0.301350     0.360371
N       1.449926    -0.437170    -0.395402
C       0.586092     3.527351    -0.018747
O       1.252482     4.400146     0.509391
C       0.297435     3.582461    -1.494923
C       0.529210     2.529119    -2.270801
H       0.406970     2.597593    -3.348069
H       0.873659     1.581092    -1.873059
C      -0.116926     4.933168    -2.006964
H       0.617500     5.685854    -1.708101
H      -0.207841     4.923928    -3.095136
H      -1.079534     5.238497    -1.580425
N       0.121512     2.447578     0.697110
C       0.470634     2.379127     2.115439
H       0.361013     1.347848     2.455844
H       1.502526     2.702925     2.245722
H      -0.176221     3.029044     2.715508
C       2.729109    -1.036798     0.045270
C       3.342298    -0.191392     1.168217
C       2.509203    -2.494207     0.466498
H       3.450847     0.846998     0.847409
H       2.683128    -0.226324     2.039139
H       4.323384    -0.584688     1.445827
H       1.848050    -2.517311     1.335662
H       2.042987    -3.061242    -0.341642
H       3.463304    -2.959092     0.727494
C       3.645671    -1.010835    -1.120004
N       4.395854    -1.013219    -1.989403
48
     -1091.822775     -1091.490660  -0.29   0.89
C      -1.655551    -0.496970    -1.008639
C      -0.573000     0.395098    -0.967433
C      -0.584669     1.569611    -1.730972
C      -1.627075     1.802040    -2.614825
C      -2.677540     0.896526    -2.702252
C      -2.696496    -0.234052    -1.894838
C      -1.668617    -1.705238    -0.141786
C      -1.373036    -1.607026     1.219119
C      -1.363510    -2.738461     2.022219
C      -1.664328    -3.982551     1.478632
C      -1.972612    -4.087850     0.127361
C      -1.972860    -2.955729    -0.678442
H      -1.614417     2.702680    -3.219704
H      -3.494282     1.083516    -3.391391
H      -3.537646    -0.917792    -1.937581
H      -1.149198    -0.639520     1.654416
H      -1.115984    -2.642749     3.074251
H      -1.658598    -4.867910     2.106614
H      -2.206439    -5.056080    -0.304041
H      -2.189335    -3.044882    -1.738506
C       0.570728     0.112606    -0.129332
N       1.645070    -0.446300    -0.316011
C       0.819070     3.138209    -0.481615
O       1.925000     3.603630    -0.276480
C      -0.311758     3.317630     0.501513
C      -0.208399     2.776148     1.708663
H      -0.994111     2.899280     2.448289
H       0.658328     2.195453     2.002315
C      -1.463263     4.181742     0.061727
H      -2.161580     4.331120     0.887877
H      -1.098090     5.161477    -0.264877
H      -2.008715     3.739582    -0.775947
N       0.516671     2.474702    -1.650388
C       1.565797     2.315478    -2.655560
H       2.212429     3.191308    -2.629138
H       2.168005     1.421306    -2.461539
H       1.101918     2.227118    -3.640839
C       2.661759    -0.604548     0.750832
C       3.243651    -2.017585     0.649535
C       3.734718     0.473147     0.553177
H       3.687259    -2.150020    -0.339796
H       4.012436    -2.168885     1.411773
H       2.457222    -2.763798     0.784588
H       4.509092     0.379709     1.319155
H       4.190451     0.341697    -0.431127
H       3.297562     1.472597     0.606812
C       2.044124    -0.441350     2.088842
N       1.595981    -0.333959     3.141254
48
     -1091.823127     -1091.490586  -0.51   0.94
C      -0.960904    -1.627094    -0.874105
C      -0.902424    -0.268009    -0.527928
C      -2.083014     0.461697    -0.326841
C      -3.311082    -0.145350    -0.551128
C      -3.373044    -1.481134    -0.919898
C      -2.204738    -2.219084    -1.066463
C       0.282454    -2.425933    -1.057702
C       0.462540    -3.608718    -0.342336
C       1.612488    -4.370203    -0.514660
C       2.594191    -3.957871    -1.407290
C       2.417902    -2.782530    -2.129589
C       1.269158    -2.022485    -1.958556
H      -4.217128     0.435391    -0.411660
H      -4.336586    -1.950979    -1.087068
H      -2.251479    -3.264200    -1.353533
H      -0.298105    -3.924329     0.365192
H       1.742084    -5.286247     0.053037
H       3.493121    -4.550939    -1.542305
H       3.177028    -2.458334    -2.834688
H       1.127920    -1.116285    -2.537143
C       0.384003     0.381417    -0.331506
N       0.962858     1.260887    -0.959858
C      -1.420047     2.290027     1.179572
O      -1.041944     3.444739     1.286004
C      -1.278090     1.339461     2.339407
C      -2.296925     0.572002     2.712937
H      -2.234040    -0.042376     3.606269
H      -3.232214     0.547795     2.165543
C       0.005789     1.452010     3.111383
H       0.854005     1.091170     2.522992
H       0.200134     2.498646     3.358472
H      -0.047337     0.865370     4.030636
N      -2.033437     1.840307     0.033398
C      -2.229788     2.801650    -1.051425
H      -2.492097     3.768954    -0.625429
H      -1.319269     2.911713    -1.649937
H      -3.040576     2.448110    -1.691822
C       2.271253     1.843223    -0.597485
C       3.221062     1.633834    -1.783923
C       2.065170     3.330334    -0.287130
H       3.356655     0.567422    -1.978504
H       2.793361     2.104693    -2.671890
H       4.196086     2.080672    -1.573268
H       1.370782     3.462035     0.544502
H       3.021723     3.798337    -0.039872
H       1.645694     3.820240    -1.169059
C       2.858058     1.176332     0.589028
N       3.366604     0.692898     1.498569
48
     -1091.823127     -1091.490580  -0.51   0.94
C      -0.938985    -1.115087    -1.589799
C      -0.574121     0.122969    -1.037991
C      -0.658151     1.292267    -1.807636
C      -1.180987     1.231719    -3.092150
C      -1.568350     0.014089    -3.632007
C      -1.434478    -1.152475    -2.888883
C      -0.823461    -2.371338    -0.798412
C      -1.453044    -2.500440     0.440481
C      -1.347908    -3.681105     1.162633
C      -0.617151    -4.750010     0.655027
C       0.005568    -4.631795    -0.581414
C      -0.098593    -3.449200    -1.304302
H      -1.259673     2.146465    -3.670665
H      -1.969944    -0.026752    -4.639067
H      -1.735690    -2.105744    -3.310085
H      -2.038780    -1.676123     0.832050
H      -1.843784    -3.769076     2.124355
H      -0.535998    -5.672500     1.221121
H       0.577813    -5.461202    -0.984937
H       0.399352    -3.352605    -2.264253
C      -0.063815     0.194944     0.322013
N      -0.522793     0.691865     1.344657
C       0.984271     2.812778    -0.786855
O       1.192263     3.710591     0.012083
C       2.133205     2.002470    -1.327514
C       2.239216     1.766258    -2.631167
H       3.114157     1.268048    -3.038256
H       1.480559     2.081480    -3.338322
C       3.195403     1.643422    -0.327625
H       3.493417     2.532733     0.233249
H       2.827173     0.908879     0.394000
H       4.067868     1.221570    -0.830456
N      -0.281560     2.553011    -1.258543
C      -1.371054     3.402480    -0.777969
H      -2.192326     3.360913    -1.496498
H      -1.730466     3.066423     0.200436
H      -1.010401     4.426238    -0.689768
C       0.153111     0.709605     2.658123
C       0.420303     2.169969     3.040536
C      -0.769092     0.014471     3.668049
H      -0.531725     2.704678     3.079184
H       0.897719     2.219551     4.022764
H       1.059618     2.655441     2.301131
H      -0.322870     0.033775     4.665658
H      -1.729182     0.534795     3.692806
H      -0.936535    -1.025069     3.376841
C       1.439294    -0.026157     2.622423
N       2.439801    -0.589440     2.658382
48
     -1091.822184     -1091.490568   0.08   0.95
C      -1.719828    -0.670362    -0.997981
C      -0.564631     0.115877    -1.149666
C      -0.509356     1.121290    -2.125971
C      -1.599149     1.337418    -2.952180
C      -2.752990     0.579837    -2.792950
C      -2.812855    -0.408611    -1.818079
C      -1.772851    -1.756741     0.017503
C      -2.836914    -1.825983     0.916064
C      -2.893369    -2.836969     1.868052
C      -1.885462    -3.791562     1.932179
C      -0.823994    -3.732654     1.035719
C      -0.769348    -2.724956     0.082702
H      -1.538956     2.106558    -3.714556
H      -3.608485     0.759230    -3.435556
H      -3.708320    -1.011359    -1.709675
H      -3.615164    -1.069971     0.880249
H      -3.724930    -2.875234     2.564620
H      -1.927482    -4.580317     2.676612
H      -0.033682    -4.475745     1.074273
H       0.056713    -2.692813    -0.620264
C       0.613312    -0.155819    -0.363702
N       1.073607     0.230369     0.702736
C       1.174585     2.737981    -1.347428
O       2.361312     3.000684    -1.255432
C       0.178163     3.438911    -0.460925
C      -0.914154     3.990562    -0.978501
H      -1.583016     4.586471    -0.364400
H      -1.164174     3.896875    -2.028526
C       0.597340     3.616973     0.971559
H       1.613326     4.018755     1.011369
H      -0.083164     4.297637     1.487771
H       0.599618     2.656476     1.494523
N       0.704490     1.857896    -2.297717
C       1.687346     1.248745    -3.195197
H       2.196153     0.403214    -2.718052
H       1.170112     0.898188    -4.091038
H       2.431278     1.996425    -3.466012
C       2.344382    -0.288087     1.261655
C       3.278788     0.900276     1.512624
C       2.006375    -1.042017     2.553087
H       2.817223     1.566938     2.244456
H       4.236850     0.551005     1.906499
H       3.447698     1.457664     0.588807
H       1.329129    -1.872926     2.343354
H       2.916547    -1.430354     3.017715
H       1.514352    -0.355014     3.245374
C       2.994530    -1.225608     0.314838
N       3.526103    -1.962748    -0.387975
48
     -1091.820246     -1091.490521   1.29   0.98
C      -1.941847    -0.035712     0.527221
C      -0.794508    -0.145934    -0.279085
C      -0.915674    -0.453082    -1.641640
C      -2.167593    -0.687163    -2.189852
C      -3.302121    -0.590869    -1.395924
C      -3.186617    -0.269273    -0.048956
C      -1.838083     0.354225     1.959465
C      -0.966977    -0.302095     2.830869
C      -0.872498     0.088028     4.159384
C      -1.657328     1.131199     4.638635
C      -2.536588     1.782232     3.781760
C      -2.624527     1.396982     2.449663
H      -2.245765    -0.935734    -3.242999
H      -4.280757    -0.772283    -1.828000
H      -4.073625    -0.201885     0.571938
H      -0.361398    -1.125149     2.470443
H      -0.175265    -0.422146     4.815682
H      -1.582864     1.436042     5.677717
H      -3.151091     2.598620     4.148185
H      -3.294742     1.921946     1.775931
C       0.512511     0.193422     0.243064
N       1.490747    -0.453872     0.597149
C       0.508924     0.238280    -3.524001
O       1.322341    -0.078663    -4.374482
C      -0.222041     1.551689    -3.630835
C      -0.272378     2.392191    -2.603525
H      -0.721904     3.375295    -2.707083
H       0.149351     2.143674    -1.635774
C      -0.742078     1.871021    -5.003757
H      -1.168694     2.875802    -5.033305
H       0.067332     1.795504    -5.734673
H      -1.514880     1.155018    -5.306483
N       0.264605    -0.562478    -2.435101
C       1.007097    -1.820741    -2.346413
H       2.061052    -1.632321    -2.549944
H       0.895941    -2.222816    -1.339867
H       0.637081    -2.548224    -3.077412
C       2.732900     0.176447     1.109233
C       3.920835    -0.472025     0.391687
C       2.742064     1.699259     0.955586
H       3.887622    -1.557476     0.503323
H       3.872723    -0.224450    -0.671899
H       4.862868    -0.099890     0.802446
H       2.689595     1.955122    -0.105667
H       1.885189     2.142310     1.467384
H       3.662077     2.111414     1.377376
C       2.787161    -0.165061     2.551194
N       2.834507    -0.418017     3.670559
48
     -1091.822301     -1091.490429   0.00   1.04
C      -0.285097    -0.515131    -2.064798
C      -0.435674     0.330950    -0.953478
C      -1.692841     0.838126    -0.606934
C      -2.811345     0.461874    -1.335661
C      -2.677532    -0.409137    -2.408431
C      -1.423997    -0.885022    -2.773814
C       1.055441    -1.033588    -2.446732
C       1.232275    -2.391226    -2.713673
C       2.483979    -2.886046    -3.058472
C       3.575697    -2.029268    -3.136506
C       3.407694    -0.674031    -2.874839
C       2.155352    -0.179277    -2.539795
H      -3.783721     0.853112    -1.056277
H      -3.554738    -0.706500    -2.973625
H      -1.320958    -1.539374    -3.632833
H       0.387285    -3.067328    -2.627998
H       2.607648    -3.945741    -3.258647
H       4.554909    -2.416702    -3.399642
H       4.252066     0.005359    -2.925333
H       2.034684     0.881135    -2.347595
C       0.704595     0.685172    -0.135553
N       1.208142     0.181334     0.862435
C      -2.595457     1.539743     1.571627
O      -2.944304     2.452352     2.299813
C      -3.004587     0.125066     1.885788
C      -2.101457    -0.848154     1.938029
H      -2.383609    -1.848684     2.253569
H      -1.057348    -0.682554     1.698094
C      -4.448445    -0.043202     2.266123
H      -4.702278     0.644324     3.077357
H      -5.107654     0.197909     1.424044
H      -4.649648    -1.069353     2.580790
N      -1.788338     1.756811     0.478952
C      -1.349818     3.126002     0.213136
H      -2.100760     3.677844    -0.363853
H      -1.195227     3.637706     1.161913
H      -0.413787     3.097472    -0.348560
C       2.397739     0.748471     1.538519
C       1.909941     1.699745     2.638385
C       3.221701    -0.409117     2.109041
H       2.759658     2.125251     3.178520
H       1.323060     2.512490     2.204921
H       1.279692     1.145297     3.337479
H       3.540901    -1.077617     1.306146
H       4.104730    -0.030322     2.630139
H       2.603583    -0.973749     2.810908
C       3.234366     1.501017     0.574275
N       3.914216     2.082016    -0.146957
48
     -1091.821366     -1091.490079   0.59   1.26
C      -0.110408    -1.763192    -0.400838
C      -0.447692    -0.400255    -0.470324
C      -1.783904     0.003863    -0.336272
C      -2.779467    -0.946607    -0.165628
C      -2.450890    -2.293657    -0.100772
C      -1.125974    -2.696299    -0.220661
C       1.308120    -2.200924    -0.497952
C       1.846035    -3.040144     0.477154
C       3.169779    -3.456353     0.400034
C       3.971051    -3.038591    -0.655434
C       3.439806    -2.206212    -1.635110
C       2.117387    -1.791278    -1.559302
H      -3.810510    -0.621657    -0.074870
H      -3.232231    -3.033948     0.036323
H      -0.871520    -3.750152    -0.180782
H       1.225907    -3.352541     1.311661
H       3.576247    -4.105307     1.169353
H       5.005253    -3.362001    -0.717074
H       4.057862    -1.882072    -2.466754
H       1.704940    -1.151402    -2.331612
C       0.577860     0.619435    -0.524426
N       0.986179     1.395039    -1.379481
C      -2.704377     2.082518     0.601123
O      -3.269384     3.143781     0.401583
C      -2.617132     1.524677     1.998050
C      -1.452416     1.136724     2.505428
H      -1.370813     0.818550     3.540504
H      -0.540205     1.143208     1.918994
C      -3.897192     1.586639     2.781993
H      -4.289143     2.607143     2.773033
H      -4.663650     0.945046     2.332008
H      -3.737049     1.265396     3.813323
N      -2.100065     1.391692    -0.420167
C      -2.169918     1.978867    -1.760147
H      -3.191079     1.934718    -2.153804
H      -1.858574     3.022535    -1.717264
H      -1.497704     1.429222    -2.417912
C       2.035370     2.397407    -1.071805
C       1.678849     3.190832     0.190045
C       3.388823     1.686702    -0.946662
H       2.422618     3.971626     0.367221
H       0.694192     3.652226     0.089190
H       1.664232     2.510997     1.045203
H       3.629428     1.155978    -1.869758
H       4.178863     2.412538    -0.737901
H       3.337417     0.961916    -0.130398
C       2.088721     3.331110    -2.220955
N       2.162299     4.080544    -3.087885
48
     -1091.822320     -1091.490027  -0.01   1.29
C      -1.789079    -0.068112     0.789344
C      -0.711861     0.558623     0.140173
C      -0.937506     1.630014    -0.735812
C      -2.238191     2.037761    -0.999699
C      -3.306641     1.398697    -0.388188
C      -3.081506     0.360042     0.508426
C      -1.555759    -1.180543     1.749973
C      -2.090844    -1.114510     3.035688
C      -1.882853    -2.147637     3.941798
C      -1.138172    -3.260549     3.571075
C      -0.607568    -3.337032     2.287639
C      -0.816852    -2.306240     1.381869
H      -2.403573     2.862834    -1.684131
H      -4.320936     1.718309    -0.603722
H      -3.917572    -0.137326     0.988506
H      -2.659191    -0.237907     3.330903
H      -2.300848    -2.079962     4.941247
H      -0.974027    -4.067730     4.277801
H      -0.031795    -4.207408     1.988174
H      -0.414759    -2.377672     0.377288
C       0.653621     0.159069     0.409961
N       1.512392    -0.408941    -0.255676
C       0.336215     2.449499    -2.669572
O       1.063380     3.308500    -3.136495
C      -0.366154     1.475678    -3.578805
C      -0.274724     0.167571    -3.364370
H      -0.700593    -0.541926    -4.068216
H       0.248198    -0.238506    -2.505556
C      -1.020349     2.091450    -4.782828
H      -0.297461     2.709194    -5.322406
H      -1.411657     1.320213    -5.449630
H      -1.846758     2.748929    -4.488694
N       0.173393     2.306285    -1.313167
C       0.945791     3.193663    -0.442026
H       1.974375     3.245325    -0.796341
H       0.523234     4.203909    -0.435149
H       0.938797     2.790185     0.571036
C       2.897372    -0.621992     0.231986
C       2.893674    -1.756187     1.263524
C       3.783036    -0.949852    -0.972676
H       2.233250    -1.509899     2.097738
H       2.531509    -2.670856     0.788143
H       3.904071    -1.926529     1.643938
H       3.413467    -1.861076    -1.448964
H       3.748968    -0.136069    -1.700534
H       4.817930    -1.103925    -0.656631
C       3.392582     0.620640     0.866961
N       3.801995     1.576904     1.354284
48
     -1091.822320     -1091.490021  -0.01   1.29
C      -1.873307    -0.701441    -0.432929
C      -0.691988    -0.002137    -0.733046
C      -0.701007     1.032903    -1.679011
C      -1.896206     1.399629    -2.282845
C      -3.071188     0.735360    -1.963258
C      -3.056385    -0.315079    -1.052381
C      -1.865304    -1.826567     0.541093
C      -2.383287    -3.068242     0.175448
C      -2.384594    -4.126663     1.076216
C      -1.869028    -3.954351     2.354907
C      -1.357478    -2.716362     2.729474
C      -1.357933    -1.658577     1.830683
H      -1.894879     2.206145    -3.008155
H      -4.002873     1.031212    -2.434248
H      -3.975282    -0.835987    -0.805129
H      -2.771488    -3.207832    -0.828751
H      -2.786091    -5.089312     0.775715
H      -1.868410    -4.780144     3.059185
H      -0.960723    -2.571934     3.729710
H      -0.972852    -0.690849     2.132624
C       0.568447    -0.375568    -0.125813
N       1.302589     0.166707     0.692891
C       0.715740     3.023715    -1.929711
O       1.597889     3.589925    -2.550893
C      -0.158803     3.798823    -0.979601
C      -0.324616     3.386078     0.272453
H      -0.877432     3.988766     0.987513
H       0.105607     2.458348     0.633159
C      -0.675541     5.103805    -1.515145
H       0.155992     5.705350    -1.891992
H      -1.359693     4.940955    -2.356073
H      -1.206351     5.659502    -0.739260
N       0.522738     1.667526    -2.031826
C       1.449286     0.914751    -2.879051
H       1.359389    -0.146886    -2.646711
H       1.231497     1.075596    -3.940134
H       2.469810     1.237066    -2.676950
C       2.617588    -0.394840     1.089286
C       3.427396     0.715214     1.763884
C       2.388697    -1.585508     2.027569
H       2.889400     1.060349     2.650000
H       4.411153     0.344251     2.062615
H       3.555482     1.558675     1.081723
H       3.344960    -2.021794     2.327329
H       1.857370    -1.242005     2.918331
H       1.785381    -2.349637     1.532745
C       3.342709    -0.850889    -0.118469
N       3.928526    -1.201516    -1.042279
48
     -1091.822320     -1091.490015  -0.01   1.30
C      -0.592109    -1.766093    -0.662809
C       0.002541    -0.500433    -0.801105
C      -0.086808     0.196727    -2.014434
C      -0.811192    -0.347641    -3.066373
C      -1.429567    -1.580853    -2.922362
C      -1.310845    -2.289094    -1.731702
C      -0.469575    -2.529963     0.608497
C      -0.840815    -1.961695     1.828307
C      -0.722252    -2.685943     3.006505
C      -0.237162    -3.989282     2.982050
C       0.125358    -4.565140     1.770639
C       0.008652    -3.839450     0.591063
H      -0.880802     0.202045    -3.998869
H      -1.999392    -1.997630    -3.746374
H      -1.792374    -3.254855    -1.620853
H      -1.234725    -0.951599     1.850516
H      -1.015453    -2.232376     3.948344
H      -0.145714    -4.554289     3.904194
H       0.504538    -5.581813     1.742405
H       0.307150    -4.284182    -0.353244
C       0.773948     0.081148     0.277634
N       0.592719     1.038299     1.022181
C      -0.037049     2.599877    -2.520362
O       0.578898     3.543487    -2.983913
C      -1.519062     2.709597    -2.275563
C      -2.030620     2.399867    -1.089024
H      -3.083328     2.565007    -0.877622
H      -1.419360     2.003862    -0.285638
C      -2.303903     3.321015    -3.401163
H      -1.861549     4.280109    -3.683618
H      -2.278186     2.682043    -4.291563
H      -3.346299     3.470413    -3.111943
N       0.597230     1.435918    -2.160173
C       2.052863     1.385917    -2.307228
H       2.488943     2.305492    -1.919384
H       2.438199     0.541149    -1.735376
H       2.338588     1.275329    -3.358573
C       1.605120     1.493335     2.006949
C       1.247323     2.918378     2.436276
C       1.615238     0.524515     3.195104
H       0.257092     2.913251     2.897990
H       1.977579     3.296269     3.156386
H       1.225239     3.581220     1.568326
H       2.360539     0.835161     3.931765
H       0.628232     0.522861     3.663696
H       1.844740    -0.488681     2.858203
C       2.941521     1.506018     1.369487
N       3.986242     1.534459     0.892733
48
     -1091.821655     -1091.489829   0.41   1.41
C      -1.371773    -0.995045    -1.422690
C      -0.477454     0.069039    -1.220487
C      -0.596010     1.244484    -1.972708
C      -1.585417     1.345349    -2.939476
C      -2.481456     0.303109    -3.132652
C      -2.381366    -0.853354    -2.368155
C      -1.242215    -2.251931    -0.635429
C      -2.294613    -2.692085     0.165180
C      -2.175643    -3.861986     0.906388
C      -1.003218    -4.605929     0.851718
C       0.047279    -4.178350     0.046861
C      -0.072601    -3.010346    -0.693899
H      -1.655069     2.254976    -3.526906
H      -3.261622     0.393439    -3.881080
H      -3.075187    -1.672801    -2.523701
H      -3.204264    -2.102120     0.219498
H      -3.000155    -4.190322     1.531306
H      -0.908989    -5.518907     1.430988
H       0.962769    -4.759370    -0.007531
H       0.742730    -2.684582    -1.331772
C       0.615234    -0.064931    -0.275526
N       0.739627     0.206039     0.910777
C       0.462148     3.023074    -0.616888
O       1.506248     3.586091    -0.333233
C      -0.740624     3.178033     0.275951
C      -1.953807     3.364816    -0.234714
H      -2.800339     3.577562     0.411753
H      -2.145297     3.346820    -1.299970
C      -0.441907     3.296997     1.744279
H      -0.049802     2.359256     2.144487
H       0.317932     4.065337     1.906800
H      -1.346951     3.559056     2.296176
N       0.343374     2.304500    -1.788172
C       1.500805     2.287451    -2.682500
H       2.244127     1.548799    -2.360108
H       1.161133     2.035649    -3.689421
H       1.966426     3.271763    -2.684310
C       1.995404    -0.038539     1.660440
C       2.304652    -1.539052     1.693788
C       3.140662     0.782614     1.057523
H       2.504816    -1.884070     0.676821
H       3.183963    -1.726677     2.315124
H       1.456519    -2.099761     2.091910
H       4.049502     0.645768     1.649183
H       3.325064     0.435754     0.037423
H       2.883330     1.843005     1.024318
C       1.762192     0.424718     3.050077
N       1.626865     0.771760     4.136328
48
     -1091.822116     -1091.489769   0.12   1.45
C      -1.033563    -1.375453    -0.934567
C      -0.781150    -0.023390    -0.646440
C      -0.989114     0.965823    -1.612825
C      -1.401506     0.605423    -2.886812
C      -1.613070    -0.732480    -3.193194
C      -1.438589    -1.711935    -2.222695
C      -0.826233    -2.419372     0.104605
C      -0.104751    -3.574491    -0.195954
C       0.115987    -4.542955     0.775981
C      -0.377424    -4.365051     2.062997
C      -1.101350    -3.218037     2.370253
C      -1.331482    -2.257355     1.396058
H      -1.553008     1.376591    -3.634474
H      -1.930773    -1.012106    -4.192313
H      -1.635321    -2.752119    -2.459648
H       0.306871    -3.703572    -1.192132
H       0.683485    -5.434560     0.528463
H      -0.199460    -5.118263     2.824071
H      -1.489577    -3.063885     3.371719
H      -1.908487    -1.373477     1.644989
C      -0.287653     0.361430     0.656938
N       0.834506     0.418689     1.147368
C       0.091961     3.154494    -1.910331
O       0.002882     4.367861    -1.844450
C       1.217308     2.520185    -2.684083
C       1.984252     1.589339    -2.126539
H       2.850890     1.198190    -2.651997
H       1.797556     1.206209    -1.129856
C       1.471779     3.124111    -4.036078
H       0.620563     2.959241    -4.706908
H       1.599686     4.205819    -3.942203
H       2.362887     2.689463    -4.493781
N      -0.789201     2.329725    -1.250968
C      -1.838913     2.953348    -0.446620
H      -2.696728     3.238904    -1.066136
H      -2.165512     2.247369     0.319483
H      -1.437390     3.848454     0.026287
C       1.075513     0.765871     2.565757
C       2.147882    -0.185250     3.106267
C       1.517786     2.232271     2.628092
H       3.055980    -0.074398     2.509276
H       2.372613     0.044074     4.151165
H       1.803048    -1.219566     3.034155
H       1.737309     2.521828     3.658990
H       2.415295     2.359384     2.018629
H       0.733012     2.883430     2.236708
C      -0.158275     0.588220     3.368096
N      -1.088786     0.442363     4.026076
48
     -1091.820998     -1091.489476   0.82   1.63
C      -1.101581    -0.909518    -1.357347
C      -0.567648     0.227178    -0.727174
C      -0.340190     1.401680    -1.456813
C      -0.596799     1.424644    -2.821104
C      -1.087413     0.293042    -3.455352
C      -1.347168    -0.861117    -2.725527
C      -1.394836    -2.147488    -0.584805
C      -2.648946    -2.748490    -0.690333
C      -2.941239    -3.903459     0.024924
C      -1.982858    -4.468786     0.857496
C      -0.728120    -3.878972     0.964932
C      -0.433852    -2.730576     0.243220
H      -0.410416     2.336204    -3.378745
H      -1.278485     0.313407    -4.523301
H      -1.733176    -1.744759    -3.222415
H      -3.405664    -2.295664    -1.323634
H      -3.923203    -4.357660    -0.063265
H      -2.212724    -5.367204     1.421582
H       0.027586    -4.305233     1.616319
H       0.553717    -2.291312     0.319277
C      -0.292426     0.221640     0.698504
N       0.758391     0.255780     1.328604
C       1.264868     3.238167    -1.130701
O       1.451193     4.395933    -0.798000
C       2.322374     2.489780    -1.897576
C       2.736848     1.295291    -1.489063
H       3.561308     0.794033    -1.988229
H       2.294800     0.792957    -0.635868
C       2.940930     3.255759    -3.032552
H       3.305034     4.222393    -2.674321
H       3.767610     2.695205    -3.474049
H       2.202989     3.462198    -3.816512
N       0.116676     2.569391    -0.780503
C      -0.862725     3.292519     0.028332
H      -1.433731     4.002828    -0.580075
H      -1.548340     2.572346     0.478327
H      -0.345134     3.846533     0.811346
C       0.833676     0.279200     2.808393
C       1.968892     1.227370     3.204351
C      -0.491018     0.674034     3.465607
H       2.901521     0.927545     2.722728
H       1.716704     2.239696     2.878479
H       2.109273     1.223726     4.288289
H      -0.392117     0.644068     4.553517
H      -0.757737     1.688815     3.159864
H      -1.288166    -0.006869     3.159999
C       1.184153    -1.103388     3.214961
N       1.446788    -2.174591     3.535507
48
     -1091.820998     -1091.489476   0.82   1.63
C      -0.158900    -0.471880    -2.095982
C      -0.404812     0.297585    -0.946317
C      -1.716847     0.625657    -0.579586
C      -2.781583     0.143965    -1.329255
C      -2.545627    -0.648349    -2.442825
C      -1.243187    -0.944312    -2.827886
C       1.231281    -0.785882    -2.525156
C       2.158636    -1.333230    -1.636598
C       3.454072    -1.609637    -2.050979
C       3.836244    -1.356192    -3.363801
C       2.915983    -0.824525    -4.259181
C       1.621757    -0.539489    -3.841188
H      -3.793920     0.397119    -1.033061
H      -3.381379    -1.029291    -3.020615
H      -1.059964    -1.562123    -3.700503
H       1.866454    -1.553712    -0.616769
H       4.163749    -2.017986    -1.339146
H       4.849255    -1.572884    -3.687899
H       3.207312    -0.623077    -5.285279
H       0.910109    -0.103970    -4.535899
C       0.695986     0.809471    -0.149753
N       1.081431     0.538914     0.981910
C      -2.720588     1.126246     1.610652
O      -3.183928     1.965740     2.363247
C      -2.953892    -0.337961     1.871719
C      -1.935997    -1.191637     1.896293
H      -2.090606    -2.230839     2.172546
H      -0.920551    -0.883798     1.673158
C      -4.367147    -0.698073     2.232985
H      -4.440300    -1.751730     2.510465
H      -4.708374    -0.076533     3.065172
H      -5.047658    -0.511461     1.394026
N      -1.939046     1.481258     0.537633
C      -1.663704     2.904110     0.347799
H      -0.811878     3.011049    -0.326113
H      -2.529231     3.422789    -0.079487
H      -1.430057     3.357816     1.310875
C       2.223993     1.208258     1.647218
C       2.609405     2.530866     0.980296
C       1.859563     1.400832     3.121878
H       3.474529     2.966496     1.486278
H       2.853012     2.372364    -0.072322
H       1.769737     3.227236     1.046795
H       1.004406     2.077938     3.191386
H       1.586715     0.445904     3.575002
H       2.702047     1.829087     3.670929
C       3.361129     0.261966     1.541839
N       4.247291    -0.463565     1.455097
48
     -1091.820998     -1091.489463   0.82   1.64
C       0.455414     1.888543     0.900601
C       0.020302     1.039924    -0.131304
C       0.200285     1.404006    -1.472454
C       0.858190     2.586813    -1.781918
C       1.324077     3.409253    -0.767004
C       1.114115     3.066304     0.563591
C       0.226392     1.538234     2.328959
C      -0.359373     2.470574     3.184983
C      -0.582591     2.160411     4.520997
C      -0.225593     0.911703     5.015526
C       0.363496    -0.022242     4.170253
C       0.594508     0.291519     2.838158
H       0.999336     2.856337    -2.823108
H       1.845023     4.328514    -1.014004
H       1.476907     3.711656     1.356450
H      -0.658537     3.438550     2.794772
H      -1.043785     2.894219     5.174570
H      -0.405754     0.666402     6.057426
H       0.640999    -1.003496     4.540693
H       1.072597    -0.436761     2.193899
C      -0.669087    -0.201190     0.173029
N      -0.341766    -1.374069     0.032999
C       0.441656     0.046969    -3.510976
O      -0.058344    -0.349046    -4.549736
C       1.925101    -0.078800    -3.287137
C       2.397340    -0.635057    -2.176716
H       3.462695    -0.807960    -2.053095
H       1.745813    -0.960456    -1.373399
C       2.777256     0.331601    -4.454576
H       2.454859    -0.198109    -5.354993
H       2.674166     1.403565    -4.659603
H       3.830149     0.115652    -4.261387
N      -0.328300     0.572397    -2.501385
C      -1.774179     0.615585    -2.710795
H      -2.101696    -0.322511    -3.158691
H      -2.265751     0.754787    -1.746320
H      -2.054367     1.436539    -3.380346
C      -1.214299    -2.521709     0.375908
C      -2.686257    -2.127903     0.520464
C      -1.016718    -3.596674    -0.696440
H      -2.802407    -1.352193     1.280236
H      -3.052959    -1.743571    -0.434635
H      -3.280250    -2.999818     0.805355
H      -1.589038    -4.494078    -0.447932
H      -1.359935    -3.206932    -1.658155
H       0.039288    -3.859433    -0.782829
C      -0.717510    -3.029554     1.677812
N      -0.342209    -3.421204     2.690215
48
     -1091.818601     -1091.489388   2.33   1.69
C      -0.912627    -0.964834    -1.361032
C      -0.481911     0.254249    -0.814492
C      -0.613503     1.445255    -1.539482
C      -1.196348     1.424104    -2.798094
C      -1.637212     0.222755    -3.338660
C      -1.502466    -0.959828    -2.621607
C      -0.746390    -2.235500    -0.604491
C      -1.849799    -3.044324    -0.337850
C      -1.701013    -4.231162     0.369940
C      -0.445129    -4.625266     0.815542
C       0.662184    -3.828068     0.546412
C       0.512386    -2.641408    -0.158696
H      -1.299339     2.351623    -3.349932
H      -2.091107     0.210246    -4.324021
H      -1.836194    -1.898857    -3.050731
H      -2.833395    -2.729617    -0.672564
H      -2.570061    -4.847798     0.576388
H      -0.328253    -5.551947     1.368216
H       1.648098    -4.133204     0.883502
H       1.380101    -2.027616    -0.377732
C       0.153000     0.291515     0.487302
N      -0.288649     0.371057     1.627257
C       0.747756     3.487651    -1.510701
O       0.853652     4.653733    -1.179701
C       1.671523     2.868717    -2.530319
C       1.755950     3.444607    -3.723345
H       2.420382     3.062093    -4.492310
H       1.165294     4.323464    -3.962022
C       2.506562     1.689988    -2.103896
H       3.029956     1.914289    -1.168261
H       1.903268     0.795573    -1.931680
H       3.250918     1.459901    -2.869082
N      -0.191143     2.664480    -0.933916
C      -1.073552     3.256091     0.074815
H      -1.754724     3.981380    -0.382267
H      -1.649147     2.462402     0.549512
H      -0.475293     3.769259     0.827595
C       0.572697     0.319180     2.831177
C       0.339860    -1.040079     3.503138
C       2.054154     0.551957     2.519902
H       0.896031    -1.099539     4.442308
H      -0.722616    -1.187096     3.705497
H       0.679711    -1.831246     2.830832
H       2.635161     0.544974     3.445483
H       2.414210    -0.245158     1.865312
H       2.197931     1.511174     2.017564
C       0.098560     1.396293     3.732187
N      -0.239616     2.227460     4.449030
48
     -1091.818601     -1091.489384   2.33   1.69
C      -0.382829    -1.696157    -0.140307
C      -0.562671    -0.323754    -0.373874
C      -1.846471     0.204457    -0.558956
C      -2.947674    -0.638794    -0.535524
C      -2.774952    -2.000016    -0.318619
C      -1.501748    -2.523738    -0.130198
C       0.977866    -2.254522     0.086248
C       1.790320    -1.762240     1.108788
C       3.058961    -2.286924     1.316255
C       3.532688    -3.311332     0.503685
C       2.727628    -3.811110    -0.512791
C       1.456913    -3.286971    -0.718343
H      -3.937319    -0.222160    -0.685341
H      -3.638960    -2.655941    -0.299480
H      -1.370094    -3.585343     0.051359
H       1.418787    -0.971321     1.752262
H       3.678335    -1.896864     2.118123
H       4.525011    -3.720223     0.664771
H       3.090449    -4.610294    -1.151360
H       0.834398    -3.667598    -1.522166
C       0.573274     0.575582    -0.375354
N       1.363842     0.917220    -1.246649
C      -2.745511     2.428297    -0.037852
O      -3.125653     3.510075    -0.445005
C      -3.046641     1.961689     1.364873
C      -4.316964     1.923342     1.748134
H      -4.597793     1.619970     2.752224
H      -5.114299     2.203084     1.066787
C      -1.884351     1.653268     2.271787
H      -2.234806     1.506122     3.295527
H      -1.343588     0.756072     1.961592
H      -1.168619     2.482343     2.266778
N      -1.980495     1.598514    -0.823993
C      -1.665119     2.059637    -2.178279
H      -0.934556     1.383281    -2.620328
H      -2.566253     2.084720    -2.799800
H      -1.246901     3.065142    -2.133623
C       2.512344     1.815600    -0.986075
C       2.392940     2.573566     0.339449
C       3.784654     0.960155    -1.039033
H       3.242752     3.250038     0.459948
H       1.468860     3.155126     0.370776
H       2.385773     1.857434     1.164448
H       3.842158     0.422646    -1.987292
H       4.670867     1.590590    -0.929119
H       3.756303     0.231128    -0.225919
C       2.537480     2.796407    -2.097006
N       2.579140     3.575970    -2.939392
48
     -1091.818601     -1091.489371   2.33   1.70
C       0.755238     1.056845     1.445815
C      -0.249654     0.502782     0.637367
C      -1.600170     0.657087     0.974586
C      -1.947239     1.342124     2.129805
C      -0.956755     1.880801     2.941333
C       0.383118     1.732022     2.604541
C       2.189439     0.919599     1.073237
C       3.095814     0.348591     1.964998
C       4.436097     0.216015     1.621848
C       4.886469     0.657622     0.383594
C       3.990128     1.236093    -0.508619
C       2.650905     1.366044    -0.166016
H      -2.994936     1.451941     2.386124
H      -1.232440     2.417230     3.843195
H       1.154709     2.164153     3.233197
H       2.741853    -0.010293     2.926480
H       5.129512    -0.236848     2.323415
H       5.932935     0.554466     0.115054
H       4.335653     1.591573    -1.474543
H       1.956284     1.828942    -0.859467
C       0.093145    -0.192920    -0.586421
N       0.399265    -1.354687    -0.826147
C      -3.595567     0.774602    -0.450105
O      -4.601827     0.230794    -0.865119
C      -3.376877     2.258874    -0.608703
C      -4.302677     3.078789    -0.126294
H      -4.215961     4.156224    -0.229777
H      -5.180876     2.692306     0.381275
C      -2.167717     2.716427    -1.381431
H      -2.228264     3.789668    -1.573783
H      -1.235229     2.515001    -0.848987
H      -2.112216     2.195048    -2.343069
N      -2.586197     0.051874     0.142071
C      -2.784492    -1.393500     0.275284
H      -1.853426    -1.848088     0.611524
H      -3.580917    -1.611718     0.994355
H      -3.064686    -1.814180    -0.690347
C       0.784318    -1.824800    -2.176991
C       0.389589    -0.847189    -3.287961
C       2.296246    -2.083804    -2.158512
H      -0.685195    -0.653305    -3.268933
H       0.919757     0.096834    -3.142137
H       0.658607    -1.262036    -4.262562
H       2.620519    -2.507528    -3.112559
H       2.816252    -1.138453    -1.987231
H       2.553862    -2.774226    -1.353297
C       0.072506    -3.106749    -2.393136
N      -0.471337    -4.098073    -2.594581
48
     -1091.821767     -1091.489352   0.34   1.71
C      -0.731164    -1.281207    -1.558065
C      -0.387506    -0.824622    -0.272076
C      -1.054387    -1.326986     0.857415
C      -2.022828    -2.307326     0.708910
C      -2.362405    -2.763627    -0.556421
C      -1.730856    -2.241213    -1.678173
C      -0.068510    -0.741959    -2.776780
C      -0.846915    -0.325932    -3.858239
C      -0.249707     0.175281    -5.007562
C       1.134823     0.271602    -5.088065
C       1.917416    -0.140339    -4.016441
C       1.319720    -0.649817    -2.871990
H      -2.513356    -2.699939     1.593236
H      -3.126458    -3.525580    -0.669529
H      -1.992678    -2.604267    -2.666092
H      -1.929033    -0.377495    -3.788932
H      -0.868267     0.498829    -5.838921
H       1.602482     0.670633    -5.982601
H       2.997728    -0.056688    -4.058780
H       1.942142    -0.979256    -2.048141
C       0.715255     0.090116    -0.073374
N       0.827533     1.261462     0.263854
C      -0.914138     0.411693     2.600346
O      -0.252768     0.907228     3.497926
C      -2.067875     1.178569     2.007755
C      -3.256967     0.603146     1.863540
H      -4.118318     1.178972     1.537573
H      -3.424650    -0.442404     2.091392
C      -1.830815     2.645291     1.780083
H      -2.769358     3.151048     1.543014
H      -1.394217     3.092744     2.677107
H      -1.128867     2.799463     0.956443
N      -0.684823    -0.873864     2.161729
C       0.347064    -1.659039     2.835254
H       1.327329    -1.519157     2.365776
H       0.406815    -1.344261     3.875743
H       0.078308    -2.716909     2.782095
C       2.138855     1.904951     0.545457
C       1.901126     3.399387     0.773300
C       2.777410     1.251444     1.775565
H       1.268948     3.525500     1.654964
H       2.851668     3.913216     0.937236
H       1.401240     3.844517    -0.090011
H       2.087914     1.327127     2.619741
H       2.987820     0.197616     1.577989
H       3.716730     1.754480     2.019033
C       3.023177     1.721711    -0.626351
N       3.731105     1.586578    -1.520521
48
     -1091.822516     -1091.489270  -0.13   1.76
C      -1.025289    -1.110405    -1.323286
C      -0.564908     0.181072    -1.015928
C      -0.633415     1.210634    -1.964306
C      -1.243207     0.973499    -3.187354
C      -1.737588    -0.289834    -3.484171
C      -1.618435    -1.324627    -2.563429
C      -0.918856    -2.203814    -0.319790
C      -2.021844    -3.010619    -0.041894
C      -1.938756    -4.016149     0.913721
C      -0.752618    -4.222545     1.608096
C       0.353109    -3.424970     1.334532
C       0.273305    -2.429929     0.370970
H      -1.306608     1.780598    -3.909557
H      -2.207326    -0.472444    -4.444966
H      -1.978455    -2.317271    -2.812397
H      -2.958522    -2.833433    -0.561182
H      -2.806806    -4.633412     1.122736
H      -0.689698    -5.003266     2.359574
H       1.284513    -3.571800     1.871465
H       1.146965    -1.824483     0.157344
C      -0.016551     0.451176     0.292058
N      -0.478008     0.874268     1.344462
C       1.138815     2.749457    -1.226977
O       1.411009     3.723605    -0.547845
C       2.208468     1.790786    -1.688416
C       3.200466     1.546590    -0.839029
H       4.019160     0.883234    -1.101807
H       3.220099     1.999915     0.145568
C       2.166578     1.214601    -3.083799
H       3.179199     0.951387    -3.397706
H       1.549412     0.314610    -3.144011
H       1.764620     1.937365    -3.800031
N      -0.158096     2.515472    -1.638283
C      -1.177028     3.475981    -1.213352
H      -1.471884     3.302511    -0.172574
H      -0.776446     4.484796    -1.301474
H      -2.051802     3.367632    -1.857812
C       0.328561     1.001486     2.580256
C       0.582659     2.490947     2.834955
C      -0.458884     0.343330     3.718253
H       1.164806     2.624351     3.750662
H       1.121695     2.940085     1.997848
H      -0.378320     2.999012     2.945327
H       0.088068     0.428462     4.660868
H      -1.426423     0.840559     3.816554
H      -0.626111    -0.713885     3.497736
C       1.625346     0.294055     2.445626
N       2.627916    -0.265351     2.399943
48
     -1091.820264     -1091.489230   1.28   1.79
C      -1.748005    -0.494017    -0.916896
C      -0.587155     0.289248    -0.808660
C      -0.568571     1.603162    -1.302524
C      -1.723349     2.147421    -1.848982
C      -2.882786     1.388335    -1.922483
C      -2.890185     0.073621    -1.471272
C      -1.766603    -1.901949    -0.434401
C      -2.166062    -2.926076    -1.291800
C      -2.192642    -4.244735    -0.853527
C      -1.821440    -4.553741     0.449244
C      -1.428836    -3.536427     1.312585
C      -1.404139    -2.219057     0.875702
H      -1.703680     3.166198    -2.218629
H      -3.783363     1.821326    -2.345281
H      -3.795889    -0.520187    -1.534444
H      -2.441032    -2.686739    -2.314403
H      -2.500587    -5.032473    -1.533825
H      -1.840718    -5.583077     0.792807
H      -1.145238    -3.769517     2.334338
H      -1.111466    -1.427773     1.557016
C       0.626529    -0.256890    -0.240653
N       1.245382    -0.061827     0.798570
C       0.722169     3.592134    -0.671375
O       1.629697     4.355758    -0.943390
C      -0.325887     3.944777     0.355083
C      -0.903658     5.136193     0.253548
H      -1.648212     5.469415     0.970437
H      -0.638941     5.815697    -0.550260
C      -0.598068     2.973560     1.475824
H      -1.124150     3.481870     2.286829
H      -1.209233     2.127477     1.151966
H       0.336465     2.561690     1.867662
N       0.641859     2.346968    -1.251918
C       1.703463     1.970115    -2.186917
H       2.674206     2.201323    -1.750377
H       1.645364     0.898237    -2.377989
H       1.603313     2.514735    -3.131457
C       2.542855    -0.717489     1.098344
C       3.229471     0.069824     2.217209
C       2.283015    -2.173310     1.502379
H       2.590447     0.060448     3.103406
H       4.194242    -0.379924     2.465378
H       3.388004     1.106040     1.909831
H       1.651179    -2.189512     2.393595
H       1.769426    -2.705931     0.699107
H       3.226035    -2.679930     1.722972
C       3.402192    -0.685267    -0.106858
N       4.090857    -0.661694    -1.025964
48
     -1091.823102     -1091.489106  -0.50   1.87
C      -1.672815    -0.992934    -0.316514
C      -0.697478    -0.104656    -0.791424
C      -0.833390     0.496992    -2.051005
C      -1.892412     0.139652    -2.872099
C      -2.841440    -0.768087    -2.422796
C      -2.740202    -1.315743    -1.150026
C      -1.569807    -1.595061     1.041310
C      -2.661837    -1.542797     1.907297
C      -2.582693    -2.098717     3.178496
C      -1.408159    -2.710520     3.599821
C      -0.316030    -2.771544     2.741145
C      -0.398891    -2.224549     1.468076
H      -1.977255     0.594614    -3.853443
H      -3.671651    -1.042238    -3.065360
H      -3.485791    -2.022138    -0.800885
H      -3.573207    -1.046588     1.587908
H      -3.439122    -2.046492     3.843445
H      -1.343782    -3.139276     4.594945
H       0.609502    -3.240928     3.057609
H       0.451606    -2.299145     0.801207
C       0.469228     0.225269     0.019810
N       1.653636    -0.016061    -0.182501
C       0.429667     2.565078    -1.775434
O       1.528627     3.092755    -1.797721
C      -0.700834     3.188477    -0.997541
C      -1.885514     3.359896    -1.574253
H      -2.683284     3.895149    -1.067666
H      -2.092788     2.999463    -2.575576
C      -0.358651     3.721704     0.364545
H       0.560832     4.310928     0.317515
H      -1.168767     4.345658     0.747489
H      -0.195043     2.900688     1.069868
N       0.147600     1.431642    -2.504087
C       1.190895     0.907512    -3.385136
H       1.718263     1.744055    -3.842019
H       1.907507     0.292433    -2.832039
H       0.719529     0.301759    -4.162219
C       2.777636     0.414456     0.680490
C       3.979088     0.695388    -0.226411
C       2.441167     1.634190     1.539988
H       4.215964    -0.180929    -0.833285
H       3.725578     1.529560    -0.885929
H       4.853538     0.960159     0.373447
H       2.253291     2.486374     0.884342
H       1.556247     1.441051     2.150364
H       3.282967     1.865474     2.197383
C       3.070764    -0.742817     1.560365
N       3.288195    -1.635561     2.249585
48
     -1091.820264     -1091.488785   1.28   2.07
C      -1.075900    -0.758353    -1.524772
C      -0.590137    -0.353911    -0.270534
C      -1.447508    -0.301564     0.839819
C      -2.794951    -0.597350     0.680884
C      -3.285166    -0.960643    -0.565555
C      -2.428779    -1.052429    -1.656517
C      -0.167300    -0.857153    -2.699549
C       0.611005     0.229626    -3.101379
C       1.451906     0.123754    -4.200759
C       1.522383    -1.066389    -4.917011
C       0.743632    -2.149554    -4.528692
C      -0.096874    -2.044450    -3.426802
H      -3.452445    -0.544803     1.541013
H      -4.340094    -1.184969    -0.684194
H      -2.812607    -1.341700    -2.629089
H       0.548565     1.164348    -2.555146
H       2.051442     0.976845    -4.503297
H       2.179964    -1.147091    -5.776669
H       0.792301    -3.081999    -5.082178
H      -0.693502    -2.895855    -3.114147
C       0.809859    -0.038317    -0.083445
N       1.428613     0.997834     0.127860
C      -1.424842     1.051089     2.887301
O      -1.213171     1.098590     4.084655
C      -2.206319     2.130831     2.180324
C      -3.373317     2.485237     2.705662
H      -3.978677     3.272208     2.265771
H      -3.751464     1.999231     3.599412
C      -1.588724     2.800624     0.979325
H      -0.536202     3.033895     1.165406
H      -1.623287     2.168900     0.088357
H      -2.119315     3.729417     0.758731
N      -0.913848     0.033914     2.114081
C      -0.087063    -0.971349     2.784271
H      -0.701974    -1.632776     3.403299
H       0.435959    -1.561505     2.031316
H       0.645672    -0.476975     3.420707
C       2.892868     1.026701     0.369232
C       3.621258     0.838446    -0.966504
C       3.243382     2.364728     1.024956
H       3.346247     1.652541    -1.641315
H       4.703423     0.850466    -0.813547
H       3.334853    -0.109758    -1.426481
H       4.316447     2.423976     1.224130
H       2.957795     3.176870     0.352159
H       2.699619     2.480379     1.965331
C       3.262516    -0.070273     1.292289
N       3.571158    -0.907066     2.016230
48
     -1091.820095     -1091.488445   1.39   2.28
C      -2.047432     0.165971     0.163609
C      -0.860107     0.501279    -0.571753
C      -0.985416     1.168040    -1.836678
C      -2.233234     1.485060    -2.319167
C      -3.381928     1.188706    -1.584547
C      -3.272587     0.535720    -0.355846
C      -1.950347    -0.582924     1.439072
C      -1.248266    -1.789585     1.498765
C      -1.161185    -2.494261     2.691002
C      -1.776109    -2.006827     3.839409
C      -2.482874    -0.811112     3.786069
C      -2.570505    -0.103961     2.593417
H      -2.308797     1.981424    -3.281867
H      -4.357681     1.455086    -1.974317
H      -4.169163     0.280002     0.199800
H      -0.787368    -2.188695     0.600737
H      -0.617497    -3.433552     2.720458
H      -1.708143    -2.559104     4.771345
H      -2.965318    -0.424399     4.678254
H      -3.108938     0.838170     2.557843
C       0.381435     0.185823    -0.103819
N       1.477702     0.111706     0.395611
C       1.245966     2.159383    -2.176411
O       2.364071     2.006462    -2.641180
C       1.001407     3.227820    -1.145795
C      -0.086969     3.989862    -1.189668
H      -0.212874     4.818636    -0.499002
H      -0.870369     3.839547    -1.922573
C       2.140151     3.467162    -0.194253
H       3.060223     3.645265    -0.756702
H       1.930767     4.328920     0.443020
H       2.309944     2.592400     0.439731
N       0.182846     1.401864    -2.615817
C       0.450735     0.414413    -3.663478
H      -0.484106     0.193181    -4.182564
H       1.174464     0.825169    -4.365662
H       0.852305    -0.514713    -3.242380
C       2.435728    -1.015664     0.246815
C       3.672921    -0.480044    -0.481615
C       2.765371    -1.533010     1.650533
H       4.096330     0.340409     0.101792
H       4.420570    -1.270731    -0.582389
H       3.410266    -0.099783    -1.470276
H       3.482480    -2.355461     1.591227
H       3.200164    -0.719058     2.234673
H       1.860325    -1.881671     2.151877
C       1.821440    -2.102737    -0.548843
N       1.336649    -2.944891    -1.160867
48
     -1091.820095     -1091.488444   1.39   2.28
C      -1.018605    -0.826598    -1.560590
C      -0.462852     0.346780    -0.946389
C      -0.634305     1.619799    -1.586936
C      -1.314907     1.696547    -2.779101
C      -1.822445     0.548979    -3.389402
C      -1.666374    -0.693564    -2.773130
C      -0.915586    -2.143007    -0.887166
C      -1.351108    -2.298619     0.431406
C      -1.260096    -3.531789     1.061147
C      -0.736588    -4.627666     0.383234
C      -0.308471    -4.482561    -0.931203
C      -0.398228    -3.248486    -1.563003
H      -1.442352     2.669204    -3.244476
H      -2.347283     0.625469    -4.334743
H      -2.087687    -1.580636    -3.235278
H      -1.784086    -1.454028     0.958061
H      -1.608356    -3.638824     2.083884
H      -0.666526    -5.592065     0.876348
H       0.101284    -5.333264    -1.466646
H      -0.047841    -3.133329    -2.584157
C       0.208710     0.281227     0.238775
N       0.984374     0.206541     1.160472
C       1.135041     3.005239    -0.573436
O       1.431932     3.771227     0.329162
C       2.217228     2.315349    -1.358591
C       2.135188     2.189565    -2.679440
H       2.960539     1.773731    -3.250068
H       1.268141     2.517466    -3.239951
C       3.440796     1.945821    -0.567535
H       3.205437     1.187793     0.184776
H       4.219454     1.557505    -1.227448
H       3.817369     2.824535    -0.037764
N      -0.179995     2.795509    -0.925253
C      -1.200175     3.532651    -0.176770
H      -2.103566     3.596242    -0.786823
H      -1.442903     3.030464     0.767026
H      -0.830762     4.533483     0.041034
C       0.650614     0.350346     2.602301
C       1.102291    -0.929244     3.313191
C       1.377315     1.594119     3.124898
H       2.177272    -1.054851     3.166830
H       0.890969    -0.861564     4.383215
H       0.586831    -1.798512     2.900036
H       1.186500     1.718734     4.193720
H       2.450261     1.467038     2.965472
H       1.053554     2.489154     2.590922
C      -0.810502     0.519954     2.771146
N      -1.945345     0.644334     2.895558
48
     -1091.820250     -1091.488364   1.29   2.33
C      -0.380937    -0.553803    -2.118316
C      -0.507070    -0.626945    -0.719125
C      -1.569734    -1.341723    -0.144757
C      -2.478327    -2.000549    -0.960474
C      -2.354693    -1.933890    -2.340462
C      -1.317010    -1.206563    -2.912455
C       0.740024     0.198497    -2.744556
C       1.557094    -0.422759    -3.688019
C       2.602601     0.272052    -4.284566
C       2.840415     1.598412    -3.945832
C       2.025832     2.226523    -3.009544
C       0.982137     1.532715    -2.412683
H      -3.289140    -2.553834    -0.498800
H      -3.073793    -2.443333    -2.973269
H      -1.228511    -1.139812    -3.991671
H       1.381137    -1.463563    -3.941733
H       3.234155    -0.226041    -5.013381
H       3.656379     2.142485    -4.410784
H       2.201508     3.264657    -2.744655
H       0.344856     2.028979    -1.688925
C       0.533819    -0.094379     0.140004
N       0.631331     0.900258     0.843670
C      -1.882752    -0.395231     2.121873
O      -1.533313    -0.456939     3.287790
C      -2.617959     0.809427     1.589196
C      -2.297500     1.985290     2.118954
H      -2.800174     2.897766     1.811611
H      -1.518530     2.067924     2.868034
C      -3.724531     0.654812     0.573836
H      -3.348217     0.613342    -0.451181
H      -4.303479    -0.256674     0.749291
H      -4.403899     1.506983     0.649144
N      -1.670582    -1.464918     1.273455
C      -1.049978    -2.659441     1.845319
H       0.038665    -2.549848     1.913120
H      -1.445721    -2.824108     2.846196
H      -1.283028    -3.515125     1.207855
C       1.817195     1.173229     1.686539
C       1.978961     0.072314     2.741029
C       3.061317     1.329075     0.804762
H       2.197383    -0.872145     2.235421
H       2.807698     0.315254     3.410941
H       1.061817    -0.039595     3.323089
H       2.919290     2.128138     0.074773
H       3.933177     1.560096     1.422011
H       3.237565     0.393722     0.267607
C       1.559007     2.459207     2.378119
N       1.399428     3.452990     2.930839
48
     -1091.820250     -1091.488362   1.29   2.33
C      -0.676661    -1.522458    -1.105542
C      -0.870194    -0.191550    -0.692977
C      -2.169658     0.321934    -0.559523
C      -3.261791    -0.477683    -0.864179
C      -3.074532    -1.789239    -1.275120
C      -1.789298    -2.307940    -1.384951
C       0.693850    -2.083219    -1.253640
C       1.073681    -2.692836    -2.448538
C       2.348650    -3.226196    -2.595830
C       3.257532    -3.158356    -1.547089
C       2.883759    -2.556696    -0.350010
C       1.610843    -2.022925    -0.202743
H      -4.258375    -0.061690    -0.761926
H      -3.932828    -2.412577    -1.502843
H      -1.641760    -3.338466    -1.690304
H       0.369013    -2.732519    -3.273445
H       2.632495    -3.692930    -3.533765
H       4.253540    -3.574432    -1.660405
H       3.586365    -2.505766     0.476127
H       1.321373    -1.561702     0.735186
C       0.262777     0.702763    -0.545479
N       0.860960     1.168636     0.413218
C      -1.995510     2.216572     1.025228
O      -1.776034     3.410265     1.135738
C      -1.938998     1.297766     2.220253
C      -1.049173     1.597488     3.160663
H      -0.964194     1.003539     4.066066
H      -0.376623     2.439748     3.046566
C      -2.916322     0.156346     2.366384
H      -3.025529    -0.090843     3.424864
H      -3.903303     0.422916     1.977054
H      -2.588116    -0.744402     1.842048
N      -2.369866     1.687074    -0.194821
C      -2.518372     2.619726    -1.311592
H      -3.157013     2.160637    -2.069381
H      -2.974226     3.540351    -0.950856
H      -1.548137     2.862203    -1.760580
C       1.975008     2.133077     0.271909
C       3.133229     1.486058    -0.495902
C       1.475973     3.420781    -0.393620
H       3.473582     0.580673     0.010060
H       2.790870     1.217194    -1.498391
H       3.968820     2.185974    -0.575976
H       1.162993     3.191995    -1.415897
H       0.626060     3.832045     0.154995
H       2.280058     4.160352    -0.426609
C       2.434020     2.454915     1.644652
N       2.821623     2.728510     2.690347
48
     -1091.816984     -1091.487492   3.34   2.88
C      -1.220342    -1.304930    -0.136401
C      -0.689367    -0.004663    -0.426382
C      -1.388617     0.851320    -1.336526
C      -2.501961     0.383802    -1.996933
C      -2.966206    -0.913868    -1.774671
C      -2.334258    -1.730769    -0.836318
C      -0.570214    -2.166848     0.878272
C      -0.284324    -1.667879     2.151776
C       0.326244    -2.473306     3.102689
C       0.656873    -3.789379     2.797767
C       0.369102    -4.295636     1.535537
C      -0.240852    -3.490060     0.582134
H      -3.011189     1.035848    -2.698523
H      -3.837734    -1.274575    -2.309196
H      -2.732699    -2.718734    -0.628349
H      -0.559901    -0.649499     2.405582
H       0.537624    -2.071844     4.088928
H       1.133728    -4.419090     3.542211
H       0.624933    -5.321541     1.289826
H      -0.446591    -3.882768    -0.408896
C       0.498514     0.417482     0.102700
N       1.658721     0.668522     0.333807
C      -0.569195     2.671827    -2.758488
O      -0.520392     3.870361    -2.963679
C      -0.221347     1.670599    -3.831436
C      -0.735762     1.872963    -5.039099
H      -0.512383     1.210177    -5.869889
H      -1.392215     2.715885    -5.228898
C       0.736907     0.550773    -3.508954
H       1.549715     0.902499    -2.865972
H       0.246014    -0.277316    -2.991659
H       1.171295     0.161973    -4.432596
N      -0.895620     2.171212    -1.517455
C      -1.182529     3.127132    -0.448793
H      -2.204123     3.515082    -0.531294
H      -1.066624     2.632830     0.517435
H      -0.488959     3.963882    -0.521536
C       2.170410     1.372391     1.538456
C       3.148119     0.428390     2.246619
C       2.848166     2.664756     1.070784
H       3.570214     0.913886     3.129979
H       2.638912    -0.488142     2.550659
H       3.954970     0.171443     1.556979
H       3.274438     3.198452     1.923731
H       3.645861     2.412841     0.368983
H       2.129657     3.315798     0.568589
C       1.059164     1.707281     2.458321
N       0.202449     1.969007     3.177275
48
     -1091.816984     -1091.487492   3.34   2.88
C      -1.554703    -0.815769     0.467261
C      -0.712740     0.106745    -0.237576
C      -1.239026     0.816308    -1.364332
C      -2.507210     0.534399    -1.818726
C      -3.292651    -0.426775    -1.179897
C      -2.816100    -1.071908    -0.038014
C      -1.064927    -1.483883     1.695623
C      -1.161477    -2.868489     1.839194
C      -0.700930    -3.492103     2.992006
C      -0.138781    -2.739719     4.016817
C      -0.044459    -1.358497     3.883890
C      -0.505351    -0.734071     2.733493
H      -2.886756     1.065221    -2.685259
H      -4.285899    -0.648040    -1.553915
H      -3.452489    -1.778134     0.485755
H      -1.582254    -3.461093     1.032686
H      -0.777181    -4.570649     3.088071
H       0.221189    -3.227462     4.917180
H       0.383631    -0.761179     4.682933
H      -0.449113     0.346188     2.647854
C       0.598492     0.284966     0.106065
N       1.800676     0.226783     0.223877
C      -0.104031     1.775861    -3.313361
O       0.259661     2.779906    -3.896961
C      -0.180184     0.439970    -4.009256
C      -0.750329     0.412853    -5.208518
H      -0.821082    -0.506002    -5.783060
H      -1.157250     1.316508    -5.650440
C       0.450442    -0.765527    -3.357070
H       0.647822    -1.529977    -4.111809
H       1.397641    -0.501451    -2.876577
H      -0.193152    -1.205195    -2.591054
N      -0.415175     1.801291    -1.971764
C      -0.294362     3.076365    -1.266259
H       0.595431     3.596965    -1.618007
H      -1.165939     3.713878    -1.453065
H      -0.214144     2.888649    -0.194023
C       2.625514     1.071473     1.126413
C       3.368745     0.135934     2.086059
C       3.584646     1.887935     0.253640
H       4.009496     0.713353     2.757046
H       2.658206    -0.442762     2.679362
H       3.984943    -0.552377     1.503685
H       4.192154     1.203259    -0.341721
H       3.028401     2.542484    -0.420502
H       4.239614     2.498302     0.880157
C       1.768048     1.993235     1.906341
N       1.109079     2.710024     2.515709
48
     -1091.816984     -1091.487483   3.34   2.89
C      -1.771109    -0.080478     0.578460
C      -0.702523     0.201839    -0.335424
C      -1.011480     0.676353    -1.650520
C      -2.316838     0.950732    -1.989575
C      -3.346007     0.754526    -1.066957
C      -3.063433     0.224561     0.192592
C      -1.480655    -0.668293     1.907076
C      -0.681932    -1.809621     2.016307
C      -0.407392    -2.360320     3.260133
C      -0.929038    -1.782312     4.412577
C      -1.730627    -0.651091     4.311922
C      -2.005161    -0.097886     3.067511
H      -2.535244     1.328239    -2.982802
H      -4.369068     0.984818    -1.342093
H      -3.874198     0.023255     0.885569
H      -0.290048    -2.280480     1.120665
H       0.211292    -3.249819     3.327536
H      -0.714577    -2.213962     5.385104
H      -2.140658    -0.193794     5.206941
H      -2.615627     0.796891     2.994071
C       0.607592     0.081759     0.036437
N       1.733019     0.249808     0.445913
C       0.309400     2.037306    -3.203186
O       0.953704     2.082243    -4.234599
C      -0.205317     3.288485    -2.536642
C      -0.790500     4.192531    -3.314005
H      -1.164828     5.129662    -2.912680
H      -0.904397     4.018765    -4.379043
C       0.031758     3.485225    -1.059703
H      -0.694584     2.943609    -0.448650
H       1.027757     3.134666    -0.771800
H      -0.044788     4.546673    -0.813859
N       0.062561     0.841617    -2.565410
C       0.600621    -0.377663    -3.167070
H       1.598251    -0.175218    -3.554675
H       0.649622    -1.161926    -2.409510
H      -0.030475    -0.719791    -3.995101
C       2.808993    -0.774922     0.470583
C       3.949770    -0.274870    -0.422093
C       3.247991    -0.951211     1.928232
H       4.782438    -0.982248    -0.403702
H       3.608156    -0.156435    -1.452422
H       4.292062     0.693300    -0.050900
H       4.058038    -1.681777     1.993769
H       3.597911     0.009621     2.311625
H       2.409483    -1.290462     2.539446
C       2.309905    -2.068072    -0.050816
N       1.929290    -3.074517    -0.452757
48
     -1091.820264     -1091.487156   1.28   3.09
C       0.196070    -1.239333    -1.539337
C      -0.392753    -0.327547    -0.647911
C      -1.635467     0.254015    -0.944792
C      -2.256081    -0.032658    -2.153529
C      -1.658175    -0.904013    -3.053055
C      -0.447580    -1.511907    -2.741640
C       1.493365    -1.893449    -1.216011
C       1.599101    -3.283158    -1.248661
C       2.805305    -3.907335    -0.953488
C       3.920878    -3.147470    -0.623958
C       3.824918    -1.760222    -0.596550
C       2.620826    -1.136482    -0.893298
H      -3.210635     0.428345    -2.379794
H      -2.145470    -1.119369    -3.998272
H       0.015846    -2.196971    -3.443651
H       0.723555    -3.877645    -1.490749
H       2.871461    -4.990483    -0.977506
H       4.863304    -3.633352    -0.392256
H       4.694588    -1.159763    -0.347841
H       2.554965    -0.054093    -0.885031
C       0.237973    -0.012433     0.615894
N       0.791427     0.982954     1.067518
C      -2.663497     2.386509    -0.299120
O      -3.485072     2.963786     0.388251
C      -2.018081     3.055608    -1.487438
C      -2.818570     3.656437    -2.360224
H      -2.424009     4.180008    -3.225956
H      -3.895476     3.646210    -2.225619
C      -0.513237     3.079347    -1.574904
H      -0.072762     3.320094    -0.602932
H      -0.100315     2.115614    -1.882925
H      -0.195785     3.832502    -2.299358
N      -2.246506     1.111986     0.009932
C      -2.810659     0.491269     1.209809
H      -2.765206     1.193935     2.040804
H      -3.854945     0.205272     1.047126
H      -2.226520    -0.394604     1.460406
C       1.289031     1.064261     2.463539
C       2.591833     0.263933     2.574837
C       1.496219     2.540241     2.812398
H       2.423784    -0.778486     2.295876
H       3.333735     0.692887     1.897098
H       2.975660     0.304160     3.597418
H       0.557720     3.089778     2.709520
H       1.859320     2.643848     3.838100
H       2.230894     2.968762     2.126535
C       0.278184     0.492518     3.381871
N      -0.496188     0.064387     4.114415
48
     -1091.818989     -1091.487120   2.08   3.11
C      -1.972846    -0.192181     0.022862
C      -0.750244     0.112557    -0.597418
C      -0.700153     1.034581    -1.653541
C      -1.857717     1.692572    -2.048151
C      -3.059856     1.425481    -1.408704
C      -3.117825     0.481589    -0.390532
C      -2.051716    -1.209908     1.106422
C      -2.990062    -2.238137     1.021263
C      -3.078241    -3.198605     2.021588
C      -2.225585    -3.143381     3.117539
C      -1.290316    -2.118824     3.212938
C      -1.208728    -1.154683     2.217795
H      -1.808641     2.411094    -2.858238
H      -3.960088     1.947905    -1.715249
H      -4.059900     0.270209     0.104013
H      -3.642137    -2.294459     0.155021
H      -3.810146    -3.996048     1.939737
H      -2.289430    -3.897015     3.896083
H      -0.613466    -2.067189     4.059267
H      -0.488837    -0.350461     2.312579
C       0.470854    -0.554077    -0.185172
N       1.474330    -0.158647     0.395413
C       1.077321     2.519979    -2.476487
O       1.921372     2.736746    -3.326510
C       0.621728     3.595312    -1.522151
C       0.266804     4.763677    -2.044303
H      -0.049134     5.592667    -1.418032
H       0.290648     4.924355    -3.117427
C       0.672157     3.318984    -0.041447
H       0.578330     4.254840     0.513585
H      -0.126864     2.648524     0.283786
H       1.619082     2.843518     0.230818
N       0.536389     1.264362    -2.319457
C       1.024377     0.210519    -3.207282
H       0.642928     0.345185    -4.225277
H       2.113683     0.238583    -3.241278
H       0.692982    -0.755552    -2.823305
C       2.642137    -1.018764     0.702403
C       2.658041    -2.314909    -0.111573
C       3.909037    -0.189797     0.473664
H       2.733584    -2.073481    -1.174763
H       3.516453    -2.926795     0.176536
H       1.741084    -2.883811     0.056039
H       4.796301    -0.763302     0.753818
H       3.974117     0.077253    -0.584221
H       3.876818     0.727259     1.065111
C       2.528410    -1.352316     2.143028
N       2.441885    -1.621080     3.256383
48
     -1091.818989     -1091.487115   2.08   3.12
C      -0.103470    -1.754674     0.316374
C      -0.250330    -0.362698     0.431246
C      -1.398478     0.183734     1.023859
C      -2.421003    -0.655820     1.446023
C      -2.297699    -2.029620     1.294890
C      -1.142796    -2.573758     0.746180
C       1.133301    -2.351639    -0.258199
C       1.631778    -1.939787    -1.495424
C       2.792351    -2.500948    -2.009919
C       3.462626    -3.491766    -1.301007
C       2.966212    -3.917853    -0.074953
C       1.809185    -3.349366     0.443737
H      -3.309290    -0.225093     1.893620
H      -3.102654    -2.681011     1.619009
H      -1.046210    -3.648433     0.634346
H       1.107872    -1.182028    -2.065797
H       3.172207    -2.153484    -2.964930
H       4.369985    -3.930705    -1.703750
H       3.484621    -4.690125     0.484643
H       1.434128    -3.667776     1.411569
C       0.801948     0.528371    -0.020540
N       0.871989     1.321781    -0.951135
C      -2.546412     2.338975     0.740765
O      -2.779217     3.444542     1.194049
C      -3.368918     1.754660    -0.380274
C      -4.689813     1.780769    -0.245219
H      -5.347269     1.400323    -1.021280
H      -5.150364     2.192807     0.647026
C      -2.661616     1.255158    -1.613807
H      -1.898139     1.968918    -1.937093
H      -2.156121     0.301263    -1.445632
H      -3.380808     1.121032    -2.424648
N      -1.486456     1.592802     1.202908
C      -0.655484     2.187866     2.248059
H      -0.408504     3.214388     1.976425
H      -1.180948     2.201228     3.209132
H       0.260241     1.602761     2.346305
C       2.057127     2.169520    -1.224361
C       1.557040     3.549382    -1.660748
C       3.010702     2.263430    -0.030767
H       0.881435     3.458166    -2.513436
H       1.014771     4.010704    -0.831410
H       2.397900     4.189619    -1.939468
H       2.493018     2.732231     0.809827
H       3.344744     1.268762     0.271895
H       3.881664     2.868419    -0.294775
C       2.761540     1.522676    -2.357939
N       3.316389     1.022314    -3.230326
48
     -1091.817502     -1091.487066   3.02   3.15
C       0.100108    -0.857829    -1.897575
C      -0.467307     0.136929    -1.027317
C      -1.627851     0.866504    -1.461293
C      -2.205342     0.572268    -2.673495
C      -1.663964    -0.409513    -3.504796
C      -0.519346    -1.102267    -3.108920
C       1.296959    -1.626867    -1.483949
C       1.317619    -3.017437    -1.611591
C       2.431912    -3.748332    -1.220399
C       3.542404    -3.100235    -0.692376
C       3.532365    -1.715519    -0.563328
C       2.421300    -0.984713    -0.958783
H      -3.085543     1.129070    -2.979216
H      -2.127432    -0.626095    -4.460496
H      -0.089038    -1.847897    -3.769798
H       0.443420    -3.530439    -2.000183
H       2.429848    -4.829066    -1.322256
H       4.412630    -3.671032    -0.384252
H       4.396981    -1.200439    -0.156274
H       2.427673     0.096597    -0.868464
C      -0.002688     0.330586     0.240604
N       0.521767     0.671793     1.270813
C      -1.502464     2.878436    -0.066171
O      -1.832244     3.410087     0.979306
C      -0.332500     3.386371    -0.872030
C       0.734277     3.793156    -0.193124
H       1.607203     4.198263    -0.696558
H       0.759909     3.722317     0.888215
C      -0.436625     3.486758    -2.374826
H      -1.452900     3.748211    -2.684697
H       0.241211     4.263813    -2.735708
H      -0.173874     2.548830    -2.871052
N      -2.215933     1.817694    -0.583018
C      -3.401162     1.372284     0.152262
H      -3.923128     2.242903     0.546469
H      -4.054699     0.829483    -0.533671
H      -3.131760     0.713040     0.984016
C       0.241818     0.126088     2.623378
C       1.428245    -0.762109     3.014958
C       0.057654     1.315259     3.570369
H       1.286922    -1.158830     4.023291
H       1.532570    -1.594602     2.315879
H       2.340870    -0.163378     2.987294
H      -0.155833     0.963705     4.582790
H       0.977405     1.904383     3.582021
H      -0.761299     1.950212     3.225729
C      -0.997846    -0.682421     2.606101
N      -1.960840    -1.308026     2.604422
48
     -1091.817502     -1091.487063   3.02   3.15
C      -0.421409    -1.114115    -1.595721
C      -0.407008    -0.642491    -0.236955
C      -1.088907    -1.403050     0.775046
C      -1.700635    -2.588124     0.442220
C      -1.692886    -3.052784    -0.873914
C      -1.061819    -2.307909    -1.870711
C       0.268665    -0.354853    -2.664482
C       0.085582     1.023312    -2.803869
C       0.746021     1.726833    -3.800779
C       1.595416     1.064505    -4.680559
C       1.778937    -0.307602    -4.555255
C       1.121897    -1.011214    -3.554212
H      -2.203207    -3.151206     1.222353
H      -2.184786    -3.986430    -1.121722
H      -1.079324    -2.662169    -2.896423
H      -0.586835     1.545479    -2.131093
H       0.593047     2.797567    -3.893995
H       2.110441     1.615362    -5.461166
H       2.442161    -0.832372    -5.235780
H       1.287844    -2.078420    -3.444989
C       0.325942     0.445358     0.137519
N       0.780229     1.516722     0.451426
C      -1.464915     0.293138     2.504671
O      -1.034064     0.829099     3.510443
C      -2.524469     0.950674     1.655426
C      -2.429722     2.264722     1.485976
H      -3.167317     2.817853     0.911910
H      -1.602250     2.817956     1.915153
C      -3.668176     0.132454     1.106144
H      -3.957753    -0.660529     1.802226
H      -4.534042     0.778897     0.945226
H      -3.416873    -0.342779     0.154318
N      -1.036477    -0.961518     2.125735
C      -0.068739    -1.639723     2.990231
H      -0.121957    -2.713535     2.799602
H       0.952006    -1.293900     2.796632
H      -0.318635    -1.437825     4.030720
C       2.161213     1.781240     0.929271
C       2.917787     2.471132    -0.211559
C       2.055273     2.657055     2.180911
H       2.387728     3.386235    -0.483124
H       3.932925     2.722231     0.105512
H       2.968621     1.821082    -1.087624
H       1.559485     3.593807     1.916639
H       1.464370     2.151593     2.947697
H       3.050639     2.876880     2.574724
C       2.838228     0.511562     1.276175
N       3.370933    -0.467565     1.552358
48
     -1091.817502     -1091.487060   3.02   3.15
C      -1.853535    -0.043351     0.629305
C      -0.918547     0.760324    -0.111485
C      -1.335826     2.045812    -0.602314
C      -2.598710     2.508072    -0.317904
C      -3.495043     1.733691     0.420354
C      -3.112771     0.471227     0.875080
C      -1.458571    -1.373716     1.148022
C      -1.722396    -1.717088     2.475774
C      -1.350047    -2.958930     2.973810
C      -0.705033    -3.876240     2.152498
C      -0.439853    -3.544513     0.828187
C      -0.816300    -2.305934     0.329035
H      -2.891538     3.484453    -0.690969
H      -4.489577     2.109688     0.631535
H      -3.821826    -0.136311     1.428275
H      -2.203510    -0.994888     3.127963
H      -1.558623    -3.208231     4.009526
H      -0.411641    -4.846011     2.541734
H       0.059363    -4.256396     0.178137
H      -0.618880    -2.060998    -0.709455
C       0.384037     0.386127    -0.267048
N       1.468134    -0.018436    -0.604412
C       0.256850     2.423495    -2.427313
O       1.332266     2.893813    -2.753976
C      -0.434872     1.381477    -3.271057
C       0.333717     0.455184    -3.832895
H      -0.082566    -0.313727    -4.477126
H       1.402588     0.442110    -3.653135
C      -1.923588     1.466737    -3.507196
H      -2.496675     0.982030    -2.712453
H      -2.256545     2.507477    -3.563626
H      -2.171062     0.977085    -4.451921
N      -0.398194     2.859977    -1.295151
C       0.229121     3.929273    -0.516102
H       0.680532     4.648316    -1.198042
H      -0.538984     4.421574     0.083805
H       1.004295     3.536921     0.150356
C       2.744259     0.164636     0.132827
C       3.106592    -1.183691     0.765711
C       3.793090     0.643947    -0.874693
H       3.184626    -1.933855    -0.023775
H       4.062435    -1.110472     1.290203
H       2.335194    -1.496272     1.472731
H       3.909715    -0.114381    -1.652178
H       3.471278     1.577623    -1.340850
H       4.753728     0.797955    -0.377076
C       2.584048     1.183291     1.194620
N       2.471471     1.975482     2.018330
48
     -1091.817502     -1091.487059   3.02   3.15
C      -0.458161    -1.586803    -0.843282
C      -0.159443    -0.185460    -0.969447
C      -0.070841     0.395802    -2.281619
C      -0.223867    -0.399434    -3.392315
C      -0.491761    -1.763271    -3.264818
C      -0.611500    -2.332948    -1.996785
C      -0.559247    -2.218607     0.492963
C      -1.321317    -1.637818     1.509935
C      -1.399557    -2.231506     2.761469
C      -0.723598    -3.419827     3.016728
C       0.031423    -4.009817     2.009807
C       0.114030    -3.413017     0.758454
H      -0.145498     0.057279    -4.373904
H      -0.615647    -2.376171    -4.150296
H      -0.843314    -3.389114    -1.903696
H      -1.863885    -0.718587     1.314847
H      -1.995370    -1.765984     3.540478
H      -0.786653    -3.884450     3.995600
H       0.564563    -4.935885     2.200908
H       0.725004    -3.864602    -0.016901
C       0.149879     0.582928     0.114435
N       0.209296     1.325201     1.062199
C      -0.467482     2.767413    -1.804142
O       0.032430     3.845164    -1.533987
C      -1.926696     2.489038    -1.540743
C      -2.439120     2.977893    -0.416981
H      -3.487595     2.845728    -0.166416
H      -1.814337     3.518474     0.284720
C      -2.753051     1.753227    -2.567891
H      -2.683981     0.668231    -2.453869
H      -3.802170     2.039850    -2.464428
H      -2.430225     1.997354    -3.584438
N       0.269418     1.770671    -2.408160
C       1.664959     2.063047    -2.740975
H       1.738222     3.089736    -3.096464
H       2.317954     1.941223    -1.870477
H       1.988345     1.376683    -3.526195
C       1.435464     1.698146     1.812411
C       1.431532     3.221038     1.972769
C       1.392846     0.962971     3.156855
H       1.407485     3.704704     0.993941
H       0.540628     3.515893     2.531787
H       2.320917     3.546783     2.517788
H       2.259210     1.235586     3.764457
H       0.479201     1.245091     3.683908
H       1.390901    -0.118349     3.003917
C       2.643336     1.288187     1.061588
N       3.586822     0.978139     0.485010
48
     -1091.817502     -1091.487057   3.02   3.15
C       1.706496     1.266438     0.090100
C       0.772417     0.475884    -0.665822
C       1.102539     0.102129    -2.014463
C       2.318989     0.461497    -2.544152
C       3.231327     1.209907    -1.798770
C       2.909557     1.605756    -0.500102
C       1.398340     1.671567     1.481452
C       0.163335     2.235225     1.812143
C      -0.119490     2.600071     3.120510
C       0.829410     2.414859     4.120246
C       2.063898     1.861696     3.800732
C       2.345348     1.491679     2.492009
H       2.552155     0.162765    -3.561326
H       4.184304     1.490577    -2.232511
H       3.612977     2.207685     0.066266
H      -0.577192     2.396980     1.035688
H      -1.084629     3.035641     3.359980
H       0.607929     2.702047     5.143238
H       2.809560     1.710946     4.575088
H       3.301546     1.037202     2.252152
C      -0.367006    -0.021076    -0.103968
N      -1.472891    -0.284436     0.296562
C      -1.112132    -0.352523    -2.962264
O      -1.972014    -1.188892    -3.175632
C      -1.428800     1.122505    -2.976381
C      -2.588960     1.493871    -2.446749
H      -2.904366     2.533128    -2.442280
H      -3.249410     0.761604    -1.996678
C      -0.481986     2.092314    -3.641477
H      -0.000259     1.640229    -4.513681
H      -1.036997     2.972084    -3.975363
H       0.310057     2.425922    -2.965924
N       0.199930    -0.717485    -2.746279
C       0.529325    -2.142589    -2.812273
H      -0.041086    -2.602534    -3.617824
H       1.597976    -2.245581    -3.011322
H       0.291426    -2.652264    -1.872781
C      -1.874663    -1.513150     1.027463
C      -2.091372    -1.124856     2.494467
C      -3.147565    -2.047404     0.364733
H      -2.851775    -0.342855     2.543335
H      -2.426970    -1.991457     3.069328
H      -1.166265    -0.743546     2.931990
H      -2.964151    -2.260325    -0.690559
H      -3.482263    -2.958446     0.866875
H      -3.930319    -1.289139     0.438778
C      -0.809613    -2.537099     0.938095
N       0.008731    -3.339940     0.871007
48
     -1091.819856     -1091.486619   1.54   3.43
C      -2.173140    -0.081612     0.929933
C      -1.159393    -0.121014    -0.039312
C      -1.480013    -0.398295    -1.375157
C      -2.795957    -0.653780    -1.730321
C      -3.797429    -0.631387    -0.768723
C      -3.486652    -0.345047     0.553470
C      -1.850309     0.219650     2.351888
C      -0.875184    -0.509607     3.034383
C      -0.581664    -0.224029     4.360778
C      -1.262717     0.790646     5.025258
C      -2.240881     1.515203     4.355439
C      -2.533183     1.229916     3.026658
H      -3.032242    -0.853321    -2.770349
H      -4.824573    -0.833764    -1.054263
H      -4.265320    -0.333752     1.308675
H      -0.352525    -1.311439     2.523507
H       0.179135    -0.799409     4.879248
H      -1.032714     1.012865     6.062389
H      -2.776886     2.308731     4.866554
H      -3.285917     1.807181     2.498694
C       0.202420     0.216805     0.337853
N       1.288481    -0.314685     0.125584
C       0.212744     0.675874    -2.689860
O      -0.124939     1.758997    -2.241310
C       1.396004     0.601692    -3.621431
C       2.445982    -0.161392    -3.341385
H       3.336889    -0.134358    -3.962171
H       2.470961    -0.815650    -2.477104
C       1.340322     1.569203    -4.770635
H       0.501466     1.339700    -5.437327
H       1.181979     2.582913    -4.392263
H       2.265196     1.536633    -5.350311
N      -0.463981    -0.471324    -2.375865
C      -0.147628    -1.802986    -2.879537
H       0.309217    -1.736794    -3.865302
H       0.530465    -2.332612    -2.201628
H      -1.074691    -2.374253    -2.961548
C       2.544020     0.343000     0.571144
C       2.660214     1.752736    -0.019376
C       2.603152     0.360443     2.103252
H       1.816475     2.351980     0.330271
H       3.595056     2.216343     0.306218
H       2.632937     1.722199    -1.109157
H       1.771572     0.958817     2.483211
H       2.519247    -0.652366     2.503530
H       3.546929     0.797604     2.438866
C       3.663265    -0.484566     0.062238
N       4.554480    -1.100492    -0.318939
48
     -1091.819856     -1091.486592   1.54   3.44
C      -1.824213    -1.251592     0.308727
C      -1.105194    -0.106195    -0.064981
C      -1.759344     0.947780    -0.717213
C      -3.119913     0.863465    -0.971787
C      -3.835480    -0.262731    -0.587305
C      -3.189668    -1.314512     0.047824
C      -1.142460    -2.383518     0.994966
C      -0.387703    -2.170222     2.149665
C       0.242990    -3.231236     2.784881
C       0.123382    -4.521116     2.278082
C      -0.633383    -4.742885     1.134162
C      -1.263332    -3.679721     0.497489
H      -3.611111     1.680577    -1.489821
H      -4.900175    -0.320565    -0.788784
H      -3.746736    -2.192829     0.356075
H      -0.304549    -1.167654     2.555921
H       0.826786    -3.050725     3.682258
H       0.616588    -5.350002     2.775695
H      -0.731664    -5.746313     0.732044
H      -1.840981    -3.850878    -0.405626
C       0.331480    -0.064180     0.147579
N       1.084548     0.778604     0.626865
C      -0.083444     2.037633    -2.040515
O       0.092079     1.006717    -2.668832
C       0.784355     3.235181    -2.334199
C       1.517076     3.804125    -1.384155
H       2.216425     4.600844    -1.620741
H       1.470674     3.484571    -0.349074
C       0.860998     3.601577    -3.790134
H       1.159458     2.727415    -4.375457
H      -0.116777     3.922629    -4.166592
H       1.578207     4.409446    -3.949611
N      -1.056722     2.135711    -1.083572
C      -1.352425     3.329244    -0.299308
H      -0.795284     3.332183     0.643808
H      -1.105380     4.225581    -0.865326
H      -2.420664     3.342086    -0.072982
C       2.554544     0.563375     0.614395
C       2.914063    -0.605016     1.540036
C       3.059869     0.334226    -0.814494
H       2.545953    -0.422080     2.552005
H       2.450010    -1.516847     1.156421
H       3.998314    -0.737710     1.575419
H       4.143650     0.191984    -0.807275
H       2.578890    -0.559069    -1.219374
H       2.811188     1.180245    -1.456140
C       3.171702     1.800043     1.149469
N       3.683551     2.743978     1.556801
48
     -1091.819856     -1091.486590   1.54   3.45
C      -0.079899     0.389661    -2.482588
C      -0.490588     0.434995    -1.141751
C      -1.850537     0.570821    -0.831545
C      -2.783392     0.681315    -1.851667
C      -2.375914     0.653230    -3.178822
C      -1.031461     0.506429    -3.491242
C       1.360194     0.237472    -2.828940
C       1.768201    -0.768191    -3.703240
C       3.110175    -0.914929    -4.035026
C       4.059499    -0.054844    -3.497002
C       3.659286     0.955912    -2.629164
C       2.318862     1.103033    -2.299558
H      -3.834362     0.772036    -1.597628
H      -3.111779     0.741706    -3.971408
H      -0.708609     0.491278    -4.526773
H       1.028768    -1.450611    -4.110830
H       3.414098    -1.706389    -4.712851
H       5.107699    -0.168775    -3.754339
H       4.394107     1.636401    -2.210046
H       2.008215     1.901568    -1.634018
C       0.491834     0.248710    -0.087597
N       0.728364     0.851890     0.955152
C      -2.137157    -0.459475     1.314101
O      -1.766786    -1.526224     0.852298
C      -2.443332    -0.361959     2.787274
C      -1.811574     0.508724     3.565697
H      -1.961300     0.506522     4.641524
H      -1.107205     1.232296     3.170776
C      -3.379184    -1.422652     3.296165
H      -4.371829    -1.321139     2.843181
H      -3.000499    -2.411268     3.022161
H      -3.483314    -1.359936     4.381385
N      -2.292103     0.647221     0.524302
C      -2.747790     1.954573     0.982837
H      -3.299453     2.435602     0.172410
H      -3.410833     1.845976     1.839240
H      -1.902848     2.594772     1.258664
C       1.760655     0.345308     1.895940
C       1.449848    -1.093742     2.322730
C       3.148000     0.461955     1.253435
H       2.209918    -1.445705     3.025070
H       0.467551    -1.157411     2.792140
H       1.450762    -1.732182     1.436363
H       3.917953     0.138001     1.958193
H       3.181203    -0.172142     0.364187
H       3.349826     1.493744     0.957241
C       1.715873     1.220850     3.090919
N       1.706436     1.877309     4.033201
48
     -1091.817801     -1091.486558   2.83   3.47
C      -1.902006     0.161764     1.208624
C      -1.019008     0.621696     0.219323
C      -1.427758     1.588041    -0.703002
C      -2.724876     2.067635    -0.681017
C      -3.616434     1.593697     0.274653
C      -3.205031     0.653514     1.210819
C      -1.465835    -0.836529     2.220676
C      -2.215597    -1.991890     2.438955
C      -1.815691    -2.925785     3.387107
C      -0.661662    -2.713860     4.131908
C       0.088767    -1.561501     3.924568
C      -0.310550    -0.629593     2.976202
H      -3.033509     2.798431    -1.420698
H      -4.636335     1.963415     0.291950
H      -3.897159     0.304733     1.970190
H      -3.108111    -2.166736     1.846334
H      -2.406356    -3.823263     3.541853
H      -0.348545    -3.442553     4.872801
H       0.987758    -1.384821     4.507133
H       0.271978     0.273264     2.822840
C       0.336040     0.117155     0.120865
N       0.813564    -0.878470    -0.411202
C      -0.364955     1.397914    -2.842299
O      -1.152450     0.520799    -3.151832
C       0.760901     1.745200    -3.782806
C       2.022577     1.766655    -3.366996
H       2.837093     1.919961    -4.069469
H       2.295409     1.618893    -2.328246
C       0.348588     1.895294    -5.220226
H      -0.330994     2.745532    -5.346898
H       1.220764     2.047606    -5.859553
H      -0.191798     1.001930    -5.544273
N      -0.472410     2.071908    -1.653029
C       0.307474     3.236588    -1.246260
H       0.713653     3.740867    -2.121075
H      -0.353757     3.928207    -0.717505
H       1.132056     2.959096    -0.579977
C       2.252792    -1.216950    -0.372853
C       2.485287    -2.192056     0.787887
C       2.633858    -1.837035    -1.720942
H       1.860304    -3.075811     0.639876
H       3.535297    -2.494229     0.825263
H       2.213221    -1.727572     1.737257
H       2.021298    -2.726231    -1.886069
H       2.446980    -1.129637    -2.531626
H       3.690130    -2.119178    -1.728260
C       3.069655     0.001825    -0.159996
N       3.729190     0.931803    -0.016599
48
     -1091.817801     -1091.486546   2.83   3.47
C       0.762918    -1.312304    -1.848730
C      -0.116712    -0.426772    -1.206857
C      -1.025598     0.332329    -1.947979
C      -1.035307     0.254808    -3.328885
C      -0.145154    -0.595090    -3.975486
C       0.740717    -1.372196    -3.240001
C       1.706656    -2.155251    -1.067783
C       3.064959    -2.169134    -1.383169
C       3.950730    -2.958995    -0.660252
C       3.487991    -3.748213     0.385900
C       2.134003    -3.744630     0.703340
C       1.249850    -2.954244    -0.018372
H      -1.729540     0.870486    -3.890515
H      -0.145904    -0.654857    -5.058823
H       1.416733    -2.052365    -3.747651
H       3.430367    -1.540601    -2.189256
H       5.006239    -2.955030    -0.913595
H       4.178946    -4.365606     0.951027
H       1.763135    -4.363640     1.514554
H       0.192274    -2.960298     0.225574
C      -0.115344    -0.270558     0.234010
N       0.566137     0.408257     0.993749
C      -1.544859     2.455332    -0.965377
O      -0.516858     2.917532    -1.428929
C      -2.392910     3.306924    -0.055264
C      -2.766534     2.871536     1.143081
H      -3.292528     3.525340     1.833210
H      -2.554025     1.866370     1.489146
C      -2.624883     4.707318    -0.549010
H      -3.209381     4.704912    -1.475912
H      -3.158646     5.298177     0.198394
H      -1.666587     5.182166    -0.775517
N      -1.945333     1.173921    -1.244296
C      -3.222494     0.568944    -0.879601
H      -3.965954     1.342504    -0.696745
H      -3.560728    -0.053623    -1.712170
H      -3.132850    -0.057735     0.014886
C       0.407087     0.401092     2.464149
C       1.420924    -0.588682     3.051239
C       0.641184     1.825603     2.977013
H       2.426799    -0.287701     2.749306
H       1.357751    -0.594182     4.142663
H       1.231478    -1.596352     2.677374
H       1.645226     2.144163     2.687902
H      -0.083281     2.513009     2.535241
H       0.550250     1.860760     4.065988
C      -0.963713    -0.021807     2.838400
N      -2.024803    -0.326337     3.157395
48
     -1091.815767     -1091.486134   4.10   3.73
C      -0.911196    -1.105068    -1.902705
C      -0.822000    -0.058392    -0.973226
C      -1.811707     0.926155    -0.919082
C      -2.919391     0.843087    -1.743807
C      -3.037168    -0.215353    -2.638044
C      -2.038204    -1.176925    -2.717547
C       0.173292    -2.116798    -2.009007
C      -0.117082    -3.478120    -1.930986
C       0.897130    -4.423079    -2.030037
C       2.213601    -4.017048    -2.213635
C       2.510176    -2.661075    -2.301169
C       1.497304    -1.716924    -2.199717
H      -3.680179     1.614464    -1.688408
H      -3.905527    -0.281558    -3.285114
H      -2.116497    -1.985069    -3.437441
H      -1.143064    -3.795357    -1.772164
H       0.658064    -5.479622    -1.960486
H       3.006129    -4.754516    -2.291287
H       3.535049    -2.336029    -2.451925
H       1.728576    -0.659159    -2.277186
C       0.296484     0.014836    -0.051498
N       0.469381    -0.462812     1.066220
C      -0.903218     3.059509    -0.333497
O      -0.319579     3.088606    -1.401188
C      -0.799319     4.232154     0.608144
C      -1.894557     4.858955     1.023306
H      -1.832828     5.761295     1.624358
H      -2.887596     4.508653     0.757835
C       0.602636     4.692003     0.887711
H       0.598931     5.597274     1.498155
H       1.177078     3.916421     1.404939
H       1.118021     4.890850    -0.055680
N      -1.684088     1.989323     0.029852
C      -2.234104     1.741839     1.358413
H      -2.024598     0.707948     1.643317
H      -1.767532     2.404749     2.084664
H      -3.318480     1.901069     1.381211
C       1.729807    -0.320361     1.829066
C       1.382574    -0.240762     3.318937
C       2.614149    -1.534553     1.517877
H       0.749660     0.627861     3.515398
H       0.839670    -1.143580     3.607503
H       2.291859    -0.158930     3.920090
H       2.847571    -1.571923     0.452487
H       3.546107    -1.480717     2.086778
H       2.076922    -2.446241     1.789577
C       2.449757     0.916867     1.447556
N       3.041196     1.871716     1.206436
48
     -1091.815767     -1091.486133   4.10   3.73
C       1.213040    -0.699131    -1.878382
C       0.311630     0.159660    -1.232357
C      -0.465508     1.055342    -1.971001
C      -0.308506     1.143115    -3.342746
C       0.614466     0.325887    -3.986246
C       1.363961    -0.589180    -3.258385
C       1.992487    -1.699996    -1.102656
C       1.342929    -2.600485    -0.256213
C       2.069851    -3.536670     0.466816
C       3.455154    -3.585637     0.353579
C       4.108358    -2.696572    -0.491735
C       3.380542    -1.761122    -1.217405
H      -0.918092     1.844987    -3.901915
H       0.738531     0.394078    -5.061924
H       2.061304    -1.247838    -3.765689
H       0.260980    -2.568964    -0.174040
H       1.551497    -4.232545     1.119359
H       4.022929    -4.316594     0.920429
H       5.189349    -2.728613    -0.585026
H       3.892638    -1.056883    -1.865717
C       0.176287     0.133841     0.212283
N       0.771660     0.735513     1.101585
C      -2.618494     1.379475    -0.981491
O      -2.902850     0.228368    -1.256319
C      -3.643330     2.266024    -0.320932
C      -4.002171     3.413637    -0.885728
H      -4.805358     4.016920    -0.473129
H      -3.525181     3.777663    -1.790869
C      -4.296533     1.674481     0.894995
H      -3.567437     1.512397     1.695735
H      -5.090167     2.326974     1.264546
H      -4.715650     0.695889     0.646315
N      -1.386912     1.907469    -1.283995
C      -0.858288     3.179402    -0.802762
H      -0.819357     3.927682    -1.602953
H      -1.481636     3.561208     0.003611
H       0.152669     3.022243    -0.419002
C       0.521194     0.517590     2.544035
C       1.503567    -0.550424     3.041496
C       0.718955     1.850754     3.272174
H       2.524907    -0.210588     2.854451
H       1.369187    -0.719589     4.113138
H       1.345771    -1.489808     2.508957
H       0.566046     1.726083     4.347329
H       1.735058     2.208589     3.091663
H       0.012422     2.595777     2.898765
C      -0.865080     0.052901     2.782648
N      -1.933590    -0.289595     3.028947
48
     -1091.817978     -1091.486056   2.72   3.78
C      -0.159534    -0.632147    -2.343197
C      -0.138882     0.289503    -1.281270
C      -0.706023     1.559931    -1.442468
C      -1.309560     1.906725    -2.638349
C      -1.336044     0.998374    -3.689391
C      -0.764312    -0.259259    -3.539281
C       0.452379    -1.980028    -2.196924
C       0.081226    -2.825534    -1.149865
C       0.653657    -4.084067    -1.026526
C       1.601567    -4.516510    -1.948252
C       1.970664    -3.683348    -2.997238
C       1.397744    -2.423173    -3.121190
H      -1.764022     2.886952    -2.735860
H      -1.811848     1.269000    -4.626159
H      -0.795961    -0.972617    -4.356172
H      -0.665198    -2.493909    -0.436261
H       0.354289    -4.733690    -0.209633
H       2.047918    -5.501005    -1.850171
H       2.709531    -4.013035    -3.720891
H       1.697006    -1.766438    -3.932160
C       0.568884    -0.000766    -0.056371
N       0.258213    -0.332581     1.081073
C      -1.578036     2.394928     0.619079
O      -2.529982     1.642564     0.506651
C      -1.436607     3.228101     1.866950
C      -0.300796     3.251576     2.555759
H      -0.236951     3.776623     3.504822
H       0.594788     2.744670     2.216050
C      -2.710439     3.877334     2.330235
H      -3.493023     3.121521     2.436235
H      -2.560656     4.385966     3.284983
H      -3.067865     4.608342     1.596390
N      -0.627842     2.496884    -0.365521
C       0.444194     3.484689    -0.437543
H       0.198222     4.351556     0.173009
H       1.400608     3.069996    -0.100064
H       0.549077     3.807279    -1.476772
C       1.264781    -0.532313     2.154205
C       0.544150    -0.491721     3.504074
C       1.972731    -1.873223     1.927757
H      -0.202651    -1.288738     3.529725
H       1.254593    -0.636291     4.322357
H       0.035752     0.465623     3.635459
H       2.451188    -1.890899     0.946089
H       2.729711    -2.037527     2.699057
H       1.235444    -2.677864     1.971504
C       2.260421     0.562898     2.105798
N       3.029269     1.416460     2.089288
48
     -1091.817978     -1091.486048   2.72   3.79
C      -1.956563    -0.523715     0.907291
C      -1.015141    -0.262557    -0.104179
C      -1.366188    -0.426770    -1.450086
C      -2.646613    -0.824135    -1.792527
C      -3.581671    -1.079658    -0.797097
C      -3.235521    -0.930023     0.540366
C      -1.597721    -0.371479     2.342793
C      -1.806885    -1.425296     3.231671
C      -1.481156    -1.291122     4.576117
C      -0.945113    -0.099027     5.047638
C      -0.740472     0.959146     4.168145
C      -1.065587     0.825599     2.825290
H      -2.906250    -0.923040    -2.841191
H      -4.586588    -1.388310    -1.065498
H      -3.969583    -1.117869     1.316933
H      -2.211759    -2.361660     2.860418
H      -1.644123    -2.121758     5.255660
H      -0.690388     0.007420     6.097334
H      -0.330264     1.896367     4.531862
H      -0.915002     1.655085     2.142918
C       0.356140     0.055514     0.218332
N       1.043292     1.069419     0.233136
C      -0.173906     1.093557    -2.855341
O      -0.903537     1.994041    -2.478982
C       0.979290     1.409863    -3.772654
C       2.210345     0.988924    -3.503623
H       3.051185     1.301690    -4.116513
H       2.431098     0.337352    -2.666269
C       0.642827     2.351969    -4.894273
H       0.188047     3.260137    -4.490116
H       1.538180     2.612402    -5.462781
H      -0.087633     1.904106    -5.577282
N      -0.377016    -0.203925    -2.457880
C       0.300029    -1.386949    -2.979702
H      -0.432938    -2.192522    -3.073779
H       0.716491    -1.178449    -3.963490
H       1.104618    -1.719833    -2.314565
C       2.481504     1.050151     0.601670
C       3.125685     2.343307     0.095841
C       2.602497     0.912343     2.123805
H       3.013489     2.426108    -0.987113
H       2.624464     3.193909     0.563672
H       4.188847     2.366652     0.349537
H       2.120683     1.769585     2.599157
H       2.107763     0.000235     2.464685
H       3.654428     0.882151     2.419520
C       3.141473    -0.104449    -0.049852
N       3.668375    -0.986791    -0.563480
48
     -1091.817109     -1091.485870   3.26   3.90
C      -0.998535    -1.633308    -1.255622
C      -0.801765    -0.624858    -0.300258
C      -1.857725    -0.193215     0.506361
C      -3.126856    -0.714459     0.326466
C      -3.340097    -1.684336    -0.645870
C      -2.283370    -2.143361    -1.422398
C       0.131310    -2.123137    -2.088301
C       0.014825    -2.173292    -3.476853
C       1.070568    -2.626498    -4.258710
C       2.255923    -3.037315    -3.660791
C       2.378082    -2.996803    -2.275944
C       1.322654    -2.544996    -1.495858
H      -3.942185    -0.350478     0.941936
H      -4.335158    -2.091332    -0.792203
H      -2.449354    -2.920590    -2.161088
H      -0.903491    -1.834669    -3.946262
H       0.967713    -2.654361    -5.338948
H       3.081096    -3.390784    -4.270809
H       3.297878    -3.323710    -1.800728
H       1.413916    -2.526690    -0.414650
C       0.489720     0.013868    -0.130954
N       1.022757     0.956525    -0.705532
C      -1.846207     2.103885     1.196103
O      -2.252105     2.443759     0.099859
C      -1.617178     3.139238     2.268342
C      -2.347377     3.124543     3.376854
H      -2.257848     3.909531     4.121871
H      -3.073926     2.340564     3.568645
C      -0.618276     4.203916     1.914932
H       0.391999     3.782559     1.863306
H      -0.854185     4.621287     0.931837
H      -0.621624     5.002733     2.659332
N      -1.596126     0.792617     1.508699
C      -0.912296     0.343253     2.719602
H      -0.243404    -0.479366     2.458223
H      -0.307167     1.147158     3.135557
H      -1.620986    -0.005277     3.478541
C       2.368095     1.465866    -0.345984
C       3.433267     0.467457    -0.811378
C       2.552716     2.836477    -1.002463
H       4.433668     0.853999    -0.599681
H       3.306975    -0.489339    -0.301128
H       3.326050     0.306440    -1.886572
H       3.525079     3.260703    -0.738412
H       2.493038     2.721758    -2.087334
H       1.764381     3.520589    -0.681326
C       2.441820     1.626577     1.124652
N       2.502217     1.769296     2.263165
48
     -1091.815647     -1091.485051   4.18   4.41
C      -1.282886    -0.943315    -1.527449
C      -0.866407    -0.404978    -0.299531
C      -1.661461    -0.544470     0.839500
C      -2.837469    -1.272176     0.780746
C      -3.233133    -1.849009    -0.420072
C      -2.463323    -1.679597    -1.564373
C      -0.477648    -0.730308    -2.759167
C      -0.134806     0.561403    -3.162923
C       0.612792     0.763693    -4.315293
C       1.028712    -0.322177    -5.078304
C       0.686760    -1.610777    -4.685479
C      -0.064904    -1.813052    -3.534123
H      -3.446067    -1.368855     1.673466
H      -4.155353    -2.418568    -0.467576
H      -2.790807    -2.102474    -2.508536
H      -0.465323     1.409624    -2.571362
H       0.869996     1.773789    -4.619088
H       1.615103    -0.163664    -5.977747
H       1.008003    -2.463035    -5.276028
H      -0.320185    -2.820452    -3.220253
C       0.406774     0.285730    -0.199754
N       1.546536    -0.130291    -0.011310
C      -1.621946     1.322840     2.335121
O      -2.437078     1.894281     1.633108
C      -1.024472     2.037587     3.519320
C       0.289448     2.206152     3.605759
H       0.728801     2.806975     4.396626
H       0.968347     1.786876     2.871081
C      -2.023820     2.654076     4.456494
H      -1.521968     3.248544     5.222837
H      -2.711592     3.290968     3.893353
H      -2.627703     1.884564     4.950910
N      -1.214118     0.040204     2.065833
C      -0.420076    -0.808951     2.945619
H      -0.401435    -0.389407     3.949760
H      -0.877726    -1.801593     2.987794
H       0.607970    -0.912766     2.583411
C       2.755871     0.721451    -0.060447
C       3.761342     0.194897     0.968630
C       3.323354     0.653699    -1.484489
H       3.342798     0.248765     1.976395
H       3.991963    -0.848073     0.740409
H       4.682539     0.782443     0.937635
H       3.550715    -0.386739    -1.728367
H       2.594006     1.029267    -2.203616
H       4.237108     1.249368    -1.556681
C       2.436594     2.130730     0.267742
N       2.250271     3.233583     0.530162
48
     -1091.815327     -1091.484018   4.38   5.06
C      -2.072618    -0.389447     0.687915
C      -1.109911     0.097517    -0.212215
C      -1.496207     0.829307    -1.338600
C      -2.829675     1.138713    -1.540335
C      -3.784504     0.699156    -0.631146
C      -3.407734    -0.064878     0.466902
C      -1.667347    -1.207739     1.861734
C      -0.813582    -2.302389     1.711177
C      -0.430671    -3.055123     2.812605
C      -0.900543    -2.729426     4.080374
C      -1.757419    -1.646771     4.238416
C      -2.137912    -0.891256     3.135847
H      -3.112162     1.730594    -2.404075
H      -4.829863     0.945093    -0.785792
H      -4.160346    -0.432159     1.156726
H      -0.449479    -2.568493     0.724273
H       0.236715    -3.900403     2.676964
H      -0.601034    -3.318685     4.941284
H      -2.127465    -1.384657     5.224617
H      -2.789668    -0.032853     3.264885
C       0.292650    -0.163014     0.002888
N       1.194942     0.404413     0.606969
C      -0.008110     2.528494    -2.128445
O      -0.350933     3.248028    -1.207567
C       0.937741     3.066307    -3.171980
C       0.634725     2.994643    -4.463399
H       1.258999     3.468854    -5.214796
H      -0.257906     2.484763    -4.811987
C       2.117991     3.819431    -2.626170
H       2.701905     4.264342    -3.434556
H       1.771628     4.604402    -1.948907
H       2.772009     3.161291    -2.044543
N      -0.494552     1.252448    -2.268834
C       0.055557     0.220411    -3.142861
H       0.204661    -0.696765    -2.567205
H      -0.618412     0.004749    -3.979554
H       1.019501     0.535329    -3.536419
C       2.562097    -0.153302     0.699786
C       3.541683     0.893745     0.160511
C       2.828207    -0.487445     2.172287
H       4.572928     0.548183     0.270690
H       3.345204     1.085856    -0.896521
H       3.409056     1.823859     0.717728
H       2.732150     0.424859     2.765418
H       2.099344    -1.217049     2.532166
H       3.834977    -0.894942     2.297253
C       2.688904    -1.391058    -0.107405
N       2.828158    -2.350633    -0.723891
48
     -1091.815327     -1091.484013   4.38   5.06
C      -1.366193    -1.110040    -1.361862
C      -0.692261     0.062094    -0.979701
C      -0.539567     1.119761    -1.880533
C      -0.993450     0.993197    -3.181503
C      -1.621814    -0.180218    -3.581250
C      -1.812802    -1.216892    -2.675590
C      -1.570436    -2.217778    -0.390844
C      -2.093531    -1.969043     0.879720
C      -2.271344    -3.006104     1.784850
C      -1.935379    -4.308578     1.431608
C      -1.422067    -4.566653     0.166197
C      -1.241002    -3.527547    -0.738625
H      -0.843890     1.811328    -3.877535
H      -1.974004    -0.282436    -4.602373
H      -2.331778    -2.118434    -2.983911
H      -2.366401    -0.956972     1.160112
H      -2.675806    -2.793301     2.769445
H      -2.075003    -5.119221     2.139747
H      -1.155672    -5.580076    -0.117065
H      -0.819361    -3.728418    -1.718502
C      -0.159899     0.199829     0.354107
N       0.905472    -0.075913     0.892615
C       1.433708     2.461123    -1.700539
O       2.080210     1.568451    -2.218661
C       2.107952     3.771782    -1.383657
C       1.592972     4.919825    -1.809697
H       2.122732     5.858174    -1.675359
H       0.640641     4.959449    -2.329092
C       3.453008     3.646935    -0.725381
H       3.366637     3.191071     0.266540
H       4.094737     2.993398    -1.321955
H       3.925049     4.625792    -0.618589
N       0.093490     2.323917    -1.436737
C      -0.699507     3.191961    -0.571121
H      -1.412051     3.790179    -1.150102
H      -1.255263     2.578039     0.142362
H      -0.049161     3.859943    -0.010668
C       1.143662     0.136381     2.337240
C       1.343514    -1.240225     2.982031
C       2.379046     1.029150     2.490568
H       1.534867    -1.137762     4.053544
H       0.455887    -1.859407     2.834368
H       2.196175    -1.732525     2.508810
H       2.193002     2.010614     2.049052
H       2.630837     1.159093     3.546378
H       3.219873     0.563534     1.971532
C      -0.015495     0.805759     2.975942
N      -0.891523     1.326712     3.506425
48
     -1091.815327     -1091.484008   4.38   5.07
C      -0.393648    -1.998273    -0.596670
C      -0.628087    -0.613651    -0.551935
C      -1.923001    -0.107272    -0.694070
C      -2.996417    -0.972278    -0.812679
C      -2.778731    -2.344928    -0.813128
C      -1.487811    -2.850121    -0.714705
C       0.988659    -2.536793    -0.492323
C       1.278181    -3.561243     0.408582
C       2.569102    -4.064268     0.516880
C       3.587768    -3.548416    -0.275303
C       3.306720    -2.530244    -1.179980
C       2.016620    -2.030413    -1.290265
H      -3.998615    -0.566040    -0.894747
H      -3.620061    -3.024300    -0.901403
H      -1.320192    -3.921581    -0.747104
H       0.488886    -3.950608     1.043954
H       2.780154    -4.857852     1.226744
H       4.596786    -3.939137    -0.189773
H       4.093955    -2.121793    -1.805861
H       1.803901    -1.242012    -2.004787
C       0.465976     0.309817    -0.373998
N       1.029564     0.806450     0.593873
C      -2.465373     1.908820     0.474979
O      -2.532658     1.279816     1.515702
C      -2.822032     3.373618     0.474093
C      -3.713347     3.854120    -0.385782
H      -4.052307     4.884136    -0.327830
H      -4.153852     3.231154    -1.157885
C      -2.234385     4.167202     1.606793
H      -1.141779     4.199954     1.541144
H      -2.614184     5.190973     1.601266
H      -2.482568     3.689062     2.557903
N      -2.116154     1.310533    -0.710215
C      -1.724263     2.004021    -1.933779
H      -0.785540     1.581880    -2.301806
H      -2.486667     1.899287    -2.713888
H      -1.565911     3.061256    -1.732710
C       2.198155     1.703587     0.458470
C       1.868709     3.024698     1.160517
C       3.401670     0.997496     1.093840
H       2.731405     3.695821     1.141328
H       1.028454     3.516294     0.665422
H       1.593631     2.816691     2.196977
H       3.594779     0.049441     0.586918
H       4.293469     1.626610     1.029324
H       3.179096     0.793858     2.143753
C       2.496584     1.978586    -0.968037
N       2.757308     2.218839    -2.060981
48
     -1091.814560     -1091.483759   4.86   5.22
C      -0.125102    -1.897333    -1.061657
C      -0.549753    -0.590741    -0.767336
C      -1.714530    -0.075744    -1.341680
C      -2.491225    -0.867008    -2.167948
C      -2.097851    -2.173752    -2.437008
C      -0.925021    -2.679599    -1.890531
C       1.140171    -2.427475    -0.488093
C       1.166987    -3.676893     0.130492
C       2.344118    -4.164613     0.685690
C       3.507835    -3.406637     0.632010
C       3.491207    -2.162127     0.011027
C       2.318251    -1.680341    -0.551740
H      -3.392501    -0.453256    -2.607432
H      -2.703740    -2.796389    -3.086942
H      -0.607287    -3.689481    -2.128160
H       0.253625    -4.259904     0.196951
H       2.349194    -5.136566     1.169061
H       4.425598    -3.785303     1.070878
H       4.391806    -1.558582    -0.036987
H       2.318093    -0.714375    -1.045149
C       0.228869     0.242821     0.120397
N       0.292659     0.351134     1.340807
C      -1.566279     2.276866    -1.780865
O      -0.831363     2.056805    -2.723835
C      -1.970842     3.685289    -1.416264
C      -1.083806     4.479974    -0.831863
H      -1.323520     5.509115    -0.580974
H      -0.079245     4.133434    -0.609533
C      -3.354059     4.103845    -1.832534
H      -3.562596     5.128620    -1.517842
H      -3.446150     4.046757    -2.922442
H      -4.120089     3.444456    -1.411307
N      -2.097604     1.264688    -1.021301
C      -2.871157     1.453291     0.200138
H      -2.851748     2.501764     0.495689
H      -3.912045     1.139240     0.060462
H      -2.432516     0.861608     1.008039
C       1.285628     1.216084     2.017940
C       0.574707     2.493365     2.479100
C       1.867142     0.426824     3.195681
H      -0.238384     2.222698     3.156623
H       1.273305     3.151973     3.001771
H       0.156795     3.028381     1.623464
H       2.595440     1.032731     3.741197
H       1.055525     0.144390     3.870056
H       2.356738    -0.480854     2.835340
C       2.394980     1.573308     1.101504
N       3.288133     1.855584     0.436156
48
     -1091.815119     -1091.483371   4.51   5.47
C      -0.691538    -1.612727    -0.817392
C      -0.231274    -0.255859    -0.938356
C      -0.307034     0.384246    -2.224890
C      -0.766044    -0.315266    -3.317069
C      -1.192768    -1.636175    -3.194475
C      -1.159876    -2.258151    -1.946306
C      -0.680476    -2.311155     0.489321
C      -1.827068    -2.967952     0.941929
C      -1.824077    -3.632295     2.161174
C      -0.677040    -3.644901     2.947407
C       0.468880    -2.994614     2.504873
C       0.466868    -2.339322     1.281832
H      -0.811066     0.190209    -4.276670
H      -1.555030    -2.174096    -4.062999
H      -1.489668    -3.287565    -1.850386
H      -2.731033    -2.940496     0.341361
H      -2.723444    -4.135523     2.502448
H      -0.677581    -4.159065     3.903393
H       1.370126    -2.985258     3.108284
H       1.373546    -1.855624     0.937091
C       0.277155     0.441293     0.124500
N       0.473665     1.166764     1.068329
C      -0.345585     2.769252    -1.624358
O       0.314559     3.779657    -1.445296
C      -1.750066     2.644594    -1.089020
C      -1.992988     3.207489     0.089138
H      -2.983245     3.187770     0.534354
H      -1.198916     3.695883     0.641428
C      -2.825201     1.976957    -1.911882
H      -3.801334     2.371915    -1.621164
H      -2.684392     2.166867    -2.980031
H      -2.841858     0.893148    -1.770347
N       0.151195     1.723126    -2.370446
C       1.429253     1.909756    -3.053029
H       1.454120     1.271025    -3.938659
H       1.525649     2.953079    -3.350273
H       2.275115     1.648715    -2.409179
C       1.791764     1.573146     1.633865
C       2.749749     2.004794     0.520406
C       1.534463     2.711475     2.622737
H       2.307033     2.836188    -0.033196
H       3.702503     2.320194     0.952523
H       2.938938     1.174224    -0.163840
H       2.467215     3.003589     3.110884
H       1.131808     3.567557     2.076314
H       0.813639     2.403191     3.382312
C       2.367054     0.418961     2.359447
N       2.851374    -0.453901     2.926840
48
     -1091.815119     -1091.483364   4.51   5.47
C      -1.308127    -0.376122    -1.602412
C      -0.829814     0.371954    -0.471400
C      -1.762186     1.193337     0.254310
C      -3.068662     1.289642    -0.166059
C      -3.519307     0.575477    -1.274572
C      -2.635955    -0.253654    -1.966028
C      -0.407269    -1.273627    -2.362911
C       0.827401    -0.826201    -2.832662
C       1.665867    -1.673175    -3.543186
C       1.273395    -2.980272    -3.806447
C       0.040133    -3.434655    -3.351903
C      -0.793470    -2.588500    -2.632841
H      -3.751138     1.917884     0.397773
H      -4.552228     0.658500    -1.592543
H      -2.985415    -0.808261    -2.830868
H       1.134640     0.197747    -2.653746
H       2.627935    -1.303501    -3.881127
H       1.927195    -3.644432    -4.362964
H      -0.271061    -4.455413    -3.551344
H      -1.745408    -2.953351    -2.259627
C       0.477565     0.330679    -0.067392
N       1.533386     0.117788     0.476343
C      -0.693523     1.377097     2.462107
O       0.047198     2.031220     3.177805
C      -1.012262    -0.064162     2.771733
C      -0.032183    -0.795124     3.290432
H      -0.184335    -1.834003     3.567547
H       0.952703    -0.369483     3.441855
C      -2.408815    -0.599167     2.566437
H      -3.162828     0.164024     2.780546
H      -2.573268    -0.945276     1.542663
H      -2.576247    -1.442381     3.240455
N      -1.309555     1.949609     1.370983
C      -1.161149     3.389360     1.172852
H      -1.092861     3.877651     2.143968
H      -0.262585     3.629086     0.595542
H      -2.033549     3.764163     0.633052
C       2.779226     0.930218     0.375714
C       2.470680     2.419779     0.548579
C       3.740960     0.429422     1.454663
H       1.800457     2.765172    -0.242199
H       1.996625     2.578884     1.519994
H       3.395765     2.998782     0.494633
H       3.299982     0.621909     2.435515
H       3.913135    -0.643042     1.346226
H       4.695747     0.955325     1.380840
C       3.381547     0.702755    -0.956598
N       3.877745     0.558974    -1.982027
48
     -1091.815134     -1091.483256   4.50   5.54
C      -0.545004    -1.905915    -0.870617
C      -0.639624    -0.509187    -0.750716
C      -1.746456     0.174017    -1.261691
C      -2.739677    -0.514918    -1.932821
C      -2.640187    -1.894287    -2.082831
C      -1.553745    -2.579737    -1.554560
C       0.615140    -2.637569    -0.296084
C       1.311031    -3.570374    -1.064510
C       2.409251    -4.240251    -0.538489
C       2.827523    -3.981823     0.761503
C       2.135515    -3.057295     1.536670
C       1.032620    -2.397137     1.014535
H      -3.591688     0.029730    -2.325472
H      -3.419822    -2.437629    -2.606402
H      -1.494201    -3.658869    -1.650382
H       1.003060    -3.754798    -2.089043
H       2.944657    -4.959854    -1.149950
H       3.689046    -4.500543     1.170156
H       2.451886    -2.843929     2.552481
H       0.491238    -1.688443     1.631824
C       0.398949     0.234203    -0.074946
N       1.479196     0.697804    -0.425836
C      -2.316491     2.090355     0.050514
O      -2.687421     1.352588     0.945614
C      -2.447921     3.582340     0.220292
C      -3.079266     4.319134    -0.686658
H      -3.261517     5.377269    -0.524341
H      -3.458917     3.887645    -1.607725
C      -1.964795     4.103719     1.544374
H      -2.495880     3.596584     2.354344
H      -0.898460     3.897000     1.686165
H      -2.127027     5.180843     1.620519
N      -1.802355     1.598170    -1.122467
C      -1.098515     2.369344    -2.142664
H      -1.697293     2.464027    -3.055780
H      -0.868972     3.365193    -1.768839
H      -0.161655     1.863787    -2.388668
C       2.416223     1.344054     0.521729
C       3.830960     0.862827     0.184162
C       2.274432     2.863034     0.373252
H       4.060434     1.128579    -0.850228
H       4.563806     1.328950     0.848005
H       3.893262    -0.222793     0.290317
H       2.493371     3.142608    -0.659792
H       1.255311     3.173981     0.614707
H       2.969016     3.379485     1.040765
C       2.112490     0.959549     1.920982
N       1.932072     0.675315     3.019474
48
     -1091.813333     -1091.480793   5.63   7.08
C       1.131353     0.592077     1.808572
C       0.095628     0.527248     0.858238
C      -1.086955     1.252381     1.051579
C      -1.214126     2.079660     2.160034
C      -0.180080     2.170460     3.079571
C       0.980608     1.423449     2.911120
C       2.366623    -0.221219     1.636415
C       3.112487    -0.163841     0.457389
C       4.244031    -0.951488     0.299305
C       4.656698    -1.794449     1.326073
C       3.931776    -1.843513     2.510496
C       2.791925    -1.062644     2.663460
H      -2.122489     2.654908     2.286572
H      -0.282486     2.825731     3.938344
H       1.786632     1.493789     3.633897
H       2.810707     0.505104    -0.340159
H       4.796372    -0.905400    -0.633605
H       5.542715    -2.409397     1.203455
H       4.248279    -2.498156     3.316495
H       2.212741    -1.118567     3.580006
C       0.259066    -0.358852    -0.278445
N       0.386864    -0.185654    -1.486066
C      -2.651404     2.225239    -0.518820
O      -2.299442     3.357675    -0.248978
C      -3.659021     1.997794    -1.617881
C      -3.307356     1.308135    -2.696648
H      -3.976274     1.207992    -3.546470
H      -2.325282     0.853854    -2.777891
C      -4.963247     2.723580    -1.454131
H      -5.591683     2.599931    -2.338581
H      -5.513186     2.354672    -0.580626
H      -4.773674     3.788145    -1.289429
N      -2.153150     1.111775     0.114525
C      -2.777197    -0.206994    -0.004059
H      -2.447484    -0.751732    -0.891212
H      -2.515547    -0.788213     0.881396
H      -3.863819    -0.105839    -0.041483
C       0.664956    -1.311530    -2.416761
C       0.626492    -2.682470    -1.736234
C      -0.312637    -1.230086    -3.592092
H       1.343637    -2.720465    -0.913648
H      -0.374696    -2.864738    -1.337886
H       0.870743    -3.464328    -2.459760
H      -0.279370    -0.238983    -4.048759
H      -0.059421    -1.977212    -4.348510
H      -1.326916    -1.423591    -3.233329
C       2.041947    -1.073847    -2.916657
N       3.111589    -0.910652    -3.302008
48
     -1091.813333     -1091.480786   5.63   7.09
C      -1.793378    -0.893800    -1.050524
C      -0.839988     0.102436    -0.770190
C      -0.657183     1.173858    -1.653523
C      -1.383537     1.222855    -2.836426
C      -2.298950     0.223337    -3.129699
C      -2.510712    -0.822338    -2.237892
C      -2.031770    -2.003816    -0.087178
C      -3.324067    -2.261861     0.367875
C      -3.560306    -3.281509     1.282711
C      -2.505139    -4.051866     1.755942
C      -1.213683    -3.806529     1.300873
C      -0.980537    -2.795878     0.378922
H      -1.216192     2.042347    -3.523789
H      -2.856275     0.263053    -4.059845
H      -3.229995    -1.601172    -2.468278
H      -4.145329    -1.645126     0.016012
H      -4.570908    -3.467782     1.632503
H      -2.688130    -4.843436     2.475772
H      -0.378300    -4.395958     1.664516
H       0.025960    -2.625856     0.014650
C      -0.111502     0.025119     0.481735
N       1.062215    -0.175233     0.776626
C       1.288728     2.518097    -2.169909
O       1.408245     2.016739    -3.271482
C       2.320620     3.503866    -1.681633
C       3.048047     3.213577    -0.609427
H       3.863055     3.855758    -0.288424
H       2.874458     2.305366    -0.041564
C       2.542589     4.694382    -2.569314
H       3.377709     5.298735    -2.209032
H       2.750683     4.358956    -3.589387
H       1.647830     5.326045    -2.613390
N       0.259743     2.211665    -1.311727
C      -0.042676     3.015299    -0.126224
H       0.124976     4.073415    -0.337553
H      -1.096386     2.875793     0.119815
H       0.559972     2.733457     0.739729
C       1.503814    -0.323027     2.188821
C       2.713155     0.586049     2.422959
C       0.387045    -0.059768     3.202516
H       3.487090     0.391849     1.677809
H       2.400429     1.630825     2.348394
H       3.129406     0.414537     3.418853
H      -0.455522    -0.731329     3.025099
H       0.761037    -0.215951     4.217498
H       0.040359     0.971971     3.104515
C       1.931372    -1.738284     2.318099
N       2.253173    -2.834423     2.437202
48
     -1091.813333     -1091.480768   5.63   7.10
C      -0.542203    -0.851787    -2.061188
C      -0.396690     0.160712    -1.094898
C      -1.079607     1.375326    -1.236079
C      -1.944672     1.558614    -2.307224
C      -2.114778     0.548234    -3.241666
C      -1.410115    -0.644935    -3.125818
C       0.225608    -2.122269    -1.945708
C       1.007155    -2.560050    -3.013985
C       1.745735    -3.733516    -2.914526
C       1.713976    -4.480108    -1.743047
C       0.930341    -4.054883    -0.675231
C       0.184443    -2.889340    -0.779684
H      -2.486564     2.491918    -2.392933
H      -2.799117     0.694668    -4.070880
H      -1.542518    -1.432439    -3.860211
H       1.050404    -1.964839    -3.920899
H       2.354117    -4.059605    -3.752322
H       2.296195    -5.392649    -1.662341
H       0.898687    -4.624011     0.248142
H      -0.439180    -2.577207     0.049958
C       0.526834    -0.061746     0.001276
N       0.396797    -0.208052     1.212222
C      -1.923585     2.944952     0.402159
O      -3.079416     2.644356     0.172333
C      -1.611174     3.919801     1.509875
C      -0.893646     3.518687     2.552603
H      -0.732216     4.165392     3.410150
H      -0.476903     2.517765     2.596485
C      -2.289134     5.255113     1.400738
H      -3.366325     5.111702     1.276434
H      -2.104341     5.859841     2.291035
H      -1.933626     5.807618     0.523305
N      -0.857835     2.415587    -0.285642
C       0.489177     2.983343    -0.209258
H       0.434314     4.072075    -0.145998
H       1.055383     2.612885     0.647874
H       1.022840     2.717717    -1.123022
C       1.546622    -0.550682     2.090651
C       2.889519    -0.554194     1.355364
C       1.553097     0.405243     3.286435
H       3.096959     0.446641     0.968605
H       3.689024    -0.844679     2.041555
H       2.864665    -1.255426     0.518675
H       2.318784     0.106378     4.006774
H       1.774074     1.417892     2.939120
H       0.580579     0.403116     3.782561
C       1.272265    -1.926752     2.574026
N       1.080317    -2.996467     2.945683
48
     -1091.813333     -1091.480761   5.63   7.10
C      -2.037238     0.679748     0.891773
C      -1.009531     0.603157    -0.066355
C      -1.261793     0.942664    -1.401536
C      -2.545380     1.305063    -1.789313
C      -3.566587     1.347847    -0.852138
C      -3.312278     1.047916     0.481656
C      -1.760259     0.375077     2.322679
C      -1.160122    -0.826735     2.703718
C      -0.879396    -1.083095     4.038346
C      -1.212126    -0.148564     5.013585
C      -1.827443     1.041744     4.645725
C      -2.097821     1.302546     3.307328
H      -2.734685     1.541287    -2.828737
H      -4.568894     1.622847    -1.163772
H      -4.112355     1.085526     1.213428
H      -0.915924    -1.569735     1.953410
H      -0.393994    -2.015159     4.308841
H      -0.994269    -0.349502     6.057801
H      -2.090904     1.775295     5.401278
H      -2.557471     2.242555     3.017940
C       0.320830     0.235159     0.379376
N       1.047684    -0.734709     0.190268
C      -0.283634     0.158825    -3.472519
O      -1.290943    -0.449614    -3.779518
C       0.945408     0.055648    -4.340717
C       2.056106    -0.475458    -3.843414
H       2.927028    -0.652127    -4.467881
H       2.115399    -0.784080    -2.804816
C       0.749392     0.436980    -5.779732
H       0.508316     1.501905    -5.876447
H       1.648420     0.229345    -6.363776
H      -0.092225    -0.123056    -6.197346
N      -0.187415     0.931302    -2.339734
C       0.906353     1.879887    -2.124032
H       0.554952     2.655110    -1.441500
H       1.793750     1.410332    -1.694448
H       1.184969     2.352190    -3.068314
C       2.346313    -0.893601     0.897010
C       3.428075    -1.229550    -0.132880
C       2.725175     0.322223     1.746884
H       3.583621    -0.368699    -0.788363
H       4.370321    -1.463122     0.369219
H       3.127058    -2.087571    -0.737139
H       1.946623     0.530361     2.483721
H       3.668030     0.134061     2.266568
H       2.841202     1.196904     1.102096
C       2.160161    -2.057416     1.798872
N       2.026865    -2.947960     2.511913
48
     -1091.812788     -1091.479257   5.97   8.05
C      -1.298451    -1.551984    -0.883548
C      -1.082863    -0.288219    -0.233335
C      -1.906502     0.057438     0.886867
C      -2.863030    -0.813720     1.343015
C      -3.055524    -2.048603     0.718825
C      -2.275835    -2.394424    -0.382777
C      -0.478509    -1.957673    -2.049047
C       0.126858    -3.215071    -2.075585
C       0.904748    -3.601894    -3.158159
C       1.087855    -2.737994    -4.230619
C       0.483772    -1.486108    -4.215899
C      -0.295512    -1.099848    -3.135476
H      -3.464699    -0.530384     2.200986
H      -3.811788    -2.732030     1.087789
H      -2.439864    -3.345303    -0.879456
H       0.011396    -3.880401    -1.226028
H       1.381680    -4.576598    -3.157217
H       1.705056    -3.035977    -5.071819
H       0.623120    -0.804261    -5.048641
H      -0.770409    -0.124318    -3.134702
C      -0.066742     0.542572    -0.614737
N       0.703084     1.357245    -1.070029
C      -0.705069     1.559051     2.319805
O      -0.003804     0.640460     2.710382
C      -0.388892     2.967162     2.755374
C      -0.159745     3.912311     1.850478
H       0.163546     4.906553     2.145609
H      -0.260351     3.719569     0.786536
C      -0.199570     3.146302     4.234178
H       0.543278     2.431441     4.598695
H       0.128007     4.162329     4.464046
H      -1.130856     2.947252     4.776111
N      -1.754560     1.352566     1.467426
C      -2.738321     2.351347     1.067449
H      -3.727943     1.887161     1.066370
H      -2.743530     3.183391     1.768993
H      -2.534309     2.734528     0.061030
C       2.183754     1.329422    -0.844685
C       2.809628     2.387523    -1.754308
C       2.509106     1.576936     0.631243
H       2.561344     2.189596    -2.799086
H       2.420802     3.370824    -1.480006
H       3.896114     2.386048    -1.639724
H       3.590577     1.519506     0.779179
H       2.163289     2.571559     0.918100
H       2.021986     0.839329     1.270869
C       2.686514    -0.006499    -1.233953
N       3.103786    -1.035239    -1.525239
48
     -1091.812788     -1091.479229   5.97   8.06
C       1.225504     2.133448     0.269877
C       0.142270     1.357595    -0.269483
C      -0.529579     1.836785    -1.440618
C      -0.127531     2.999606    -2.047377
C       0.938146     3.739858    -1.529696
C       1.592016     3.298515    -0.381327
C       1.951647     1.686811     1.481705
C       1.263374     1.307729     2.635924
C       1.953553     0.880241     3.760521
C       3.342727     0.830372     3.751734
C       4.036812     1.213623     2.610940
C       3.346625     1.639274     1.484358
H      -0.647430     3.332711    -2.940216
H       1.251004     4.656107    -2.017318
H       2.406519     3.884840     0.031700
H       0.179397     1.351595     2.652962
H       1.403348     0.580755     4.646744
H       3.881788     0.486923     4.628561
H       5.120807     1.167299     2.592424
H       3.890975     1.908290     0.584872
C      -0.200590     0.147830     0.266402
N      -0.626556    -0.822499     0.850032
C      -1.450198    -0.023616    -2.641976
O      -0.335571    -0.342615    -3.021383
C      -2.620637    -0.923037    -2.947998
C      -3.373648    -1.400203    -1.963146
H      -4.159485    -2.124843    -2.156866
H      -3.214897    -1.105853    -0.929971
C      -2.740173    -1.341703    -4.385094
H      -1.794522    -1.775953    -4.721127
H      -3.542563    -2.071436    -4.512120
H      -2.945376    -0.479463    -5.029351
N      -1.665782     1.114519    -1.914783
C      -2.967510     1.659561    -1.548998
H      -3.745812     1.250786    -2.190607
H      -3.214830     1.440146    -0.503998
H      -2.941159     2.744773    -1.677275
C      -0.009327    -2.185221     0.772596
C      -0.706137    -3.067913     1.808927
C      -0.135602    -2.754563    -0.643557
H      -1.768254    -3.138114     1.563347
H      -0.269233    -4.069253     1.803821
H      -0.603286    -2.639449     2.808048
H      -1.191023    -2.869803    -0.896454
H       0.329459    -2.093601    -1.376591
H       0.349735    -3.733039    -0.686065
C       1.423881    -2.065024     1.119990
N       2.539471    -2.001051     1.382015
