48
     -1091.812272     -1091.482116   0.00   0.00
C       0.720483    -0.683071     0.043094
C       0.570730     0.704050     0.219287
C       1.356095     1.617010    -0.494623
C       2.274392     1.140746    -1.420016
C       2.398420    -0.222796    -1.634868
C       1.641664    -1.125368    -0.903423
C      -0.058001    -1.668517     0.829684
C      -0.689610    -2.776517     0.160992
C      -1.172169    -3.848963     0.977279
C      -1.272245    -3.705715     2.339982
C      -0.810760    -2.536877     2.961215
C      -0.178133    -1.551965     2.204770
H       2.881898     1.847536    -1.973633
H       3.108913    -0.586515    -2.369705
H       1.779240    -2.189982    -1.055143
H      -0.325859    -3.028911    -0.831673
H      -1.495331    -4.768312     0.500967
H      -1.689077    -4.508761     2.940048
H      -0.898051    -2.417758     4.035536
H       0.260674    -0.697887     2.708864
C      -0.455906     1.225836     1.082094
N      -1.280275     1.649338     1.763712
C       1.113284     3.952153    -1.237380
O       1.413448     5.113761    -1.030223
C       0.551611     3.534234    -2.566696
C      -0.516063     2.747434    -2.635257
H      -0.977144     2.502925    -3.586368
H      -0.980994     2.320066    -1.754853
C       1.194021     4.187520    -3.759153
H       2.246554     3.895334    -3.852594
H       0.673510     3.907904    -4.677404
H       1.174958     5.274608    -3.645219
N       1.225713     3.006893    -0.236018
C       1.662300     3.498532     1.074037
H       2.687525     3.877543     1.024616
H       1.006791     4.305066     1.401642
H       1.612178     2.681269     1.793309
C      -2.439167    -2.005423    -0.663052
C      -3.207118    -1.367235     0.468968
C      -3.121447    -3.192226    -1.312151
H      -3.404700    -2.108429     1.246658
H      -2.670302    -0.529363     0.913809
H      -4.171437    -0.996330     0.099444
H      -2.461267    -3.712597    -2.011149
H      -3.459777    -3.897832    -0.550473
H      -4.001093    -2.854989    -1.873513
C      -1.902686    -1.089548    -1.630212
N      -1.441120    -0.393193    -2.425984
48
     -1091.811096     -1091.482061   0.74   0.03
C       0.793130    -0.688226    -0.645238
C       0.892160     0.421479     0.213498
C       1.571655     1.582086    -0.173162
C       2.150458     1.643015    -1.432962
C       2.038234     0.565617    -2.299652
C       1.374831    -0.588098    -1.909119
C       0.096436    -1.934297    -0.250089
C      -0.834141    -2.549973    -1.158773
C      -1.242070    -3.894193    -0.872980
C      -0.968508    -4.465990     0.344362
C      -0.201877    -3.774267     1.293828
C       0.347996    -2.535277     0.973668
H       2.683308     2.540172    -1.727766
H       2.489002     0.620707    -3.285398
H       1.324607    -1.435811    -2.583474
H      -0.773815    -2.264769    -2.205682
H      -1.826079    -4.427177    -1.615350
H      -1.333899    -5.463462     0.567604
H       0.004741    -4.221669     2.259869
H       1.018389    -2.055855     1.678790
C       0.199626     0.431521     1.475895
N      -0.372772     0.454231     2.473623
C       1.309577     3.954005     0.366632
O       1.775782     4.935666     0.911051
C       0.247923     4.100301    -0.692438
C      -0.888966     3.420859    -0.594073
H      -1.701206     3.580695    -1.297311
H      -1.063172     2.714112     0.210605
C       0.520058     5.151758    -1.729619
H      -0.338758     5.274447    -2.392670
H       0.742450     6.103928    -1.240412
H       1.394243     4.891460    -2.337374
N       1.678737     2.674925     0.731143
C       2.621080     2.529842     1.841598
H       2.520093     1.530914     2.268725
H       3.653803     2.680995     1.508434
H       2.386371     3.273300     2.601215
C      -2.604999    -1.475289    -0.967852
C      -2.309155    -0.057212    -1.406529
C      -3.047974    -1.626917     0.468064
H      -1.821127    -0.017815    -2.383550
H      -3.245729     0.510496    -1.477339
H      -1.675733     0.444369    -0.675568
H      -2.299203    -1.209479     1.144987
H      -3.986223    -1.080058     0.625379
H      -3.212895    -2.673191     0.729297
C      -3.408470    -2.199910    -1.917938
N      -4.004030    -2.810002    -2.694792
48
     -1091.811857     -1091.481446   0.26   0.42
C       0.617455    -0.554202     0.639844
C       0.806835     0.798741     0.309231
C       2.029440     1.261783    -0.192133
C       3.090397     0.375913    -0.314660
C       2.921133    -0.960406     0.018897
C       1.696662    -1.422774     0.477711
C      -0.665320    -1.069712     1.175231
C      -1.254574    -2.248398     0.597632
C      -2.295521    -2.895430     1.341352
C      -2.884569    -2.269123     2.411358
C      -2.410383    -1.024471     2.850872
C      -1.287571    -0.457253     2.251620
H       4.038485     0.741109    -0.694622
H       3.753369    -1.649174    -0.084200
H       1.579782    -2.466594     0.747913
H      -0.611029    -2.882162    -0.007112
H      -2.651749    -3.861638     1.001083
H      -3.711467    -2.745594     2.928652
H      -2.883884    -0.524497     3.688636
H      -0.870637     0.454479     2.665545
C      -0.275940     1.736788     0.440019
N      -1.138908     2.491912     0.528787
C       1.457925     3.303622    -1.472568
O       1.436448     4.518322    -1.501442
C       0.715188     2.509488    -2.516092
C       1.301504     1.497641    -3.148143
H       0.802071     0.989641    -3.968250
H       2.302161     1.161718    -2.901553
C      -0.633784     3.055894    -2.891126
H      -1.069577     2.472804    -3.705563
H      -1.316232     3.043515    -2.036558
H      -0.531585     4.097875    -3.205239
N       2.212792     2.630079    -0.531769
C       2.996326     3.442897     0.400181
H       2.360210     3.866175     1.184852
H       3.763007     2.814974     0.857370
H       3.466246     4.261088    -0.144034
C      -2.244872    -1.602328    -1.113145
C      -1.200542    -1.017443    -2.039018
C      -3.309883    -0.633278    -0.657038
H      -0.339040    -1.678195    -2.165679
H      -1.640122    -0.849204    -3.030628
H      -0.853295    -0.053780    -1.666894
H      -3.865894    -0.259296    -1.526141
H      -4.017621    -1.104292     0.026481
H      -2.854328     0.224174    -0.156375
C      -2.750308    -2.872182    -1.566205
N      -3.124377    -3.915381    -1.885948
48
     -1091.810770     -1091.481442   0.94   0.42
C       0.193075    -0.696768    -0.143370
C      -0.545219     0.262344    -0.857240
C      -0.097423     0.751774    -2.086930
C       1.063719     0.236127    -2.644054
C       1.768041    -0.754944    -1.979525
C       1.346956    -1.205364    -0.737389
C      -0.193714    -1.141526     1.215369
C      -0.557491    -0.181959     2.225938
C      -1.061750    -0.692922     3.463816
C      -0.970903    -2.029121     3.769140
C      -0.460247    -2.932804     2.826615
C      -0.106096    -2.481937     1.556276
H       1.411990     0.624483    -3.594483
H       2.674813    -1.156533    -2.419671
H       1.938356    -1.941189    -0.204369
H      -0.949850     0.774406     1.898210
H      -1.500503    -0.000974     4.174348
H      -1.320679    -2.390718     4.731139
H      -0.382870    -3.987615     3.067420
H       0.210322    -3.199647     0.805906
C      -1.811842     0.737479    -0.366252
N      -2.828287     1.113469     0.019438
C      -1.206075     1.765398    -4.027168
O      -1.423069     2.781013    -4.661829
C      -1.441719     0.414318    -4.650352
C      -2.157628    -0.505148    -4.013224
H      -2.412560    -1.446511    -4.491077
H      -2.540641    -0.341080    -3.011356
C      -0.946967     0.270728    -6.061851
H      -1.245679    -0.692066    -6.481554
H      -1.348517     1.079319    -6.678410
H       0.145593     0.346631    -6.107004
N      -0.800984     1.814857    -2.713183
C      -0.674455     3.141002    -2.099083
H      -1.608380     3.689602    -2.217681
H      -0.448260     3.016649    -1.040164
H       0.131264     3.710992    -2.571563
C       1.226309     0.750732     2.762442
C       2.199225    -0.358096     3.084369
C       0.861939     1.646311     3.927828
H       1.775211    -1.014686     3.847991
H       2.435279    -0.957647     2.203925
H       3.134517     0.062273     3.475342
H       1.720970     2.270116     4.202731
H       0.030812     2.313085     3.683327
H       0.589935     1.044666     4.797639
C       1.525054     1.497173     1.571714
N       1.717303     2.109747     0.612772
48
     -1091.811989     -1091.481411   0.18   0.44
C       0.740553     0.034781    -0.899093
C      -0.233349     0.795362    -0.234044
C      -1.032386     1.708073    -0.925807
C      -0.832120     1.894205    -2.285939
C       0.147293     1.170619    -2.948429
C       0.917291     0.241135    -2.265214
C       1.560673    -0.982001    -0.199419
C       1.595217    -2.325655    -0.717031
C       2.613541    -3.196109    -0.210054
C       3.335330    -2.853406     0.908051
C       3.149428    -1.603099     1.514353
C       2.290952    -0.669761     0.933184
H      -1.458893     2.599946    -2.819767
H       0.300041     1.321728    -4.012010
H       1.677987    -0.324461    -2.792258
H       1.286329    -2.460547    -1.750846
H       2.783893    -4.150187    -0.697318
H       4.067513    -3.545595     1.312538
H       3.708221    -1.339629     2.405533
H       2.222446     0.327696     1.354376
C      -0.464382     0.612632     1.174782
N      -0.643638     0.466711     2.301549
C      -2.228553     3.743253    -0.263311
O      -3.303328     4.274196    -0.052465
C      -0.998068     4.582556    -0.492079
C       0.118627     4.340688     0.184834
H       0.980684     4.995174     0.096048
H       0.202282     3.505510     0.872448
C      -1.194113     5.761097    -1.403087
H      -0.294636     6.379285    -1.437140
H      -1.432460     5.435984    -2.422369
H      -2.038273     6.361779    -1.054168
N      -2.086764     2.375296    -0.243910
C      -3.279347     1.578153     0.062496
H      -3.730115     1.939575     0.986054
H      -4.016480     1.656660    -0.742773
H      -2.985561     0.534887     0.176276
C      -0.156475    -3.226280    -0.051190
C      -0.122422    -3.179225     1.458542
C      -0.120237    -4.617496    -0.650689
H      -0.113087    -2.157853     1.839814
H      -1.008062    -3.684806     1.863268
H       0.764181    -3.699886     1.826429
H      -1.055777    -5.144616    -0.428287
H      -0.003409    -4.592155    -1.737320
H       0.699695    -5.195156    -0.218630
C      -1.171918    -2.400665    -0.645981
N      -1.973556    -1.736835    -1.144164
48
     -1091.811989     -1091.481410   0.18   0.44
C       0.763728     0.021076    -0.910846
C      -0.238901     0.783140    -0.291780
C      -1.028351     1.669998    -1.026825
C      -0.789998     1.829172    -2.384235
C       0.217637     1.104251    -3.001390
C       0.978448     0.199972    -2.275396
C       1.575245    -0.969448    -0.164996
C       1.641757    -2.323484    -0.651503
C       2.655307    -3.169356    -0.095701
C       3.339337    -2.793017     1.035255
C       3.120050    -1.532353     1.608026
C       2.267679    -0.623148     0.981387
H      -1.409346     2.514856    -2.951802
H       0.400088     1.234206    -4.063084
H       1.761454    -0.366954    -2.767157
H       1.365352    -2.484838    -1.690707
H       2.851834    -4.131509    -0.556515
H       4.067735    -3.466632     1.476286
H       3.648866    -1.242297     2.509187
H       2.174354     0.382255     1.378212
C      -0.509341     0.628269     1.113362
N      -0.720120     0.504775     2.237350
C      -2.269171     3.703179    -0.445521
O      -3.356426     4.224327    -0.278894
C      -1.042955     4.553428    -0.655993
C       0.055912     4.340902     0.058878
H       0.912018     5.004557    -0.018701
H       0.129339     3.521974     0.766901
C      -1.226321     5.709284    -1.598170
H      -1.430524     5.359042    -2.616541
H      -2.087665     6.306553    -1.287481
H      -0.333818     6.338057    -1.619564
N      -2.110770     2.337971    -0.391172
C      -3.301863     1.532062    -0.102389
H      -2.998558     0.495457     0.042931
H      -3.784263     1.907446     0.799365
H      -4.015752     1.583411    -0.930463
C      -0.117637    -3.232109    -0.017630
C      -0.129038    -3.151637     1.491032
C      -0.046350    -4.635513    -0.584702
H      -0.144594    -2.122159     1.849620
H      -1.019497    -3.660581     1.880689
H       0.753088    -3.651746     1.896298
H      -0.981534    -5.169757    -0.378390
H       0.102543    -4.632429    -1.667698
H       0.767391    -5.192875    -0.115843
C      -1.125115    -2.433011    -0.660259
N      -1.919753    -1.790718    -1.196441
48
     -1091.809886     -1091.480927   1.50   0.75
C       0.802469     0.056808    -0.639890
C      -0.366629     0.787136    -0.361275
C      -0.850873     1.751096    -1.252424
C      -0.161531     1.993211    -2.432372
C       0.995601     1.283315    -2.717734
C       1.468968     0.322961    -1.835866
C       1.351750    -0.951190     0.297420
C       1.742326    -2.244454    -0.197276
C       2.549913    -3.061366     0.660117
C       2.715857    -2.737467     1.983684
C       2.173831    -1.548759     2.493837
C       1.530021    -0.655967     1.639784
H      -0.541085     2.737940    -3.123202
H       1.533592     1.481377    -3.639320
H       2.385833    -0.211111    -2.060091
H       1.902689    -2.341645    -1.267875
H       2.974653    -3.974169     0.256853
H       3.281841    -3.396413     2.634664
H       2.295866    -1.298291     3.541905
H       1.203304     0.303326     2.026085
C      -1.121955     0.526369     0.836730
N      -1.738822     0.305532     1.782365
C      -2.140455     3.815530    -0.982081
O      -3.189481     4.395169    -1.186201
C      -0.888327     4.593356    -0.673114
C      -0.140086     4.273677     0.376535
H       0.712405     4.882316     0.663111
H      -0.368885     3.419123     1.004656
C      -0.663729     5.804398    -1.533145
H      -1.550686     6.443153    -1.511940
H       0.202547     6.370984    -1.185660
H      -0.498076     5.521581    -2.579042
N      -2.065474     2.436592    -0.965900
C      -3.308900     1.694479    -1.184151
H      -4.115678     2.195078    -0.651954
H      -3.563961     1.651865    -2.248893
H      -3.195048     0.681338    -0.796307
C      -0.019429    -3.339221    -0.358788
C      -0.888375    -2.631219    -1.376540
C      -0.598893    -3.431054     1.032889
H      -0.344966    -2.397740    -2.295628
H      -1.738016    -3.271389    -1.645398
H      -1.291018    -1.707342    -0.959510
H       0.087449    -3.924799     1.722307
H      -0.826882    -2.434386     1.417696
H      -1.534164    -4.004353     1.007159
C       0.532442    -4.572608    -0.856249
N       1.025656    -5.533955    -1.259941
48
     -1091.810787     -1091.480895   0.93   0.77
C       0.848035    -0.053846    -0.777085
C      -0.132933     0.952984    -0.805295
C      -0.213663     1.862568    -1.867463
C       0.654938     1.726193    -2.941943
C       1.599476     0.709750    -2.946499
C       1.705188    -0.160888    -1.872225
C       0.996245    -0.978511     0.370568
C       1.156723    -2.389069     0.139034
C       1.608141    -3.189925     1.238410
C       1.628351    -2.682213     2.513526
C       1.295890    -1.339472     2.745214
C       1.017944    -0.497906     1.670888
H       0.591950     2.431783    -3.763247
H       2.276642     0.611146    -3.788751
H       2.478269    -0.921258    -1.868385
H       1.459868    -2.701180    -0.856768
H       1.873038    -4.224788     1.051128
H       1.917285    -3.318435     3.344206
H       1.301842    -0.941650     3.754083
H       0.860063     0.559538     1.853938
C      -1.141159     1.014952     0.218534
N      -1.969669     1.057418     1.015188
C      -1.399669     3.805426    -0.883576
O      -2.430202     4.447667    -0.831339
C      -0.294259     4.064364     0.106283
C       0.968837     4.176854    -0.291925
H       1.749988     4.457996     0.408208
H       1.267638     4.026410    -1.323405
C      -0.755687     4.345075     1.508426
H       0.092310     4.604662     2.145609
H      -1.471004     5.171483     1.499541
H      -1.269807     3.478043     1.933255
N      -1.201189     2.880552    -1.891547
C      -2.264142     2.765879    -2.892849
H      -3.147477     2.278763    -2.467971
H      -2.551078     3.759267    -3.237651
H      -1.895341     2.175595    -3.732695
C      -0.758584    -3.121661    -0.214382
C      -1.268977    -2.434114    -1.462777
C      -1.558335    -2.860272     1.039656
H      -2.188268    -2.925969    -1.804809
H      -1.512295    -1.391579    -1.253739
H      -0.547176    -2.472888    -2.282544
H      -1.121669    -3.358723     1.906263
H      -1.612622    -1.788037     1.240383
H      -2.582895    -3.230504     0.908421
C      -0.427271    -4.505776    -0.431685
N      -0.104888    -5.599882    -0.603526
48
     -1091.810454     -1091.480867   1.14   0.78
C      -0.455190    -0.685500     0.437444
C      -1.218140     0.326424    -0.171007
C      -1.898103     0.099011    -1.372669
C      -1.802930    -1.145825    -1.979481
C      -1.044740    -2.147723    -1.394551
C      -0.389130    -1.925562    -0.193193
C       0.263743    -0.464493     1.715201
C       1.151461     0.654843     1.888710
C       1.610375     0.924645     3.217381
C       1.439804     0.005768     4.224430
C       0.729088    -1.178600     3.983726
C       0.125077    -1.382424     2.743544
H      -2.327069    -1.319542    -2.912565
H      -0.966842    -3.114416    -1.880776
H       0.209691    -2.713240     0.250133
H       1.019878     1.506831     1.229826
H       2.124890     1.858919     3.413470
H       1.836105     0.207033     5.214907
H       0.603083    -1.910646     4.774196
H      -0.504277    -2.254140     2.592613
C      -1.332560     1.625121     0.438563
N      -1.423207     2.665085     0.922048
C      -2.630284     1.501938    -3.253090
O      -3.574743     2.027608    -3.813158
C      -1.325907     1.306355    -3.973297
C      -0.174006     1.614065    -3.388289
H       0.767195     1.547689    -3.923164
H      -0.120384     1.953460    -2.360453
C      -1.453630     0.886119    -5.411400
H      -0.473105     0.853323    -5.890716
H      -1.915886    -0.104366    -5.495637
H      -2.099555     1.585263    -5.949103
N      -2.713842     1.123195    -1.926912
C      -3.975094     1.417578    -1.241163
H      -4.784014     0.783630    -1.618831
H      -3.847380     1.245420    -0.172550
H      -4.242493     2.460137    -1.408016
C       2.904596     0.136501     0.889276
C       3.346382    -1.190873     1.457883
C       3.848318     1.293511     1.142861
H       2.622532    -1.980695     1.250790
H       4.309581    -1.484458     1.021662
H       3.472055    -1.111115     2.539972
H       4.762824     1.167555     0.550831
H       3.400458     2.251043     0.864048
H       4.131721     1.328325     2.196889
C       2.456242     0.081905    -0.473555
N       2.080938     0.065370    -1.564360
48
     -1091.811622     -1091.480656   0.41   0.92
C       1.053277    -0.342080    -1.071533
C       0.978185     0.794398    -0.246196
C       1.243754     2.075809    -0.745999
C       1.615467     2.219138    -2.075052
C       1.705231     1.105668    -2.896467
C       1.424272    -0.157529    -2.402294
C       0.765145    -1.710000    -0.575624
C      -0.078950    -2.579099    -1.356621
C      -0.134059    -3.958460    -0.977705
C       0.388503    -4.382763     0.219878
C       1.076140    -3.482878     1.045166
C       1.287223    -2.171757     0.621331
H       1.814677     3.213683    -2.459386
H       1.990233     1.226824    -3.935999
H       1.509347    -1.019704    -3.053795
H      -0.184432    -2.351906    -2.414077
H      -0.627124    -4.664538    -1.637031
H       0.292953    -5.423248     0.514795
H       1.487840    -3.814498     1.991971
H       1.900366    -1.516076     1.228414
C       0.607390     0.679938     1.138107
N       0.314087     0.603389     2.247485
C       0.112774     3.623925     0.841026
O       0.255397     4.410482     1.758225
C      -1.256182     3.130510     0.466488
C      -1.630947     3.032065    -0.804713
H      -2.643490     2.747975    -1.069762
H      -0.959611     3.239957    -1.629242
C      -2.192342     2.921956     1.624838
H      -1.804662     2.166777     2.313949
H      -2.294580     3.852624     2.189308
H      -3.173722     2.606173     1.264959
N       1.205391     3.221944     0.092792
C       2.496420     3.812725     0.451555
H       2.885805     3.373688     1.376250
H       3.204100     3.632011    -0.359057
H       2.374972     4.884693     0.603445
C      -2.021799    -1.914572    -1.020147
C      -2.178445    -1.790149     0.475525
C      -2.917924    -2.948067    -1.671137
H      -1.948355    -2.745734     0.953048
H      -1.526625    -1.026304     0.898938
H      -3.215463    -1.528069     0.721317
H      -2.856542    -3.895510    -1.131609
H      -3.960249    -2.608317    -1.640964
H      -2.654391    -3.117545    -2.718565
C      -2.002932    -0.677118    -1.748403
N      -1.958061     0.282081    -2.388418
48
     -1091.808350     -1091.480335   2.46   1.12
C       0.138201    -0.086151    -1.274898
C      -0.271273     1.078433    -0.603086
C      -0.760375     2.188507    -1.303070
C      -0.910732     2.110459    -2.680062
C      -0.552487     0.949466    -3.351855
C      -0.019401    -0.128225    -2.660688
C       0.734551    -1.237551    -0.559940
C       0.296262    -2.574794    -0.856924
C       1.108892    -3.654649    -0.379977
C       2.104932    -3.430078     0.537453
C       2.404266    -2.123647     0.951277
C       1.740806    -1.043760     0.374105
H      -1.296354     2.971082    -3.215856
H      -0.668275     0.895081    -4.429462
H       0.300723    -1.010948    -3.203253
H      -0.234880    -2.731514    -1.791997
H       0.879051    -4.661526    -0.711023
H       2.673636    -4.265760     0.933090
H       3.184531    -1.948014     1.683733
H       2.048544    -0.034734     0.627070
C      -0.299333     1.117654     0.835651
N      -0.365958     1.140521     1.983547
C      -0.270832     4.129004     0.128214
O      -0.666083     4.965884     0.912983
C       1.200041     3.926708    -0.145032
C       1.983888     3.486840     0.831003
H       3.052444     3.364079     0.679572
H       1.584277     3.241863     1.809083
C       1.699664     4.341041    -1.504079
H       1.265805     3.734462    -2.303987
H       1.431729     5.384337    -1.703114
H       2.786605     4.248022    -1.551550
N      -1.153499     3.367871    -0.614014
C      -2.586282     3.592946    -0.426724
H      -2.957279     3.061909     0.456711
H      -2.762651     4.659114    -0.291003
H      -3.120731     3.239068    -1.310764
C      -1.481118    -2.830373     0.195281
C      -2.463199    -1.814050    -0.347162
C      -1.140803    -2.682193     1.659092
H      -3.468673    -2.033861     0.033164
H      -2.198607    -0.809625    -0.014029
H      -2.511743    -1.825245    -1.438965
H      -0.407708    -3.424222     1.978561
H      -0.742830    -1.684894     1.858886
H      -2.047439    -2.810088     2.263794
C      -1.784484    -4.177407    -0.212398
N      -1.981773    -5.253978    -0.576536
48
     -1091.810700     -1091.480268   0.99   1.16
C       0.789553    -0.978544    -0.371689
C      -0.476914    -0.884135    -0.972393
C      -0.642975    -1.059384    -2.351242
C       0.463423    -1.385052    -3.124798
C       1.709809    -1.530224    -2.534272
C       1.874122    -1.324171    -1.173642
C       0.973758    -0.731558     1.077472
C       0.463670     0.468226     1.687480
C       0.437549     0.512506     3.117830
C       1.125394    -0.414010     3.863532
C       1.791446    -1.474179     3.232061
C       1.679657    -1.637080     1.851664
H       0.337853    -1.510161    -4.194832
H       2.567501    -1.781819    -3.148820
H       2.860324    -1.396432    -0.729077
H      -0.323384     0.998686     1.160508
H      -0.109259     1.309996     3.608947
H       1.135886    -0.338060     4.946472
H       2.346161    -2.197854     3.819463
H       2.109984    -2.514805     1.379221
C      -1.648739    -0.675361    -0.166157
N      -2.592547    -0.516830     0.471769
C      -2.794921     0.088149    -2.833560
O      -3.969615    -0.048417    -3.119043
C      -2.265972     1.428289    -2.405811
C      -1.102716     1.887523    -2.855470
H      -0.760312     2.886211    -2.606417
H      -0.451038     1.303531    -3.494310
C      -3.217537     2.246156    -1.576815
H      -4.157950     2.379818    -2.117844
H      -3.454198     1.740501    -0.636262
H      -2.783453     3.223726    -1.356592
N      -1.921504    -0.978038    -2.960518
C      -2.489426    -2.223301    -3.482183
H      -1.674929    -2.900694    -3.741758
H      -3.132909    -2.700451    -2.736026
H      -3.088378    -2.009422    -4.367119
C       1.822002     1.974474     1.206962
C       3.155338     1.550128     1.776522
C       1.224150     3.224827     1.817912
H       3.072064     1.396544     2.854416
H       3.512249     0.624726     1.321113
H       3.904424     2.331712     1.597544
H       1.817056     4.102473     1.533512
H       0.198906     3.390866     1.476017
H       1.227798     3.156226     2.907790
C       1.782213     1.992262    -0.228673
N       1.740986     2.008754    -1.381507
48
     -1091.810404     -1091.480239   1.17   1.18
C      -0.450454    -1.165354    -0.595491
C      -1.341534    -0.078257    -0.643951
C      -2.044329     0.237043    -1.814642
C      -1.908706    -0.575948    -2.930076
C      -1.062369    -1.674765    -2.885559
C      -0.334595    -1.957571    -1.740220
C       0.337915    -1.498714     0.615050
C       1.033348    -0.489449     1.370224
C       1.577355    -0.877500     2.638312
C       1.664338    -2.198812     2.996903
C       1.133114    -3.191345     2.159862
C       0.453557    -2.827526     1.000616
H      -2.461217    -0.330738    -3.830687
H      -0.955919    -2.307247    -3.760949
H       0.351335    -2.797327    -1.734369
H       0.692802     0.535958     1.284498
H       1.970848    -0.103750     3.287873
H       2.128004    -2.475252     3.938468
H       1.207353    -4.237359     2.437328
H      -0.037879    -3.595953     0.412284
C      -1.621794     0.705833     0.528652
N      -1.867193     1.347370     1.451112
C      -2.570526     2.641741    -1.585005
O      -3.400514     3.486653    -1.314374
C      -1.116493     3.019011    -1.705676
C      -0.404709     2.640986    -2.762641
H       0.611810     2.995655    -2.906882
H      -0.813977     1.999876    -3.535311
C      -0.615548     3.968200    -0.653898
H      -1.246464     4.860735    -0.636830
H      -0.671741     3.518218     0.342084
H       0.417600     4.258518    -0.857740
N      -2.941318     1.338918    -1.854681
C      -4.371959     1.030695    -1.814565
H      -4.727445     0.947316    -0.782068
H      -4.924767     1.828675    -2.308556
H      -4.544213     0.086004    -2.333149
C       2.722171     0.002310     0.255142
C       2.224075     0.705679    -0.988703
C       3.466699    -1.290852     0.023627
H       3.075971     1.102345    -1.556174
H       1.683459     0.015097    -1.637633
H       1.568102     1.544780    -0.745785
H       4.385695    -1.099487    -0.544749
H       3.737595    -1.772564     0.964676
H       2.848185    -1.981753    -0.554370
C       3.369195     0.899061     1.176367
N       3.846258     1.617180     1.942502
48
     -1091.810379     -1091.479979   1.19   1.34
C      -0.864479    -0.858268    -0.000152
C      -1.378485     0.387438    -0.396798
C      -2.042307     0.543868    -1.619699
C      -2.237457    -0.565184    -2.430027
C      -1.753902    -1.805940    -2.038203
C      -1.065771    -1.951658    -0.843111
C      -0.129644    -1.038808     1.273716
C       0.986488    -0.194445     1.614845
C       1.525941    -0.330552     2.935081
C       1.186197    -1.395695     3.731022
C       0.223843    -2.318189     3.297623
C      -0.441759    -2.110130     2.091706
H      -2.758232    -0.441419    -3.373639
H      -1.901551    -2.666933    -2.681836
H      -0.651406    -2.913820    -0.563858
H       1.024289     0.797337     1.175389
H       2.242158     0.404403     3.286530
H       1.645422    -1.512185     4.707732
H      -0.031320    -3.171881     3.915774
H      -1.237950    -2.786787     1.798818
C      -1.287739     1.528015     0.474680
N      -1.221093     2.452655     1.155454
C      -1.820381     2.950018    -2.148535
O      -2.342234     4.047453    -2.159724
C      -0.334330     2.817586    -2.362116
C       0.149580     1.942152    -3.237152
H       1.210092     1.915719    -3.470963
H      -0.488210     1.249308    -3.774518
C       0.502617     3.847089    -1.656762
H       0.408627     3.754435    -0.570294
H       1.553899     3.745697    -1.935773
H       0.151950     4.847454    -1.923340
N      -2.575968     1.803375    -2.008882
C      -4.025041     1.971820    -1.885039
H      -4.361904     2.719652    -2.601695
H      -4.510136     1.016393    -2.092134
H      -4.297661     2.305902    -0.878200
C       2.515955    -0.788282     0.332988
C       3.806825    -0.375266     1.005799
C       2.243287    -0.065239    -0.970096
H       4.656539    -0.585920     0.344457
H       3.803949     0.700180     1.207983
H       3.963652    -0.909292     1.944071
H       1.331492    -0.410957    -1.456712
H       2.161160     1.012430    -0.799073
H       3.077268    -0.226042    -1.665541
C       2.321927    -2.209468     0.263002
N       2.114553    -3.343238     0.215019
48
     -1091.809670     -1091.479868   1.63   1.41
C       0.628671    -0.761181    -0.186594
C       0.753935     0.603968     0.125888
C       1.576296     1.453050    -0.627842
C       2.261556     0.939198    -1.721242
C       2.110225    -0.396814    -2.064947
C       1.314056    -1.239579    -1.303482
C      -0.186618    -1.688312     0.632283
C      -1.092017    -2.604331    -0.007991
C      -1.599200    -3.688644     0.780501
C      -1.445474    -3.694325     2.144283
C      -0.706436    -2.683352     2.776537
C      -0.059232    -1.715092     2.012678
H       2.905445     1.590753    -2.299871
H       2.641546    -0.790538    -2.925514
H       1.242363    -2.290977    -1.559031
H      -0.947774    -2.789912    -1.069061
H      -2.162977    -4.470773     0.283712
H      -1.885712    -4.491678     2.734839
H      -0.595661    -2.681107     3.855351
H       0.590855    -0.999709     2.504941
C      -0.052741     1.185905     1.166403
N      -0.717427     1.658731     1.977743
C       1.620809     3.846508    -1.169597
O       2.149412     4.917950    -0.949670
C       0.790545     3.613960    -2.407007
C       1.255662     4.109023    -3.548461
H       0.702817     4.008749    -4.477753
H       2.203403     4.636202    -3.579172
C      -0.542521     2.917112    -2.284242
H      -1.179432     3.192281    -3.127554
H      -0.438145     1.829544    -2.281703
H      -1.052338     3.202430    -1.358731
N       1.707750     2.814577    -0.251825
C       2.419192     3.106115     0.996037
H       3.489580     3.240521     0.811373
H       2.023325     4.021179     1.434502
H       2.271592     2.279873     1.691481
C      -2.807072    -1.503127    -0.425464
C      -2.393708    -0.382798    -1.355095
C      -3.370785    -1.056705     0.902530
H      -1.830878     0.372566    -0.806097
H      -1.790034    -0.740402    -2.193404
H      -3.285898     0.103606    -1.769145
H      -4.279848    -0.464735     0.737325
H      -3.624859    -1.905733     1.538448
H      -2.650756    -0.425058     1.427979
C      -3.571379    -2.530097    -1.084061
N      -4.135623    -3.388543    -1.608621
48
     -1091.809427     -1091.479746   1.79   1.49
C      -0.547726    -0.677412    -0.445329
C      -0.422581     0.679750    -0.783989
C       0.253268     1.078391    -1.942101
C       0.751614     0.114900    -2.807631
C       0.576509    -1.229195    -2.516107
C      -0.049693    -1.621185    -1.342892
C      -1.147726    -1.120988     0.834030
C      -0.769599    -0.498236     2.076278
C      -1.499309    -0.876437     3.247755
C      -2.347377    -1.956891     3.237061
C      -2.580940    -2.656056     2.044363
C      -2.001447    -2.212403     0.857065
H       1.281724     0.426050    -3.699884
H       0.966184    -1.979972    -3.195601
H      -0.126702    -2.675368    -1.102014
H      -0.401003     0.521019     2.040481
H      -1.355394    -0.306582     4.159163
H      -2.859503    -2.253457     4.147178
H      -3.246338    -3.512641     2.034712
H      -2.252115    -2.708774    -0.075170
C      -1.035016     1.703496     0.020314
N      -1.529814     2.526195     0.653998
C       0.182317     3.054097    -3.393581
O       0.727856     4.088988    -3.724339
C      -0.874022     2.405389    -4.253807
C      -0.625549     2.310473    -5.555007
H      -1.348724     1.879717    -6.241148
H       0.310311     2.670939    -5.969460
C      -2.173285     1.979243    -3.616066
H      -2.085859     1.018027    -3.102852
H      -2.504851     2.714886    -2.876789
H      -2.946693     1.884264    -4.381151
N       0.464021     2.460431    -2.181384
C       1.425127     3.143434    -1.308477
H       1.502938     2.591692    -0.371850
H       2.410578     3.184643    -1.781459
H       1.086928     4.160865    -1.113322
C       1.165737    -1.168639     2.457492
C       1.117671    -2.673612     2.346473
C       1.498157    -0.634456     3.834799
H       0.352271    -3.071733     3.017051
H       0.890225    -2.997306     1.329658
H       2.084464    -3.104297     2.636525
H       1.347329     0.446444     3.898352
H       0.880274    -1.123918     4.590561
H       2.549066    -0.839677     4.071648
C       1.904884    -0.504191     1.420112
N       2.472283     0.070648     0.595835
48
     -1091.808429     -1091.479727   2.41   1.50
C      -0.743384    -0.353795    -0.042662
C      -0.232371     0.694170    -0.827405
C      -0.133651     0.576245    -2.218181
C      -0.575642    -0.587388    -2.832833
C      -1.115342    -1.613506    -2.070985
C      -1.191520    -1.504949    -0.690177
C      -0.800932    -0.274975     1.435069
C       0.370516     0.067849     2.200206
C       0.192562     0.270126     3.607271
C      -0.967535    -0.109766     4.234794
C      -2.039528    -0.614399     3.485784
C      -1.952773    -0.661952     2.096114
H      -0.495348    -0.679818    -3.910392
H      -1.460984    -2.519014    -2.559058
H      -1.567209    -2.330296    -0.096064
H       1.132704     0.670755     1.716251
H       1.006789     0.698087     4.182215
H      -1.065226     0.002711     5.310073
H      -2.949432    -0.933647     3.981985
H      -2.812454    -0.986210     1.518594
C       0.150546     1.942586    -0.221247
N       0.462129     2.941511     0.256731
C      -0.176093     2.168596    -4.082122
O       0.455191     2.718698    -4.964005
C      -1.680114     2.120626    -4.138108
C      -2.403200     2.486721    -3.085984
H      -3.486049     2.545598    -3.144178
H      -1.944483     2.771001    -2.144675
C      -2.256175     1.787578    -5.485106
H      -1.844687     2.461973    -6.240757
H      -1.990986     0.768078    -5.787923
H      -3.344584     1.873547    -5.472756
N       0.449745     1.628261    -2.977144
C       1.902985     1.783905    -2.888866
H       2.170729     2.797958    -3.180887
H       2.217681     1.609924    -1.859024
H       2.418147     1.080548    -3.552191
C       1.621475    -1.588739     2.030241
C       2.556465    -1.522711     3.218281
C       2.316292    -1.432342     0.691876
H       2.020725    -1.633551     4.162095
H       3.302753    -2.324067     3.150914
H       3.094613    -0.569962     3.227884
H       3.096018    -2.197523     0.587294
H       1.630695    -1.538152    -0.148847
H       2.806027    -0.455487     0.628545
C       0.689433    -2.680212     2.080435
N      -0.095680    -3.525180     2.100292
48
     -1091.810317     -1091.479584   1.23   1.59
C       0.854887    -0.879295    -0.328167
C       1.155573     0.473746    -0.097792
C       1.916141     1.214053    -1.011499
C       2.423566     0.587160    -2.138561
C       2.155515    -0.755034    -2.366390
C       1.374739    -1.474643    -1.477144
C       0.005377    -1.675337     0.590182
C      -1.062590    -2.471361     0.038919
C      -1.712646    -3.397728     0.915868
C      -1.500189    -3.352942     2.272443
C      -0.562697    -2.460145     2.808993
C       0.201813    -1.660273     1.960657
H       3.013205     1.168471    -2.838964
H       2.549611    -1.239422    -3.253245
H       1.174247    -2.523266    -1.666003
H      -0.983904    -2.752549    -1.007927
H      -2.404956    -4.120090     0.497177
H      -2.039231    -4.030046     2.927953
H      -0.395259    -2.421455     3.879667
H       0.983288    -1.040515     2.384611
C       0.688712     1.150934     1.082919
N       0.338317     1.700678     2.030226
C       1.262187     3.581383    -0.784199
O       1.497575     4.685444    -0.336220
C      -0.052685     3.254383    -1.445658
C      -1.156319     3.233964    -0.709283
H      -2.120962     3.021062    -1.160291
H      -1.128016     3.421607     0.358441
C      -0.032078     3.065520    -2.939505
H       0.562132     2.197620    -3.233804
H      -1.045728     2.915680    -3.313080
H       0.400252     3.948315    -3.423273
N       2.217690     2.583641    -0.767171
C       3.515999     2.877713    -0.163355
H       3.779211     3.911795    -0.380903
H       3.487089     2.745326     0.924150
H       4.265827     2.206663    -0.588180
C      -2.568885    -1.119262    -0.439341
C      -2.774436    -0.255224     0.780717
C      -3.761032    -1.970980    -0.824476
H      -1.906278     0.364966     1.001276
H      -3.636267     0.406817     0.627428
H      -2.982127    -0.884036     1.649888
H      -4.141383    -2.505568     0.048483
H      -4.565841    -1.331994    -1.207470
H      -3.512458    -2.695391    -1.604645
C      -1.984529    -0.459956    -1.573866
N      -1.498723     0.007116    -2.510370
48
     -1091.808534     -1091.479296   2.35   1.77
C      -0.598375    -0.299057     0.092208
C      -0.046547     0.761581    -0.649226
C      -0.521701     1.080102    -1.927620
C      -1.580411     0.357927    -2.460530
C      -2.165707    -0.658314    -1.720074
C      -1.676779    -0.988602    -0.465082
C      -0.078186    -0.693399     1.422412
C       1.332853    -0.845431     1.662172
C       1.751650    -1.020659     3.021605
C       0.842052    -1.291373     4.012718
C      -0.530287    -1.310439     3.722968
C      -0.972078    -0.983977     2.443320
H      -1.943556     0.603097    -3.452294
H      -3.000813    -1.212962    -2.135937
H      -2.119697    -1.811231     0.085345
H       2.019460    -0.319375     1.008245
H       2.812671    -0.987332     3.242066
H       1.183911    -1.472548     5.026765
H      -1.250276    -1.532244     4.503419
H      -2.038196    -0.908926     2.253128
C       0.973876     1.607652    -0.087712
N       1.786780     2.296388     0.345898
C      -0.611179     3.131218    -3.270405
O      -0.169592     3.738088    -4.227084
C      -1.931290     3.522361    -2.661455
C      -2.035254     3.713556    -1.351192
H      -2.955658     4.086026    -0.911242
H      -1.202945     3.538744    -0.677324
C      -3.024852     3.818216    -3.648262
H      -3.299310     2.921764    -4.216161
H      -3.915289     4.192129    -3.138862
H      -2.679045     4.560710    -4.372353
N       0.106033     2.114435    -2.672658
C       1.443425     1.843407    -3.204922
H       1.387231     1.347844    -4.179753
H       1.980882     2.783314    -3.321492
H       1.982240     1.206135    -2.502994
C       1.874106    -2.640507     0.754249
C       1.733918    -2.432442    -0.739069
C       0.981436    -3.701515     1.352894
H       2.284653    -1.552273    -1.081575
H       2.136839    -3.302647    -1.272692
H       0.685646    -2.324723    -1.020390
H      -0.064269    -3.488570     1.118335
H       1.231339    -4.684047     0.932935
H       1.089936    -3.752746     2.437546
C       3.247594    -2.719407     1.177324
N       4.344525    -2.736147     1.533025
48
     -1091.808359     -1091.479006   2.46   1.95
C       0.709627    -0.022998    -0.490447
C      -0.372870     0.856568    -0.315767
C      -0.614960     1.900984    -1.218171
C       0.235366     2.073905    -2.302146
C       1.311880     1.216323    -2.480343
C       1.542711     0.177248    -1.591491
C       1.003540    -1.121478     0.460197
C       1.266773    -2.443915    -0.041010
C       1.850663    -3.387971     0.866054
C       1.906588    -3.123968     2.211881
C       1.478156    -1.883819     2.707468
C       1.065415    -0.887938     1.824979
H       0.046082     2.879064    -3.002223
H       1.976506     1.360042    -3.326238
H       2.397766    -0.474719    -1.732701
H       1.534017    -2.535937    -1.090520
H       2.189411    -4.341162     0.475059
H       2.298183    -3.872328     2.893743
H       1.512260    -1.679552     3.771968
H       0.831017     0.097600     2.212193
C      -1.284466     0.680569     0.784738
N      -2.026445     0.528938     1.650716
C      -1.637284     4.123143    -1.076154
O      -2.595034     4.813797    -1.361270
C      -0.309697     4.727650    -0.693124
C       0.137328     5.732135    -1.438228
H       1.072040     6.235569    -1.210085
H      -0.427885     6.082837    -2.295536
C       0.393785     4.225997     0.543317
H      -0.320840     4.043711     1.351867
H       0.931222     3.290903     0.364835
H       1.117156     4.969921     0.883330
N      -1.743648     2.744368    -1.032725
C      -3.061488     2.177432    -1.332166
H      -3.309792     2.302845    -2.391087
H      -3.059596     1.116557    -1.081489
H      -3.817079     2.685790    -0.735002
C      -0.598348    -3.274837    -0.440244
C      -1.237339    -2.427753    -1.520024
C      -1.341931    -3.315732     0.873591
H      -0.564383    -2.253288    -2.363368
H      -2.130831    -2.934253    -1.906088
H      -1.553253    -1.465694    -1.114813
H      -0.814418    -3.916944     1.615483
H      -1.473751    -2.305958     1.268998
H      -2.337807    -3.750652     0.721593
C      -0.168258    -4.562071    -0.921074
N       0.230537    -5.574011    -1.304929
48
     -1091.807629     -1091.478851   2.91   2.05
C       1.002356    -0.515252    -1.088397
C       0.795711     0.657937    -0.349054
C       0.983989     1.917587    -0.926002
C       1.427948     2.021113    -2.230712
C       1.666011     0.865139    -2.966667
C       1.446408    -0.382877    -2.406525
C       0.742226    -1.859749    -0.525527
C      -0.060268    -2.789823    -1.275844
C      -0.059766    -4.156854    -0.843133
C       0.466106    -4.505800     0.376012
C       1.095167    -3.541595     1.177055
C       1.253958    -2.240211     0.704305
H       1.563102     3.003949    -2.668771
H       2.015406     0.942366    -3.991153
H       1.636853    -1.277210    -2.990079
H      -0.165081    -2.608870    -2.342385
H      -0.538616    -4.900105    -1.471263
H       0.408417    -5.535473     0.714861
H       1.499443    -3.815533     2.145385
H       1.821504    -1.527526     1.292902
C       0.305323     0.616003     1.003860
N      -0.080478     0.627339     2.087419
C      -0.625727     3.353888     0.085107
O      -1.507337     2.659207    -0.387126
C      -0.983678     4.527632     0.957296
C      -0.739581     5.768623     0.554236
H      -1.069779     6.624030     1.135997
H      -0.224380     5.973942    -0.379547
C      -1.726453     4.156509     2.208693
H      -2.020499     5.047795     2.766776
H      -2.619054     3.580204     1.948962
H      -1.109708     3.518125     2.850678
N       0.701684     3.092821    -0.162029
C       1.829042     3.675075     0.559898
H       2.216605     2.972212     1.306114
H       2.628859     3.918138    -0.145493
H       1.515570     4.585616     1.064046
C      -2.025376    -2.189109    -0.981511
C      -2.181797    -0.806608    -1.581437
C      -2.286234    -2.284704     0.503591
H      -1.726786    -0.043089    -0.950558
H      -1.753072    -0.740544    -2.584819
H      -3.249134    -0.565748    -1.663722
H      -3.324179    -1.998353     0.715198
H      -2.126828    -3.297954     0.875842
H      -1.632685    -1.601200     1.049688
C      -2.679111    -3.210056    -1.761061
N      -3.151274    -4.044314    -2.402447
48
     -1091.809133     -1091.478846   1.97   2.05
C       0.828817    -0.746932    -0.958471
C       1.211169     0.370138    -0.194438
C       1.984815     1.397563    -0.749225
C       2.438530     1.278231    -2.055566
C       2.086948     0.170767    -2.813319
C       1.278735    -0.820764    -2.276535
C      -0.014919    -1.835870    -0.410818
C      -1.161414    -2.282965    -1.156891
C      -1.762503    -3.522557    -0.760286
C      -1.426814    -4.113766     0.432129
C      -0.419616    -3.560931     1.236467
C       0.296127    -2.451466     0.791154
H       3.042432     2.075638    -2.474653
H       2.439451     0.084861    -3.836007
H       1.015412    -1.685681    -2.875537
H      -1.197517    -2.032196    -2.213868
H      -2.533212    -3.950420    -1.392068
H      -1.931850    -5.021756     0.746529
H      -0.162211    -4.022384     2.183466
H       1.135615    -2.093867     1.377086
C       0.787991     0.496091     1.175743
N       0.457303     0.602517     2.271907
C       1.412025     3.406877     0.565265
O       1.726619     4.170828     1.454620
C       0.021510     3.413029    -0.022311
C      -1.001205     3.353176     0.822320
H      -2.027870     3.390703     0.469088
H      -0.839200     3.259069     1.890185
C      -0.143742     3.587596    -1.511424
H       0.498502     4.393742    -1.880928
H       0.114464     2.685029    -2.071108
H      -1.180796     3.843910    -1.738835
N       2.340079     2.541400     0.015713
C       3.703325     2.587120     0.545311
H       3.993232     3.625792     0.698131
H       3.770763     2.061427     1.503954
H       4.377587     2.116629    -0.172874
C      -2.659492    -0.892067    -0.774008
C      -2.175648     0.438967    -1.308199
C      -2.915194    -0.932656     0.714006
H      -1.389003     0.842489    -0.671727
H      -1.802810     0.363569    -2.333086
H      -3.003091     1.160155    -1.307415
H      -3.703055    -0.214310     0.973994
H      -3.232538    -1.923829     1.041162
H      -2.012982    -0.653547     1.263108
C      -3.707722    -1.470688    -1.573807
N      -4.508512    -1.972609    -2.235036
48
     -1091.807639     -1091.478750   2.91   2.11
C       1.100683    -0.720376    -0.573505
C       0.782406     0.446127     0.136218
C       1.486449     1.635427    -0.076182
C       2.548235     1.661739    -0.960619
C       2.895076     0.503715    -1.648445
C       2.174973    -0.665682    -1.465105
C       0.326474    -1.973336    -0.422082
C      -0.143926    -2.652466    -1.600868
C      -0.638366    -3.988361    -1.436705
C      -0.894597    -4.491959    -0.185560
C      -0.588037    -3.738100     0.956706
C       0.046812    -2.504258     0.826504
H       3.081428     2.592196    -1.122199
H       3.728596     0.520230    -2.343128
H       2.455489    -1.562562    -2.006901
H       0.352162    -2.420765    -2.539725
H      -0.864083    -4.570729    -2.323362
H      -1.322110    -5.484092    -0.079345
H      -0.802022    -4.131689     1.944348
H       0.360915    -1.972608     1.718199
C      -0.328027     0.488241     1.051519
N      -1.202115     0.562283     1.795494
C      -0.099027     3.390278     0.222508
O      -0.727493     2.957627    -0.726142
C      -0.628052     4.561803     1.006757
C      -0.061576     5.757371     0.903109
H      -0.481437     6.624052     1.404907
H       0.825785     5.917250     0.297645
C      -1.873892     4.257468     1.788293
H      -2.249804     5.151932     2.289019
H      -2.644282     3.867528     1.116614
H      -1.682812     3.479861     2.536035
N       1.089858     2.822064     0.614998
C       1.788670     3.110301     1.863511
H       1.565274     2.351691     2.622592
H       2.866804     3.119906     1.681041
H       1.487661     4.085468     2.238745
C      -1.815281    -1.589997    -2.222826
C      -1.361770    -0.196061    -2.606125
C      -2.813986    -1.658598    -1.091190
H      -0.476234    -0.211116    -3.246863
H      -2.162596     0.305090    -3.164264
H      -1.152564     0.412499    -1.726411
H      -3.073378    -2.689563    -0.845237
H      -2.412489    -1.173238    -0.199140
H      -3.732314    -1.130220    -1.376843
C      -2.165389    -2.394153    -3.366575
N      -2.397501    -3.066478    -4.274539
48
     -1091.808252     -1091.478394   2.52   2.34
C       0.285364    -0.682037    -0.815697
C      -0.296504     0.583815    -1.008520
C      -0.039803     1.333308    -2.164544
C       0.828002     0.829989    -3.123341
C       1.404826    -0.419572    -2.949208
C       1.128368    -1.169535    -1.816759
C       0.051547    -1.495786     0.401899
C       0.148858    -0.930112     1.722159
C      -0.294418    -1.742886     2.816724
C      -0.551391    -3.080061     2.647777
C      -0.471004    -3.656480     1.371545
C      -0.200276    -2.853903     0.266136
H       1.025130     1.417905    -4.013347
H       2.075327    -0.813000    -3.706366
H       1.598049    -2.138083    -1.685534
H       0.013543     0.139897     1.830036
H      -0.370990    -1.287485     3.797603
H      -0.835451    -3.688863     3.500234
H      -0.665189    -4.715144     1.236755
H      -0.232255    -3.290957    -0.727095
C      -1.194168     1.144505    -0.034832
N      -1.909294     1.616042     0.732411
C      -1.956749     2.901639    -2.358264
O      -2.354877     4.041466    -2.217948
C      -2.933767     1.785165    -2.617943
C      -2.704565     0.876716    -3.560852
H      -3.454387     0.130838    -3.807382
H      -1.788948     0.858993    -4.140939
C      -4.226833     1.891485    -1.859924
H      -4.909259     1.091703    -2.154893
H      -4.055474     1.836238    -0.781502
H      -4.690884     2.859907    -2.064179
N      -0.602347     2.625093    -2.347351
C       0.302241     3.765172    -2.183997
H       1.308760     3.462309    -2.477497
H      -0.034441     4.586988    -2.814860
H       0.316369     4.108884    -1.144193
C       2.183001    -0.688661     2.091482
C       2.669084     0.397625     1.154919
C       2.811460    -2.048445     1.898771
H       2.070680     1.308559     1.240289
H       3.706308     0.659286     1.400279
H       2.647645     0.056758     0.119165
H       2.678847    -2.380736     0.866406
H       3.888174    -1.997935     2.104512
H       2.368522    -2.793233     2.562128
C       2.129631    -0.255168     3.463031
N       2.038476     0.096783     4.557486
48
     -1091.807335     -1091.478365   3.10   2.35
C       0.175655    -0.837399    -0.881189
C      -1.016261    -0.101879    -0.990465
C      -1.262075     0.722965    -2.097508
C      -0.297767     0.827305    -3.091129
C       0.890941     0.118763    -2.981877
C       1.123253    -0.714027    -1.897916
C       0.458979    -1.719777     0.275930
C       0.393091    -1.225188     1.626996
C       0.505014    -2.191577     2.678894
C       0.935463    -3.469345     2.422061
C       1.178280    -3.877423     1.103389
C       0.907471    -3.008368     0.048292
H      -0.487659     1.460137    -3.949897
H       1.642334     0.212276    -3.759192
H       2.060372    -1.252487    -1.809910
H      -0.241716    -0.366450     1.821938
H       0.280072    -1.887225     3.695440
H       1.066416    -4.172764     3.238439
H       1.539146    -4.879566     0.899595
H       1.025163    -3.356038    -0.973048
C      -2.019492    -0.179741     0.038860
N      -2.820205    -0.229750     0.863304
C      -2.583702     2.747748    -2.520943
O      -3.588689     3.213822    -3.019687
C      -1.406399     3.616767    -2.157360
C      -0.960300     4.465858    -3.075209
H      -0.132688     5.138481    -2.871055
H      -1.419387     4.516108    -4.057301
C      -0.866348     3.536671    -0.753563
H      -1.680403     3.614631    -0.025695
H      -0.351850     2.593148    -0.564141
H      -0.162348     4.352413    -0.576286
N      -2.504420     1.404255    -2.206134
C      -3.694615     0.594850    -2.485555
H      -4.568446     1.068331    -2.039879
H      -3.857331     0.503109    -3.564065
H      -3.562051    -0.396149    -2.052220
C       2.067145    -0.003720     1.834253
C       2.323339     0.095105     3.322318
C       1.682957     1.312030     1.187867
H       2.596671    -0.869914     3.751303
H       3.141600     0.800257     3.514388
H       1.434670     0.471489     3.838155
H       2.464374     2.059947     1.373588
H       1.558767     1.220399     0.108959
H       0.753803     1.693750     1.622282
C       3.073533    -0.732306     1.113900
N       3.847439    -1.332667     0.504486
48
     -1091.808319     -1091.478197   2.48   2.46
C       0.065259    -0.591594    -0.709532
C      -0.079479     0.797660    -0.860184
C       0.706293     1.513798    -1.771648
C       1.666081     0.839136    -2.513510
C       1.821756    -0.532138    -2.368600
C       1.024529    -1.243608    -1.484866
C      -0.736214    -1.372268     0.262612
C      -0.794966    -0.992841     1.651304
C      -1.711996    -1.713487     2.483667
C      -2.295830    -2.877735     2.050811
C      -2.077430    -3.329292     0.741993
C      -1.326819    -2.556338    -0.141366
H       2.274548     1.398475    -3.216283
H       2.574225    -1.051968    -2.952400
H       1.168332    -2.310358    -1.355428
H      -0.634654     0.051493     1.899425
H      -1.912911    -1.343676     3.483391
H      -2.946965    -3.438130     2.714453
H      -2.520946    -4.259471     0.404238
H      -1.221478    -2.876395    -1.173030
C      -1.049461     1.521599    -0.083485
N      -1.812407     2.115945     0.538861
C      -0.582107     3.583232    -2.244990
O      -0.692503     4.778538    -2.052459
C      -1.691246     2.820290    -2.920655
C      -1.433532     1.947978    -3.889782
H      -2.241106     1.471399    -4.437532
H      -0.423200     1.700582    -4.195263
C      -3.077739     3.249670    -2.531884
H      -3.259327     3.073587    -1.468085
H      -3.189528     4.323089    -2.705383
H      -3.823679     2.706951    -3.116143
N       0.583350     2.922944    -1.906932
C       1.659844     3.736814    -1.338134
H       1.767760     4.652362    -1.918768
H       1.439361     4.008502    -0.300345
H       2.589135     3.165855    -1.372104
C       1.095504    -1.425117     2.406682
C       0.917454    -1.568571     3.902627
C       1.967436    -0.252883     2.001495
H       1.893356    -1.713288     4.382531
H       0.474181    -0.660500     4.322574
H       0.283002    -2.419193     4.155646
H       2.950013    -0.338248     2.482926
H       2.127284    -0.204879     0.924483
H       1.520169     0.688733     2.334725
C       1.418893    -2.653410     1.736550
N       1.648586    -3.624801     1.158217
48
     -1091.808196     -1091.478130   2.56   2.50
C      -0.647027    -1.007589    -0.725593
C      -1.430236     0.153821    -0.600902
C      -2.026281     0.751754    -1.719345
C      -1.912701     0.139651    -2.959868
C      -1.193598    -1.040452    -3.086129
C      -0.556556    -1.597552    -1.987629
C       0.065856    -1.603650     0.427883
C       0.834127    -0.788003     1.331670
C       1.297090    -1.405966     2.539065
C       1.241858    -2.767448     2.701408
C       0.644107    -3.571235     1.718984
C       0.040022    -2.978482     0.613034
H      -2.380896     0.605429    -3.820151
H      -1.108492    -1.516800    -4.057414
H       0.041193    -2.494196    -2.109581
H       0.597119     0.269311     1.386291
H       1.743551    -0.777366     3.301484
H       1.645527    -3.222256     3.600431
H       0.608313    -4.648322     1.842286
H      -0.504561    -3.599553    -0.091459
C      -1.724084     0.709103     0.693686
N      -1.990036     1.154537     1.719858
C      -2.264997     3.120126    -1.081575
O      -2.994867     4.014904    -0.708650
C      -0.763277     3.273195    -1.080477
C      -0.164382     3.579430     0.063977
H       0.908430     3.743034     0.114798
H      -0.730070     3.674880     0.984251
C      -0.043763     3.175092    -2.401514
H       0.997439     3.483253    -2.284243
H      -0.058317     2.160459    -2.808937
H      -0.514858     3.829653    -3.142434
N      -2.785393     1.944715    -1.591080
C      -4.241797     1.825102    -1.665774
H      -4.667958     1.603576    -0.681612
H      -4.660529     2.765411    -2.022035
H      -4.496119     1.020927    -2.358621
C       2.598423    -0.323611     0.326667
C       2.209142     0.538406    -0.855183
C       3.256216    -1.639656    -0.013645
H       1.564170     1.367323    -0.556647
H       3.109209     0.963507    -1.317580
H       1.692265    -0.054483    -1.611078
H       2.606000    -2.226538    -0.667045
H       4.200250    -1.461654    -0.544166
H       3.469072    -2.226718     0.881221
C       3.267457     0.420381     1.361455
N       3.759711     1.015145     2.218323
48
     -1091.807331     -1091.477844   3.10   2.68
C       0.182107    -1.320804    -0.148903
C      -0.881149    -0.538407    -0.621106
C      -1.230078    -0.535777    -1.974834
C      -0.565789    -1.369560    -2.857267
C       0.452703    -2.192322    -2.389511
C       0.832637    -2.159039    -1.057268
C       0.656576    -1.239598     1.249957
C       0.933565     0.041970     1.849053
C       1.263589     0.049875     3.243283
C       1.559635    -1.114118     3.907406
C       1.449036    -2.347302     3.249598
C       0.972972    -2.395177     1.941298
H      -0.832931    -1.355259    -3.908548
H       0.978331    -2.842225    -3.081351
H       1.673207    -2.752121    -0.715239
H       0.390053     0.903960     1.475437
H       1.309461     0.999799     3.765086
H       1.856194    -1.083286     4.951220
H       1.700796    -3.266357     3.767375
H       0.825770    -3.357386     1.461444
C      -1.672164     0.271538     0.266296
N      -2.339577     0.921230     0.941124
C      -2.015185     1.680912    -2.395667
O      -0.899198     2.112223    -2.167331
C      -3.155215     2.632788    -2.640863
C      -4.196726     2.646777    -1.817764
H      -4.981164     3.390711    -1.921660
H      -4.281520     1.946609    -0.992596
C      -2.928935     3.619078    -3.751823
H      -3.743403     4.344921    -3.797477
H      -1.983065     4.144368    -3.591504
H      -2.857494     3.112616    -4.721207
N      -2.268675     0.329865    -2.427941
C      -3.531150    -0.281897    -2.824866
H      -3.320527    -1.203952    -3.371844
H      -4.153107    -0.524393    -1.956284
H      -4.084269     0.392005    -3.476674
C       2.619476     0.745062     0.858179
C       3.240344     1.763946     1.789857
C       2.121907     1.330637    -0.448867
H       2.518642     2.551054     2.028489
H       3.585402     1.308166     2.719214
H       4.099444     2.240080     1.301210
H       1.317882     2.052023    -0.278172
H       2.943391     1.865049    -0.943222
H       1.757615     0.571710    -1.139948
C       3.395920    -0.454489     0.707828
N       3.972079    -1.447024     0.590706
48
     -1091.806554     -1091.477750   3.59   2.74
C       0.483792    -1.169182    -0.201396
C      -0.572037    -0.516790    -0.852414
C      -0.584981    -0.376287    -2.243299
C       0.422944    -0.941645    -3.002327
C       1.449853    -1.635789    -2.371093
C       1.487482    -1.738048    -0.989935
C       0.588721    -1.219297     1.273605
C       0.453955    -0.014084     2.053058
C       0.437758    -0.160386     3.478364
C       0.796228    -1.344291     4.072757
C       1.093398    -2.465509     3.285138
C       0.958449    -2.395678     1.900405
H       0.407593    -0.820851    -4.080206
H       2.245262    -2.075237    -2.963966
H       2.325455    -2.223255    -0.502358
H      -0.147823     0.790424     1.642521
H       0.168102     0.694420     4.089384
H       0.826105    -1.421166     5.155187
H       1.395162    -3.396316     3.752766
H       1.124619    -3.285799     1.302186
C      -1.692782     0.017292    -0.125166
N      -2.614164     0.447568     0.412305
C      -1.689480     1.702013    -2.650294
O      -0.811681     2.276715    -2.033258
C      -2.873607     2.472169    -3.174684
C      -2.969982     2.768412    -4.464480
H      -3.781229     3.384259    -4.841048
H      -2.233068     2.425313    -5.184732
C      -3.823284     2.932357    -2.105829
H      -3.284292     3.531207    -1.365688
H      -4.632645     3.528477    -2.531977
H      -4.250037     2.077353    -1.569886
N      -1.646177     0.345731    -2.870839
C      -2.745744    -0.449960    -3.407967
H      -2.342774    -1.225504    -4.064925
H      -3.314360    -0.929641    -2.602911
H      -3.413824     0.185141    -3.985003
C       2.148862     1.103986     1.611829
C       2.317549     2.059160     2.774080
C       1.863823     1.789460     0.289782
H       1.417548     2.668735     2.899594
H       2.519480     1.531904     3.707741
H       3.154000     2.741067     2.576897
H       0.914740     2.331857     0.323031
H       2.654235     2.522348     0.082693
H       1.829765     1.093849    -0.547663
C       3.163193     0.088865     1.541606
N       3.937428    -0.763594     1.473196
48
     -1091.807786     -1091.477608   2.81   2.83
C      -0.250710    -1.175301    -0.503124
C      -1.235599    -0.219742    -0.802926
C      -1.600996     0.052482    -2.127044
C      -1.026781    -0.685655    -3.153112
C      -0.082789    -1.661567    -2.864407
C       0.312966    -1.896015    -1.555707
C       0.203371    -1.417612     0.885036
C       0.649983    -0.324202     1.709578
C       0.908690    -0.614480     3.088465
C       0.998120    -1.910278     3.532304
C       0.738428    -2.974124     2.657077
C       0.315933    -2.713169     1.355305
H      -1.317456    -0.474375    -4.176626
H       0.366229    -2.229617    -3.672499
H       1.088786    -2.621943    -1.338858
H       0.269737     0.667893     1.482711
H       1.071518     0.208335     3.776285
H       1.247633    -2.112730     4.569210
H       0.829214    -3.998447     3.001268
H       0.045014    -3.539181     0.705572
C      -1.948936     0.445793     0.254980
N      -2.536500     0.972971     1.091170
C      -2.465614     2.360484    -2.075116
O      -3.430229     3.097204    -2.074484
C      -1.080893     2.876238    -1.765584
C      -0.885092     3.491599    -0.605820
H       0.077821     3.927614    -0.355128
H      -1.682418     3.582647     0.123492
C      -0.031615     2.765455    -2.841537
H       0.241332     1.727771    -3.050556
H      -0.399001     3.199292    -3.777649
H       0.869919     3.305312    -2.543596
N      -2.587070     1.030274    -2.428081
C      -3.917638     0.545361    -2.796060
H      -4.411100     1.291584    -3.417349
H      -3.812942    -0.388236    -3.351922
H      -4.531925     0.370193    -1.906382
C       2.491505     0.227595     0.908403
C       3.212701     0.966467     2.014575
C       2.166657     1.090294    -0.294518
H       2.612243     1.813326     2.360967
H       3.426961     0.316411     2.864042
H       4.163223     1.365711     1.639340
H       1.712143     0.518756    -1.103329
H       1.487920     1.898857    -0.010385
H       3.085901     1.548956    -0.681184
C       3.073642    -1.041993     0.574149
N       3.493658    -2.079275     0.294156
48
     -1091.806378     -1091.477371   3.70   2.98
C       0.749705    -0.466911    -1.081981
C       1.004663     0.445691    -0.042479
C       1.453701     1.744430    -0.309819
C       1.650558     2.142417    -1.624271
C       1.389108     1.258235    -2.660289
C       0.951709    -0.029868    -2.392421
C       0.279347    -1.851398    -0.840671
C      -0.781796    -2.388728    -1.651844
C      -0.959432    -3.809744    -1.645971
C      -0.364176    -4.582571    -0.681685
C       0.511926    -3.999568     0.244256
C       0.856543    -2.655532     0.128372
H       2.005846     3.146891    -1.825578
H       1.543328     1.572705    -3.687534
H       0.785928    -0.720616    -3.211533
H      -1.021520    -1.859545    -2.570910
H      -1.624132    -4.262059    -2.374047
H      -0.563699    -5.648386    -0.639735
H       0.962165    -4.604065     1.023633
H       1.619060    -2.248590     0.782825
C       0.720894     0.107729     1.328248
N       0.488688    -0.131147     2.429056
C       1.154091     3.893867     0.819701
O       1.668792     4.803218     1.441091
C      -0.172431     4.094400     0.133518
C      -1.169337     3.242715     0.344838
H      -2.157478     3.421650    -0.069119
H      -1.045917     2.361979     0.966153
C      -0.300565     5.371031    -0.647179
H       0.388730     5.384841    -1.499229
H      -1.318291     5.495901    -1.022582
H      -0.039263     6.220783    -0.010804
N       1.721155     2.637037     0.765495
C       2.950107     2.411634     1.527394
H       3.059884     1.343718     1.721626
H       3.827823     2.775620     0.981832
H       2.880002     2.945685     2.473298
C      -2.565129    -1.701751    -0.815287
C      -3.619490    -2.131891    -1.813497
C      -2.432324    -0.203801    -0.653844
H      -4.603690    -1.762182    -1.500832
H      -3.407572    -1.710151    -2.800905
H      -3.683068    -3.217789    -1.899617
H      -2.081787     0.261345    -1.579957
H      -3.411132     0.230878    -0.413008
H      -1.747317     0.054216     0.152755
C      -2.610086    -2.424465     0.425535
N      -2.630454    -3.026929     1.408387
48
     -1091.807285     -1091.477312   3.13   3.01
C       1.138480    -0.476107    -0.985855
C       0.835741     0.896173    -1.013678
C       0.656070     1.577559    -2.223995
C       0.840703     0.899725    -3.420307
C       1.160972    -0.450151    -3.408696
C       1.294220    -1.131346    -2.208164
C       1.317449    -1.234806     0.275591
C       0.666426    -2.509573     0.431334
C       1.137045    -3.363071     1.480890
C       1.939443    -2.866159     2.476892
C       2.397753    -1.543276     2.415996
C       2.120390    -0.759414     1.298520
H       0.710000     1.436170    -4.353953
H       1.302307    -0.977466    -4.346538
H       1.556969    -2.183469    -2.213125
H       0.287001    -2.986919    -0.469420
H       0.799771    -4.393332     1.515282
H       2.230021    -3.500960     3.307731
H       3.010991    -1.141558     3.214762
H       2.573950     0.221820     1.217365
C       0.666496     1.641436     0.205186
N       0.522328     2.266537     1.159272
C      -0.795827     3.499299    -1.654716
O      -0.873296     4.689482    -1.422603
C      -1.967249     2.594648    -1.368851
C      -2.395542     1.728348    -2.281535
H      -3.298738     1.147707    -2.116736
H      -1.891022     1.589902    -3.230949
C      -2.688207     2.871706    -0.079508
H      -2.976658     3.925353    -0.041529
H      -3.581502     2.248055     0.000432
H      -2.042053     2.683870     0.782696
N       0.332683     2.962153    -2.243605
C       1.417305     3.887684    -2.574361
H       1.990897     4.156510    -1.680707
H       2.080034     3.410565    -3.298584
H       0.995736     4.796102    -3.002487
C      -1.291166    -2.094493     1.018615
C      -1.946863    -3.457751     1.089288
C      -1.879294    -1.176679    -0.029941
H      -1.509872    -4.081220     1.870733
H      -3.016585    -3.347569     1.305525
H      -1.856797    -3.977427     0.130166
H      -1.467657    -0.170177     0.027802
H      -1.705738    -1.570035    -1.036200
H      -2.965283    -1.101014     0.113009
C      -1.097953    -1.475077     2.300521
N      -0.923491    -0.989616     3.331783
48
     -1091.807118     -1091.477242   3.23   3.06
C      -0.540945    -0.532650    -0.493849
C      -0.196197     0.821388    -0.636205
C       0.581749     1.262775    -1.714400
C       0.992049     0.347576    -2.674915
C       0.622408    -0.985732    -2.562874
C      -0.126143    -1.426307    -1.481703
C      -1.308469    -1.030883     0.670373
C      -0.883563    -0.730689     2.013553
C      -1.761881    -1.120630     3.076197
C      -2.812341    -1.973884     2.847642
C      -3.100841    -2.401206     1.544086
C      -2.364976    -1.901336     0.471971
H       1.597334     0.686817    -3.507430
H       0.944400    -1.695150    -3.318271
H      -0.365020    -2.478189    -1.373536
H      -0.303401     0.173411     2.170971
H      -1.563791    -0.758440     4.079302
H      -3.436399    -2.300246     3.673756
H      -3.917917    -3.091231     1.364324
H      -2.639398    -2.181202    -0.539992
C      -0.694837     1.804781     0.288910
N      -1.087702     2.597612     1.023999
C       0.801243     3.367351    -2.952914
O       1.486711     4.347700    -3.165326
C      -0.295803     2.945190    -3.897771
C      -0.016574     2.953944    -5.196154
H      -0.762837     2.688078    -5.938848
H       0.969288     3.236345    -5.550829
C      -1.657349     2.618744    -3.335685
H      -2.410653     2.704191    -4.121521
H      -1.706210     1.604341    -2.931032
H      -1.921448     3.306594    -2.526497
N       0.957512     2.629756    -1.794340
C       1.950360     3.111767    -0.831367
H       1.830872     2.565743     0.104918
H       2.967075     2.968115    -1.211282
H       1.793136     4.174149    -0.650170
C       0.851147    -1.851214     2.285126
C       1.002854    -2.020342     3.781222
C       1.958943    -1.039695     1.642828
H       1.945319    -2.535512     4.004840
H       1.034859    -1.044010     4.274320
H       0.185441    -2.603284     4.207952
H       2.930746    -1.499459     1.863134
H       1.857173    -0.979050     0.559265
H       1.976068    -0.025539     2.054284
C       0.539370    -3.067644     1.588367
N       0.256549    -4.016753     0.996771
48
     -1091.807193     -1091.477177   3.19   3.10
C      -0.272910    -0.685338    -0.338472
C      -0.449739     0.641770    -0.767888
C      -0.286931     0.999742    -2.113791
C       0.017771     0.019180    -3.048427
C       0.143057    -1.302515    -2.644186
C       0.010074    -1.649408    -1.308482
C      -0.380928    -1.079946     1.085554
C       0.265888    -0.323088     2.124728
C      -0.066791    -0.652529     3.479393
C      -0.761889    -1.797108     3.778635
C      -1.239275    -2.620974     2.748465
C      -1.068230    -2.237976     1.420666
H       0.148373     0.296586    -4.087681
H       0.370194    -2.068041    -3.379252
H       0.152824    -2.680233    -1.003685
H       0.505716     0.715202     1.923934
H       0.290058    -0.002287     4.270147
H      -0.958987    -2.055853     4.814101
H      -1.781803    -3.530437     2.983452
H      -1.522837    -2.832549     0.634389
C      -0.893479     1.662733     0.144428
N      -1.254427     2.489461     0.858118
C      -1.184491     2.750339    -3.576805
O      -0.955874     3.789646    -4.162416
C      -2.353523     1.871660    -3.943895
C      -2.563869     1.646976    -5.235910
H      -3.401285     1.046514    -5.578478
H      -1.903888     2.067104    -5.987861
C      -3.259464     1.369394    -2.847096
H      -2.844859     0.498131    -2.333029
H      -3.427020     2.144603    -2.093080
H      -4.225038     1.082833    -3.268815
N      -0.414518     2.360685    -2.495436
C       0.644056     3.280332    -2.071637
H       0.234564     4.285416    -1.981566
H       1.026682     2.959779    -1.102204
H       1.461574     3.298954    -2.799609
C       2.291125    -0.795468     1.996223
C       2.792217    -0.212306     0.691821
C       2.381781    -2.298088     2.117622
H       2.554971     0.851201     0.602648
H       3.883625    -0.313023     0.637431
H       2.365695    -0.742174    -0.160828
H       3.431559    -2.615510     2.080798
H       1.947239    -2.652668     3.053720
H       1.854370    -2.774365     1.287611
C       2.777596    -0.081169     3.147144
N       3.123009     0.512835     4.073382
48
     -1091.806488     -1091.477104   3.63   3.15
C       0.127315    -0.451616    -1.533214
C      -0.015500     0.759789    -0.838388
C      -0.545541     1.894766    -1.460448
C      -0.971524     1.821906    -2.775058
C      -0.868177     0.619418    -3.464482
C      -0.319423    -0.498214    -2.855556
C       0.737902    -1.649143    -0.912372
C       0.106682    -2.933810    -1.055810
C       0.880540    -4.090201    -0.712567
C       2.065264    -3.963428    -0.030743
C       2.582223    -2.691847     0.257437
C       1.932227    -1.553788    -0.214666
H      -1.367463     2.709655    -3.256156
H      -1.200286     0.561689    -4.496007
H      -0.207728    -1.418089    -3.419154
H      -0.622800    -3.045768    -1.853576
H       0.479564    -5.070385    -0.946606
H       2.611641    -4.850697     0.273491
H       3.512649    -2.591954     0.805604
H       2.391803    -0.581519    -0.072039
C       0.293486     0.852808     0.564591
N       0.489682     0.942645     1.694498
C       0.489242     3.776474    -0.400352
O       1.558662     3.461020    -0.886661
C       0.412133     4.911878     0.585127
C      -0.010808     4.687206     1.823388
H       0.018916     5.470604     2.575134
H      -0.361556     3.709387     2.138280
C       0.987026     6.212429     0.099690
H       0.999805     6.954016     0.901074
H       2.006192     6.051378    -0.263064
H       0.405163     6.613019    -0.738299
N      -0.670229     3.106951    -0.720389
C      -2.014015     3.511590    -0.324257
H      -2.034113     4.578635    -0.109700
H      -2.702505     3.307244    -1.147828
H      -2.356857     2.966663     0.562295
C      -1.424259    -2.961710     0.352302
C      -2.389717    -1.858088    -0.024517
C      -0.769150    -2.812507     1.704911
H      -3.308295    -1.953492     0.568045
H      -1.957782    -0.880392     0.192728
H      -2.670197    -1.894989    -1.080158
H      -1.535652    -2.823303     2.490001
H      -0.064660    -3.621875     1.901726
H      -0.237791    -1.860264     1.767895
C      -1.945368    -4.277244     0.085354
N      -2.327069    -5.334249    -0.174401
48
     -1091.806488     -1091.477104   3.63   3.15
C      -0.504192     0.151652    -1.624054
C      -0.111585     0.906878    -0.507735
C      -0.673174     2.160798    -0.246264
C      -1.659593     2.658987    -1.079177
C      -2.082727     1.906551    -2.168566
C      -1.507966     0.675269    -2.441734
C       0.116911    -1.151849    -1.951847
C      -0.711257    -2.274157    -2.303904
C      -0.067962    -3.404695    -2.905544
C       1.300173    -3.517395    -2.900083
C       2.092697    -2.479838    -2.387642
C       1.495548    -1.299006    -1.952204
H      -2.080074     3.638590    -0.879437
H      -2.854950     2.297107    -2.823402
H      -1.819742     0.118238    -3.318546
H      -1.732406    -2.064624    -2.611244
H      -0.686492    -4.199292    -3.308474
H       1.771091    -4.406513    -3.307560
H       3.173036    -2.573774    -2.373486
H       2.122084    -0.466219    -1.650911
C       0.816441     0.378786     0.457851
N       1.520290    -0.036814     1.267250
C       1.025482     3.429405     0.867542
O       1.684918     3.441770    -0.154547
C       1.596228     3.990537     2.142549
C       1.757527     3.203332     3.199403
H       2.256672     3.563909     4.094142
H       1.434998     2.166871     3.193797
C       2.089342     5.406605     2.046758
H       2.786839     5.497260     1.209197
H       1.262742     6.100474     1.855607
H       2.589567     5.706420     2.969914
N      -0.243900     2.897547     0.896351
C      -1.169587     2.985823     2.019614
H      -1.152052     2.077408     2.631938
H      -0.913624     3.837271     2.647738
H      -2.182035     3.127497     1.633702
C      -1.408010    -3.039119    -0.499271
C      -2.242684    -1.953620     0.146558
C      -0.191492    -3.470708     0.284818
H      -2.977379    -1.530016    -0.542783
H      -2.789334    -2.368932     1.002540
H      -1.605174    -1.151597     0.520716
H       0.458030    -2.614936     0.481930
H      -0.503119    -3.886907     1.251087
H       0.381058    -4.231238    -0.248004
C      -2.201691    -4.125618    -1.012144
N      -2.827816    -4.975645    -1.476739
48
     -1091.806677     -1091.476801   3.51   3.34
C      -0.311833    -1.110884     0.365046
C      -1.067037    -0.203397    -0.393077
C      -1.658527    -0.586432    -1.601922
C      -1.564446    -1.895472    -2.035294
C      -0.870546    -2.821534    -1.263786
C      -0.245585    -2.432088    -0.090851
C       0.425105    -0.710178     1.585102
C       1.192651     0.507834     1.624387
C       1.717234     0.911345     2.895747
C       1.707337     0.057253     3.969444
C       1.097074    -1.201479     3.862219
C       0.442430    -1.555612     2.685525
H      -2.021739    -2.178157    -2.977227
H      -0.795207    -3.851437    -1.597455
H       0.335074    -3.154980     0.471534
H       0.921352     1.303160     0.939708
H       2.171364     1.892496     2.977203
H       2.155209     0.363594     4.909429
H       1.094588    -1.881034     4.707797
H      -0.103545    -2.492884     2.643918
C      -1.308484     1.145604     0.045424
N      -1.550463     2.226178     0.356309
C      -1.622802     1.380396    -2.955168
O      -0.407392     1.386037    -2.890517
C      -2.348280     2.494487    -3.663320
C      -2.886469     2.296904    -4.860063
H      -3.347185     3.111437    -5.410955
H      -2.867306     1.322844    -5.340049
C      -2.296358     3.811122    -2.942527
H      -2.776054     3.735787    -1.960384
H      -1.254530     4.093441    -2.764106
H      -2.788195     4.594274    -3.522871
N      -2.369108     0.380048    -2.377239
C      -3.819499     0.406174    -2.212379
H      -4.262955     1.070286    -2.950452
H      -4.217814    -0.601147    -2.360736
H      -4.094994     0.751411    -1.209232
C       2.889737     0.147760     0.477427
C       2.436774     0.013031    -0.961435
C       3.544184    -1.075345     1.076253
H       1.809919     0.846726    -1.286360
H       3.315796    -0.015593    -1.618023
H       1.885078    -0.916323    -1.108494
H       3.788242    -0.926214     2.129602
H       2.876438    -1.936220     0.992477
H       4.469936    -1.309207     0.535367
C       3.606959     1.372372     0.723032
N       4.143624     2.369016     0.943700
48
     -1091.806677     -1091.476794   3.51   3.34
C      -0.349094    -1.173791     0.303737
C      -1.090809    -0.274061    -0.476619
C      -1.553650    -0.629816    -1.748270
C      -1.344372    -1.908544    -2.229212
C      -0.663630    -2.830909    -1.441717
C      -0.164856    -2.465109    -0.202591
C       0.256388    -0.792772     1.600037
C       0.942918     0.463133     1.760048
C       1.332680     0.832463     3.088973
C       1.283513    -0.072663     4.118889
C       0.761623    -1.356968     3.903210
C       0.231510    -1.689047     2.659312
H      -1.702397    -2.169813    -3.219071
H      -0.498281    -3.837249    -1.812730
H       0.408691    -3.180958     0.375872
H       0.683032     1.274660     1.090111
H       1.718223     1.832437     3.253094
H       1.630897     0.211764     5.107035
H       0.728599    -2.076395     4.714465
H      -0.251400    -2.652402     2.528763
C      -1.449484     1.035977    -0.001715
N      -1.781693     2.084602     0.334244
C      -1.522285     1.400117    -3.004964
O      -0.319263     1.470972    -2.834215
C      -2.251080     2.505111    -3.723876
C      -2.673662     2.336495    -4.970421
H      -3.134352     3.149925    -5.522962
H      -2.555696     1.389699    -5.489274
C      -2.339205     3.785729    -2.944123
H      -2.826490     4.567557    -3.530066
H      -2.894590     3.635654    -2.011700
H      -1.334948     4.116902    -2.663524
N      -2.253110     0.332109    -2.539213
C      -3.711176     0.268498    -2.500453
H      -4.090701     0.547881    -1.510862
H      -4.129911     0.942177    -3.244270
H      -4.034119    -0.751095    -2.727385
C       2.749630     0.256156     0.750978
C       2.429051     0.167112    -0.726504
C       3.423690    -0.956124     1.350060
H       1.782742     0.979131    -1.067798
H       3.360613     0.220447    -1.304393
H       1.948929    -0.783494    -0.962136
H       4.404327    -1.110542     0.882329
H       3.568261    -0.845516     2.426263
H       2.818630    -1.848088     1.170295
C       3.368236     1.505657     1.112194
N       3.823137     2.518883     1.422742
48
     -1091.805865     -1091.476664   4.02   3.42
C      -1.407028    -0.207168    -0.628272
C      -0.482799     0.708427    -0.093417
C      -0.286895     1.960298    -0.680186
C      -1.071656     2.348141    -1.754358
C      -2.028953     1.478990    -2.251511
C      -2.181063     0.210832    -1.709236
C      -1.552670    -1.585927    -0.107616
C      -0.395106    -2.398322     0.167731
C      -0.615793    -3.662685     0.800423
C      -1.879758    -4.187226     0.917415
C      -2.990850    -3.442668     0.496936
C      -2.814578    -2.145823     0.018454
H      -0.925826     3.330407    -2.187163
H      -2.645256     1.782724    -3.091191
H      -2.896600    -0.476207    -2.146656
H       0.534111    -1.892709     0.405080
H       0.239777    -4.217248     1.170081
H      -2.021589    -5.167237     1.362343
H      -3.990094    -3.855519     0.585079
H      -3.685501    -1.546823    -0.227658
C       0.258016     0.401963     1.101614
N       0.860079     0.169689     2.054059
C       0.397893     4.004833     0.384245
O      -0.759771     4.344991     0.537352
C       1.518912     4.894194     0.862068
C       2.287306     5.541011    -0.005004
H       3.047756     6.240634     0.329130
H       2.168597     5.416461    -1.077171
C       1.587854     5.058875     2.354116
H       0.622934     5.410857     2.731323
H       1.797005     4.101148     2.843860
H       2.366083     5.772338     2.632865
N       0.746312     2.809406    -0.191475
C       2.129757     2.336267    -0.304895
H       2.691723     2.928096    -1.030957
H       2.638433     2.370159     0.660262
H       2.109154     1.304633    -0.655226
C       0.375214    -2.903021    -1.700527
C      -0.790038    -3.421222    -2.508552
C       1.462557    -3.918011    -1.416421
H      -0.437343    -3.812549    -3.471273
H      -1.282822    -4.234533    -1.970088
H      -1.525147    -2.639572    -2.705307
H       1.026088    -4.844896    -1.038507
H       2.006133    -4.150757    -2.339995
H       2.187440    -3.543994    -0.688589
C       0.909141    -1.641410    -2.133473
N       1.363905    -0.623526    -2.431688
48
     -1091.805368     -1091.476001   4.33   3.84
C      -0.230178    -0.699200    -0.475417
C      -0.176769     0.567170    -1.081689
C       0.405255     0.740083    -2.344323
C       0.973051    -0.351784    -2.985771
C       0.931013    -1.605935    -2.393503
C       0.325091    -1.781922    -1.158403
C      -0.818930    -0.914238     0.867883
C      -0.385637    -0.138695     2.002086
C      -1.113585    -0.312268     3.224114
C      -1.991363    -1.355265     3.383225
C      -2.263465    -2.214909     2.310153
C      -1.697791    -1.964899     1.061605
H       1.423455    -0.207926    -3.962045
H       1.374218    -2.456115    -2.901437
H       0.317633    -2.758487    -0.687502
H       0.017584     0.851481     1.816032
H      -0.933767     0.376461     4.042578
H      -2.494421    -1.501424     4.334013
H      -2.940923    -3.051813     2.439215
H      -1.968448    -2.592145     0.218269
C      -0.712597     1.723504    -0.412762
N      -1.114876     2.657366     0.124221
C      -0.650820     2.771523    -3.266996
O      -0.562613     3.965275    -3.469200
C      -1.959535     2.036680    -3.413826
C      -3.019512     2.540359    -2.793822
H      -3.998245     2.078347    -2.883575
H      -2.934101     3.423342    -2.170407
C      -2.019787     0.833569    -4.322454
H      -1.446689     1.007510    -5.239013
H      -1.615974    -0.065768    -3.850007
H      -3.056997     0.633965    -4.599608
N       0.469478     2.023068    -2.953508
C       1.749810     2.726656    -2.872664
H       2.559464     1.997706    -2.945340
H       1.818976     3.438212    -3.694398
H       1.839871     3.276024    -1.928967
C       1.543005    -0.807893     2.405729
C       1.807555    -0.450083     3.852111
C       2.435164    -0.079434     1.419806
H       1.673706     0.624519     4.009403
H       1.145947    -0.990112     4.530891
H       2.843975    -0.696703     4.114068
H       3.488335    -0.270903     1.661908
H       2.266842    -0.397638     0.391125
H       2.275077     1.001164     1.486175
C       1.433761    -2.219073     2.163270
N       1.307551    -3.342336     1.932592
48
     -1091.804295     -1091.475529   5.01   4.13
C       0.759898    -0.832860    -0.054342
C      -0.366369    -0.293753    -0.699474
C      -0.421971    -0.191902    -2.092399
C       0.632736    -0.659660    -2.858897
C       1.739357    -1.217628    -2.233447
C       1.807951    -1.296315    -0.849735
C       0.868743    -0.904073     1.420476
C       0.638397     0.261273     2.235343
C       0.606695     0.068530     3.654333
C       1.044261    -1.103877     4.218131
C       1.438483    -2.172428     3.401166
C       1.317136    -2.068986     2.017211
H       0.567826    -0.599888    -3.938697
H       2.565052    -1.586034    -2.833391
H       2.695406    -1.692643    -0.368900
H      -0.006295     1.038234     1.836361
H       0.263916     0.881119     4.285877
H       1.062927    -1.213533     5.297951
H       1.803049    -3.092549     3.844533
H       1.554148    -2.925739     1.394797
C      -1.519809     0.130983     0.050494
N      -2.448316     0.492161     0.625962
C      -2.440074    -0.394419    -3.384299
O      -2.182445    -1.557315    -3.631581
C      -3.767439     0.186742    -3.795240
C      -4.560801     0.733483    -2.880942
H      -5.562331     1.066579    -3.137815
H      -4.252920     0.838863    -1.844956
C      -4.155202    -0.056645    -5.226098
H      -3.475288     0.460694    -5.912543
H      -4.086554    -1.124894    -5.449287
H      -5.172856     0.290686    -5.416119
N      -1.565332     0.413666    -2.695167
C      -1.665928     1.869259    -2.599536
H      -2.081986     2.193428    -1.641030
H      -0.665881     2.295344    -2.715576
H      -2.299204     2.246904    -3.400252
C       2.280954     1.492163     1.881812
C       2.346394     2.435212     3.063580
C       1.992827     2.179923     0.561969
H       2.555157     1.905198     3.993929
H       3.139320     3.176809     2.905756
H       1.402516     2.978422     3.170928
H       1.019819     2.679969     0.596726
H       2.751119     2.950379     0.372697
H       2.003274     1.487374    -0.279440
C       3.363304     0.549516     1.826536
N       4.202598    -0.239682     1.768203
48
     -1091.803541     -1091.475349   5.48   4.25
C      -1.374020    -0.366869     0.124130
C      -0.367095     0.549197     0.474673
C      -0.621545     1.923443     0.518642
C      -1.876284     2.399168     0.172562
C      -2.873645     1.504605    -0.186870
C      -2.631799     0.139253    -0.193769
C      -1.128712    -1.828017     0.093571
C      -0.026353    -2.383086    -0.646048
C       0.284018    -3.761843    -0.420934
C      -0.591362    -4.582537     0.248460
C      -1.767403    -4.055806     0.800955
C      -2.004372    -2.682789     0.743124
H      -2.055380     3.467031     0.176620
H      -3.852169     1.878720    -0.468157
H      -3.417254    -0.547302    -0.489557
H       0.800955    -1.722059    -0.883143
H       1.212122    -4.160611    -0.815493
H      -0.362006    -5.636818     0.368982
H      -2.466069    -4.704373     1.318570
H      -2.866067    -2.266032     1.255439
C       0.954996     0.097904     0.821221
N       2.018855    -0.239614     1.100872
C       0.904868     3.748836     0.102746
O       0.406500     3.960791    -0.985595
C       2.142660     4.499703     0.521236
C       3.226956     3.831462     0.898326
H       4.158550     4.349775     1.106756
H       3.230738     2.749044     0.983445
C       2.087641     5.986703     0.314343
H       3.055099     6.444211     0.531443
H       1.804242     6.204175    -0.719083
H       1.330520     6.447076     0.959374
N       0.407531     2.802936     0.971112
C       0.729452     2.758184     2.399840
H      -0.178787     2.500230     2.949809
H       1.504242     2.022933     2.630887
H       1.067300     3.739497     2.730536
C      -0.632675    -2.365207    -2.639509
C      -1.929104    -3.137351    -2.702071
C       0.524706    -2.983640    -3.395256
H      -1.783641    -4.147050    -2.311917
H      -2.716660    -2.652157    -2.123171
H      -2.267585    -3.216953    -3.742918
H       0.621251    -4.041921    -3.143499
H       0.349508    -2.907824    -4.475213
H       1.468949    -2.478637    -3.175232
C      -0.769508    -0.958410    -2.896044
N      -0.860378     0.174717    -3.090998
48
     -1091.804002     -1091.475106   5.19   4.40
C       0.297452     0.024852    -1.700915
C       0.392714     0.792344    -0.525277
C      -0.050743     2.118964    -0.488922
C      -0.653159     2.669068    -1.610070
C      -0.792873     1.905839    -2.758598
C      -0.306688     0.608210    -2.811336
C       0.811491    -1.361735    -1.784525
C      -0.003063    -2.388514    -2.381018
C       0.631217    -3.631246    -2.699296
C       1.883550    -3.925839    -2.216852
C       2.597914    -2.969134    -1.482498
C       2.069605    -1.691414    -1.307155
H      -1.021838     3.686237    -1.566340
H      -1.275405     2.335346    -3.629949
H      -0.389289     0.040637    -3.731398
H      -0.817509    -2.063639    -3.023042
H       0.093342    -4.358122    -3.298432
H       2.330353    -4.893468    -2.423647
H       3.582386    -3.202866    -1.092302
H       2.671649    -0.931905    -0.820610
C       0.867049     0.201450     0.697772
N       1.237410    -0.257699     1.685713
C      -0.968064     3.447992     1.305458
O      -2.103278     3.255563     0.920578
C      -0.717127     4.297661     2.527559
C      -0.243696     5.531332     2.408970
H      -0.129107     6.176358     3.275079
H       0.021611     5.950957     1.443095
C      -1.158772     3.671536     3.820321
H      -2.215992     3.396655     3.754848
H      -0.597656     2.752153     4.022674
H      -1.017188     4.359662     4.656210
N       0.132283     2.893771     0.692671
C       1.493618     3.098719     1.192891
H       1.819777     4.131277     1.045400
H       1.569341     2.844524     2.251647
H       2.166806     2.445482     0.638964
C      -1.372043    -2.932611    -0.909267
C      -0.567810    -3.324533     0.306519
C      -2.185219    -4.051222    -1.527630
H       0.116283    -4.137258     0.051886
H       0.011719    -2.492327     0.705884
H      -1.240906    -3.681017     1.096404
H      -2.615954    -3.761351    -2.489753
H      -1.563942    -4.938190    -1.668906
H      -3.012732    -4.321936    -0.860824
C      -2.125758    -1.716476    -0.778906
N      -2.735680    -0.738652    -0.727987
48
     -1091.803382     -1091.475063   5.58   4.43
C       0.083439    -1.078447     0.116950
C      -0.678265    -0.061032    -0.489341
C      -1.015572    -0.120853    -1.846005
C      -0.645017    -1.224525    -2.599040
C       0.062103    -2.256314    -2.000947
C       0.432043    -2.179329    -0.665721
C       0.512996    -1.012516     1.533058
C       1.092662     0.183142     2.086594
C       1.283746     0.223440     3.506321
C       1.164816    -0.911591     4.268315
C       0.762273    -2.117864     3.676335
C       0.415218    -2.145656     2.327941
H      -0.932168    -1.272324    -3.642554
H       0.342587    -3.124983    -2.587761
H       1.019315    -2.976718    -0.223723
H       0.870556     1.126720     1.600594
H       1.577681     1.163194     3.960187
H       1.364287    -0.871634     5.334427
H       0.675379    -3.017926     4.275593
H       0.015238    -3.059851     1.900714
C      -1.199894     1.034451     0.285575
N      -1.622494     1.922670     0.882290
C      -3.002619     0.696922    -2.919602
O      -3.546096    -0.380197    -2.773708
C      -3.720616     1.817812    -3.627700
C      -3.295523     2.254143    -4.806762
H      -3.850682     3.003521    -5.363139
H      -2.396927     1.860398    -5.271847
C      -4.984221     2.271475    -2.953277
H      -5.646486     1.414780    -2.797518
H      -4.769319     2.697809    -1.966834
H      -5.499791     3.022559    -3.555137
N      -1.737130     0.952247    -2.444565
C      -1.107617     2.272391    -2.499965
H      -0.700965     2.484728    -3.492818
H      -1.818842     3.053265    -2.229278
H      -0.289416     2.297113    -1.780599
C       3.032316     0.272480     1.332713
C       2.910063     0.532106    -0.154039
C       3.693837    -1.029829     1.716547
H       2.486994    -0.332479    -0.666748
H       2.289018     1.406900    -0.364758
H       3.903878     0.722133    -0.578893
H       3.172724    -1.867782     1.247529
H       4.735053    -1.039221     1.370187
H       3.688773    -1.179572     2.797476
C       3.519813     1.416400     2.057686
N       3.864345     2.341746     2.653561
48
     -1091.800870     -1091.471970   7.15   6.37
C       0.346156     0.224361     0.042767
C      -0.276551     1.383157    -0.470550
C       0.161296     1.978777    -1.659265
C       1.237277     1.432936    -2.344496
C       1.875566     0.312972    -1.838550
C       1.445180    -0.274228    -0.658030
C      -0.129513    -0.432763     1.283294
C       0.811063    -1.028105     2.208125
C       0.351790    -1.189359     3.561851
C      -0.985546    -1.176859     3.858418
C      -1.921547    -0.906152     2.846666
C      -1.482303    -0.496506     1.591260
H       1.573545     1.901085    -3.263152
H       2.726146    -0.108431    -2.364040
H       1.972177    -1.141990    -0.290917
H       1.853818    -0.749580     2.082572
H       1.082521    -1.390365     4.337908
H      -1.321417    -1.371316     4.872315
H      -2.984365    -0.937963     3.060404
H      -2.217828    -0.193071     0.856223
C      -1.361409     2.035046     0.216014
N      -2.222783     2.589358     0.739188
C      -0.965584     3.262330    -3.414122
O      -1.094979     4.337577    -3.968065
C      -1.407440     1.995720    -4.099683
C      -2.186783     1.124876    -3.468753
H      -2.586093     0.255493    -3.982613
H      -2.480267     1.263811    -2.433550
C      -1.028069     1.893189    -5.549756
H      -1.368451     2.783501    -6.085137
H       0.060111     1.843482    -5.671040
H      -1.468674     1.003201    -6.003697
N      -0.467961     3.166096    -2.131819
C      -0.117566     4.417753    -1.456669
H       0.814643     4.833513    -1.854534
H      -0.916314     5.141490    -1.611008
H      -0.004955     4.226750    -0.389251
C       1.087654    -3.020839     1.638050
C       0.031506    -3.343056     0.602231
C       1.000485    -3.898940     2.872005
H       0.151947    -4.379824     0.263727
H      -0.962233    -3.243474     1.043906
H       0.088109    -2.692720    -0.271620
H       1.167749    -4.943474     2.581297
H       1.750613    -3.637696     3.620520
H       0.009255    -3.824802     3.321734
C       2.431153    -2.976506     1.119319
N       3.511883    -2.898085     0.723004
48
     -1091.797043     -1091.467955   9.56   8.89
C       0.176045    -0.327160    -0.061684
C      -0.256521     0.773272    -0.835453
C      -0.920644     0.590001    -2.053125
C      -1.125410    -0.686490    -2.548805
C      -0.653795    -1.773532    -1.830058
C      -0.017220    -1.597352    -0.610577
C       0.836679    -0.161982     1.252135
C       1.812131    -1.129317     1.705999
C       2.732402    -0.683835     2.716718
C       2.452972     0.413733     3.486327
C       1.298664     1.171129     3.224853
C       0.534262     0.902112     2.094223
H      -1.620063    -0.811070    -3.504475
H      -0.785787    -2.777367    -2.219764
H       0.327833    -2.473267    -0.080295
H       2.218055    -1.797633     0.952298
H       3.622956    -1.274029     2.905040
H       3.120301     0.700062     4.293300
H       1.041560     2.013373     3.857986
H      -0.295005     1.558161     1.860918
C       0.033587     2.137065    -0.474761
N       0.236453     3.245149    -0.241041
C      -0.739365     2.084982    -3.928076
O       0.087748     1.359774    -4.447770
C      -1.049931     3.428077    -4.535213
C      -0.908674     4.530199    -3.807467
H      -1.029095     5.513016    -4.254142
H      -0.639412     4.491622    -2.756294
C      -1.347908     3.409555    -6.007572
H      -0.543916     2.893195    -6.539274
H      -2.275069     2.863437    -6.215797
H      -1.447540     4.425438    -6.395452
N      -1.385843     1.736864    -2.764573
C      -2.571091     2.408231    -2.233385
H      -3.069577     2.957263    -3.030397
H      -3.257683     1.648897    -1.850188
H      -2.325385     3.105499    -1.427149
C       0.757319    -2.623253     2.725309
C      -0.691060    -2.188750     2.811583
C       1.395790    -2.829112     4.085160
H      -1.273582    -2.958292     3.333632
H      -0.765755    -1.261490     3.383464
H      -1.142153    -2.030154     1.831709
H       1.324407    -1.916162     4.678514
H       0.860813    -3.626077     4.616415
H       2.444305    -3.121982     4.011578
C       0.983231    -3.746583     1.851666
N       1.196000    -4.616965     1.124721
48
     -1091.796808     -1091.467413   9.70   9.23
C       0.148354    -0.340289    -0.880550
C       0.451937     0.744054    -0.032841
C       1.020320     1.920605    -0.533990
C       1.338256     2.023219    -1.875374
C       1.103958     0.940480    -2.712353
C       0.522967    -0.217786    -2.223261
C      -0.510199    -1.569421    -0.384982
C      -0.247106    -2.846650    -1.011247
C      -0.524052    -4.014945    -0.220160
C      -1.353777    -3.946493     0.867062
C      -1.868275    -2.703456     1.273148
C      -1.410703    -1.534540     0.673845
H       1.766975     2.945972    -2.250994
H       1.366270     1.001175    -3.763315
H       0.348432    -1.034318    -2.909032
H       0.627681    -2.900839    -1.652747
H      -0.116665    -4.968052    -0.540360
H      -1.611790    -4.847269     1.415329
H      -2.564707    -2.643798     2.102455
H      -1.749862    -0.582817     1.063929
C       0.280347     0.694478     1.395276
N       0.199432     0.717867     2.542311
C       0.245646     3.688121     0.884964
O      -0.897671     3.451699     0.547128
C       0.525787     4.744167     1.923616
C       1.022929     5.922831     1.570967
H       1.159867     6.716735     2.299186
H       1.290259     6.143260     0.541611
C       0.095214     4.365681     3.311697
H       0.272638     5.183401     4.013086
H      -0.969427     4.113898     3.311389
H       0.630988     3.473806     3.654969
N       1.313104     3.003089     0.351588
C       2.678410     3.056545     0.866049
H       2.876336     2.219676     1.545933
H       3.380538     3.005233     0.029483
H       2.836333     3.991229     1.399006
C      -1.628277    -3.055407    -2.570337
C      -2.590756    -1.888539    -2.492273
C      -2.315093    -4.400568    -2.435458
H      -3.132086    -1.918330    -1.544373
H      -2.090033    -0.923505    -2.576076
H      -3.323762    -1.963303    -3.305415
H      -2.870450    -4.449179    -1.497451
H      -3.025888    -4.525890    -3.261687
H      -1.609779    -5.232329    -2.472390
C      -0.747389    -3.015920    -3.709873
N      -0.002001    -2.984201    -4.590056
