48
     -1091.811363     -1091.481605   0.00   0.00
C      -0.805363    -0.541178     1.371295
C      -1.067960     0.537202     0.508472
C      -2.260838     1.264507     0.595984
C      -3.227043     0.869388     1.511659
C      -2.998404    -0.222967     2.336885
C      -1.797591    -0.914202     2.277476
C       0.480937    -1.267635     1.320910
C       0.506802    -2.673519     1.312385
C       1.694038    -3.358661     1.231047
C       2.930178    -2.657731     1.071201
C       2.898758    -1.242050     1.257958
C       1.703191    -0.571382     1.331375
H      -4.150370     1.434493     1.579481
H      -3.759156    -0.524416     3.049542
H      -1.610915    -1.740745     2.954515
H      -0.428820    -3.222644     1.356721
H       1.702667    -4.443279     1.222869
H       3.844516    -3.185286     1.328058
H       3.830867    -0.689256     1.302721
H       1.698684     0.509445     1.426944
C      -0.138419     0.867369    -0.538477
N       0.589861     1.129979    -1.389164
C      -1.681906     3.447150    -0.425048
O      -1.800361     4.184727    -1.384028
C      -0.667683     3.754224     0.645789
C      -0.985733     3.674562     1.934002
H      -0.283281     3.987585     2.700848
H      -1.956184     3.328036     2.271385
C       0.635991     4.305208     0.140719
H       1.284040     4.580749     0.975424
H       0.445559     5.185535    -0.478575
H       1.153263     3.574378    -0.487687
N      -2.520073     2.359355    -0.268339
C      -3.560793     2.180986    -1.283101
H      -3.131075     1.822915    -2.224197
H      -4.054553     3.134352    -1.469589
H      -4.287598     1.453629    -0.918883
C       3.364907    -2.872548    -0.970077
C       2.218086    -2.249910    -1.725841
C       4.705316    -2.196047    -1.148769
H       1.271132    -2.742505    -1.500487
H       2.397960    -2.331749    -2.805229
H       2.129149    -1.189584    -1.480250
H       5.064274    -2.334580    -2.176195
H       5.462920    -2.601953    -0.473619
H       4.610005    -1.122297    -0.971624
C       3.422882    -4.306340    -1.028004
N       3.457603    -5.459486    -1.005805
48
     -1091.811363     -1091.481603   0.00   0.00
C      -1.062319    -0.712587     1.008660
C      -0.452982     0.458814     1.491185
C      -0.924180     1.102604     2.641441
C      -1.973354     0.534251     3.351605
C      -2.552485    -0.647634     2.910832
C      -2.111747    -1.259164     1.746757
C      -0.605004    -1.355624    -0.241228
C      -0.429793    -0.603371    -1.416895
C       0.020145    -1.192880    -2.572144
C       0.414508    -2.565597    -2.584309
C       0.073057    -3.346698    -1.436186
C      -0.384641    -2.743516    -0.290651
H      -2.338432     1.034657     4.241994
H      -3.371996    -1.084454     3.472157
H      -2.597309    -2.159960     1.387313
H      -0.681148     0.452167    -1.415214
H       0.115232    -0.602693    -3.477158
H       0.460003    -3.074078    -3.543309
H       0.241937    -4.417821    -1.462946
H      -0.566711    -3.342545     0.596428
C       0.723265     0.979070     0.847023
N       1.673510     1.394768     0.349779
C      -0.127079     3.432913     2.365964
O       0.658059     4.288520     2.725395
C      -0.962349     3.642762     1.129863
C      -2.263216     3.369396     1.127244
H      -2.880628     3.610501     0.266927
H      -2.764895     2.928609     1.981473
C      -0.251137     4.326576    -0.003638
H       0.169835     5.272637     0.346390
H      -0.941017     4.518203    -0.828240
H       0.581615     3.718001    -0.367966
N      -0.315013     2.290723     3.121251
C       0.441207     2.198927     4.372002
H       0.027705     1.389845     4.975617
H       0.363491     3.140847     4.914457
H       1.499220     1.998626     4.174505
C       2.509570    -2.473507    -2.519661
C       2.897233    -1.708273    -3.764818
C       2.874857    -1.814746    -1.213274
H       3.989131    -1.684684    -3.868972
H       2.547374    -0.675770    -3.694545
H       2.485976    -2.162237    -4.669990
H       3.966268    -1.737095    -1.130076
H       2.508103    -2.383644    -0.357702
H       2.462345    -0.804742    -1.165878
C       2.789015    -3.880480    -2.589067
N       2.944862    -5.022172    -2.649862
48
     -1091.810854     -1091.481517   0.32   0.06
C       0.408942     1.217904    -0.613841
C      -0.701599     0.958363     0.209254
C      -1.368030     1.992236     0.875330
C      -0.913398     3.295933     0.732380
C       0.201437     3.560365    -0.050276
C       0.852797     2.535659    -0.720894
C       1.102349     0.129331    -1.334320
C       2.505092     0.034832    -1.297988
C       3.161453    -0.994882    -1.926187
C       2.428537    -2.043764    -2.564479
C       1.026358    -1.836497    -2.741121
C       0.383979    -0.804851    -2.102218
H      -1.435048     4.097063     1.244154
H       0.556412     4.581048    -0.150323
H       1.704408     2.755505    -1.355637
H       3.073987     0.780695    -0.751284
H       4.243635    -1.059714    -1.889800
H       2.951335    -2.646302    -3.302034
H       0.458609    -2.526575    -3.355805
H      -0.689492    -0.691051    -2.211586
C      -1.120909    -0.397429     0.454575
N      -1.449040    -1.480519     0.661771
C      -2.630099     2.131749     2.970463
O      -3.715583     2.282560     3.497457
C      -1.364499     2.349684     3.757303
C      -0.402715     1.433517     3.751930
H       0.472127     1.537175     4.387020
H      -0.466019     0.537272     3.143539
C      -1.362532     3.570792     4.632585
H      -1.413187     4.487238     4.033457
H      -0.459537     3.606608     5.245414
H      -2.243532     3.563961     5.279890
N      -2.514102     1.699235     1.664649
C      -3.750449     1.383060     0.947291
H      -3.516407     0.737268     0.099756
H      -4.243654     2.292607     0.587026
H      -4.427581     0.862681     1.622386
C       2.520944    -3.623769    -1.187388
C       1.886183    -3.127995     0.087575
C       1.803659    -4.767280    -1.868726
H       0.843166    -2.854550    -0.085635
H       2.413245    -2.262378     0.491593
H       1.904652    -3.923154     0.843600
H       0.743483    -4.529846    -1.982994
H       1.878731    -5.676578    -1.259478
H       2.226477    -4.989196    -2.851855
C       3.947755    -3.779156    -1.134342
N       5.099225    -3.853357    -1.139314
48
     -1091.810854     -1091.481517   0.32   0.06
C       0.290808     0.734451    -1.165650
C       0.081254     1.326825     0.092653
C      -0.805487     2.396885     0.251851
C      -1.502339     2.870980    -0.851045
C      -1.329038     2.273078    -2.091131
C      -0.439168     1.220950    -2.249809
C       1.242186    -0.383348    -1.339716
C       2.552208    -0.306287    -0.833431
C       3.422764    -1.359896    -0.964515
C       2.990728    -2.596829    -1.533377
C       1.720638    -2.597302    -2.190344
C       0.863661    -1.532682    -2.056439
H      -2.184467     3.704778    -0.727256
H      -1.883871     2.643462    -2.947160
H      -0.286510     0.780054    -3.228981
H       2.885679     0.609526    -0.356634
H       4.439121    -1.268111    -0.597119
H       3.749918    -3.279245    -1.905258
H       1.417678    -3.480067    -2.743142
H      -0.127621    -1.581994    -2.496625
C       0.713090     0.779834     1.265580
N       1.206866     0.336108     2.205248
C      -2.202558     3.188586     2.102063
O      -2.396313     4.054009     2.934076
C      -3.308311     2.241503     1.716439
C      -3.097670     0.930041     1.705537
H      -3.910674     0.234447     1.519504
H      -2.121799     0.502887     1.911970
C      -4.651214     2.882717     1.509834
H      -5.418781     2.126196     1.334454
H      -4.635379     3.567439     0.654090
H      -4.917251     3.476504     2.388386
N      -0.960292     3.000424     1.530184
C       0.132869     3.854897     1.997081
H       0.054982     3.970058     3.076766
H       0.086791     4.846570     1.533640
H       1.085168     3.383166     1.750623
C       2.685362    -3.825630     0.139388
C       4.035126    -3.890301     0.817838
C       1.582235    -3.192320     0.949495
H       4.820806    -4.227420     0.136937
H       4.000468    -4.590894     1.661406
H       4.303913    -2.907625     1.212180
H       1.386147    -3.797027     1.843963
H       0.654687    -3.116818     0.380047
H       1.874663    -2.192810     1.278315
C       2.318436    -5.033479    -0.545605
N       2.033897    -5.970332    -1.156143
48
     -1091.810854     -1091.481516   0.32   0.06
C      -1.171321    -0.466791     0.486769
C      -0.774807     0.710367    -0.172945
C      -1.494173     1.901095    -0.026791
C      -2.610669     1.922920     0.797653
C      -2.992218     0.776504     1.479916
C      -2.285671    -0.406815     1.323175
C      -0.424146    -1.730969     0.318022
C      -0.093312    -2.212684    -0.961399
C       0.632100    -3.368279    -1.114775
C       1.151640    -4.059839     0.021927
C       0.664523    -3.653869     1.303583
C      -0.066662    -2.499554     1.440262
H      -3.171064     2.845052     0.904758
H      -3.861102     0.803416     2.129627
H      -2.609483    -1.306178     1.835779
H      -0.440192    -1.676183    -1.838378
H       0.848026    -3.740919    -2.110214
H       1.436397    -5.101007    -0.101512
H       0.937096    -4.237899     2.176084
H      -0.361938    -2.164372     2.429859
C       0.440229     0.733999    -0.945799
N       1.417254     0.757915    -1.552869
C      -0.892625     4.274389    -0.114230
O      -0.983450     5.326621    -0.716979
C      -0.490241     4.260224     1.337062
C       0.482329     3.459286     1.757809
H       0.842994     3.507078     2.781074
H       0.973561     2.754384     1.095081
C      -1.153927     5.303151     2.190909
H      -2.234376     5.131158     2.257531
H      -1.015329     6.291079     1.743692
H      -0.739084     5.298198     3.200920
N      -1.090498     3.061467    -0.742984
C      -1.370212     3.084989    -2.179760
H      -1.150522     2.103578    -2.602507
H      -0.734660     3.832464    -2.651355
H      -2.417527     3.339975    -2.375782
C       3.172255    -3.496633     0.057117
C       3.724990    -3.972601    -1.267375
C       3.204853    -2.004711     0.274714
H       3.547687    -5.039300    -1.426391
H       4.808381    -3.804225    -1.306755
H       3.270858    -3.410660    -2.086759
H       2.695318    -1.487942    -0.541364
H       4.245302    -1.656568     0.296036
H       2.732718    -1.723173     1.217127
C       3.594828    -4.283297     1.181992
N       3.869486    -4.940516     2.089758
48
     -1091.810854     -1091.481507   0.32   0.06
C       1.355250     1.074378     0.333842
C       0.042223     1.189644    -0.156889
C      -0.739804     2.315520     0.121487
C      -0.213688     3.329486     0.910043
C       1.068418     3.212020     1.427482
C       1.847372     2.101100     1.139210
C       2.190272    -0.105405     0.024425
C       2.895009    -0.764420     1.047649
C       3.640465    -1.887099     0.783753
C       3.652054    -2.462390    -0.525308
C       3.079285    -1.684377    -1.577400
C       2.332562    -0.566919    -1.296627
H      -0.818835     4.204560     1.119551
H       1.469890     4.004818     2.050461
H       2.859870     2.032008     1.522023
H       2.834493    -0.385977     2.063501
H       4.178170    -2.389221     1.580868
H       4.471764    -3.130626    -0.774092
H       3.204337    -2.004492    -2.606124
H       1.866750    -0.015100    -2.106421
C      -0.557321     0.101739    -0.885717
N      -1.041976    -0.771507    -1.456888
C      -3.147674     2.699211     0.358572
O      -4.147400     3.213275    -0.105131
C      -3.104966     2.286124     1.806282
C      -2.704160     1.066212     2.146284
H      -2.756858     0.726983     3.176614
H      -2.341927     0.354593     1.411583
C      -3.682241     3.284275     2.769440
H      -3.709801     2.874902     3.781318
H      -4.693993     3.557271     2.457922
H      -3.092009     4.207755     2.783513
N      -2.047748     2.418967    -0.427149
C      -2.145333     2.723129    -1.855789
H      -1.395498     2.143733    -2.396338
H      -1.987715     3.790549    -2.045943
H      -3.137951     2.448544    -2.208367
C       2.349417    -4.098644    -0.360534
C       1.006834    -3.547047     0.048681
C       2.393423    -4.760769    -1.719207
H       0.630863    -2.855118    -0.707982
H       1.058550    -3.025869     1.005769
H       0.283602    -4.366794     0.144300
H       1.808925    -5.689113    -1.705873
H       3.413443    -5.013659    -2.019495
H       1.954277    -4.101793    -2.471739
C       3.045272    -4.824635     0.664875
N       3.653291    -5.358337     1.487606
48
     -1091.810558     -1091.481330   0.51   0.17
C      -0.637702    -0.459076     1.172067
C      -0.590497     0.658908     0.320435
C      -1.623502     1.601637     0.304990
C      -2.714287     1.427653     1.145565
C      -2.772354     0.328614     1.990614
C      -1.750014    -0.608868     1.999622
C       0.459696    -1.449982     1.204592
C       0.176219    -2.824540     1.118430
C       1.185829    -3.755563     1.106451
C       2.555472    -3.344307     1.099623
C       2.816864    -1.965610     1.366602
C       1.796843    -1.046488     1.369212
H      -3.515797     2.157943     1.128683
H      -3.626809     0.201262     2.647508
H      -1.794247    -1.457503     2.673790
H      -0.857178    -3.150090     1.046540
H       0.956681    -4.813511     1.036769
H       3.300776    -4.072753     1.406683
H       3.837992    -1.638022     1.528899
H       2.020588     0.003241     1.527389
C       0.520863     0.839938    -0.577566
N       1.404226     0.979690    -1.301271
C      -1.718781     4.001905    -0.168172
O      -2.113333     4.879591    -0.911593
C      -1.315959     4.326936     1.246483
C      -0.151266     3.907172     1.727470
H       0.190821     4.211761     2.712129
H       0.514322     3.276551     1.147467
C      -2.243135     5.259030     1.973348
H      -3.227987     4.801348     2.121336
H      -2.397926     6.164278     1.380263
H      -1.835256     5.527748     2.949919
N      -1.568031     2.699311    -0.599663
C      -1.879926     2.413899    -2.001660
H      -1.509447     3.231098    -2.618030
H      -2.960631     2.319234    -2.155918
H      -1.388128     1.485931    -2.296341
C       3.135076    -3.572659    -0.902775
C       2.233103    -2.683174    -1.721127
C       4.601524    -3.204366    -0.921075
H       2.499941    -2.761733    -2.782651
H       2.351709    -1.639473    -1.422114
H       1.183981    -2.962167    -1.612658
H       4.724472    -2.143359    -0.691807
H       5.022976    -3.381800    -1.918334
H       5.181172    -3.792462    -0.205031
C       2.885666    -4.980413    -1.039954
N       2.666532    -6.112460    -1.083074
48
     -1091.810557     -1091.481329   0.51   0.17
C       1.046442     0.978041     0.181910
C      -0.352951     0.914647     0.059066
C      -1.116092     2.070722    -0.133771
C      -0.478125     3.301351    -0.205963
C       0.902190     3.376909    -0.086041
C       1.657965     2.228477     0.098436
C       1.856628    -0.239350     0.402814
C       1.540113    -1.144664     1.431449
C       2.274344    -2.290455     1.613947
C       3.317931    -2.640579     0.703591
C       3.732460    -1.633076    -0.222800
C       2.992555    -0.487840    -0.387829
H      -1.071803     4.195760    -0.359609
H       1.393501     4.343100    -0.140010
H       2.735129     2.296117     0.206986
H       0.720769    -0.919057     2.105829
H       2.035292    -2.958930     2.433916
H       4.064908    -3.356102     1.035928
H       4.605475    -1.816744    -0.839833
H       3.277860     0.232463    -1.148635
C      -1.027850    -0.356872     0.104306
N      -1.565856    -1.373446     0.131468
C      -3.400268     2.712704     0.469822
O      -4.518626     2.988060     0.079794
C      -2.952140     3.124187     1.847872
C      -2.395509     2.238694     2.666482
H      -2.152977     2.499236     3.692466
H      -2.194063     1.218865     2.355900
C      -3.320897     4.525473     2.244360
H      -3.055236     4.716029     3.286175
H      -4.394612     4.678686     2.107076
H      -2.809563     5.262271     1.614301
N      -2.526446     1.969985    -0.298652
C      -3.005527     1.502016    -1.600882
H      -2.956522     2.299184    -2.351092
H      -4.040595     1.180362    -1.500209
H      -2.394050     0.659168    -1.925769
C       2.435310    -4.103618    -0.512213
C       2.046620    -5.210485     0.441835
C       1.290365    -3.437565    -1.233262
H       2.896151    -5.557580     1.035462
H       1.655340    -6.070071    -0.116415
H       1.259342    -4.865155     1.115894
H       1.631714    -2.607712    -1.853813
H       0.554850    -3.062264    -0.518449
H       0.787917    -4.165924    -1.882298
C       3.571294    -4.414462    -1.334219
N       4.520896    -4.618532    -1.957132
48
     -1091.811158     -1091.481222   0.13   0.24
C       1.315371     1.111080     0.779233
C       0.052975     0.904912     1.362059
C      -0.400587     1.706551     2.416341
C       0.441848     2.680810     2.935208
C       1.708807     2.862628     2.398523
C       2.137794     2.096300     1.325210
C       1.769274     0.308673    -0.376519
C       3.056348    -0.256501    -0.388409
C       3.481777    -1.024859    -1.445443
C       2.598233    -1.334040    -2.524471
C       1.363545    -0.614786    -2.575269
C       0.949662     0.141500    -1.508122
H       0.088667     3.301867     3.751321
H       2.360268     3.626776     2.809844
H       3.113026     2.274181     0.885115
H       3.718888    -0.085789     0.454911
H       4.487219    -1.432175    -1.447342
H       3.037371    -1.648663    -3.467063
H       0.728294    -0.726151    -3.447313
H      -0.014399     0.637739    -1.545249
C      -0.773403    -0.190829     0.931502
N      -1.440085    -1.071529     0.611130
C      -2.865895     1.490058     2.286737
O      -3.872781     1.017505     2.777173
C      -2.917107     2.135223     0.926243
C      -2.329434     3.305959     0.700440
H      -2.447954     3.813290    -0.252472
H      -1.739815     3.814071     1.455326
C      -3.806377     1.442593    -0.067588
H      -3.440354     0.435068    -0.285491
H      -3.857856     2.012857    -0.997518
H      -4.810509     1.337367     0.351231
N      -1.679740     1.504963     2.996099
C      -1.721938     0.966585     4.357345
H      -2.589517     1.367631     4.880767
H      -0.809046     1.256057     4.879650
H      -1.799692    -0.125323     4.342832
C       1.989896    -3.303313    -2.137214
C       3.274777    -4.098746    -2.086355
C       1.194191    -3.265513    -0.856839
H       3.872760    -3.793712    -1.224417
H       3.871067    -3.972640    -2.993609
H       3.053088    -5.167625    -1.977596
H       0.289488    -2.664178    -0.950931
H       1.803104    -2.852373    -0.049198
H       0.901191    -4.283845    -0.571940
C       1.214748    -3.526508    -3.325385
N       0.611206    -3.641874    -4.302046
48
     -1091.810838     -1091.481219   0.33   0.24
C      -1.386205    -0.789846    -0.217579
C      -1.148585     0.587842    -0.365479
C      -2.175876     1.523716    -0.199176
C      -3.463191     1.075062     0.063904
C      -3.713636    -0.283531     0.196190
C      -2.685095    -1.205696     0.072374
C      -0.294541    -1.778361    -0.356257
C       0.553702    -1.778750    -1.478076
C       1.597997    -2.665632    -1.571643
C       1.908210    -3.544388    -0.488951
C       0.935561    -3.652660     0.553905
C      -0.108250    -2.763598     0.630015
H      -4.258096     1.802822     0.186988
H      -4.721644    -0.625030     0.407700
H      -2.888644    -2.266355     0.173267
H       0.364703    -1.084889    -2.290325
H       2.221845    -2.671554    -2.458805
H       2.517531    -4.418520    -0.701103
H       1.073219    -4.405563     1.322494
H      -0.792727    -2.808298     1.471750
C       0.175451     1.066621    -0.660666
N       1.230146     1.459030    -0.898439
C      -0.998663     3.623602     0.395269
O      -0.623787     4.719579     0.026195
C      -0.502247     3.053345     1.698460
C      -1.337319     2.481154     2.560074
H      -0.991185     2.155539     3.536587
H      -2.390705     2.343935     2.343723
C       0.941975     3.336931     2.002739
H       1.596961     2.894502     1.247528
H       1.210311     2.939806     2.983998
H       1.114164     4.416358     1.986864
N      -1.933032     2.916156    -0.337768
C      -2.457253     3.564220    -1.541464
H      -2.686150     4.606218    -1.320668
H      -3.364427     3.045097    -1.854835
H      -1.724180     3.533984    -2.354412
C       3.536242    -2.610552     0.445377
C       4.607144    -2.552553    -0.620717
C       3.046790    -1.273835     0.944356
H       4.824025    -3.539114    -1.038039
H       5.538966    -2.155631    -0.199018
H       4.296576    -1.885566    -1.428252
H       2.707324    -0.656062     0.110383
H       3.866515    -0.742907     1.444898
H       2.227468    -1.382778     1.656565
C       3.786333    -3.585542     1.470064
N       3.935869    -4.406783     2.266686
48
     -1091.810838     -1091.481216   0.33   0.24
C      -1.029440    -0.566743     1.363460
C      -0.399248     0.678520     1.532394
C      -1.072149     1.759980     2.112472
C      -2.368088     1.579560     2.576880
C      -2.995388     0.350306     2.430494
C      -2.340361    -0.707241     1.817183
C      -0.332922    -1.700392     0.717064
C      -0.961460    -2.413256    -0.319707
C      -0.310669    -3.428964    -0.975887
C       1.054470    -3.731332    -0.675413
C       1.606081    -3.127801     0.495972
C       0.945100    -2.109595     1.138021
H      -2.884870     2.418363     3.030755
H      -4.010498     0.219833     2.791004
H      -2.835319    -1.666414     1.709419
H      -1.970932    -2.142491    -0.614115
H      -0.802662    -3.969214    -1.777519
H       1.430217    -4.707047    -0.970674
H       2.577380    -3.450194     0.855025
H       1.403284    -1.629866     1.996416
C       0.951199     0.874283     1.076977
N       2.031209     1.040073     0.717823
C       0.113026     3.755777     1.240157
O       0.897223     4.655499     1.471355
C      -0.324041     3.477909    -0.174656
C      -1.603468     3.270586    -0.469966
H      -1.925267     3.163197    -1.501628
H      -2.375663     3.231058     0.289911
C       0.755545     3.625321    -1.209813
H       0.349725     3.461682    -2.210369
H       1.568208     2.915566    -1.033963
H       1.184995     4.628861    -1.150303
N      -0.438807     3.021017     2.272860
C      -0.056524     3.402912     3.633631
H      -0.086217     4.487987     3.726602
H       0.957533     3.061587     3.866814
H      -0.758920     2.952528     4.336801
C       2.119279    -2.825401    -2.237777
C       1.809573    -1.350209    -2.180811
C       3.562913    -3.195575    -1.981564
H       2.345695    -0.828233    -2.983614
H       2.137809    -0.927732    -1.228884
H       0.742898    -1.155444    -2.301931
H       3.913393    -2.723273    -1.060948
H       4.196196    -2.837765    -2.802901
H       3.700850    -4.276787    -1.901252
C       1.524645    -3.527497    -3.340775
N       1.009573    -4.127497    -4.181076
48
     -1091.810591     -1091.481206   0.48   0.25
C       1.135790     1.088816     0.638893
C      -0.019375     0.674619     1.325786
C      -0.815026     1.589394     2.023779
C      -0.465259     2.932681     2.023627
C       0.653595     3.358278     1.322165
C       1.449282     2.447864     0.642451
C       1.992099     0.123379    -0.082533
C       2.439957    -1.057603     0.537534
C       3.215617    -1.962342    -0.142616
C       3.509078    -1.775578    -1.529559
C       3.187281    -0.502356    -2.091465
C       2.417213     0.397592    -1.394398
H      -1.079630     3.639271     2.570551
H       0.916473     4.411232     1.319597
H       2.340219     2.785314     0.123976
H       2.185903    -1.243754     1.575692
H       3.564376    -2.863749     0.349544
H       4.357941    -2.313791    -1.942021
H       3.525711    -0.261802    -3.093716
H       2.124846     1.332808    -1.862488
C      -0.458559    -0.694836     1.250235
N      -0.823180    -1.783887     1.184090
C      -3.198904     1.696318     2.578362
O      -4.045447     1.640253     3.449577
C      -3.513410     2.333921     1.250609
C      -3.238899     1.697868     0.117263
H      -3.544639     2.106110    -0.841540
H      -2.732092     0.738500     0.104913
C      -4.275541     3.626203     1.330513
H      -4.554722     3.973484     0.333670
H      -3.680242     4.407333     1.817185
H      -5.175970     3.488387     1.935039
N      -1.951274     1.129625     2.744858
C      -1.697675     0.414694     3.996940
H      -2.582844    -0.161571     4.260493
H      -1.475723     1.110963     4.813181
H      -0.853239    -0.261682     3.857169
C       2.191022    -3.099364    -2.482727
C       0.799795    -2.713363    -2.047263
C       2.484154    -2.936657    -3.957191
H       0.600566    -1.671434    -2.309300
H       0.654774    -2.834678    -0.973348
H       0.062174    -3.338822    -2.565710
H       3.541037    -3.096836    -4.185057
H       2.197771    -1.936319    -4.290178
H       1.902670    -3.661823    -4.539849
C       2.680389    -4.329455    -1.925869
N       3.123391    -5.281156    -1.446910
48
     -1091.810590     -1091.481203   0.48   0.25
C       1.108398     0.987794     0.778303
C      -0.200841     1.155846     0.293089
C      -1.060252     2.113423     0.842202
C      -0.616252     2.900035     1.896171
C       0.661918     2.720837     2.405282
C       1.517580     1.780738     1.850271
C       2.028068    -0.007814     0.187744
C       2.759059    -0.875506     1.018207
C       3.594589    -1.827981     0.485765
C       3.680910    -2.013980    -0.927861
C       3.067538    -1.017083    -1.749192
C       2.230788    -0.076745    -1.202915
H      -1.281651     3.646109     2.316249
H       0.999554     3.333750     3.234838
H       2.526191     1.670286     2.233627
H       2.653815    -0.792789     2.095842
H       4.168735    -2.471860     1.143555
H       4.556642    -2.522391    -1.321531
H       3.224714    -1.053114    -2.821752
H       1.734674     0.638996    -1.849872
C      -0.716639     0.279198    -0.726441
N      -1.140396    -0.425259    -1.531131
C      -3.492110     2.275092     1.090724
O      -4.515682     2.836520     0.750286
C      -3.447403     1.483210     2.371076
C      -2.973680     0.242272     2.378169
H      -3.021785    -0.369763     3.274016
H      -2.553285    -0.217448     1.489733
C      -4.105250     2.142748     3.549834
H      -3.577472     3.059872     3.835703
H      -4.122795     1.470313     4.409931
H      -5.127413     2.430866     3.290237
N      -2.362380     2.287541     0.297647
C      -2.455009     2.965583    -0.996489
H      -3.419197     2.736856    -1.447138
H      -1.656486     2.605048    -1.646471
H      -2.369364     4.051809    -0.882086
C       2.514040    -3.718919    -1.288181
C       3.145108    -4.801149    -0.441439
C       1.094679    -3.355300    -0.931341
H       4.210339    -4.919970    -0.655325
H       2.655869    -5.764066    -0.633578
H       3.020451    -4.570534     0.619149
H       0.701414    -2.558246    -1.563078
H       1.041515    -3.030980     0.110754
H       0.447196    -4.233899    -1.044922
C       2.767472    -3.860568    -2.694739
N       3.015169    -3.920965    -3.820076
48
     -1091.810591     -1091.481202   0.48   0.25
C       0.516258    -0.956071     1.306624
C       0.632776     0.445215     1.331268
C       0.396344     1.171926     2.503044
C       0.024100     0.497114     3.657521
C      -0.126342    -0.882006     3.637162
C       0.122302    -1.602315     2.478148
C       0.785711    -1.731022     0.076731
C      -0.116445    -2.723135    -0.346036
C       0.101871    -3.431433    -1.503388
C       1.210665    -3.122251    -2.349180
C       2.200406    -2.236883    -1.818942
C       1.964411    -1.532146    -0.665489
H      -0.152471     1.061511     4.566435
H      -0.425646    -1.402221     4.541384
H       0.033749    -2.683338     2.480349
H      -1.001189    -2.924929     0.250390
H      -0.593193    -4.209808    -1.799914
H       1.538666    -3.879971    -3.055325
H       3.117967    -2.083185    -2.376478
H       2.706941    -0.826832    -0.307507
C       0.913124     1.172994     0.120590
N       1.123757     1.762512    -0.844530
C      -0.414510     3.436600     2.967393
O      -0.148705     4.548709     3.381343
C      -1.846370     2.977064     2.883804
C      -2.316630     2.442061     1.762634
H      -3.368655     2.192703     1.660124
H      -1.682157     2.264227     0.900537
C      -2.692356     3.311807     4.079411
H      -2.624077     4.381705     4.293587
H      -2.340858     2.783793     4.973304
H      -3.735363     3.040445     3.904079
N       0.567013     2.583760     2.504014
C       1.942091     3.085718     2.485709
H       2.393663     3.041517     3.482923
H       1.935846     4.121505     2.150795
H       2.532524     2.484381     1.792975
C       0.362251    -2.013577    -3.914187
C      -0.684778    -2.928572    -4.508289
C      -0.157218    -0.734826    -3.306662
H      -1.489754    -3.097105    -3.789136
H      -0.265618    -3.893841    -4.803491
H      -1.125569    -2.468136    -5.401138
H      -0.881325    -0.960629    -2.520116
H      -0.667548    -0.140088    -4.074724
H       0.640743    -0.126861    -2.879253
C       1.533364    -1.863438    -4.731896
N       2.508405    -1.782868    -5.343607
48
     -1091.810591     -1091.481199   0.48   0.25
C       0.629961    -1.078041     1.070606
C      -0.507491    -0.260802     1.197529
C      -0.977191     0.138076     2.453448
C      -0.297169    -0.267807     3.593434
C       0.845325    -1.046743     3.479445
C       1.301421    -1.453111     2.234124
C       1.118324    -1.520194    -0.252944
C       0.247344    -2.099490    -1.194002
C       0.699538    -2.487610    -2.429998
C       2.047033    -2.225266    -2.830058
C       2.949416    -1.790315    -1.811772
C       2.482773    -1.413650    -0.575171
H      -0.666490     0.037092     4.566311
H       1.376698    -1.353593     4.374603
H       2.176697    -2.088993     2.156645
H      -0.792154    -2.261354    -0.929025
H       0.021090    -2.943516    -3.142911
H       2.451204    -2.808672    -3.652643
H       4.009406    -1.723407    -2.032803
H       3.173787    -1.021070     0.164828
C      -1.164175     0.258571     0.025768
N      -1.686314     0.688115    -0.904941
C      -2.191873     2.102155     3.271346
O      -3.232268     2.541386     3.722408
C      -0.906949     2.871062     3.433021
C      -0.125487     3.102987     2.384249
H       0.754387     3.733676     2.470822
H      -0.349647     2.702807     1.400888
C      -0.684848     3.458358     4.797928
H      -0.570481     2.672321     5.553214
H      -1.552210     4.056699     5.089277
H       0.210390     4.083383     4.809639
N      -2.156453     0.927347     2.547458
C      -3.430076     0.248769     2.301402
H      -3.752942    -0.319558     3.180652
H      -3.316037    -0.428156     1.453538
H      -4.188727     0.994250     2.069538
C       1.859372    -0.558168    -4.088547
C       1.192044     0.523705    -3.277150
C       3.270588    -0.259775    -4.542283
H       1.784807     0.743355    -2.385881
H       0.185775     0.243655    -2.964039
H       1.122698     1.443445    -3.871575
H       3.265550     0.548250    -5.284273
H       3.746383    -1.130377    -5.000815
H       3.876880     0.070102    -3.695429
C       1.034862    -1.147635    -5.106095
N       0.377654    -1.681651    -5.889863
48
     -1091.810317     -1091.480941   0.66   0.42
C      -0.981057    -0.363350     0.070916
C      -0.363475     0.383560     1.089581
C      -1.102264     0.895956     2.161056
C      -2.469027     0.660891     2.218265
C      -3.090151    -0.074046     1.218672
C      -2.354709    -0.586974     0.160327
C      -0.210604    -0.894672    -1.074584
C       0.627904    -0.061688    -1.837630
C       1.356097    -0.563009    -2.887076
C       1.357106    -1.964443    -3.171264
C       0.380985    -2.760358    -2.497120
C      -0.348771    -2.241075    -1.454498
H      -3.038399     1.055999     3.052378
H      -4.159874    -0.250406     1.267900
H      -2.849561    -1.146731    -0.626077
H       0.681561     0.996694    -1.605937
H       1.990406     0.091063    -3.475479
H       1.670806    -2.277164    -4.163334
H       0.242935    -3.795506    -2.790898
H      -1.039570    -2.877629    -0.909479
C       1.057519     0.616213     1.061675
N       2.193320     0.798149     1.049734
C      -0.859946     2.865958     3.594416
O      -0.632646     3.293784     4.709787
C      -1.557429     3.729247     2.575828
C      -1.052324     3.871428     1.355702
H      -1.494173     4.561829     0.643339
H      -0.165827     3.333644     1.036300
C      -2.736382     4.500848     3.096888
H      -3.543131     3.827596     3.408658
H      -3.124966     5.177420     2.333003
H      -2.442003     5.075870     3.978861
N      -0.441929     1.611009     3.199836
C       0.312028     0.815722     4.171093
H      -0.355841     0.343078     4.899955
H       1.001543     1.469707     4.702005
H       0.876496     0.046213     3.642872
C       3.183828    -2.613507    -2.373784
C       3.178206    -2.233905    -0.914237
C       3.223802    -4.096962    -2.664004
H       3.130975    -1.154193    -0.768951
H       4.090643    -2.605435    -0.431008
H       2.321938    -2.690077    -0.411606
H       4.192302    -4.514699    -2.362380
H       3.085195    -4.310473    -3.726919
H       2.447098    -4.613194    -2.094958
C       4.067332    -1.836695    -3.197658
N       4.721217    -1.189465    -3.894019
48
     -1091.810317     -1091.480937   0.66   0.42
C       1.075975     0.878380     0.471972
C      -0.230412     0.656278     0.942063
C      -0.804649     1.491276     1.906142
C      -0.069665     2.556869     2.407021
C       1.220209     2.786914     1.950489
C       1.790370     1.953829     0.999201
C       1.685063     0.010652    -0.559594
C       2.974703    -0.515062    -0.368071
C       3.545196    -1.347235    -1.301497
C       2.810214    -1.762326    -2.454000
C       1.578860    -1.083393    -2.713999
C       1.018791    -0.261847    -1.768321
H      -0.516137     3.200033     3.157381
H       1.787454     3.624445     2.343690
H       2.793231     2.149313     0.634928
H       3.522045    -0.261341     0.534975
H       4.550862    -1.723730    -1.147288
H       3.370451    -2.134274    -3.307343
H       1.061006    -1.277061    -3.647111
H       0.058266     0.202760    -1.963938
C      -0.999498    -0.459158     0.453762
N      -1.615727    -1.353292     0.074189
C      -3.102963     2.177141     2.397526
O      -4.037100     2.130207     3.174659
C      -3.031448     3.265590     1.358565
C      -2.807676     2.965421     0.084251
H      -2.845267     3.729699    -0.686342
H      -2.613750     1.948156    -0.239276
C      -3.377064     4.641053     1.853998
H      -4.350485     4.621716     2.351256
H      -3.403043     5.355142     1.028364
H      -2.647106     4.990078     2.593358
N      -2.112989     1.215228     2.394468
C      -2.240540     0.114100     3.351294
H      -1.634734    -0.727171     3.012107
H      -3.284780    -0.189252     3.401636
H      -1.914416     0.418915     4.352002
C       2.193828    -3.711711    -1.991249
C       3.476101    -4.464701    -1.716934
C       1.241025    -3.599645    -0.827627
H       3.954021    -4.078263    -0.813697
H       4.180497    -4.391407    -2.549425
H       3.261774    -5.527977    -1.552670
H       0.932277    -4.601477    -0.503444
H       0.345019    -3.032231    -1.081255
H       1.734994    -3.110788     0.015546
C       1.580205    -4.047672    -3.245594
N       1.108030    -4.255730    -4.277657
48
     -1091.810582     -1091.480835   0.49   0.48
C      -0.813141    -0.811449     1.412273
C      -1.299144     0.251369     0.631075
C      -2.313534     1.093313     1.101531
C      -2.883154     0.838827     2.341839
C      -2.422618    -0.216796     3.115974
C      -1.389640    -1.024399     2.664004
C       0.281647    -1.684325     0.934262
C       0.230822    -2.299648    -0.329925
C       1.270281    -3.074885    -0.779460
C       2.473203    -3.197701    -0.016031
C       2.436828    -2.712522     1.327218
C       1.384504    -1.945452     1.766577
H      -3.672653     1.490397     2.700752
H      -2.869668    -0.405382     4.086559
H      -1.038662    -1.851072     3.272306
H      -0.651008    -2.175490    -0.949281
H       1.216310    -3.552227    -1.751840
H       3.125385    -4.038489    -0.235375
H       3.268400    -2.921461     1.991806
H       1.404078    -1.525921     2.768089
C      -0.735896     0.515912    -0.665876
N      -0.296785     0.739266    -1.705061
C      -2.013039     3.193332    -0.182888
O      -2.415618     3.899746    -1.086662
C      -0.677334     3.470655     0.456594
C      -0.533959     3.462498     1.778144
H       0.406264     3.753955     2.236873
H      -1.344425     3.199554     2.448417
C       0.398395     3.914152    -0.494646
H       0.060838     4.798045    -1.042200
H       0.612601     3.138406    -1.234616
H       1.315227     4.150885     0.049345
N      -2.799667     2.171609     0.315170
C      -4.129562     2.012861    -0.276346
H      -4.735291     1.386493     0.380509
H      -4.066402     1.545339    -1.264624
H      -4.595631     2.991458    -0.385732
C       3.794171    -1.894813    -0.990811
C       3.141086    -0.535127    -0.994010
C       5.083757    -1.998668    -0.207959
H       3.822029     0.202233    -1.437716
H       2.925365    -0.219875     0.029768
H       2.211061    -0.526135    -1.563099
H       5.432113    -3.031502    -0.127480
H       4.948385    -1.591534     0.796784
H       5.872552    -1.416994    -0.700858
C       3.837369    -2.547611    -2.269525
N       3.831609    -3.121689    -3.270424
48
     -1091.808935     -1091.480760   1.52   0.53
C      -1.025595    -0.392717     1.107656
C      -0.960634     0.725195     0.259063
C      -2.027186     1.626232     0.162693
C      -3.198673     1.367905     0.859329
C      -3.294195     0.238976     1.662943
C      -2.216266    -0.622853     1.797913
C       0.131037    -1.297633     1.269654
C      -0.037427    -2.692774     1.223175
C       1.038048    -3.538585     1.340234
C       2.367178    -3.019056     1.431193
C       2.498406    -1.613716     1.650310
C       1.414538    -0.780795     1.524219
H      -4.024685     2.065732     0.774203
H      -4.212538     0.043429     2.206839
H      -2.283664    -1.477884     2.462003
H      -1.031769    -3.104281     1.078541
H       0.898018    -4.613510     1.301331
H       3.135894    -3.671718     1.835403
H       3.473538    -1.198671     1.881222
H       1.540234     0.289662     1.649998
C       0.178349     0.918069    -0.600199
N       1.071206     1.061983    -1.310736
C      -1.022752     3.782496    -0.452324
O      -0.778355     4.614812    -1.301151
C      -0.408350     3.848779     0.925793
C       0.896494     3.653297     1.067192
H       1.371761     3.729786     2.041000
H       1.528509     3.417791     0.217790
C      -1.329001     4.236561     2.052661
H      -1.812360     5.194402     1.831739
H      -0.766914     4.338540     2.983302
H      -2.121557     3.498650     2.205888
N      -1.935558     2.770740    -0.676207
C      -2.597016     2.705339    -1.978267
H      -3.542391     2.169194    -1.870953
H      -1.970586     2.189660    -2.714457
H      -2.785045     3.718989    -2.329293
C       3.140357    -3.288269    -0.501831
C       2.248146    -2.512713    -1.437920
C       4.569275    -2.802084    -0.412784
H       2.613858    -2.614744    -2.467479
H       2.257214    -1.450918    -1.182861
H       1.218738    -2.872461    -1.405380
H       5.091189    -2.988471    -1.359630
H       5.126229    -3.308173     0.379830
H       4.588117    -1.725431    -0.228772
C       3.013891    -4.716288    -0.586079
N       2.887613    -5.863244    -0.588325
48
     -1091.808935     -1091.480758   1.52   0.53
C       0.658328     1.203728    -0.542017
C      -0.653577     0.976526    -0.093308
C      -1.657739     1.935017    -0.271154
C      -1.369870     3.097296    -0.971626
C      -0.089081     3.311880    -1.464511
C       0.916793     2.384203    -1.239715
C       1.735233     0.226247    -0.281784
C       1.928386    -0.299870     1.008640
C       2.910191    -1.227724     1.252716
C       3.697973    -1.753828     0.183685
C       3.600800    -1.090270    -1.079254
C       2.618532    -0.157834    -1.306099
H      -2.154464     3.832740    -1.113193
H       0.130323     4.223887    -2.009966
H       1.924822     2.579838    -1.589345
H       1.308923     0.056458     1.825217
H       3.066163    -1.595297     2.261193
H       4.644357    -2.225741     0.432554
H       4.276280    -1.381318    -1.876502
H       2.511192     0.280596    -2.293636
C      -1.013014    -0.292635     0.483634
N      -1.314118    -1.314256     0.917676
C      -3.253185     1.574560     1.562202
O      -4.314327     1.130234     1.948906
C      -2.208382     2.087679     2.524577
C      -1.591088     1.234157     3.331591
H      -0.861025     1.578936     4.058343
H      -1.799148     0.170292     3.295673
C      -2.008931     3.579788     2.565036
H      -1.634749     3.968535     1.613726
H      -1.298811     3.846102     3.350684
H      -2.960398     4.081671     2.771744
N      -2.973685     1.705077     0.216157
C      -3.982979     1.273646    -0.749433
H      -3.822631     1.801468    -1.691969
H      -4.970655     1.510848    -0.356624
H      -3.925551     0.193827    -0.925558
C       2.841800    -3.636525    -0.175901
C       2.990321    -4.379818     1.132370
C       1.423527    -3.389651    -0.624615
H       4.027936    -4.404242     1.474891
H       2.651476    -5.416990     1.017900
H       2.372843    -3.911034     1.902019
H       0.925113    -4.347440    -0.820498
H       1.386754    -2.794020    -1.537868
H       0.860388    -2.872231     0.154934
C       3.735604    -4.084864    -1.206649
N       4.489200    -4.385275    -2.027201
48
     -1091.808700     -1091.480452   1.67   0.72
C      -0.617060    -0.175994     1.541124
C      -0.084394     1.041944     1.086833
C      -0.361168     2.245642     1.745226
C      -1.111605     2.224487     2.911718
C      -1.602734     1.020270     3.399422
C      -1.371838    -0.163332     2.714846
C      -0.393210    -1.435012     0.800488
C      -0.612951    -1.500977    -0.588046
C      -0.394445    -2.663257    -1.283329
C       0.155367    -3.810911    -0.631306
C       0.219516    -3.774968     0.795236
C      -0.012255    -2.605575     1.479066
H      -1.315469     3.159820     3.421718
H      -2.191157     1.010236     4.311062
H      -1.797253    -1.092648     3.078204
H      -0.983414    -0.624545    -1.109450
H      -0.579437    -2.706118    -2.351224
H       0.018533    -4.776525    -1.110006
H       0.488526    -4.674488     1.338695
H       0.105080    -2.580011     2.558392
C       0.834378     1.066154    -0.021237
N       1.592631     1.096884    -0.885278
C      -0.201352     3.995449     0.028170
O       0.427723     4.895886    -0.487994
C      -1.460971     3.445483    -0.597999
C      -1.381281     2.772940    -1.739109
H      -2.273929     2.396432    -2.230475
H      -0.427025     2.583300    -2.218501
C      -2.756659     3.792441     0.086538
H      -2.852465     4.879325     0.183466
H      -2.813751     3.368625     1.093152
H      -3.603439     3.420220    -0.493846
N       0.158707     3.475409     1.255723
C       1.340788     4.018850     1.922442
H       2.256872     3.549040     1.547730
H       1.257519     3.840209     2.996625
H       1.393459     5.089289     1.728986
C       2.165708    -3.787488    -1.232260
C       2.727456    -2.454408    -0.806854
C       2.778634    -4.999120    -0.567132
H       3.798276    -2.410863    -1.042370
H       2.615075    -2.327514     0.272512
H       2.234331    -1.620341    -1.306945
H       2.787762    -4.869214     0.517578
H       3.817174    -5.125871    -0.897064
H       2.237541    -5.917321    -0.809416
C       1.968739    -3.938327    -2.646735
N       1.741789    -4.065489    -3.770912
48
     -1091.808700     -1091.480440   1.67   0.73
C       1.319080     0.936486     0.658764
C       0.119995     0.785063     1.374822
C      -0.186691     1.613730     2.460279
C       0.745017     2.549948     2.884210
C       1.955960     2.676085     2.215692
C       2.233638     1.890314     1.107389
C       1.607000     0.117639    -0.537211
C       2.863038    -0.491741    -0.701002
C       3.131433    -1.272994    -1.799379
C       2.114773    -1.549661    -2.763894
C       0.907621    -0.789349    -2.667734
C       0.651325    -0.020076    -1.561123
H       0.504624     3.183347     3.731278
H       2.679892     3.411829     2.550407
H       3.162416     2.026830     0.563910
H       3.627662    -0.345368     0.056157
H       4.114737    -1.714788    -1.920958
H       2.426571    -1.877785    -3.751519
H       0.168644    -0.877958    -3.456735
H      -0.291839     0.510460    -1.482288
C      -0.784794    -0.289573     1.060089
N      -1.501789    -1.161242     0.839707
C      -2.639879     1.704566     2.555330
O      -3.678129     1.338381     3.066094
C      -2.623500     2.509124     1.277198
C      -3.012433     1.939396     0.143645
H      -3.044577     2.503514    -0.784125
H      -3.314634     0.898332     0.108389
C      -2.248905     3.962138     1.404436
H      -2.352623     4.466030     0.441230
H      -1.220320     4.090332     1.753329
H      -2.904063     4.458226     2.128702
N      -1.418650     1.470289     3.155923
C      -1.394482     0.742726     4.423688
H      -2.263064     1.032981     5.013055
H      -0.479315     0.996867     4.962755
H      -1.428182    -0.339871     4.258773
C       1.492097    -3.499669    -2.302468
C       2.746819    -4.337045    -2.405410
C       0.858095    -3.437860    -0.935773
H       2.504555    -5.398296    -2.269238
H       3.453904    -4.054145    -1.622114
H       3.233438    -4.228404    -3.378023
H       1.573329    -3.047087    -0.208104
H       0.567491    -4.446376    -0.615672
H      -0.030720    -2.806407    -0.921442
C       0.572835    -3.694144    -3.388480
N      -0.147031    -3.787465    -4.285439
48
     -1091.809433     -1091.479823   1.21   1.12
C      -1.269644    -0.394201     0.254650
C      -0.750920     0.801603    -0.271709
C      -1.464525     2.003773    -0.185014
C      -2.698422     2.017089     0.451982
C      -3.202083     0.849100     1.008318
C      -2.502597    -0.343917     0.905533
C      -0.528573    -1.668181     0.143868
C       0.001935    -2.093949    -1.087208
C       0.720544    -3.260178    -1.180606
C       1.029724    -4.022187    -0.012767
C       0.343889    -3.667383     1.190732
C      -0.377646    -2.501597     1.266628
H      -3.254417     2.945095     0.513576
H      -4.162913     0.868311     1.512479
H      -2.921705    -1.257481     1.313186
H      -0.183450    -1.504759    -1.979259
H       1.092235    -3.588237    -2.145281
H       1.311084    -5.063390    -0.143431
H       0.456068    -4.301603     2.063548
H      -0.826979    -2.208680     2.210586
C       0.578318     0.834364    -0.824085
N       1.645129     0.868706    -1.253378
C      -0.863639     4.376434    -0.068704
O      -0.822711     5.438426    -0.657365
C      -0.779940     4.298411     1.435218
C      -1.513881     5.159413     2.130941
H      -1.485701     5.181934     3.216264
H      -2.159665     5.872194     1.628543
C       0.181628     3.319251     2.062591
H      -0.223371     2.304420     2.098372
H       0.406174     3.627735     3.085704
H       1.119310     3.277308     1.499898
N      -0.922299     3.181670    -0.762187
C      -0.885134     3.260651    -2.224271
H      -1.820100     3.672162    -2.618150
H      -0.728451     2.261093    -2.630631
H      -0.063446     3.906874    -2.529937
C       3.027221    -3.518459     0.386630
C       3.784580    -3.950654    -0.848637
C       3.052628    -2.039161     0.678498
H       3.616400    -5.004358    -1.085213
H       4.862275    -3.809333    -0.699461
H       3.484560    -3.341764    -1.704592
H       4.080656    -1.722293     0.895105
H       2.430547    -1.785684     1.538251
H       2.702703    -1.472702    -0.187083
C       3.238850    -4.365805     1.526731
N       3.343861    -5.070142     2.434638
48
     -1091.809433     -1091.479793   1.21   1.14
C      -0.113260    -0.059668     1.766587
C       0.505796     1.008266     1.094009
C       0.273804     2.337107     1.471262
C      -0.601025     2.603950     2.516209
C      -1.246415     1.558066     3.161951
C      -1.001551     0.242181     2.799145
C       0.148028    -1.463435     1.384952
C      -0.919205    -2.363849     1.216971
C      -0.696214    -3.659706     0.821418
C       0.622240    -4.103367     0.490496
C       1.701508    -3.233474     0.834825
C       1.461977    -1.938734     1.224032
H      -0.775934     3.631194     2.813355
H      -1.935621     1.774037     3.971946
H      -1.484556    -0.568685     3.333592
H      -1.935316    -2.022155     1.388782
H      -1.526934    -4.345206     0.692496
H       0.809063    -5.173608     0.495024
H       2.722156    -3.590318     0.749281
H       2.296699    -1.279088     1.437047
C       1.317085     0.759964    -0.069271
N       1.954445     0.567836    -1.007575
C       0.278568     4.497495     0.315044
O       0.861671     5.548984     0.140720
C      -1.176781     4.327729    -0.042744
C      -2.008559     5.299615     0.314471
H      -3.065500     5.261139     0.068256
H      -1.649101     6.166524     0.859225
C      -1.593955     3.122714    -0.849514
H      -2.550367     3.319792    -1.338166
H      -1.710029     2.228744    -0.231022
H      -0.852125     2.892699    -1.620495
N       0.947414     3.384701     0.790567
C       2.386408     3.525294     1.024765
H       2.817447     2.538111     1.193474
H       2.581378     4.161887     1.893881
H       2.851957     3.977125     0.149930
C       0.636994    -4.095985    -1.607834
C       0.354167    -2.679067    -2.039702
C       2.001206    -4.629878    -1.982205
H       1.129580    -2.004795    -1.670048
H      -0.614562    -2.331471    -1.677553
H       0.350791    -2.619846    -3.135444
H       2.074289    -4.749355    -3.070338
H       2.200194    -5.602996    -1.526143
H       2.777257    -3.926398    -1.671915
C      -0.434884    -5.024789    -1.833691
N      -1.301345    -5.778458    -1.946129
48
     -1091.808299     -1091.479733   1.92   1.17
C      -0.217178    -0.238824     0.411463
C      -0.480291     1.142389     0.370359
C      -1.740305     1.649438     0.707948
C      -2.742202     0.775714     1.107369
C      -2.485403    -0.585153     1.183872
C      -1.241082    -1.087636     0.833783
C       1.096766    -0.803596     0.035429
C       1.706148    -1.768242     0.859805
C       2.901277    -2.347498     0.512586
C       3.514141    -2.055556    -0.745376
C       2.960779    -0.973959    -1.496591
C       1.765270    -0.402066    -1.134692
H      -3.718824     1.172108     1.362165
H      -3.270118    -1.262958     1.504278
H      -1.059271    -2.156359     0.865229
H       1.236130    -2.031360     1.802459
H       3.369020    -3.075785     1.166512
H       4.577206    -2.255425    -0.846670
H       3.477386    -0.621078    -2.382585
H       1.335459     0.375127    -1.756889
C       0.566676     2.080639     0.058863
N       1.395534     2.840999    -0.181951
C      -2.529766     3.765806     1.655658
O      -3.141851     4.799805     1.468128
C      -2.283331     3.269864     3.056226
C      -1.061192     2.917185     3.438715
H      -0.853903     2.646867     4.469929
H      -0.222022     2.916505     2.750942
C      -3.464823     3.359525     3.979934
H      -3.183054     3.080653     4.997325
H      -4.275957     2.700119     3.650320
H      -3.860981     4.378476     3.976622
N      -1.988197     3.046415     0.609613
C      -2.139410     3.600454    -0.737078
H      -1.977146     4.676200    -0.697260
H      -3.143133     3.410951    -1.133205
H      -1.397407     3.146274    -1.395097
C       3.083734    -3.751151    -1.907120
C       1.580123    -3.865899    -1.943995
C       3.752788    -3.487515    -3.236796
H       1.145196    -2.952354    -2.356301
H       1.165592    -4.030731    -0.948350
H       1.283165    -4.705490    -2.585309
H       3.653327    -4.362945    -3.890463
H       4.818950    -3.276255    -3.123127
H       3.276326    -2.641822    -3.738086
C       3.745485    -4.741403    -1.105931
N       4.296868    -5.486893    -0.419178
48
     -1091.808099     -1091.479732   2.05   1.18
C      -0.300538     0.105709     0.415325
C       0.629916     1.149765     0.566327
C       0.313969     2.300771     1.297091
C      -0.945791     2.421979     1.867358
C      -1.883485     1.414311     1.697401
C      -1.563410     0.267241     0.986565
C       0.016338    -1.132069    -0.329285
C       1.221862    -1.828188    -0.127603
C       1.479278    -3.002360    -0.790310
C       0.491931    -3.600348    -1.634263
C      -0.658455    -2.811460    -1.939361
C      -0.902114    -1.637749    -1.267754
H      -1.184430     3.312657     2.437953
H      -2.869534     1.517741     2.138850
H      -2.292262    -0.529728     0.887085
H       1.960406    -1.432231     0.560475
H       2.418984    -3.521230    -0.635273
H       0.830458    -4.316616    -2.377702
H      -1.359534    -3.159348    -2.690627
H      -1.797872    -1.066010    -1.491088
C       1.906237     1.098857    -0.098556
N       2.926363     1.076599    -0.629471
C       1.029295     4.641135     1.188455
O       1.647776     5.542458     1.721449
C      -0.008786     4.945436     0.140558
C       0.007635     4.309959    -1.025717
H      -0.676799     4.585484    -1.822636
H       0.720088     3.519980    -1.239239
C      -0.922147     6.093518     0.464423
H      -0.330535     6.978024     0.715147
H      -1.546532     5.868761     1.336792
H      -1.575608     6.318912    -0.380819
N       1.293807     3.316559     1.472081
C       2.383235     3.033795     2.408350
H       2.064557     3.187409     3.445227
H       3.215008     3.703250     2.195905
H       2.707220     2.000526     2.277094
C      -0.267307    -5.172364    -0.466504
C      -0.816780    -4.538502     0.787033
C      -1.282783    -5.855532    -1.353967
H      -0.037362    -4.030469     1.356696
H      -1.270667    -5.305016     1.427980
H      -1.590084    -3.811283     0.528195
H      -1.680995    -6.748295    -0.855990
H      -0.847195    -6.171309    -2.305172
H      -2.121421    -5.184656    -1.554531
C       0.944766    -5.919391    -0.284481
N       1.950327    -6.474922    -0.177334
48
     -1091.808299     -1091.479730   1.92   1.18
C       0.083531    -0.088258     0.667882
C       0.415738     1.239938     0.345077
C       0.553438     2.213910     1.340627
C       0.340983     1.867111     2.667775
C      -0.019501     0.568578     2.995833
C      -0.140036    -0.399140     2.009741
C      -0.043069    -1.142678    -0.361191
C       0.921201    -1.307977    -1.371225
C       0.815588    -2.324927    -2.288795
C      -0.225324    -3.298058    -2.189276
C      -1.271888    -3.029948    -1.253261
C      -1.151421    -2.010248    -0.342148
H       0.454725     2.623303     3.436587
H      -0.192013     0.304805     4.034351
H      -0.390233    -1.419529     2.278855
H       1.756372    -0.618995    -1.431959
H       1.550196    -2.409450    -3.082267
H      -0.478852    -3.866400    -3.079796
H      -2.140661    -3.679433    -1.238867
H      -1.939345    -1.845795     0.386466
C       0.541959     1.652404    -1.028759
N       0.639153     1.996317    -2.122113
C       0.226320     4.640577     1.410057
O       0.746652     5.735720     1.504322
C      -1.243162     4.468704     1.691788
C      -2.023423     3.832641     0.825232
H      -3.098346     3.783091     0.971952
H      -1.626783     3.369693    -0.072317
C      -1.745765     5.189201     2.910584
H      -2.831329     5.103548     2.990970
H      -1.465167     6.244570     2.858885
H      -1.296051     4.783220     3.824007
N       0.937455     3.536449     0.985538
C       2.336780     3.742350     0.607532
H       2.663836     2.909964    -0.016978
H       2.980278     3.810083     1.491616
H       2.418170     4.670538     0.044512
C       0.733443    -4.984367    -1.384894
C       1.826444    -5.315550    -2.375269
C       1.199678    -4.586398    -0.006627
H       1.433663    -5.457651    -3.385112
H       2.335428    -6.241829    -2.081175
H       2.572377    -4.517620    -2.395142
H       1.859805    -3.718188    -0.071171
H       1.761821    -5.409830     0.451998
H       0.360480    -4.338492     0.644989
C      -0.372681    -5.898915    -1.407577
N      -1.300013    -6.583984    -1.453911
48
     -1091.807875     -1091.479593   2.19   1.26
C       0.472345    -0.121421     0.968860
C       0.795401     1.227672     0.750528
C       0.186964     2.243324     1.495731
C      -0.750935     1.907333     2.461865
C      -1.086650     0.577700     2.675142
C      -0.478700    -0.429997     1.941082
C       1.080641    -1.219022     0.186761
C       1.666188    -2.307435     0.855906
C       2.113684    -3.403586     0.162834
C       1.876236    -3.512539    -1.242634
C       1.480400    -2.318318    -1.923000
C       1.048936    -1.223421    -1.217027
H      -1.217126     2.697032     3.041048
H      -1.831236     0.325665     3.423283
H      -0.761694    -1.467321     2.082444
H       1.772888    -2.266566     1.935459
H       2.581939    -4.226970     0.691368
H       2.451680    -4.246665    -1.802236
H       1.462734    -2.302673    -3.007345
H       0.666686    -0.357267    -1.746320
C       1.770137     1.590553    -0.245146
N       2.546781     1.888249    -1.039709
C      -0.374294     4.578384     1.020048
O      -0.162396     5.751134     1.264233
C      -1.659825     4.162266     0.353081
C      -1.639134     3.375059    -0.716276
H      -2.550632     3.143708    -1.259388
H      -0.714717     2.961572    -1.105614
C      -2.897750     4.818767     0.894763
H      -3.080903     4.520079     1.933303
H      -3.771667     4.550665     0.297541
H      -2.772267     5.904774     0.892261
N       0.561536     3.601220     1.285857
C       1.841918     4.028606     1.852487
H       1.760193     4.200584     2.931619
H       2.146874     4.957113     1.373038
H       2.591662     3.259325     1.663136
C       0.175249    -4.737892    -1.332722
C      -0.202084    -4.776007    -2.796002
C       0.633773    -6.057730    -0.753203
H      -0.529457    -3.798149    -3.152568
H      -1.018997    -5.489767    -2.960731
H       0.648638    -5.104142    -3.401251
H       0.904027    -5.964720     0.300015
H       1.497466    -6.438678    -1.306483
H      -0.164614    -6.806161    -0.831522
C      -0.742821    -4.018505    -0.497942
N      -1.447263    -3.420722     0.193052
48
     -1091.807866     -1091.479554   2.19   1.29
C      -0.046142    -0.107389     0.437120
C      -0.210831     1.237167     0.064664
C      -1.418413     1.906118     0.292249
C      -2.463350     1.230140     0.906756
C      -2.302709    -0.091252     1.298659
C      -1.109906    -0.758416     1.061094
C       1.210348    -0.845459     0.188709
C       1.820307    -1.555471     1.237230
C       2.922687    -2.340246     1.010739
C       3.398432    -2.548636    -0.320846
C       2.896667    -1.667306    -1.329040
C       1.801503    -0.877262    -1.084781
H      -3.400746     1.748683     1.075832
H      -3.125182    -0.611495     1.778968
H      -0.999753    -1.804467     1.325073
H       1.418012    -1.462085     2.241126
H       3.395534    -2.863187     1.835089
H       4.404256    -2.942814    -0.447820
H       3.352066    -1.668420    -2.313399
H       1.380974    -0.277618    -1.884874
C       0.890441     1.976594    -0.495517
N       1.766048     2.575901    -0.939650
C      -2.017765     4.243727     0.714986
O      -2.558900     5.249622     0.296523
C      -1.756182     4.078792     2.189328
C      -0.549633     3.733168     2.623692
H      -0.324950     3.701878     3.685754
H       0.261469     3.501211     1.941394
C      -2.894342     4.477814     3.085206
H      -3.760491     3.822059     2.939761
H      -3.218542     5.493202     2.842199
H      -2.596216     4.430825     4.134572
N      -1.572583     3.254277    -0.136439
C      -1.739357     3.477406    -1.573575
H      -1.505774     4.516323    -1.799877
H      -2.767963     3.271614    -1.889896
H      -1.054917     2.825037    -2.117549
C       2.587033    -4.418874    -0.824621
C       2.957757    -4.626243    -2.275240
C       3.233474    -5.380431     0.147586
H       2.456236    -3.907730    -2.925417
H       2.674548    -5.635218    -2.600399
H       4.039295    -4.528285    -2.411012
H       2.938384    -5.173584     1.177669
H       4.323711    -5.322733     0.074742
H       2.941289    -6.411851    -0.085999
C       1.189472    -4.198231    -0.590735
N       0.075121    -3.989807    -0.376830
48
     -1091.808486     -1091.479527   1.81   1.30
C       0.412140    -0.144896     1.320884
C       0.828945     1.180722     1.119714
C       0.450109     2.200182     2.001186
C      -0.303761     1.878883     3.121661
C      -0.694232     0.565883     3.346315
C      -0.352348    -0.436025     2.450367
C       0.752285    -1.228044     0.374322
C       1.304397    -2.428287     0.853558
C       1.521245    -3.490462     0.012787
C       1.074399    -3.439525    -1.343972
C       0.708546    -2.154522    -1.853581
C       0.508314    -1.096954    -1.002609
H      -0.595738     2.670717     3.803293
H      -1.290951     0.326789     4.220538
H      -0.702643    -1.451724     2.597192
H       1.576638    -2.501990     1.901802
H       1.969649    -4.401678     0.393754
H       1.484998    -4.163603    -2.044159
H       0.530814    -2.033043    -2.916611
H       0.147408    -0.151871    -1.394076
C       1.707809     1.508210     0.029300
N       2.414871     1.790483    -0.832651
C       0.641083     4.264221     0.643304
O       1.270674     5.278659     0.413297
C      -0.448192     3.820838    -0.299164
C      -1.631001     3.422702     0.158041
H      -2.443537     3.194984    -0.525627
H      -1.844182     3.337251     1.217659
C      -0.142901     4.026138    -1.756158
H       0.712518     3.419032    -2.066369
H       0.123755     5.071774    -1.930071
H      -1.007836     3.764065    -2.369156
N       0.867796     3.542395     1.798437
C       1.870476     4.076178     2.722424
H       1.765032     3.574166     3.685262
H       1.716548     5.147732     2.845875
H       2.882739     3.912828     2.338241
C      -0.735723    -4.501754    -1.285078
C      -1.311770    -4.366865    -2.676029
C      -0.332808    -5.905022    -0.889871
H      -1.588493    -3.335183    -2.898681
H      -2.209113    -4.989867    -2.779019
H      -0.588229    -4.706030    -3.423850
H      -1.203524    -6.572134    -0.913587
H       0.086591    -5.937010     0.117107
H       0.405828    -6.303014    -1.592215
C      -1.454048    -3.788808    -0.269128
N      -1.995325    -3.201383     0.563290
48
     -1091.808994     -1091.479469   1.49   1.34
C      -0.989659    -0.322684     0.696418
C      -0.254165     0.871644     0.786623
C      -0.757924     1.983808     1.473082
C      -2.008094     1.903166     2.072442
C      -2.744150     0.729427     1.985207
C      -2.239347    -0.374004     1.313755
C      -0.468605    -1.495980    -0.038087
C       0.000804    -1.376044    -1.358360
C       0.514871    -2.460371    -2.025628
C       0.675876    -3.715359    -1.362715
C       0.039885    -3.860406    -0.090103
C      -0.478127    -2.767827     0.561195
H      -2.396197     2.761908     2.607428
H      -3.722000     0.675161     2.452781
H      -2.826255    -1.283218     1.239644
H      -0.069497    -0.418756    -1.863955
H       0.840628    -2.355099    -3.054777
H       0.781476    -4.605646    -1.976422
H       0.030602    -4.836864     0.382160
H      -0.889315    -2.881316     1.559764
C       1.049966     0.966207     0.183476
N       2.096159     1.038615    -0.289585
C      -0.491347     4.411713     1.288933
O      -0.009092     5.414821     1.776145
C      -1.631226     4.478792     0.303075
C      -2.630426     5.306678     0.586568
H      -3.473795     5.429602    -0.086388
H      -2.625671     5.890738     1.501033
C      -1.545268     3.679433    -0.973649
H      -1.818260     2.631280    -0.826095
H      -0.529148     3.699486    -1.379495
H      -2.222721     4.101489    -1.718827
N       0.028750     3.162474     1.574185
C       1.187993     3.119462     2.469715
H       1.610404     2.114675     2.458537
H       0.901192     3.384076     3.492717
H       1.937823     3.829257     2.123156
C       2.722000    -3.767916    -0.906649
C       3.415227    -3.683602    -2.247839
C       2.987987    -2.619310     0.033775
H       3.233318    -2.707388    -2.703180
H       3.077671    -4.464558    -2.933934
H       4.499072    -3.796115    -2.120372
H       2.744778    -1.668536    -0.445442
H       4.052012    -2.598995     0.301406
H       2.407716    -2.707156     0.953478
C       2.775107    -5.070412    -0.303772
N       2.749907    -6.123690     0.166736
48
     -1091.808994     -1091.479466   1.49   1.34
C      -0.766760    -0.611719     0.672689
C      -0.559771     0.690060     0.184800
C      -1.611157     1.612505     0.109962
C      -2.879612     1.232213     0.528368
C      -3.093268    -0.049854     1.015919
C      -2.053212    -0.964969     1.079770
C       0.342183    -1.585943     0.766226
C       0.188441    -2.885199     0.251327
C       1.221738    -3.789013     0.292253
C       2.506849    -3.403608     0.787247
C       2.588129    -2.148360     1.464089
C       1.548385    -1.253318     1.408323
H      -3.694197     1.944166     0.466394
H      -4.086399    -0.338587     1.344682
H      -2.225974    -1.960776     1.473656
H      -0.758480    -3.170039    -0.197342
H       1.094007    -4.788038    -0.110516
H       3.183894    -4.194496     1.097899
H       3.497812    -1.885464     1.992964
H       1.647115    -0.285522     1.888524
C       0.746195     1.094891    -0.266917
N       1.787190     1.415310    -0.637338
C      -1.799504     4.051888     0.227364
O      -2.001320     5.080277    -0.387338
C      -1.938289     3.985520     1.728055
C      -3.002875     4.570539     2.265240
H      -3.159234     4.587679     3.339721
H      -3.744966     5.055929     1.639865
C      -0.840667     3.341782     2.538730
H      -0.893560     3.689876     3.572362
H       0.144148     3.599572     2.137108
H      -0.915782     2.251271     2.546686
N      -1.372558     2.908020    -0.422042
C      -1.163388     3.010117    -1.868936
H      -0.546986     3.881992    -2.083529
H      -2.117716     3.117502    -2.394787
H      -0.653429     2.112939    -2.219893
C       3.638978    -3.095593    -0.950796
C       2.945596    -2.010098    -1.735250
C       5.023568    -2.751825    -0.449602
H       1.928862    -2.295746    -2.009005
H       3.503668    -1.806271    -2.657853
H       2.906564    -1.085091    -1.155933
H       5.718715    -2.660646    -1.293453
H       5.417168    -3.516294     0.225105
H       5.005893    -1.792180     0.072116
C       3.532957    -4.412794    -1.513394
N       3.411127    -5.489759    -1.909260
48
     -1091.808168     -1091.479453   2.01   1.35
C      -0.414374    -0.020488     0.920132
C       0.386975     1.071151     1.299889
C      -0.171373     2.335070     1.521072
C      -1.538690     2.514175     1.364537
C      -2.339756     1.446316     0.987851
C      -1.785714     0.193089     0.774444
C       0.146574    -1.364943     0.662074
C      -0.466416    -2.497546     1.230156
C      -0.003407    -3.763143     0.968321
C       1.057481    -3.971719     0.033185
C       1.756622    -2.810741    -0.418282
C       1.282482    -1.550457    -0.145499
H      -1.966375     3.494861     1.541644
H      -3.407682     1.592966     0.861825
H      -2.415867    -0.633374     0.464324
H      -1.299813    -2.361087     1.912599
H      -0.473617    -4.625990     1.427890
H       1.607972    -4.906282     0.095577
H       2.657091    -2.927775    -1.011454
H       1.796203    -0.687403    -0.553855
C       1.805582     0.913301     1.489978
N       2.939637     0.801226     1.646451
C       0.672527     4.619733     1.275957
O       0.995870     5.652793     1.830223
C       0.335375     4.617495    -0.192306
C       0.895681     3.733400    -1.009961
H       0.731889     3.780003    -2.082499
H       1.560223     2.956909    -0.645929
C      -0.532791     5.756204    -0.646728
H      -0.090078     6.706238    -0.335872
H      -1.527466     5.702067    -0.189543
H      -0.649054     5.745511    -1.732381
N       0.657724     3.412229     1.944053
C       1.072928     3.414013     3.348216
H       0.264404     3.763524     3.999969
H       1.926087     4.080459     3.462165
H       1.361914     2.402917     3.637467
C       0.069341    -4.666743    -1.683656
C      -0.915395    -3.590610    -2.067986
C       1.172209    -4.931520    -2.683086
H      -1.666678    -3.438268    -1.291645
H      -1.429777    -3.866752    -2.997255
H      -0.391340    -2.646866    -2.236650
H       1.926898    -5.615659    -2.287283
H       1.658000    -3.994854    -2.966225
H       0.757591    -5.381711    -3.593558
C      -0.519053    -5.855205    -1.134221
N      -0.961661    -6.795325    -0.632546
48
     -1091.808168     -1091.479451   2.01   1.35
C       0.479592    -0.754566     0.614495
C      -0.750068    -0.447698     1.224258
C      -0.853851    -0.311316     2.613069
C       0.274916    -0.483077     3.402068
C       1.494178    -0.783430     2.812903
C       1.594243    -0.923746     1.436901
C       0.626838    -0.888705    -0.851497
C       0.098751     0.065607    -1.738791
C       0.292511    -0.047241    -3.094246
C       1.112591    -1.084479    -3.634707
C       1.516227    -2.121524    -2.737444
C       1.315909    -1.993915    -1.385312
H       0.187505    -0.380542     4.478113
H       2.374860    -0.911668     3.434036
H       2.554141    -1.142646     0.981943
H      -0.475198     0.899081    -1.349654
H      -0.157182     0.679398    -3.762201
H       0.980196    -1.346241    -4.680791
H       2.032525    -2.987987    -3.136799
H       1.665239    -2.773163    -0.714761
C      -1.943347    -0.283148     0.435277
N      -2.904525    -0.150195    -0.182449
C      -2.299718     1.015987     4.075784
O      -3.186203     1.014100     4.908318
C      -1.400261     2.215027     3.924981
C      -1.187840     2.750521     2.728212
H      -0.616927     3.667751     2.618296
H      -1.600785     2.315430     1.824198
C      -0.916120     2.812598     5.215481
H      -1.767648     3.026461     5.866905
H      -0.357500     3.732484     5.031021
H      -0.267425     2.113837     5.756085
N      -2.119317    -0.040377     3.206180
C      -3.056024    -1.161516     3.304624
H      -3.040013    -1.724589     2.370721
H      -4.057497    -0.769630     3.473406
H      -2.793615    -1.825244     4.136049
C       2.913269    -0.112832    -4.104278
C       2.523088     0.970785    -5.083470
C       3.487476     0.366829    -2.794434
H       1.891750     1.714501    -4.591734
H       1.987885     0.568014    -5.946948
H       3.418083     1.485037    -5.455044
H       4.407972     0.936717    -2.974149
H       3.723239    -0.466239    -2.130542
H       2.773694     1.023207    -2.291030
C       3.610791    -1.216299    -4.701233
N       4.115378    -2.141921    -5.170296
48
     -1091.807969     -1091.479444   2.13   1.36
C      -0.629327     0.235572    -0.157898
C       0.195670     1.341640    -0.429865
C      -0.188520     2.636789    -0.065087
C      -1.404532     2.833578     0.574313
C      -2.226430     1.750975     0.850373
C      -1.846705     0.468696     0.483296
C      -0.244770    -1.147791    -0.514757
C       1.029256    -1.663480    -0.216413
C       1.350318    -2.965879    -0.508049
C       0.370242    -3.862534    -1.037459
C      -0.864621    -3.287686    -1.465988
C      -1.171243    -1.981954    -1.167163
H      -1.698896     3.840051     0.850704
H      -3.173999     1.909673     1.355141
H      -2.487352    -0.374609     0.717373
H       1.770268    -1.024607     0.250550
H       2.341292    -3.346021    -0.284966
H       0.725074    -4.750552    -1.553101
H      -1.577539    -3.899298    -2.008772
H      -2.128618    -1.570226    -1.472467
C       1.453799     1.174012    -1.110075
N       2.460358     1.057496    -1.654379
C       1.052137     4.649232     0.569404
O       1.366365     5.787754     0.279545
C       1.156987     4.170339     1.993897
C       1.776353     3.029872     2.276470
H       1.938623     2.720373     3.304676
H       2.171071     2.384167     1.499073
C       0.655619     5.137769     3.028106
H      -0.423433     5.301126     2.926680
H       1.139422     6.108676     2.892224
H       0.857140     4.767234     4.035264
N       0.648031     3.742171    -0.388957
C       0.635504     4.194098    -1.781669
H      -0.258006     4.790849    -1.996594
H       0.659656     3.325147    -2.440308
H       1.516588     4.807875    -1.960454
C      -0.166203    -5.038004     0.617498
C      -0.692837    -4.083230     1.659721
C      -1.167520    -6.032522     0.075377
H      -1.031940    -4.640034     2.542527
H      -1.545491    -3.529210     1.259842
H       0.069830    -3.369550     1.974553
H      -2.075388    -5.517229    -0.246917
H      -1.449848    -6.749534     0.856248
H      -0.764675    -6.599651    -0.767427
C       1.118559    -5.605916     0.912910
N       2.175788    -6.029841     1.096734
48
     -1091.808723     -1091.479386   1.66   1.39
C       0.569146    -0.824783     1.073729
C      -0.399475    -0.101922     1.791922
C      -0.166082     0.314054     3.108512
C       1.018633    -0.048797     3.735033
C       1.964534    -0.798960     3.051362
C       1.748907    -1.171935     1.733396
C       0.369281    -1.222450    -0.336357
C      -0.118541    -0.316180    -1.295319
C      -0.250318    -0.682221    -2.611432
C       0.191654    -1.964670    -3.063485
C       0.544614    -2.916110    -2.058946
C       0.671521    -2.534358    -0.745215
H       1.194961     0.275573     4.754951
H       2.889146    -1.077601     3.546347
H       2.511681    -1.723167     1.194383
H      -0.394834     0.687420    -0.991691
H      -0.640145     0.022900    -3.337484
H      -0.216666    -2.338334    -3.998334
H       0.740858    -3.944290    -2.343926
H       0.971197    -3.264393     0.000724
C      -1.689016     0.169719     1.215444
N      -2.731066     0.391829     0.782618
C      -1.702338     2.237170     3.398955
O      -2.728324     2.653789     3.900304
C      -0.989349     3.048515     2.348463
C       0.327467     3.224194     2.393951
H       0.824838     3.886083     1.691103
H       0.950770     2.746659     3.141654
C      -1.892622     3.756861     1.378700
H      -2.606010     4.375925     1.928791
H      -2.473815     3.041156     0.789992
H      -1.310129     4.386174     0.702516
N      -1.140567     1.050780     3.830913
C      -1.825301     0.359499     4.925390
H      -2.081708     1.076834     5.704462
H      -1.160465    -0.404578     5.330723
H      -2.747262    -0.113571     4.571946
C       2.011056    -1.546260    -4.026035
C       2.901383    -0.912434    -2.986510
C       2.478126    -2.879981    -4.563117
H       3.890175    -0.704351    -3.414721
H       3.033464    -1.594784    -2.143444
H       2.483094     0.023930    -2.614546
H       1.727411    -3.347383    -5.205133
H       2.710622    -3.558713    -3.739166
H       3.391570    -2.750327    -5.156742
C       1.526230    -0.647912    -5.034999
N       1.073528     0.064110    -5.821993
48
     -1091.808890     -1091.479330   1.55   1.43
C       0.717192     0.281896     1.342781
C       0.336130     1.562003     0.903766
C      -0.209446     2.500013     1.788899
C      -0.317456     2.179759     3.135508
C       0.094733     0.934888     3.588783
C       0.594147    -0.007215     2.702464
C       1.239769    -0.745134     0.416254
C       2.385318    -1.486327     0.761918
C       2.861142    -2.481544    -0.054931
C       2.149236    -2.857277    -1.236211
C       1.079049    -2.003475    -1.643408
C       0.616107    -1.009456    -0.816128
H      -0.740479     2.909620     3.817345
H       0.005800     0.690376     4.642278
H       0.875982    -0.991816     3.059228
H       2.918317    -1.241148     1.675469
H       3.755940    -3.032330     0.214692
H       2.698248    -3.389932    -2.007654
H       0.605828    -2.164035    -2.606065
H      -0.238974    -0.416262    -1.120992
C       0.562573     1.967837    -0.457458
N       0.741223     2.318897    -1.537958
C      -1.492292     4.024486     0.314672
O      -1.554099     5.118322    -0.211919
C      -2.440429     2.929727    -0.100849
C      -3.064974     2.182922     0.804237
H      -3.817939     1.459821     0.504826
H      -2.876543     2.281617     1.867420
C      -2.735314     2.876907    -1.573384
H      -1.830339     2.655537    -2.146645
H      -3.098506     3.851795    -1.908727
H      -3.488290     2.115091    -1.786041
N      -0.601127     3.789722     1.344403
C       0.222190     4.922664     1.772388
H      -0.403957     5.808358     1.876125
H       1.005575     5.135401     1.037694
H       0.683093     4.681434     2.731295
C       1.190172    -4.642526    -0.685125
C       0.320064    -4.304585     0.499799
C       0.456859    -5.086420    -1.930274
H       0.913967    -3.968852     1.351185
H      -0.255979    -5.186872     0.806597
H      -0.385036    -3.513872     0.232756
H       1.127364    -5.179628    -2.788173
H      -0.334784    -4.374817    -2.176120
H      -0.012157    -6.064273    -1.764812
C       2.350099    -5.430170    -0.377706
N       3.321529    -6.009088    -0.148360
48
     -1091.809183     -1091.479169   1.37   1.53
C      -1.060592    -0.420303     0.627497
C      -0.774011     0.704290    -0.165516
C      -1.566588     1.857717    -0.104225
C      -2.642698     1.897442     0.772628
C      -2.911420     0.805917     1.587134
C      -2.137125    -0.342069     1.511594
C      -0.242075    -1.648851     0.549073
C       0.063944    -2.241913    -0.689599
C       0.842724    -3.369489    -0.759765
C       1.443892    -3.916188     0.416745
C       0.992650    -3.401898     1.670608
C       0.205014    -2.277082     1.724795
H      -3.260240     2.786774     0.815769
H      -3.748840     0.846411     2.276223
H      -2.378472    -1.202019     2.126944
H      -0.340893    -1.813259    -1.600291
H       1.062162    -3.824471    -1.719571
H       1.773564    -4.950749     0.380159
H       1.307146    -3.886223     2.588992
H      -0.072864    -1.860302     2.688239
C       0.406763     0.731921    -0.988857
N       1.355052     0.770553    -1.638850
C      -1.183860     4.250692    -0.466013
O      -1.364580     5.203554    -1.197760
C      -0.791266     4.423281     0.980022
C      -1.448379     5.338106     1.683814
H      -1.204065     5.538255     2.722792
H      -2.247156     5.917985     1.233048
C       0.365894     3.621125     1.522658
H       0.074745     2.602410     1.792111
H       0.762091     4.105279     2.417626
H       1.170189     3.546693     0.784309
N      -1.266591     2.957926    -0.949364
C      -1.533287     2.800582    -2.380946
H      -1.366234     1.760358    -2.661627
H      -0.856407     3.439583    -2.946356
H      -2.563743     3.082316    -2.620635
C       3.433539    -3.264950     0.286976
C       3.390917    -1.760027     0.200658
C       4.103632    -3.831586     1.518329
H       4.412651    -1.359917     0.196041
H       2.872783    -1.348612     1.070325
H       2.884831    -1.412822    -0.700604
H       5.180034    -3.621432     1.492567
H       3.977219    -4.914728     1.592017
H       3.695094    -3.365350     2.417928
C       3.799102    -3.931202    -0.931652
N       4.029675    -4.495732    -1.911216
48
     -1091.805950     -1091.479094   3.40   1.58
C       1.205552     1.354418     0.765995
C      -0.151398     1.232037     0.431574
C      -0.982604     2.353865     0.363043
C      -0.460325     3.612237     0.598863
C       0.891027     3.751021     0.899026
C       1.711643     2.637878     0.985086
C       2.075486     0.165781     0.883827
C       1.673736    -0.945348     1.647464
C       2.461118    -2.067049     1.728760
C       3.661623    -2.172492     0.961790
C       4.134842    -0.977774     0.334154
C       3.339535     0.139977     0.268788
H      -1.116260     4.474856     0.554403
H       1.301648     4.738494     1.082847
H       2.756883     2.752736     1.252031
H       0.740571    -0.900091     2.199493
H       2.150125    -2.900119     2.349770
H       4.401958    -2.904543     1.272340
H       5.107072    -0.989105    -0.146798
H       3.681847     1.013251    -0.278157
C      -0.718534    -0.045254     0.086403
N      -1.194876    -1.045348    -0.223504
C      -3.168883     1.559288     0.921631
O      -2.755142     1.220297     2.013547
C      -4.599384     1.279967     0.540111
C      -5.470592     2.272475     0.407428
H      -6.521269     2.076983     0.214574
H      -5.170717     3.311357     0.509640
C      -4.936086    -0.181336     0.458151
H      -4.340969    -0.674198    -0.318432
H      -5.996593    -0.326227     0.241830
H      -4.689829    -0.668838     1.405873
N      -2.358325     2.198602     0.010621
C      -2.676065     2.400048    -1.400443
H      -3.752079     2.354647    -1.548374
H      -2.198997     1.633196    -2.021806
H      -2.317375     3.383554    -1.716636
C       3.103662    -3.395342    -0.647934
C       2.661211    -4.692087    -0.008212
C       2.035617    -2.651573    -1.409953
H       2.433835    -5.436501    -0.781387
H       1.752311    -4.530657     0.575939
H       3.432189    -5.112434     0.642527
H       1.168938    -2.467396    -0.771630
H       1.702782    -3.254237    -2.264443
H       2.401215    -1.696223    -1.789139
C       4.376114    -3.475849    -1.309112
N       5.425206    -3.502119    -1.788857
48
     -1091.808760     -1091.479031   1.63   1.62
C       0.976153     1.046222     0.149426
C      -0.048571     0.729288     1.057488
C      -0.480113     1.655060     2.016080
C       0.114696     2.908942     2.066391
C       1.124131     3.233408     1.170529
C       1.557028     2.311985     0.228861
C       1.429803     0.079788    -0.874601
C       2.801223    -0.180196    -1.040334
C       3.240510    -1.097945    -1.964480
C       2.309257    -1.868651    -2.725727
C       0.938210    -1.466612    -2.667909
C       0.514496    -0.554858    -1.734049
H      -0.216261     3.623499     2.810820
H       1.581445     4.216695     1.212761
H       2.337328     2.578609    -0.475886
H       3.520016     0.350181    -0.422662
H       4.304068    -1.267673    -2.094495
H       2.661314    -2.327773    -3.645329
H       0.224812    -1.941330    -3.332794
H      -0.538758    -0.303065    -1.671431
C      -0.668341    -0.570084     1.029028
N      -1.161036    -1.609486     1.017816
C      -2.588405     2.097839     3.181353
O      -3.195192     2.032770     4.231962
C      -3.032070     3.010731     2.065272
C      -3.390338     4.245697     2.397912
H      -3.745704     4.953113     1.654588
H      -3.343457     4.579052     3.429451
C      -3.124392     2.463325     0.662314
H      -3.522929     1.444126     0.665972
H      -2.151911     2.432737     0.164032
H      -3.788548     3.091247     0.064849
N      -1.493783     1.287666     2.941298
C      -1.123144     0.347253     4.002322
H      -0.383307    -0.353570     3.615461
H      -2.007440    -0.202396     4.321727
H      -0.708525     0.876829     4.866332
C       2.300045    -3.738535    -1.778478
C       3.738971    -4.200673    -1.827526
C       1.730700    -3.522200    -0.398808
H       3.821375    -5.221067    -1.433224
H       4.363923    -3.553163    -1.208053
H       4.133729    -4.204290    -2.846712
H       1.759018    -4.462839     0.165520
H       0.697892    -3.173590    -0.428583
H       2.330313    -2.786899     0.143176
C       1.434665    -4.436824    -2.687483
N       0.738004    -4.940393    -3.457207
48
     -1091.808760     -1091.479013   1.63   1.63
C      -0.904146    -0.329557     0.905743
C      -0.167445     0.864001     0.817635
C      -0.578487     2.021412     1.491157
C      -1.736582     1.987416     2.256804
C      -2.473974     0.814770     2.346051
C      -2.059941    -0.332878     1.686774
C      -0.484944    -1.553214     0.187861
C      -0.202029    -1.529051    -1.190031
C       0.207172    -2.662217    -1.846851
C       0.451394    -3.874234    -1.128436
C       0.003158    -3.922550     0.227097
C      -0.414415    -2.780948     0.868703
H      -2.052125     2.881640     2.781298
H      -3.380349     0.796666     2.942649
H      -2.649377    -1.241179     1.751402
H      -0.330340    -0.605782    -1.744807
H       0.411679    -2.634334    -2.911636
H       0.461051    -4.801889    -1.693915
H       0.028317    -4.865466     0.762958
H      -0.689387    -2.821767     1.918563
C       1.042797     0.915068     0.039172
N       2.015547     0.960069    -0.573171
C      -0.347671     4.429970     1.111156
O       0.190675     5.461162     1.461920
C      -1.608259     4.436271     0.282468
C      -2.564754     5.285783     0.639669
H      -3.490279     5.367286     0.077518
H      -2.441580     5.929644     1.504348
C      -1.688511     3.552901    -0.938057
H      -2.459764     3.927789    -1.614061
H      -1.935949     2.518407    -0.685988
H      -0.734848     3.540311    -1.474692
N       0.210357     3.200110     1.408177
C       1.478209     3.210684     2.143008
H       1.328220     3.541456     3.175945
H       2.171744     3.894208     1.655241
H       1.900559     2.205808     2.140202
C       2.541362    -3.927874    -0.976761
C       2.958271    -2.653366    -0.286644
C       2.838944    -5.206166    -0.225828
H       2.474437    -2.580471     0.690362
H       2.702290    -1.766750    -0.867583
H       4.043792    -2.656690    -0.126320
H       2.465078    -5.137142     0.798400
H       3.922358    -5.370964    -0.175575
H       2.391117    -6.078648    -0.708338
C       2.857932    -3.989552    -2.376323
N       3.043900    -4.041912    -3.513894
48
     -1091.807870     -1091.478957   2.19   1.66
C      -0.204547     0.019891     0.804720
C       0.349617     1.307912     0.735056
C       0.114515     2.250316     1.743351
C      -0.644146     1.884477     2.846694
C      -1.180545     0.607175     2.933363
C      -0.972935    -0.315594     1.919175
C       0.019850    -0.999020    -0.243571
C       1.313579    -1.354025    -0.658697
C       1.507602    -2.406691    -1.517780
C       0.407666    -3.223645    -1.928345
C      -0.902941    -2.708761    -1.681428
C      -1.081232    -1.663558    -0.810938
H      -0.820232     2.616795     3.627578
H      -1.768537     0.330176     3.802178
H      -1.366890    -1.322981     1.996792
H       2.167463    -0.799022    -0.285437
H       2.511214    -2.661838    -1.840243
H       0.549560    -3.864206    -2.795986
H      -1.762511    -3.198240    -2.126527
H      -2.083637    -1.330468    -0.560451
C       1.159327     1.690016    -0.390597
N       1.811915     2.010763    -1.281508
C       0.491294     4.449400     0.656444
O       1.233074     5.403222     0.518930
C      -0.693578     4.277291    -0.258354
C      -1.890398     3.952736     0.220087
H      -2.759296     3.922687    -0.430680
H      -2.057136     3.736728     1.269238
C      -0.444591     4.664172    -1.688948
H      -1.364470     4.584652    -2.271946
H       0.320999     4.026816    -2.139947
H      -0.074590     5.691906    -1.730083
N       0.684938     3.551084     1.686984
C       1.800203     3.820875     2.596611
H       2.757492     3.562035     2.131709
H       1.667498     3.227285     3.502544
H       1.813376     4.880743     2.848071
C       0.501703    -4.886017    -0.652232
C      -0.557498    -5.825956    -1.184028
C       1.922539    -5.388799    -0.768508
H      -0.372861    -6.052526    -2.238440
H      -1.559031    -5.403874    -1.085259
H      -0.535898    -6.774907    -0.633823
H       2.039196    -6.332583    -0.221153
H       2.637514    -4.671227    -0.363030
H       2.174445    -5.582457    -1.815783
C       0.178907    -4.296535     0.614939
N      -0.100967    -3.790389     1.613207
48
     -1091.808029     -1091.478829   2.09   1.74
C      -0.492812    -0.117948    -0.272470
C      -0.573315     1.233153     0.108894
C      -1.618449     2.050835    -0.338777
C      -2.568192     1.527151    -1.205376
C      -2.495953     0.197958    -1.595415
C      -1.477505    -0.617410    -1.126019
C       0.593943    -1.010775     0.187918
C       0.278599    -2.288464     0.686507
C       1.264120    -3.164036     1.073955
C       2.642093    -2.836414     0.892521
C       2.941262    -1.487884     0.522808
C       1.945400    -0.623744     0.140206
H      -3.372195     2.167935    -1.551303
H      -3.244412    -0.206629    -2.268932
H      -1.421297    -1.652529    -1.444881
H      -0.764582    -2.567295     0.801885
H       0.995875    -4.126422     1.496776
H       3.375885    -3.370407     1.489837
H       3.978123    -1.171167     0.493576
H       2.207455     0.370509    -0.203379
C       0.404733     1.807029     0.994058
N       1.175444     2.289283     1.698199
C      -1.753755     3.882529     1.331885
O      -1.512321     5.046754     1.585544
C      -2.191832     2.945549     2.427170
C      -3.209332     2.108534     2.250630
H      -3.579811     1.503643     3.072952
H      -3.727998     2.016023     1.303253
C      -1.510360     3.161244     3.749048
H      -0.434862     2.980676     3.670155
H      -1.929663     2.497231     4.507780
H      -1.641362     4.200445     4.061784
N      -1.694621     3.420547     0.030848
C      -1.354155     4.401006    -1.002236
H      -1.909789     5.321005    -0.824413
H      -1.619492     3.991579    -1.978316
H      -0.283896     4.632668    -0.985868
C       3.208534    -3.947927    -0.796114
C       2.948476    -5.387623    -0.414878
C       2.386685    -3.417949    -1.944532
H       3.292147    -6.058519    -1.211977
H       1.877486    -5.554756    -0.278240
H       3.470023    -5.667509     0.503773
H       1.322547    -3.527871    -1.722270
H       2.604793    -3.986986    -2.857221
H       2.595316    -2.364601    -2.137011
C       4.600002    -3.597767    -0.836853
N       5.709134    -3.280713    -0.813320
48
     -1091.806219     -1091.478461   3.23   1.97
C       0.362993    -0.825385     1.056945
C      -0.589573    -0.035795     1.722566
C      -0.403983     0.354607     3.054207
C       0.702196    -0.107594     3.752084
C       1.628173    -0.926737     3.120147
C       1.468289    -1.268353     1.785904
C       0.223383    -1.185355    -0.369842
C      -0.131764    -0.225177    -1.334638
C      -0.211922    -0.555835    -2.664202
C       0.153841    -1.861620    -3.117868
C       0.370348    -2.856015    -2.116198
C       0.446842    -2.509572    -0.788754
H       0.832936     0.192865     4.786080
H       2.493824    -1.283422     3.668688
H       2.218541    -1.873240     1.288170
H      -0.344487     0.791525    -1.022973
H      -0.500163     0.190967    -3.396030
H      -0.225254    -2.185031    -4.083253
H       0.502287    -3.891205    -2.412628
H       0.642476    -3.274380    -0.043042
C      -1.826463     0.324780     1.080181
N      -2.832059     0.605057     0.598017
C      -1.621019     2.473726     3.310556
O      -2.602703     3.072198     3.699098
C      -0.582750     3.134628     2.435038
C      -0.904700     3.482902     1.195761
H      -0.191275     3.991541     0.553705
H      -1.888484     3.276578     0.788224
C       0.742295     3.445308     3.079782
H       1.379033     4.000360     2.387755
H       1.271588     2.538428     3.385460
H       0.591175     4.054192     3.977726
N      -1.362447     1.176890     3.708391
C      -2.322478     0.515527     4.590612
H      -3.153763     0.087463     4.019529
H      -2.720811     1.248892     5.290213
H      -1.813290    -0.280583     5.138049
C       2.055546    -1.572782    -3.963542
C       2.928015    -1.027109    -2.860834
C       2.448996    -2.930714    -4.498868
H       2.562877    -0.065833    -2.496498
H       3.954329    -0.892339    -3.225381
H       2.954490    -1.729967    -2.024692
H       3.403425    -2.864027    -5.035712
H       1.703890    -3.327902    -5.192618
H       2.578793    -3.638067    -3.676421
C       1.703354    -0.623750    -4.981059
N       1.355527     0.133488    -5.779116
48
     -1091.806398     -1091.478452   3.12   1.98
C       0.018981     0.049015     1.347691
C       0.621842     1.309932     1.204427
C       0.090894     2.442384     1.833565
C      -1.004947     2.304900     2.672820
C      -1.582868     1.056297     2.859870
C      -1.086636    -0.053982     2.194003
C       0.518142    -1.144288     0.632505
C       0.677182    -2.363653     1.316833
C       1.091794    -3.496320     0.661427
C       1.282266    -3.490092    -0.755335
C       1.256499    -2.218169    -1.404908
C       0.842085    -1.092930    -0.734996
H      -1.403807     3.186450     3.163023
H      -2.442063     0.953685     3.514636
H      -1.570085    -1.017709     2.312115
H       0.500401    -2.397053     2.387592
H       1.228928    -4.425579     1.204033
H       1.907633    -4.268636    -1.183156
H       1.538154    -2.147413    -2.449961
H       0.768265    -0.149975    -1.265730
C       1.853080     1.458703     0.473435
N       2.848388     1.597055    -0.085660
C       0.737117     4.356019     0.434374
O       1.465147     5.307396     0.240194
C      -0.223222     3.862185    -0.621674
C       0.256553     3.312431    -1.729985
H      -0.407236     2.980066    -2.522987
H       1.322873     3.183505    -1.881104
C      -1.685751     4.124793    -0.376749
H      -2.276614     3.809562    -1.239266
H      -1.854278     5.194549    -0.212101
H      -2.054250     3.596371     0.506994
N       0.694566     3.718234     1.658415
C       1.578904     4.193127     2.721315
H       2.581307     3.761835     2.623321
H       1.157410     3.909958     3.688221
H       1.657571     5.277298     2.655611
C      -0.429686    -4.464861    -1.485402
C      -1.610530    -3.661353    -1.000385
C      -0.238553    -4.508293    -2.984306
H      -1.670744    -3.653668     0.088944
H      -2.541932    -4.086935    -1.395048
H      -1.531512    -2.630188    -1.352811
H      -0.260719    -3.497113    -3.397265
H      -1.050239    -5.078609    -3.452776
H       0.705610    -4.983139    -3.262387
C      -0.254429    -5.733170    -0.836644
N      -0.054790    -6.728422    -0.287965
48
     -1091.806428     -1091.478338   3.10   2.05
C       1.249352    -0.528001     1.560660
C       0.357726     0.547091     1.395807
C       0.558278     1.761276     2.057193
C       1.667393     1.926890     2.870037
C       2.569721     0.882057     3.019126
C       2.361496    -0.331233     2.378850
C       1.028292    -1.822404     0.882835
C      -0.218642    -2.470065     0.947466
C      -0.434987    -3.653849     0.286474
C       0.570066    -4.208543    -0.563503
C       1.876201    -3.632085    -0.480819
C       2.078725    -2.452078     0.191805
H       1.825711     2.880286     3.359447
H       3.443077     1.014237     3.649453
H       3.058643    -1.149438     2.525355
H      -1.010520    -2.038873     1.551016
H      -1.392910    -4.154446     0.376779
H       0.500854    -5.263741    -0.812866
H       2.692741    -4.107777    -1.013381
H       3.059523    -1.986616     0.179620
C      -0.748655     0.448684     0.478493
N      -1.635619     0.389158    -0.252183
C      -0.036471     3.898928     1.135147
O       1.109320     4.070529     0.763253
C      -1.111457     4.875593     0.736396
C      -2.186424     4.446142     0.084900
H      -2.922958     5.145871    -0.299733
H      -2.352650     3.391510    -0.113081
C      -0.782798     6.321108     0.980139
H      -0.694329     6.530289     2.052318
H      -1.554898     6.969862     0.561335
H       0.181867     6.561082     0.524587
N      -0.399919     2.805112     1.886481
C      -1.672116     2.651526     2.590014
H      -2.139951     3.625777     2.718831
H      -1.475364     2.225018     3.577192
H      -2.365561     1.997980     2.052114
C      -0.081624    -3.694111    -2.488683
C      -1.436316    -4.352367    -2.623021
C      -0.083532    -2.187623    -2.559556
H      -1.391946    -5.426331    -2.425041
H      -1.823501    -4.215595    -3.640380
H      -2.146610    -3.892539    -1.932042
H       0.911340    -1.773880    -2.388595
H      -0.769082    -1.771315    -1.818452
H      -0.422890    -1.864094    -3.551681
C       0.955912    -4.335842    -3.246649
N       1.815987    -4.874592    -3.795672
48
     -1091.806428     -1091.478331   3.10   2.05
C      -0.148092     0.040247    -1.513771
C      -0.753991     0.623282    -0.386409
C      -1.494893     1.803013    -0.492172
C      -1.616906     2.430964    -1.720609
C      -1.000282     1.879862    -2.836032
C      -0.280760     0.697582    -2.736608
C       0.615805    -1.220629    -1.411564
C       1.887782    -1.331511    -2.000803
C       2.628124    -2.481263    -1.875042
C       2.157464    -3.566493    -1.071374
C       0.799046    -3.503884    -0.634268
C       0.074443    -2.344712    -0.762064
H      -2.173917     3.357736    -1.786846
H      -1.088887     2.375945    -3.797065
H       0.172976     0.261854    -3.620466
H       2.293329    -0.487056    -2.549615
H       3.609642    -2.555051    -2.330920
H       2.591803    -4.546946    -1.245941
H       0.350878    -4.370270    -0.160042
H      -0.940581    -2.300506    -0.381220
C      -0.562757     0.057290     0.924437
N      -0.418219    -0.379033     1.979361
C      -1.598687     3.473609     1.231676
O      -0.739235     4.125182     0.668302
C      -2.085367     3.888941     2.595168
C      -2.010294     3.037318     3.611797
H      -2.260881     3.349608     4.621610
H      -1.669263     2.015072     3.478424
C      -2.477497     5.333782     2.720109
H      -3.355880     5.558897     2.104546
H      -1.662269     5.968643     2.362269
H      -2.706029     5.584783     3.757985
N      -2.122916     2.329075     0.676475
C      -3.322730     1.638267     1.145757
H      -3.919354     2.313258     1.756533
H      -3.083094     0.749468     1.737319
H      -3.914408     1.337823     0.276965
C       3.250900    -3.380880     0.707842
C       2.925138    -2.023788     1.279432
C       2.817571    -4.560758     1.548468
H       3.471959    -1.877005     2.219426
H       1.857741    -1.947246     1.496994
H       3.202264    -1.220253     0.595535
H       2.952436    -5.509914     1.023609
H       1.766923    -4.455601     1.828636
H       3.407261    -4.602959     2.472654
C       4.573610    -3.508056     0.162797
N       5.607325    -3.619769    -0.337564
48
     -1091.806412     -1091.478240   3.11   2.11
C       0.543341    -0.077614     0.998275
C       0.984740     1.223046     0.710355
C       0.563441     2.314661     1.480319
C      -0.309873     2.102733     2.538490
C      -0.764499     0.820934     2.818549
C      -0.338750    -0.261433     2.063389
C       0.953019    -1.251333     0.197158
C       1.484452    -2.380850     0.842578
C       1.742100    -3.534765     0.146644
C       1.354717    -3.649652    -1.224604
C       1.021872    -2.435415    -1.903250
C       0.781345    -1.284116    -1.196043
H      -0.632850     2.947820     3.135568
H      -1.457824     0.666223     3.638882
H      -0.715132    -1.259025     2.261493
H       1.702087    -2.327018     1.904771
H       2.171335    -4.391636     0.654653
H       1.790207    -4.454723    -1.812339
H       0.898029    -2.442802    -2.980734
H       0.442662    -0.394018    -1.715066
C       1.876908     1.461927    -0.393614
N       2.585357     1.664384    -1.276847
C       0.205261     4.696043     1.042617
O       0.591061     5.831172     1.241728
C      -1.197249     4.408905     0.565205
C      -2.183961     5.084235     1.143426
H      -3.217559     4.951913     0.837680
H      -1.979675     5.795448     1.936962
C      -1.402864     3.445082    -0.577932
H      -2.359950     3.648243    -1.062805
H      -1.408559     2.404007    -0.244738
H      -0.608808     3.545677    -1.324228
N       1.055493     3.616572     1.187879
C       2.439215     3.904586     1.571264
H       2.807573     4.739273     0.977058
H       3.053580     3.024519     1.379189
H       2.506095     4.172692     2.631257
C      -0.466997    -4.683793    -1.107261
C      -0.991316    -4.714361    -2.524734
C      -0.095501    -6.032063    -0.530829
H      -1.891915    -5.338247    -2.584841
H      -0.245460    -5.147423    -3.198442
H      -1.246963    -3.715136    -2.880707
H       0.287542    -5.944801     0.487318
H       0.662790    -6.517707    -1.152396
H      -0.972755    -6.690459    -0.505664
C      -1.214994    -3.849516    -0.211890
N      -1.778931    -3.162593     0.523773
48
     -1091.805981     -1091.477889   3.38   2.33
C       0.466892     0.557445    -1.439265
C      -0.060056     1.194078    -0.305509
C      -0.336270     2.564471    -0.309278
C      -0.060106     3.318539    -1.435092
C       0.494330     2.705969    -2.554276
C       0.750304     1.344167    -2.558188
C       0.716400    -0.898920    -1.453408
C       1.936251    -1.411596    -1.928689
C       2.194285    -2.760255    -1.902980
C       1.259157    -3.669526    -1.316518
C      -0.036384    -3.153328    -1.007218
C      -0.276526    -1.801832    -1.031533
H      -0.289204     4.378670    -1.432241
H       0.712426     3.297542    -3.437439
H       1.151497     0.869316    -3.447295
H       2.688986    -0.726420    -2.306635
H       3.139967    -3.145693    -2.268763
H       1.337778    -4.717979    -1.590376
H      -0.825653    -3.835825    -0.711208
H      -1.252799    -1.422199    -0.748070
C      -0.272137     0.469825     0.920404
N      -0.422912    -0.074521     1.922428
C      -2.149421     2.843164     1.229114
O      -2.843479     2.129723     0.531384
C      -2.673771     3.361303     2.543485
C      -3.069204     4.621993     2.665398
H      -3.514882     4.985521     3.586583
H      -2.981858     5.328238     1.844944
C      -2.791447     2.308977     3.608815
H      -3.214024     2.725582     4.525388
H      -1.813123     1.868786     3.831374
H      -3.430448     1.494950     3.254002
N      -0.867251     3.184427     0.862271
C       0.099846     3.849806     1.730182
H      -0.421178     4.410548     2.502726
H       0.699970     4.544288     1.136004
H       0.769308     3.123131     2.205523
C       2.079989    -4.083711     0.568395
C       2.179721    -2.767761     1.298384
C       1.139448    -5.096762     1.181297
H       1.190236    -2.321808     1.419001
H       2.821035    -2.060652     0.770322
H       2.600344    -2.930262     2.298787
H       1.536419    -5.448128     2.141823
H       1.001442    -5.969818     0.538420
H       0.166457    -4.637812     1.371144
C       3.334497    -4.636939     0.140729
N       4.321205    -5.073134    -0.268641
48
     -1091.806208     -1091.477831   3.24   2.37
C       1.384180     1.233832     0.222865
C      -0.011473     1.199629     0.053980
C      -0.801002     2.319103     0.328962
C      -0.210137     3.478643     0.802815
C       1.163862     3.516276     0.999216
C       1.951871     2.412051     0.707549
C       2.229228     0.062140    -0.089514
C       3.204541    -0.372247     0.825113
C       3.973871    -1.481202     0.565814
C       3.747485    -2.268321    -0.604652
C       2.878684    -1.715246    -1.596585
C       2.111774    -0.611845    -1.319034
H      -0.834780     4.332712     1.035111
H       1.626504     4.421988     1.377630
H       3.027644     2.463579     0.837898
H       3.342823     0.176198     1.752068
H       4.737511    -1.786726     1.273237
H       4.549471    -2.918482    -0.943073
H       2.787237    -2.219511    -2.552475
H       1.419169    -0.238566    -2.065995
C      -0.675973    -0.016947    -0.337754
N      -1.229925    -0.976934    -0.646622
C      -3.037817     2.190874     1.196761
O      -2.623138     2.375874     2.325682
C      -4.488102     1.851111     0.973812
C      -4.814535     0.732845     0.335570
H      -5.851289     0.419158     0.253226
H      -4.062362     0.080097    -0.097135
C      -5.469156     2.760320     1.657784
H      -5.221972     2.835843     2.720279
H      -6.488301     2.384265     1.546696
H      -5.423419     3.773728     1.242975
N      -2.207768     2.242590     0.100778
C      -2.652160     2.294234    -1.290901
H      -2.034222     3.019094    -1.827434
H      -3.689103     2.622331    -1.332846
H      -2.571536     1.322178    -1.786787
C       2.677013    -3.928156     0.096275
C       3.571631    -4.546454     1.146937
C       1.350287    -3.409838     0.592022
H       3.672639    -3.871599     2.000125
H       4.566465    -4.773954     0.755618
H       3.133417    -5.483485     1.512211
H       1.508561    -2.661071     1.371839
H       0.769679    -4.233071     1.027011
H       0.759063    -2.960096    -0.206158
C       2.614714    -4.677853    -1.127201
N       2.603948    -5.231004    -2.139774
48
     -1091.806414     -1091.477734   3.11   2.43
C      -0.416799     0.132131    -0.399231
C      -0.324985     1.435542     0.118988
C      -1.474085     2.162813     0.457196
C      -2.724443     1.585449     0.280504
C      -2.826271     0.297028    -0.224632
C      -1.688823    -0.417527    -0.567880
C       0.776471    -0.668266    -0.752547
C       1.872478    -0.790232     0.120351
C       2.947799    -1.580162    -0.202302
C       2.944368    -2.374782    -1.391135
C       1.895846    -2.128001    -2.328456
C       0.826208    -1.334097    -1.990909
H      -3.611306     2.151791     0.539480
H      -3.805580    -0.151818    -0.356113
H      -1.777788    -1.428967    -0.949241
H       1.870516    -0.253154     1.062046
H       3.792331    -1.653958     0.474169
H       3.903131    -2.711058    -1.775919
H       1.933670    -2.596163    -3.306363
H       0.021293    -1.183245    -2.704131
C       0.955882     2.064571     0.309906
N       1.970649     2.582745     0.466977
C      -1.998564     3.908344     2.092400
O      -2.258314     5.081845     2.270787
C      -2.311809     2.860336     3.131443
C      -3.506007     2.916917     3.710011
H      -3.795003     2.213249     4.484981
H      -4.225602     3.677818     3.426033
C      -1.243054     1.866954     3.515399
H      -1.472701     1.437813     4.492863
H      -0.262841     2.350406     3.571686
H      -1.161914     1.046230     2.797933
N      -1.346371     3.490329     0.947543
C      -0.972320     4.528494    -0.016528
H      -1.858107     4.938299    -0.512852
H      -0.303335     4.098438    -0.761788
H      -0.459541     5.335866     0.504345
C       2.547666    -4.312586    -0.686819
C       1.216267    -4.240466     0.018405
C       2.588794    -5.186545    -1.919739
H       0.927041    -5.236103     0.378159
H       0.446305    -3.893370    -0.674821
H       1.248514    -3.561780     0.871906
H       1.769134    -4.927580    -2.594072
H       2.471025    -6.240931    -1.640508
H       3.534448    -5.088509    -2.458593
C       3.681717    -4.471203     0.178714
N       4.614392    -4.537824     0.854669
48
     -1091.806558     -1091.477698   3.02   2.45
C      -0.148121     0.026064     0.500470
C       0.522469     1.254456     0.388483
C       0.251810     2.309032     1.269998
C      -0.707046     2.138278     2.259564
C      -1.393087     0.935378     2.360140
C      -1.113230    -0.114318     1.497974
C       0.135155    -1.111328    -0.400146
C       1.445811    -1.569742    -0.610061
C       1.681555    -2.703189    -1.346914
C       0.594580    -3.495095    -1.833044
C      -0.703813    -2.898842    -1.793993
C      -0.925416    -1.771534    -1.044131
H      -0.911536     2.951742     2.945868
H      -2.141495     0.810465     3.136052
H      -1.614428    -1.069523     1.609209
H       2.278554    -1.026647    -0.176225
H       2.700341    -3.035629    -1.513931
H       0.804128    -4.210858    -2.624833
H      -1.529891    -3.383147    -2.303556
H      -1.929149    -1.367603    -0.956543
C       1.444003     1.484921    -0.693076
N       2.177255     1.683874    -1.556641
C       0.341823     4.753403     1.125584
O       0.927866     5.765980     1.454618
C      -1.075344     4.789689     0.609229
C      -1.941568     5.553533     1.265011
H      -2.972596     5.651392     0.938438
H      -1.636772     6.108827     2.146014
C      -1.413086     4.034646    -0.652829
H      -2.319433     4.449269    -1.098868
H      -1.585594     2.971574    -0.465462
H      -0.601610     4.110390    -1.383148
N       0.974704     3.525928     1.150364
C       2.384015     3.513038     1.548427
H       2.807048     2.533281     1.325134
H       2.491013     3.721833     2.617890
H       2.924350     4.275038     0.988404
C       0.436962    -5.059368    -0.440715
C      -0.607874    -5.980273    -1.030578
C       1.828784    -5.641881    -0.349931
H      -1.586891    -5.500885    -1.082123
H      -0.707520    -6.884892    -0.417805
H      -0.315917    -6.295073    -2.037011
H       2.533715    -4.933509     0.088021
H       2.188830    -5.927991    -1.343037
H       1.823630    -6.545775     0.272088
C       0.005451    -4.356653     0.732484
N      -0.356451    -3.760401     1.651461
48
     -1091.806609     -1091.477693   2.98   2.45
C       0.827585     0.374681     0.685653
C       0.122738     1.475896     0.169430
C      -0.334336     2.500877     1.008686
C      -0.089750     2.426165     2.373420
C       0.599489     1.340205     2.894328
C       1.059486     0.331809     2.061478
C       1.311493    -0.731197    -0.169993
C       2.635455    -1.189120    -0.034914
C       3.100577    -2.247783    -0.774947
C       2.222209    -2.976548    -1.635616
C       0.930792    -2.411647    -1.867063
C       0.480461    -1.349811    -1.120536
H      -0.440949     3.222255     3.019343
H       0.783583     1.283875     3.962374
H       1.585660    -0.519764     2.478906
H       3.306800    -0.672502     0.644304
H       4.128914    -2.578309    -0.674666
H       2.670164    -3.566997    -2.429997
H       0.285541    -2.848050    -2.621772
H      -0.527512    -0.980509    -1.272439
C      -0.142773     1.584787    -1.241318
N      -0.361266     1.685588    -2.366107
C      -2.215935     4.067264     0.963268
O      -2.569138     5.219360     0.807394
C      -3.091757     3.057560     1.662887
C      -3.684997     3.443650     2.786744
H      -4.350401     2.782089     3.333383
H      -3.524361     4.439707     3.186122
C      -3.313271     1.710384     1.020720
H      -4.217466     1.252518     1.427087
H      -2.480328     1.024616     1.196395
H      -3.432663     1.809416    -0.062630
N      -1.014553     3.616004     0.449438
C      -0.211129     4.584885    -0.300888
H       0.207003     5.345671     0.366341
H      -0.839637     5.077691    -1.041323
H       0.598585     4.060030    -0.807647
C       1.820952    -4.731513    -0.555694
C       1.210180    -4.291712     0.751598
C       0.919934    -5.542704    -1.458689
H       0.312195    -3.698235     0.564147
H       1.907679    -3.692776     1.339077
H       0.922486    -5.168588     1.345483
H       0.721261    -6.524628    -1.011597
H       1.368471    -5.708855    -2.441273
H      -0.039111    -5.035993    -1.589033
C       3.159408    -5.240485    -0.455720
N       4.256570    -5.595030    -0.411744
48
     -1091.806950     -1091.477448   2.77   2.61
C       0.097336    -0.154913     0.719951
C       0.076047     1.249159     0.653019
C      -0.122095     2.027176     1.801595
C      -0.323599     1.400261     3.024166
C      -0.341481     0.014400     3.094947
C      -0.125157    -0.753828     1.961096
C       0.332316    -0.998377    -0.471625
C       1.367076    -0.718074    -1.381513
C       1.604775    -1.540734    -2.455755
C       0.868266    -2.752180    -2.629560
C      -0.269215    -2.942655    -1.785122
C      -0.492828    -2.112497    -0.715038
H      -0.470645     2.003361     3.912325
H      -0.507127    -0.471097     4.051324
H      -0.105334    -1.835683     2.034576
H       1.982115     0.163462    -1.238062
H       2.383324    -1.283720    -3.165811
H       0.838868    -3.193134    -3.622024
H      -0.924393    -3.786930    -1.971540
H      -1.340492    -2.296074    -0.062004
C       0.161723     1.925900    -0.614692
N       0.219883     2.481394    -1.620223
C      -1.081477     4.234618     2.259842
O      -0.858208     5.390625     2.559902
C      -2.452871     3.625443     2.412222
C      -3.106343     3.873317     3.541653
H      -4.108406     3.491567     3.713015
H      -2.654864     4.474024     4.324458
C      -3.038318     2.847769     1.259262
H      -2.795452     3.322689     0.303752
H      -4.124969     2.805091     1.357747
H      -2.663487     1.821633     1.218508
N      -0.096136     3.442875     1.700114
C       1.200134     4.076519     1.447894
H       1.045369     5.018682     0.923909
H       1.804762     3.414179     0.827918
H       1.725987     4.279363     2.386510
C       2.201389    -4.249526    -2.003212
C       3.403816    -4.097448    -2.906620
C       2.451424    -4.003975    -0.536064
H       4.128490    -4.897170    -2.709538
H       3.900864    -3.143394    -2.716259
H       3.130244    -4.149025    -3.963382
H       3.187969    -4.722895    -0.155243
H       1.536745    -4.106495     0.049757
H       2.850123    -2.997619    -0.387705
C       1.393302    -5.399658    -2.293904
N       0.694899    -6.281371    -2.551262
48
     -1091.806950     -1091.477444   2.77   2.61
C       0.648508     0.263691     0.435328
C      -0.378181     0.251683     1.395598
C      -0.169027     0.752945     2.687413
C       1.067198     1.291873     3.018489
C       2.075804     1.342405     2.066597
C       1.873732     0.827658     0.795065
C       0.462833    -0.284243    -0.925477
C       0.899880     0.451974    -2.042773
C       0.786268    -0.051472    -3.314732
C       0.306649    -1.380376    -3.531979
C      -0.264254    -2.051713    -2.407865
C      -0.145466    -1.533508    -1.141130
H       1.229163     1.673537     4.019627
H       3.037792     1.771644     2.327628
H       2.680599     0.839704     0.070482
H       1.302596     1.449290    -1.894887
H       1.109954     0.534601    -4.168287
H      -0.076233    -1.623069    -4.519295
H      -0.771530    -2.999172    -2.554037
H      -0.532912    -2.093306    -0.297052
C      -1.704000    -0.188963     1.048547
N      -2.770661    -0.529236     0.784925
C      -1.586014     1.779904     4.402283
O      -2.137363     1.637208     5.475546
C      -1.339893     3.145706     3.811485
C      -0.869087     4.084288     4.624802
H      -0.691992     5.098285     4.278860
H      -0.654768     3.861709     5.664990
C      -1.713643     3.396079     2.371184
H      -1.839948     4.467781     2.204349
H      -2.651780     2.893040     2.117442
H      -0.951031     3.034822     1.676180
N      -1.217856     0.685844     3.641678
C      -1.565292    -0.635717     4.169142
H      -1.406840    -1.382036     3.390337
H      -2.613170    -0.641719     4.465973
H      -0.952015    -0.882502     5.041863
C       2.053605    -2.472575    -3.940414
C       2.944656    -2.308255    -2.734444
C       1.573451    -3.879849    -4.212691
H       3.858449    -2.903109    -2.858940
H       2.429247    -2.660100    -1.837625
H       3.230923    -1.266003    -2.585793
H       0.825283    -3.909642    -5.008683
H       1.143577    -4.313999    -3.307022
H       2.414453    -4.513477    -4.520559
C       2.486649    -1.765497    -5.112090
N       2.778615    -1.157201    -6.048119
48
     -1091.806743     -1091.477417   2.90   2.63
C      -0.346871     0.145283     0.070584
C       0.359195     1.245219     0.588218
C      -0.310095     2.395670     1.026744
C      -1.693696     2.460131     0.926925
C      -2.397079     1.394956     0.382517
C      -1.735180     0.249141    -0.031859
C       0.332811    -1.091271    -0.371748
C       1.329767    -1.705665     0.407409
C       1.916432    -2.879993     0.006319
C       1.467158    -3.561112    -1.167912
C       0.563695    -2.853594    -2.017555
C      -0.015084    -1.678750    -1.602076
H      -2.210211     3.347961     1.272089
H      -3.477593     1.453054     0.299273
H      -2.298968    -0.591292    -0.421838
H       1.641329    -1.245843     1.338661
H       2.693516    -3.335404     0.610499
H       2.144437    -4.275954    -1.626837
H       0.312929    -3.265018    -2.989560
H      -0.723423    -1.170115    -2.249107
C       1.798778     1.258813     0.593131
N       2.948486     1.291997     0.595705
C       0.245258     4.777338     1.178605
O       0.527230     5.704177     1.911884
C      -0.254154     5.000690    -0.227009
C      -1.179188     5.937557    -0.402123
H      -1.567915     6.173954    -1.388143
H      -1.567444     6.499548     0.441022
C       0.372012     4.220419    -1.356556
H      -0.042030     3.212403    -1.443456
H       1.451728     4.118811    -1.210231
H       0.198475     4.737859    -2.302321
N       0.434642     3.468858     1.582381
C       1.029562     3.262282     2.904842
H       1.309476     2.213701     3.008704
H       0.324555     3.532500     3.697678
H       1.918697     3.883770     3.001666
C       0.313588    -5.143793    -0.408028
C      -0.786146    -4.509926     0.406721
C      -0.136343    -5.912872    -1.629306
H      -0.387670    -3.939258     1.246761
H      -1.456086    -5.284640     0.800875
H      -1.376280    -3.839224    -0.222373
H       0.707838    -6.227642    -2.247785
H      -0.809328    -5.300970    -2.234526
H      -0.684503    -6.814246    -1.328269
C       1.327721    -5.808964     0.359625
N       2.187056    -6.297893     0.954393
48
     -1091.806743     -1091.477412   2.90   2.63
C       0.552250     0.027334     0.674628
C      -0.752702     0.119299     1.189382
C      -0.987812     0.141240     2.570697
C       0.088459     0.094830     3.447030
C       1.382630     0.042089     2.948968
C       1.612546    -0.000406     1.582203
C       0.825564    -0.026941    -0.777625
C       1.836279     0.781436    -1.329759
C       2.146298     0.717671    -2.666803
C       1.514048    -0.239937    -3.516489
C       0.395515    -0.945905    -2.973277
C       0.096970    -0.870415    -1.635642
H      -0.095350     0.105762     4.514863
H       2.220961     0.013904     3.637605
H       2.626556    -0.078510     1.205442
H       2.349280     1.495345    -0.692367
H       2.898595     1.381786    -3.079048
H       1.522849    -0.055714    -4.587144
H      -0.183539    -1.590467    -3.625602
H      -0.713420    -1.470089    -1.236399
C      -1.879767     0.290890     0.310243
N      -2.791074     0.438751    -0.375756
C      -2.715630     1.092963     4.024191
O      -3.676915     0.867344     4.732196
C      -1.948637     2.388468     4.115995
C      -1.657534     2.838097     5.331384
H      -1.131280     3.776551     5.478316
H      -1.946753     2.278454     6.214911
C      -1.629172     3.138966     2.846544
H      -2.465904     3.091257     2.142894
H      -0.750292     2.735673     2.336634
H      -1.431718     4.187600     3.078304
N      -2.322254     0.192303     3.052059
C      -3.143005    -1.010140     2.890852
H      -2.849503    -1.520287     1.973111
H      -4.192020    -0.724862     2.824707
H      -3.016541    -1.687327     3.741771
C       2.967891    -1.736095    -3.763231
C       4.149475    -1.025818    -4.383557
C       3.203888    -2.323719    -2.394281
H       4.566418    -0.300969    -3.680439
H       3.876196    -0.507130    -5.305793
H       4.939369    -1.747096    -4.627286
H       3.533930    -1.542328    -1.705543
H       3.989639    -3.088241    -2.443852
H       2.300342    -2.784057    -1.992030
C       2.256539    -2.588966    -4.672514
N       1.634432    -3.229707    -5.403056
48
     -1091.806619     -1091.476846   2.98   2.99
C      -0.361283    -1.191482     1.480107
C      -0.159836     0.196632     1.529909
C      -0.346223     0.912111     2.716314
C      -0.700625     0.242095     3.874163
C      -0.867059    -1.137946     3.846572
C      -0.705977    -1.844656     2.665233
C      -0.213030    -1.944593     0.217251
C      -0.847133    -1.508544    -0.960898
C      -0.691307    -2.191342    -2.140754
C       0.198171    -3.307782    -2.225845
C       0.698772    -3.829851    -0.993901
C       0.525801    -3.139917     0.182176
H      -0.858449     0.805490     4.787450
H      -1.144812    -1.663326     4.754515
H      -0.873923    -2.916239     2.646613
H      -1.485469    -0.631755    -0.926595
H      -1.194089    -1.852679    -3.040125
H       0.061656    -3.999109    -3.052803
H       1.252205    -4.762939    -0.996960
H       0.970234    -3.515791     1.098948
C       0.315688     0.918198     0.378514
N       0.726173     1.516615    -0.513978
C      -1.068434     3.100728     2.069187
O      -2.119214     2.634778     1.670212
C      -0.751493     4.554615     1.840171
C       0.308165     4.896014     1.116782
H       0.498085     5.933770     0.858440
H       0.996278     4.152722     0.726484
C      -1.790101     5.516724     2.343349
H      -2.770461     5.241315     1.944253
H      -1.549947     6.538794     2.043228
H      -1.864503     5.481523     3.436276
N      -0.140644     2.322959     2.723321
C       1.065224     2.817355     3.377015
H       1.946684     2.714196     2.734483
H       1.231294     2.244169     4.292497
H       0.943243     3.866709     3.639829
C       1.890806    -2.499464    -3.162108
C       2.350140    -1.346737    -2.304980
C       2.857223    -3.657039    -3.274315
H       3.273234    -0.921646    -2.718750
H       2.564963    -1.695698    -1.292133
H       1.604898    -0.552912    -2.247336
H       3.184758    -3.971840    -2.280751
H       3.747332    -3.352590    -3.838681
H       2.413117    -4.513133    -3.788569
C       1.288778    -2.123115    -4.410641
N       0.746435    -1.849837    -5.391756
48
     -1091.805198     -1091.476833   3.87   2.99
C       0.098389     0.355403    -1.380422
C      -0.058015     1.052505    -0.167997
C      -0.832586     2.213741    -0.097972
C      -1.491975     2.667662    -1.229768
C      -1.373962     1.968132    -2.421864
C      -0.581129     0.831667    -2.500387
C       0.943736    -0.853748    -1.471160
C       2.258615    -0.860897    -0.970193
C       3.034162    -1.990920    -1.035342
C       2.493203    -3.220111    -1.526367
C       1.222387    -3.152106    -2.175156
C       0.461124    -2.009683    -2.109392
H      -2.107168     3.557002    -1.160701
H      -1.897308     2.321395    -3.304379
H      -0.468917     0.311810    -3.445848
H       2.670985     0.048717    -0.546480
H       4.050288    -1.980450    -0.656128
H       3.193184    -3.982139    -1.857650
H       0.841912    -4.025986    -2.693362
H      -0.531426    -1.996249    -2.549591
C       0.512676     0.534125     1.048506
N       0.959624     0.134076     2.030304
C      -2.163427     2.919838     1.767492
O      -3.109595     2.282031     1.347677
C      -2.305062     3.744634     3.021467
C      -2.184983     5.065833     2.977982
H      -2.369545     5.676904     3.856539
H      -1.927545     5.586170     2.060658
C      -2.717661     2.965075     4.237699
H      -2.890457     3.629489     5.086778
H      -1.948189     2.234943     4.512967
H      -3.632042     2.404663     4.022606
N      -0.941826     2.919131     1.136320
C       0.264088     3.528617     1.697331
H       1.135679     3.053305     1.247284
H       0.310846     3.370450     2.774944
H       0.310700     4.601646     1.489390
C       2.114201    -4.311135     0.223217
C       1.185852    -3.471421     1.064178
C       1.548547    -5.627416    -0.260410
H       1.642791    -2.528866     1.367001
H       0.905024    -4.023151     1.970142
H       0.271798    -3.251554     0.507415
H       2.212434    -6.120992    -0.974712
H       0.575970    -5.468891    -0.732130
H       1.401905    -6.309269     0.586383
C       3.460040    -4.403756     0.716017
N       4.562440    -4.446114     1.054128
48
     -1091.804933     -1091.476600   4.04   3.14
C      -0.527681     0.249904     0.529942
C       0.356602     1.297732     0.842857
C      -0.092055     2.446926     1.506898
C      -1.419339     2.532199     1.903489
C      -2.300075     1.502263     1.607545
C      -1.862002     0.381859     0.917512
C      -0.093188    -0.975124    -0.177956
C       1.053519    -1.691522     0.209267
C       1.407544    -2.854896    -0.428163
C       0.572244    -3.421487    -1.441054
C      -0.502377    -2.610980    -1.917758
C      -0.844610    -1.448814    -1.269434
H      -1.753583     3.425436     2.419970
H      -3.338784     1.576881     1.912492
H      -2.553789    -0.424458     0.698938
H       1.668660    -1.322287     1.021910
H       2.302099    -3.389674    -0.128130
H       1.025598    -4.125511    -2.133288
H      -1.069796    -2.933249    -2.784413
H      -1.685338    -0.861245    -1.626192
C       1.748043     1.219760     0.481323
N       2.865594     1.169031     0.215857
C       1.499247     4.218192     0.862393
O       2.481806     4.865795     1.160487
C       0.949193     4.213081    -0.542084
C       1.796998     3.969298    -1.533855
H       1.472055     3.982657    -2.570078
H       2.837455     3.738464    -1.334336
C      -0.499981     4.575377    -0.755864
H      -0.655254     4.870976    -1.795594
H      -0.791756     5.412577    -0.113426
H      -1.174125     3.743578    -0.535393
N       0.802158     3.506182     1.822163
C       1.298666     3.559114     3.197312
H       1.610921     4.577591     3.423904
H       2.157753     2.892925     3.333470
H       0.497086     3.258202     3.874953
C      -0.388354    -5.008258    -0.457380
C      -1.137415    -4.395254     0.699461
C      -1.244417    -5.658743    -1.520258
H      -1.699365    -5.169993     1.236448
H      -1.849984    -3.653787     0.330175
H      -0.461939    -3.908486     1.404379
H      -0.656398    -5.959177    -2.391024
H      -2.030665    -4.972825    -1.844228
H      -1.729533    -6.556981    -1.118502
C       0.767961    -5.775289    -0.089894
N       1.735220    -6.346673     0.173123
48
     -1091.805149     -1091.476568   3.90   3.16
C       0.785970    -0.077472     0.696663
C      -0.230424     0.384337     1.551998
C       0.021330     0.622146     2.909577
C       1.280338     0.353114     3.427954
C       2.289381    -0.110042     2.596385
C       2.048143    -0.309452     1.245333
C       0.561184    -0.331751    -0.743905
C       1.474399     0.172452    -1.689207
C       1.328352    -0.088241    -3.029065
C       0.295480    -0.961029    -3.492612
C      -0.700305    -1.342892    -2.542357
C      -0.541904    -1.071940    -1.204569
H       1.461780     0.538019     4.481155
H       3.274433    -0.311292     3.004602
H       2.838547    -0.681776     0.602641
H       2.289402     0.805371    -1.351395
H       2.029008     0.322622    -3.748135
H       0.002131    -0.885531    -4.535967
H      -1.579076    -1.882130    -2.878971
H      -1.282028    -1.429009    -0.497442
C      -1.557374     0.631564     1.051221
N      -2.626734     0.817201     0.671637
C      -1.663017     2.293157     3.584960
O      -2.734135     2.505833     4.115223
C      -0.964366     3.344607     2.759472
C      -1.670408     3.953736     1.814834
H      -1.237125     4.742180     1.206444
H      -2.698476     3.671367     1.617407
C       0.456591     3.715907     3.106154
H       0.693410     4.695216     2.684959
H       1.181860     2.995687     2.718566
H       0.593178     3.766605     4.191292
N      -1.006042     1.090237     3.773451
C      -1.653576     0.092369     4.625129
H      -0.905324    -0.631875     4.953498
H      -2.451513    -0.429877     4.085770
H      -2.089133     0.591122     5.489825
C       1.312647    -2.749935    -3.906692
C       1.968995    -3.170297    -2.615191
C       0.248987    -3.685440    -4.434702
H       2.707157    -2.438548    -2.283491
H       2.474373    -4.135436    -2.747391
H       1.215282    -3.285161    -1.832591
H      -0.282594    -3.259260    -5.289142
H      -0.473596    -3.917410    -3.648844
H       0.703194    -4.629389    -4.760577
C       2.214666    -2.263821    -4.911973
N       2.910459    -1.810806    -5.713263
48
     -1091.803999     -1091.476123   4.62   3.44
C      -0.560411     0.130479    -0.327595
C      -0.397238     0.813871     0.890865
C      -1.431814     1.582406     1.431846
C      -2.633840     1.699463     0.754806
C      -2.800712     1.047745    -0.459426
C      -1.781609     0.270105    -0.989338
C       0.505079    -0.707813    -0.916988
C       1.235340    -1.627762    -0.143693
C       2.186978    -2.435403    -0.717691
C       2.398746    -2.430471    -2.130239
C       1.757853    -1.391944    -2.874577
C       0.809047    -0.592934    -2.286774
H      -3.418178     2.317636     1.174925
H      -3.739424     1.142213    -0.995598
H      -1.934521    -0.256401    -1.925294
H       1.049449    -1.696805     0.922321
H       2.764074    -3.109913    -0.094480
H       3.345567    -2.808915    -2.505268
H       1.994562    -1.279600    -3.927281
H       0.305020     0.165759    -2.877487
C       0.859455     0.799545     1.594464
N       1.845316     0.804576     2.187398
C      -1.022781     3.586441     2.689601
O      -1.190175     4.259892     1.689978
C      -0.539474     4.232820     3.961233
C       0.573947     3.798357     4.540855
H       0.994272     4.314107     5.399538
H       1.118175     2.938146     4.162782
C      -1.300828     5.456688     4.384788
H      -1.349050     6.165845     3.553810
H      -0.822129     5.933046     5.242899
H      -2.332836     5.205608     4.655130
N      -1.225801     2.226059     2.689281
C      -1.297826     1.382215     3.880052
H      -1.504931     1.997460     4.753672
H      -0.368199     0.830863     4.051513
H      -2.116097     0.668367     3.752887
C       1.437320    -4.175461    -2.791997
C       2.121365    -5.299157    -2.047238
C      -0.028771    -3.989278    -2.489670
H       3.203170    -5.292918    -2.201911
H       1.740055    -6.268519    -2.391462
H       1.916923    -5.222040    -0.976834
H      -0.448613    -3.147281    -3.041958
H      -0.170561    -3.810968    -1.421122
H      -0.586542    -4.894231    -2.762297
C       1.780732    -4.102807    -4.183849
N       2.091998    -3.986872    -5.288880
48
     -1091.803999     -1091.476122   4.62   3.44
C      -0.320229    -0.550646     0.804807
C      -0.709726     0.748581     0.432521
C      -2.026570     1.184628     0.604094
C      -2.966809     0.340663     1.170327
C      -2.590692    -0.936812     1.562164
C      -1.288690    -1.377717     1.376439
C       1.058182    -1.050948     0.617542
C       1.698454    -1.746045     1.660996
C       2.958533    -2.266456     1.501192
C       3.620043    -2.198413     0.235848
C       3.021594    -1.367639    -0.760061
C       1.760493    -0.851754    -0.584397
H      -3.977850     0.700708     1.318613
H      -3.323670    -1.598769     2.011766
H      -1.014351    -2.387721     1.661454
H       1.195818    -1.840563     2.618609
H       3.446779    -2.783855     2.320187
H       4.700751    -2.309313     0.225311
H       3.558593    -1.168411    -1.681112
H       1.303036    -0.277430    -1.382264
C       0.244548     1.698047    -0.079744
N       0.976893     2.480041    -0.498878
C      -2.567244     3.461542     1.141424
O      -2.619931     3.180380     2.324207
C      -2.668105     4.899092     0.703570
C      -1.693368     5.438921    -0.019547
H      -1.697211     6.498380    -0.259422
H      -0.847758     4.853761    -0.368288
C      -3.826481     5.662430     1.280103
H      -3.828158     5.561517     2.368939
H      -4.781096     5.264351     0.917596
H      -3.765730     6.719320     1.012303
N      -2.376954     2.500595     0.175908
C      -2.551639     2.700311    -1.261025
H      -3.068214     1.829763    -1.674084
H      -1.595846     2.825687    -1.779040
H      -3.162525     3.583756    -1.437011
C       3.411638    -4.140557    -0.533497
C       1.928880    -4.408380    -0.605531
C       4.136174    -4.110102    -1.859920
H       1.469343    -4.390467     0.383788
H       1.746276    -5.393304    -1.053813
H       1.442638    -3.654871    -1.229620
H       5.170866    -3.775133    -1.752808
H       3.619970    -3.445809    -2.556883
H       4.153774    -5.112840    -2.304618
C       4.106115    -4.861573     0.495240
N       4.676763    -5.380932     1.353171
48
     -1091.803383     -1091.475958   5.01   3.54
C       1.094813    -0.150232     0.972848
C       0.373463     1.047247     1.099205
C       0.128071     1.612150     2.355022
C       0.626070     1.005441     3.494459
C       1.370082    -0.163186     3.381035
C       1.595496    -0.735027     2.139371
C       1.332606    -0.794043    -0.336451
C       2.614517    -1.274894    -0.660747
C       2.851431    -1.920213    -1.850468
C       1.780605    -2.203851    -2.751488
C       0.522222    -1.583901    -2.474124
C       0.301038    -0.941290    -1.281540
H       0.417310     1.444478     4.464077
H       1.761419    -0.640923     4.273330
H       2.147371    -1.665922     2.065231
H       3.435498    -1.094211     0.026624
H       3.856878    -2.243390    -2.098741
H       2.027862    -2.400848    -3.790937
H      -0.278797    -1.678327    -3.199209
H      -0.683454    -0.541974    -1.064202
C      -0.086212     1.773285    -0.055331
N      -0.450376     2.396783    -0.950342
C      -1.949358     2.794180     2.131227
O      -2.521564     1.749788     1.892656
C      -2.665134     4.119182     2.045897
C      -3.367499     4.564427     3.079526
H      -3.924196     5.495134     3.022717
H      -3.425073     4.007387     4.009662
C      -2.566813     4.799062     0.708888
H      -2.982115     4.151782    -0.069640
H      -1.523329     4.981497     0.431591
H      -3.106662     5.747994     0.713482
N      -0.610536     2.827832     2.452035
C       0.148277     4.046013     2.709065
H       0.845000     3.871312     3.533450
H      -0.529476     4.848898     2.994476
H       0.721823     4.354468     1.826976
C       1.398280    -4.247664    -2.455943
C       2.702858    -4.935711    -2.788095
C       0.931626    -4.386671    -1.028305
H       3.472303    -4.656270    -2.064579
H       3.053417    -4.683791    -3.792041
H       2.579547    -6.024809    -2.740632
H       0.753806    -5.443510    -0.791920
H       0.008283    -3.833544    -0.850668
H       1.699413    -4.011138    -0.347657
C       0.375119    -4.428238    -3.446342
N      -0.438835    -4.509192    -4.260104
48
     -1091.803599     -1091.475955   4.87   3.55
C       1.040578     0.277925     0.864113
C       0.076289     1.238787     0.521123
C      -0.284905     2.248992     1.417910
C       0.330484     2.329441     2.653803
C       1.307483     1.401397     2.995746
C       1.653094     0.388798     2.115583
C       1.414372    -0.826095    -0.044967
C       2.770788    -1.142689    -0.247649
C       3.143457    -2.193933    -1.047918
C       2.159226    -3.056365    -1.623222
C       0.797510    -2.635875    -1.526344
C       0.440116    -1.580159    -0.723237
H       0.032125     3.111050     3.343977
H       1.791227     1.461096     3.965282
H       2.392864    -0.349954     2.404736
H       3.533042    -0.521159     0.212143
H       4.192959    -2.415343    -1.210366
H       2.450131    -3.647682    -2.486983
H       0.032006    -3.178865    -2.069984
H      -0.607238    -1.320668    -0.614280
C      -0.531139     1.260561    -0.783846
N      -1.018931     1.322351    -1.823641
C      -2.580927     2.802018     1.000768
O      -2.916939     1.698679     1.383087
C      -3.585861     3.768886     0.425585
C      -4.248315     4.597262     1.222280
H      -5.008121     5.267380     0.831080
H      -4.068458     4.622070     2.292779
C      -3.798670     3.637062    -1.056330
H      -4.534455     4.361263    -1.411500
H      -4.146413     2.626774    -1.293275
H      -2.861423     3.778980    -1.605041
N      -1.268196     3.212043     1.039145
C      -0.778041     4.478684     0.507768
H      -0.348406     4.352890    -0.493109
H      -0.005678     4.873856     1.173415
H      -1.594180     5.197502     0.458844
C       2.244672    -4.773472    -0.417780
C       1.945125    -4.316445     0.988262
C       1.237223    -5.722464    -1.025887
H       2.698866    -3.616473     1.351841
H       1.918701    -5.179062     1.666196
H       0.969110    -3.826610     1.022297
H       1.434213    -5.903602    -2.085441
H       0.227093    -5.320634    -0.917905
H       1.269156    -6.690013    -0.509755
C       3.611609    -5.142041    -0.654607
N       4.715438    -5.384349    -0.887617
48
     -1091.802959     -1091.475510   5.27   3.82
C       0.656478    -0.100990     1.116661
C       0.019796     1.108111     0.802178
C      -0.756464     1.779655     1.751274
C      -0.885216     1.261353     3.027019
C      -0.243643     0.071937     3.355307
C       0.513632    -0.604170     2.411826
C       1.452400    -0.854658     0.125830
C       2.742105    -1.303464     0.458621
C       3.456652    -2.098358    -0.401591
C       2.853455    -2.587128    -1.601669
C       1.634519    -1.961179    -2.010831
C       0.936289    -1.157495    -1.145001
H      -1.500093     1.784832     3.751207
H      -0.351616    -0.338445     4.354042
H       0.975453    -1.554827     2.655253
H       3.178893    -0.997350     1.404072
H       4.459907    -2.417044    -0.139695
H       3.506332    -2.980121    -2.377902
H       1.230396    -2.172625    -2.994872
H      -0.029570    -0.759431    -1.437352
C       0.186622     1.723518    -0.488363
N       0.316479     2.250831    -1.502257
C      -2.487816     2.957879     0.580632
O      -2.986675     1.901186     0.247635
C      -3.028425     4.270686     0.069859
C      -4.012388     4.884634     0.713673
H      -4.444185     5.806285     0.334864
H      -4.432232     4.479591     1.629408
C      -2.417170     4.734614    -1.222437
H      -2.847392     5.686835    -1.538912
H      -2.587271     3.986931    -2.003313
H      -1.331375     4.844493    -1.130022
N      -1.388221     3.012603     1.404774
C      -0.685937     4.237033     1.770974
H      -1.349504     5.091915     1.652060
H       0.207531     4.386031     1.153091
H      -0.380187     4.177168     2.819208
C       2.277891    -4.538153    -1.080209
C       1.518300    -5.054106    -2.280906
C       3.582241    -5.247634    -0.791955
H       2.128084    -4.966149    -3.185450
H       0.585886    -4.508022    -2.432251
H       1.273779    -6.115719    -2.149842
H       4.089804    -4.824120     0.076353
H       4.250571    -5.185291    -1.656084
H       3.401084    -6.310910    -0.590939
C       1.469968    -4.300184     0.080633
N       0.839589    -4.073554     1.019896
48
     -1091.802929     -1091.475468   5.29   3.85
C      -0.637859    -0.053852    -0.391077
C       0.047557     1.165046    -0.296657
C      -0.640351     2.381968    -0.330189
C      -2.014861     2.392115    -0.478472
C      -2.704060     1.188868    -0.590158
C      -2.026338    -0.018868    -0.542693
C       0.055523    -1.356801    -0.322001
C       0.962471    -1.646111     0.710940
C       1.506871    -2.899743     0.833898
C       1.087831    -3.963662    -0.024874
C       0.338490    -3.596697    -1.185363
C      -0.207452    -2.342291    -1.289113
H      -2.538688     3.341839    -0.491400
H      -3.783739     1.196759    -0.698710
H      -2.569681    -0.956607    -0.583913
H       1.224361    -0.871561     1.423851
H       2.218151    -3.103114     1.627056
H       1.721052    -4.846147    -0.083880
H       0.144193    -4.338521    -1.952579
H      -0.838177    -2.093554    -2.136866
C       1.483272     1.212784    -0.209971
N       2.628763     1.300841    -0.157625
C       0.661985     3.916185     0.966248
O       0.471079     3.235838     1.955088
C       1.566405     5.120328     1.037370
C       1.059842     6.346152     1.072084
H       1.698355     7.215923     1.195197
H      -0.009374     6.522609     1.000038
C       3.023719     4.780407     1.166669
H       3.629950     5.683830     1.258438
H       3.367069     4.202777     0.301292
H       3.178480     4.150262     2.047479
N       0.086271     3.609528    -0.245177
C       0.440750     4.232753    -1.516791
H       0.859793     5.220755    -1.340233
H      -0.458546     4.336531    -2.130062
H       1.172622     3.626545    -2.063638
C      -0.311066    -5.028541     1.123441
C      -0.643713    -6.238336     0.278735
C       0.399945    -5.328992     2.423077
H      -1.143508    -5.958166    -0.650057
H      -1.309340    -6.915371     0.828596
H       0.265406    -6.796494     0.035359
H      -0.213934    -5.988002     3.049855
H       0.605898    -4.418994     2.988757
H       1.345699    -5.845061     2.230736
C      -1.378814    -4.077262     1.232766
N      -2.224136    -3.294042     1.287024
48
     -1091.802678     -1091.475456   5.45   3.86
C       0.415500    -0.285383     0.925819
C       0.058367     1.017936     0.532556
C      -0.271635     1.991066     1.480333
C      -0.211652     1.686277     2.831005
C       0.170572     0.414809     3.231959
C       0.470396    -0.560947     2.292165
C       0.737473    -1.345932    -0.052604
C       1.876197    -2.150450     0.137232
C       2.174371    -3.176005    -0.727245
C       1.284660    -3.514058    -1.791636
C       0.217081    -2.599964    -2.054966
C      -0.067361    -1.579256    -1.182458
H      -0.449031     2.455587     3.556382
H       0.223597     0.178284     4.289691
H       0.736108    -1.561278     2.616648
H       2.548728    -1.926271     0.959705
H       3.080948    -3.754953    -0.586054
H       1.683854    -4.078622    -2.629658
H      -0.404852    -2.759264    -2.929129
H      -0.925459    -0.943082    -1.368239
C       0.095545     1.407128    -0.853499
N       0.111328     1.741985    -1.953943
C       0.206644     4.330623     1.280361
O       1.309006     4.153955     1.762274
C      -0.242428     5.722471     0.914546
C      -1.286346     6.276542     1.518882
H      -1.565666     7.308141     1.326376
H      -1.880913     5.732100     2.245860
C       0.658952     6.433858    -0.054190
H       0.673687     5.920538    -1.022276
H       1.683842     6.431569     0.327761
H       0.330785     7.463845    -0.208051
N      -0.664926     3.292947     1.049938
C      -1.924177     3.427418     0.318290
H      -2.745265     3.731088     0.974939
H      -2.175116     2.463191    -0.124282
H      -1.823812     4.154052    -0.487590
C       0.299867    -5.235552    -1.101253
C       1.403603    -6.240132    -0.860147
C      -0.478283    -4.814467     0.120367
H       2.013881    -6.398517    -1.752738
H       0.977525    -7.208686    -0.570407
H       2.049322    -5.903815    -0.045559
H       0.201058    -4.403186     0.870784
H      -0.986795    -5.682034     0.559828
H      -1.229027    -4.060446    -0.120302
C      -0.499665    -5.514201    -2.260287
N      -1.113154    -5.685674    -3.222315
48
     -1091.802678     -1091.475446   5.45   3.86
C      -0.517622    -0.559698     0.341851
C      -0.557309     0.843900     0.437640
C      -1.634802     1.493911     1.046456
C      -2.701629     0.753949     1.531369
C      -2.689154    -0.627873     1.413459
C      -1.607415    -1.276876     0.835669
C       0.622369    -1.278553    -0.265940
C       1.954279    -0.958003     0.053489
C       3.000409    -1.667621    -0.481370
C       2.765167    -2.812234    -1.305481
C       1.421171    -3.031631    -1.734821
C       0.384707    -2.312125    -1.190724
H      -3.540744     1.270993     1.981825
H      -3.527457    -1.206575     1.787497
H      -1.593647    -2.359979     0.778612
H       2.158735    -0.137418     0.732019
H       4.022536    -1.400202    -0.236256
H       3.568835    -3.135778    -1.961077
H       1.217001    -3.794449    -2.478744
H      -0.634653    -2.512798    -1.506399
C       0.475180     1.653861    -0.155604
N       1.289647     2.323522    -0.615557
C      -2.516744     3.620931     0.383019
O      -3.233513     3.076877    -0.434846
C      -2.583160     5.115555     0.568501
C      -2.965134     5.636377     1.728168
H      -3.100046     6.707366     1.846733
H      -3.183546     5.013443     2.589948
C      -2.323411     5.910716    -0.679400
H      -2.474574     6.977252    -0.500828
H      -2.995228     5.576029    -1.474974
H      -1.298607     5.754883    -1.034924
N      -1.629842     2.915748     1.161228
C      -0.629060     3.535186     2.029482
H      -0.245974     4.451232     1.580452
H       0.204394     2.842843     2.150206
H      -1.035417     3.763682     3.019561
C       3.158464    -4.429832    -0.025369
C       2.206295    -4.289256     1.136008
C       2.964777    -5.657795    -0.885679
H       1.175203    -4.294879     0.774625
H       2.377079    -3.363469     1.687222
H       2.329731    -5.132320     1.827666
H       3.589450    -5.631245    -1.781963
H       1.918327    -5.747071    -1.186661
H       3.228173    -6.560983    -0.321353
C       4.531060    -4.142510     0.280709
N       5.630689    -3.858958     0.484880
48
     -1091.803610     -1091.475362   4.87   3.92
C      -0.751320    -0.289528     0.617825
C      -0.499684     1.089747     0.560575
C      -1.025592     1.959501     1.521419
C      -1.828857     1.468052     2.533578
C      -2.109178     0.107011     2.587044
C      -1.574927    -0.757809     1.645988
C      -0.177664    -1.239156    -0.358976
C       1.174790    -1.174020    -0.739274
C       1.708186    -2.092854    -1.610170
C       0.930759    -3.194268    -2.082325
C      -0.470945    -3.161071    -1.803818
C      -0.989307    -2.236543    -0.931514
H      -2.220599     2.152396     3.278205
H      -2.738480    -0.282346     3.380742
H      -1.773168    -1.821980     1.715717
H       1.803638    -0.384316    -0.343038
H       2.743746    -2.000099    -1.919060
H       1.252164    -3.692229    -2.992874
H      -1.111856    -3.912865    -2.252046
H      -2.050466    -2.250509    -0.702435
C       0.258011     1.676276    -0.513372
N       0.838422     2.195596    -1.359609
C       0.530958     3.769426     1.685969
O       1.379937     2.993790     2.079514
C       0.877437     5.216488     1.446090
C       0.486584     6.155969     2.297763
H       0.791738     7.190747     2.173359
H      -0.132615     5.922119     3.158860
C       1.761723     5.441213     0.253054
H       1.270206     5.100508    -0.664973
H       2.677974     4.852619     0.357363
H       2.020661     6.496983     0.150983
N      -0.758195     3.359821     1.430666
C      -1.764900     4.159255     0.738451
H      -1.536489     5.216815     0.848488
H      -2.746076     3.963359     1.179413
H      -1.801042     3.910683    -0.328759
C       1.619451    -4.821526    -0.948059
C       3.098001    -4.905431    -1.251684
C       1.263687    -4.516228     0.485739
H       3.535028    -5.785971    -0.764635
H       3.613065    -4.022138    -0.866990
H       3.290892    -4.988032    -2.324177
H       1.646797    -5.306077     1.144347
H       0.183900    -4.446149     0.625094
H       1.716671    -3.569694     0.790001
C       0.838209    -5.861080    -1.555867
N       0.183710    -6.649234    -2.086801
48
     -1091.803610     -1091.475359   4.87   3.92
C       0.168019     0.674294    -0.647849
C       0.092939     1.237993     0.634961
C      -0.685098     2.374336     0.879200
C      -1.375004     2.976073    -0.156736
C      -1.287989     2.444413    -1.438781
C      -0.531526     1.309001    -1.678635
C       0.949106    -0.548608    -0.929678
C       0.882617    -1.672835    -0.087244
C       1.574757    -2.821123    -0.386581
C       2.307096    -2.939791    -1.607250
C       2.482038    -1.745714    -2.373422
C       1.783632    -0.605771    -2.061775
H      -1.983308     3.849999     0.049366
H      -1.829028     2.913562    -2.254104
H      -0.496561     0.883459    -2.675787
H       0.280350    -1.630384     0.813621
H       1.539071    -3.662046     0.297507
H       3.088097    -3.693034    -1.662279
H       3.136036    -1.769775    -3.238625
H       1.900198     0.280575    -2.677839
C       0.852294     0.710991     1.738195
N       1.453759     0.341079     2.645991
C      -1.396259     2.201807     3.157407
O      -2.007951     1.188290     2.881960
C      -1.330518     2.684843     4.583567
C      -2.049750     3.727639     4.978569
H      -2.065533     4.038983     6.018845
H      -2.663239     4.292694     4.282919
C      -0.485249     1.825203     5.479299
H       0.552610     1.801294     5.128990
H      -0.850851     0.794436     5.453004
H      -0.508527     2.190250     6.508046
N      -0.734099     2.929367     2.194562
C       0.209665     4.009248     2.468189
H      -0.004839     4.450191     3.438895
H       0.106494     4.780974     1.700514
H       1.242535     3.641575     2.463166
C       1.074052    -4.127968    -2.822428
C       0.900580    -5.417368    -2.052563
C      -0.185484    -3.330271    -3.052219
H       0.333418    -6.141685    -2.650270
H       0.341509    -5.234991    -1.131875
H       1.860411    -5.874049    -1.798718
H       0.019015    -2.403513    -3.590336
H      -0.650923    -3.082416    -2.095334
H      -0.901879    -3.919695    -3.638528
C       1.934052    -4.241443    -3.966091
N       2.672130    -4.295141    -4.851417
48
     -1091.803398     -1091.475291   5.00   3.96
C      -0.668230     0.077393    -0.469626
C       0.081376     1.238003    -0.224513
C      -0.532302     2.493257    -0.161062
C      -1.894525     2.608581    -0.366873
C      -2.645922     1.470290    -0.637708
C      -2.042001     0.224437    -0.684036
C      -0.055302    -1.267378    -0.503804
C       0.866088    -1.681255     0.475438
C       1.391980    -2.949075     0.459650
C       0.948831    -3.915737    -0.496331
C       0.128735    -3.438061    -1.563205
C      -0.389322    -2.165789    -1.533976
H      -2.358662     3.586755    -0.303580
H      -3.715582     1.556878    -0.798697
H      -2.642917    -0.660599    -0.863725
H       1.164417    -0.989071     1.255033
H       2.111556    -3.250097     1.213242
H       1.597129    -4.765134    -0.692863
H      -0.107893    -4.098645    -2.390638
H      -1.035807    -1.829230    -2.338911
C       1.513395     1.198916    -0.085106
N       2.658973     1.226974     0.012171
C       0.798366     3.797334     1.340296
O       0.524507     3.027353     2.239949
C       1.762624     4.930897     1.578682
C       1.324339     6.177171     1.703028
H       2.001578     6.990340     1.946879
H       0.273402     6.425523     1.587105
C       3.187375     4.490858     1.758212
H       3.250052     3.771284     2.579873
H       3.835875     5.342347     1.973915
H       3.552037     3.978471     0.861037
N       0.259759     3.657141     0.081282
C       0.711638     4.380687    -1.103652
H       1.431362     3.786203    -1.678634
H       1.180543     5.316502    -0.808574
H      -0.149376     4.603605    -1.739650
C      -0.334557    -5.153335     0.613695
C      -1.422952    -4.257676     1.150738
C      -0.784063    -6.216624    -0.362525
H      -1.022311    -3.490869     1.815241
H      -2.157291    -4.851686     1.709573
H      -1.942043    -3.766318     0.324353
H       0.062146    -6.737909    -0.816896
H      -1.390780    -5.770604    -1.154087
H      -1.401396    -6.964824     0.150010
C       0.601954    -5.621554     1.595562
N       1.402560    -5.963202     2.352918
48
     -1091.802278     -1091.475187   5.70   4.03
C      -0.256045    -0.519628     0.431792
C      -0.471250     0.868002     0.369791
C      -1.396141     1.489628     1.213188
C      -2.135307     0.726491     2.102723
C      -1.945578    -0.647121     2.155968
C      -1.009919    -1.264393     1.337788
C       0.734848    -1.203903    -0.424835
C       2.062148    -0.753314    -0.514494
C       2.999323    -1.467699    -1.217641
C       2.669452    -2.735661    -1.790432
C       1.280791    -3.064473    -1.868535
C       0.357239    -2.345876    -1.152231
H      -2.864203     1.215996     2.738228
H      -2.526098    -1.241461     2.854044
H      -0.830836    -2.331368     1.412737
H       2.349361     0.164914    -0.013756
H       4.016008    -1.097143    -1.291269
H       3.332319    -3.133910    -2.555414
H       0.968170    -3.929728    -2.443220
H      -0.685932    -2.645901    -1.156552
C       0.212679     1.671798    -0.609850
N       0.756079     2.333198    -1.378424
C      -2.737854     3.380617     0.605404
O      -3.571407     2.642660     0.115979
C      -2.971074     4.870293     0.625546
C      -3.069080     5.523877     1.776667
H      -3.323519     6.579214     1.804681
H      -2.926747     5.025348     2.730413
C      -3.213403     5.481442    -0.725268
H      -2.327361     5.382596    -1.362507
H      -3.464629     6.540216    -0.635094
H      -4.030796     4.954410    -1.225605
N      -1.570741     2.904973     1.152072
C      -0.463699     3.752905     1.591859
H       0.464717     3.187737     1.505260
H      -0.581424     4.068348     2.633348
H      -0.383123     4.636063     0.958833
C       3.409432    -4.131276    -0.406217
C       3.192590    -5.470794    -1.074223
C       4.855662    -3.743794    -0.198785
H       2.131724    -5.689472    -1.207130
H       3.628806    -6.274000    -0.467292
H       3.682629    -5.494226    -2.052280
H       4.945892    -2.773194     0.291440
H       5.381890    -3.703831    -1.157561
H       5.364066    -4.489132     0.425697
C       2.559481    -3.894015     0.724260
N       1.848476    -3.687327     1.608943
48
     -1091.806680     -1091.474703   2.94   4.33
C      -1.215563    -0.753992     1.217549
C      -1.311750     0.412708     0.437374
C      -2.021969     1.529696     0.893625
C      -2.710082     1.449065     2.098162
C      -2.660092     0.286136     2.852849
C      -1.904241    -0.796118     2.428845
C      -0.362918    -1.883434     0.794425
C      -0.402071    -2.387637    -0.517065
C       0.524651    -3.304891    -0.941420
C       1.609020    -3.682396    -0.089757
C       1.466044    -3.379342     1.301184
C       0.536190    -2.458014     1.711286
H      -3.260821     2.315426     2.448175
H      -3.199582     0.232948     3.792717
H      -1.858973    -1.697461     3.030319
H      -1.173173    -2.048734    -1.199653
H       0.481227    -3.689131    -1.954587
H       2.183221    -4.564153    -0.364447
H       2.159973    -3.807246     2.016828
H       0.518856    -2.133798     2.746818
C      -0.653786     0.500313    -0.838914
N      -0.160170     0.576669    -1.874381
C      -0.970167     3.439502    -0.303188
O      -1.112892     4.323489    -1.126934
C       0.390989     3.149418     0.270327
C       0.568641     2.901896     1.564033
H       1.566397     2.756915     1.965344
H      -0.255131     2.848687     2.266561
C       1.524954     3.308843    -0.703500
H       2.472785     3.068419    -0.220032
H       1.548294     4.336996    -1.074852
H       1.393293     2.652340    -1.566377
N      -2.071806     2.730913     0.143140
C      -3.369568     3.142634    -0.395941
H      -4.158585     2.631295     0.156714
H      -3.445164     2.884021    -1.456443
H      -3.488310     4.222224    -0.297122
C       3.167249    -2.408591    -0.684689
C       4.394429    -3.023119    -0.047654
C       3.146379    -2.425382    -2.196450
H       4.537623    -4.047541    -0.403602
H       4.321389    -3.034911     1.041610
H       5.290503    -2.450482    -0.317443
H       2.249651    -1.942071    -2.587451
H       3.188246    -3.453705    -2.568783
H       4.021169    -1.894189    -2.592473
C       2.785855    -1.148946    -0.109799
N       2.468713    -0.152175     0.376436
48
     -1091.804476     -1091.474514   4.32   4.45
C      -0.533849    -1.028538     0.735038
C       0.020491     0.168145     1.221816
C      -0.047779     0.495388     2.582738
C      -0.686175    -0.367721     3.462815
C      -1.252696    -1.542967     2.988994
C      -1.168514    -1.874754     1.645897
C      -0.450613    -1.400253    -0.693001
C      -0.751904    -0.478195    -1.710363
C      -0.586203    -0.809571    -3.031023
C      -0.008863    -2.064161    -3.398264
C       0.072261    -3.057789    -2.373994
C      -0.093673    -2.710773    -1.056742
H      -0.734423    -0.112742     4.515015
H      -1.757054    -2.211440     3.679152
H      -1.622283    -2.791089     1.284561
H      -1.132604     0.502633    -1.449227
H      -0.837721    -0.090503    -3.802996
H      -0.132756    -2.398072    -4.425966
H       0.342414    -4.075086    -2.636358
H       0.075697    -3.450694    -0.281011
C       0.668054     1.103431     0.339037
N       1.168905     1.882342    -0.342234
C      -0.103007     2.586772     3.855776
O       0.502248     3.336494     4.596385
C      -1.605259     2.641285     3.726538
C      -2.308174     2.750567     4.848085
H      -3.391719     2.821365     4.834238
H      -1.813133     2.779201     5.813219
C      -2.221188     2.650441     2.348813
H      -3.223465     3.081282     2.395930
H      -2.305872     1.645661     1.926579
H      -1.619952     3.246433     1.655262
N       0.567289     1.688834     3.048059
C       2.031121     1.707751     3.103884
H       2.381550     2.734409     3.007474
H       2.426234     1.113088     2.280203
H       2.391526     1.301635     4.054832
C       2.005897    -1.597886    -3.773111
C       2.583328    -2.880497    -4.328834
C       1.962358    -0.438125    -4.741763
H       2.022640    -3.202433    -5.211581
H       2.568561    -3.683405    -3.589714
H       3.625001    -2.726216    -4.637054
H       2.972964    -0.204955    -5.100330
H       1.553373     0.458819    -4.274181
H       1.353438    -0.690971    -5.615416
C       2.481759    -1.259732    -2.462451
N       2.841055    -1.008100    -1.395469
