48
  -29709.559669  -29700.572487    0.00    0.00
 C      -1.063306     1.196586    -0.297010
 C      -0.087974     0.226391    -0.569597
 C       1.274591     0.539870    -0.517948
 C       1.669791     1.830192    -0.194110
 C       0.713210     2.790755     0.100747
 C      -0.638346     2.478549     0.044998
 C      -2.516314     0.885072    -0.353277
 C      -3.342167     1.237196     0.714635
 C      -4.704093     0.971142     0.669530
 C      -5.256083     0.351471    -0.445511
 C      -4.439649    -0.000009    -1.513850
 C      -3.078152     0.265970    -1.469545
 H       2.728157     2.067989    -0.162545
 H       1.024288     3.797051     0.362478
 H      -1.382410     3.240239     0.250559
 H      -2.910472     1.707572     1.592735
 H      -5.335366     1.245937     1.508617
 H      -6.320462     0.142350    -0.481374
 H      -4.863786    -0.483983    -2.387547
 H      -2.449122    -0.003966    -2.311037
 C      -0.455080    -1.140799    -0.837700
 N      -0.716575    -2.241706    -1.044063
 C       3.340601    -0.707525    -0.047821
 O       4.413559    -0.975543    -0.553517
 C       3.168094    -0.739622     1.460916
 C       4.267080    -0.243416     2.147948
 H       4.204758    -0.055680     3.214547
 H       5.220438    -0.119868     1.649376
 C       1.805211    -0.585746     2.116187
 H       1.888643    -0.849296     3.170628
 H       1.459659     0.447346     2.061789
 H       1.040111    -1.223084     1.670897
 N       2.239425    -0.453035    -0.851312
 C       2.435742    -0.641201    -2.292904
 H       1.458017    -0.700960    -2.773988
 H       3.009036     0.184589    -2.728390
 H       2.978955    -1.569160    -2.464201
 C       3.400184    -2.889249     1.615515
 C       4.868231    -3.204920     1.439520
 C       2.477282    -3.494739     0.579290
 H       5.201931    -2.925754     0.441319
 H       5.476816    -2.678165     2.176958
 H       5.021262    -4.282902     1.579460
 H       1.446853    -3.149701     0.670297
 H       2.838140    -3.275735    -0.426931
 H       2.473337    -4.585982     0.697487
 C       2.964210    -3.082471     2.973567
 N       2.634621    -3.223447     4.069746
48
  -29709.556562  -29700.566174    1.95    3.96
 C      -0.965667     0.666219    -1.279053
 C      -0.110541    -0.360626    -0.853127
 C       1.278585    -0.231468    -0.959417
 C       1.820874     0.924937    -1.502107
 C       0.983895     1.949793    -1.918787
 C      -0.394128     1.819204    -1.813056
 C      -2.445277     0.556489    -1.170150
 C      -3.058698     0.224704     0.037567
 C      -4.441794     0.149080     0.125468
 C      -5.228540     0.407287    -0.990615
 C      -4.625011     0.742635    -2.196919
 C      -3.241443     0.818065    -2.285521
 H       2.899150     1.015399    -1.585403
 H       1.409916     2.857205    -2.334715
 H      -1.044262     2.627024    -2.130650
 H      -2.452870     0.030405     0.915912
 H      -4.905949    -0.112554     1.070783
 H      -6.309939     0.347210    -0.920763
 H      -5.233119     0.943809    -3.073136
 H      -2.771493     1.067082    -3.232046
 C      -0.632277    -1.579707    -0.289681
 N      -1.016285    -2.561210     0.170945
 C       3.214063    -1.127082     0.262627
 O       4.238067    -1.755045     0.072973
 C       3.084487    -0.206006     1.463238
 C       4.249627     0.492590     1.746045
 H       4.238901     1.301817     2.468408
 H       5.195620     0.185408     1.317782
 C       1.766083     0.456744     1.827072
 H       1.527857     1.262174     1.131162
 H       0.925991    -0.239212     1.841446
 H       1.853855     0.895541     2.821037
 N       2.121298    -1.312551    -0.570622
 C       2.257255    -2.362662    -1.586467
 H       1.265962    -2.610029    -1.969515
 H       2.899432    -2.037330    -2.412354
 H       2.698706    -3.247876    -1.131464
 C       3.090058    -1.816686     2.913839
 C       4.513178    -2.311101     3.039714
 C       2.088706    -2.839824     2.420904
 H       4.553846    -3.092119     3.810033
 H       4.857316    -2.727434     2.094163
 H       5.186242    -1.505286     3.338510
 H       1.105785    -2.413031     2.217729
 H       2.457624    -3.328760     1.517897
 H       1.961535    -3.615023     3.187465
 C       2.662376    -1.093234     4.082209
 N       2.340781    -0.499478     5.017197
48
  -29709.556563  -29700.566010    1.95    4.06
 C      -0.893517     1.383157    -0.189536
 C      -0.002529     0.353779    -0.526563
 C       1.378881     0.520080    -0.379242
 C       1.878232     1.723425     0.098750
 C       1.004816     2.744879     0.442641
 C      -0.365408     2.577947     0.294990
 C      -2.366476     1.228829    -0.329979
 C      -3.101078     2.199807    -1.011091
 C      -4.479345     2.084116    -1.132731
 C      -5.139332     0.996985    -0.571980
 C      -4.414379     0.027901     0.111100
 C      -3.036642     0.143237     0.233326
 H       2.951225     1.846124     0.205668
 H       1.396475     3.682144     0.824773
 H      -1.045040     3.375450     0.574637
 H      -2.585871     3.042799    -1.461314
 H      -5.038881     2.843832    -1.669176
 H      -6.216553     0.905342    -0.667415
 H      -4.922894    -0.823202     0.552178
 H      -2.479978    -0.613091     0.775877
 C      -0.478662    -0.908685    -1.031861
 N      -0.826614    -1.930025    -1.430333
 C       3.282742    -0.976598     0.041331
 O       4.356846    -1.289423    -0.435459
 C       3.011078    -1.167210     1.523397
 C       4.105120    -0.869950     2.323574
 H       3.991531    -0.803428     3.400348
 H       5.096303    -0.786813     1.895418
 C       1.629742    -0.952394     2.119690
 H       1.385744     0.109574     2.169190
 H       0.839032    -1.456891     1.562395
 H       1.620613    -1.340210     3.138378
 N       2.263654    -0.521687    -0.781688
 C       2.537726    -0.552785    -2.222897
 H       3.005772    -1.501829    -2.479330
 H       1.593284    -0.459076    -2.761257
 H       3.210870     0.259661    -2.518068
 C       3.026412    -3.332375     1.421449
 C       4.467678    -3.772218     1.299555
 C       2.131477    -3.712286     0.260733
 H       5.063471    -3.410157     2.139540
 H       4.508361    -4.869203     1.300882
 H       4.902138    -3.402423     0.372017
 H       1.138215    -3.265971     0.322429
 H       2.592615    -3.424227    -0.685287
 H       2.004842    -4.802477     0.247705
 C       2.473194    -3.640684     2.713842
 N       2.050057    -3.876901     3.760423
48
  -29709.530133  -29700.562310   18.53    6.39
 C      -1.498473     0.794769     0.251036
 C      -0.575934    -0.162334     0.699499
 C       0.591577     0.219718     1.371217
 C       0.845126     1.565894     1.590057
 C      -0.049091     2.520740     1.129300
 C      -1.211489     2.139526     0.473394
 C      -2.747350     0.407108    -0.456640
 C      -3.086914     1.031843    -1.657079
 C      -4.259077     0.694195    -2.320049
 C      -5.106577    -0.271103    -1.788970
 C      -4.775761    -0.895920    -0.592445
 C      -3.604293    -0.558575     0.070886
 H       1.748593     1.856194     2.115622
 H       0.156527     3.573297     1.295266
 H      -1.919564     2.889657     0.138901
 H      -2.419193     1.775367    -2.081289
 H      -4.509864     1.184343    -3.255444
 H      -6.022696    -0.536175    -2.307029
 H      -5.432560    -1.650378    -0.171853
 H      -3.357243    -1.044641     1.008651
 C      -0.754312    -1.561072     0.403412
 N      -0.859014    -2.682340     0.169025
 C       2.845899    -0.743853     1.670668
 O       3.591895    -1.159803     2.537016
 C       3.399425    -0.246185     0.348541
 C       2.568365     0.069176    -0.713449
 H       2.965572     0.623462    -1.555875
 H       1.578736    -0.349256    -0.828153
 C       4.693381     0.529605     0.497447
 H       4.469627     1.556367     0.807656
 H       5.335568     0.086564     1.256796
 H       5.226286     0.574282    -0.455421
 N       1.473634    -0.783087     1.865127
 C       1.020064    -1.439894     3.097119
 H      -0.044001    -1.662471     3.005753
 H       1.571155    -2.368738     3.235339
 H       1.186631    -0.801915     3.971947
 C       4.152899    -2.187901    -0.317560
 C       2.954981    -3.103512    -0.221140
 C       5.350547    -2.589079     0.513091
 H       3.196040    -4.071624    -0.677852
 H       2.697303    -3.286567     0.823912
 H       2.081837    -2.699381    -0.735469
 H       5.685747    -3.584177     0.189866
 H       6.186744    -1.900839     0.382710
 H       5.086841    -2.637248     1.568952
 C       4.501573    -1.803908    -1.659658
 N       4.792532    -1.450057    -2.717890
48
  -29709.530132  -29700.561956   18.54    6.61
 C      -0.954895     1.033391     1.509924
 C      -0.260886    -0.157056     1.246430
 C       1.101317    -0.279816     1.545736
 C       1.778255     0.794638     2.104012
 C       1.106432     1.983659     2.345951
 C      -0.246644     2.099784     2.058887
 C      -2.403145     1.179011     1.206367
 C      -3.329384     0.231609     1.641901
 C      -4.680210     0.391548     1.366522
 C      -5.122307     1.500684     0.655272
 C      -4.205813     2.450719     0.219872
 C      -2.854355     2.291092     0.494794
 H       2.832373     0.692464     2.338834
 H       1.641150     2.824717     2.775365
 H      -0.772299     3.023360     2.274861
 H      -2.993110    -0.632469     2.204917
 H      -5.389918    -0.354161     1.709629
 H      -6.178869     1.624348     0.440084
 H      -4.543731     3.318064    -0.338365
 H      -2.138677     3.026768     0.140932
 C      -0.904089    -1.258477     0.576267
 N      -1.383662    -2.148732     0.027998
 C       2.980516    -1.626389     0.676596
 O       3.777383    -2.477605     1.023756
 C       3.283238    -0.719747    -0.501727
 C       2.327236     0.135779    -1.023343
 H       2.628872     0.918912    -1.709203
 H       1.265756    -0.034144    -0.913783
 C       4.736270    -0.292382    -0.568055
 H       5.401775    -1.106599    -0.286171
 H       4.988007     0.058534    -1.571763
 H       4.905840     0.534107     0.131014
 N       1.756965    -1.523625     1.320658
 C       1.476927    -2.551221     2.330889
 H       2.044930    -2.370046     3.249924
 H       0.409246    -2.542584     2.554717
 H       1.754225    -3.528435     1.938814
 C       3.245711    -2.301922    -2.010384
 C       1.906316    -2.972138    -1.811670
 C       4.454059    -3.196087    -1.850201
 H       1.081499    -2.258052    -1.810788
 H       1.730525    -3.687865    -2.624547
 H       1.893587    -3.529268    -0.872796
 H       5.386284    -2.658076    -2.027415
 H       4.477327    -3.635478    -0.853652
 H       4.392626    -4.006701    -2.589242
 C       3.321096    -1.456145    -3.171956
 N       3.409906    -0.746078    -4.076191
48
  -29709.546254  -29700.539261    8.42   20.85
 C      -1.441704     0.636862     0.087954
 C      -0.202496     0.249026    -0.440994
 C       0.982996     0.882712    -0.046192
 C       0.926441     1.948044     0.840999
 C      -0.300885     2.363200     1.337909
 C      -1.470328     1.711414     0.973508
 C      -2.701500    -0.068009    -0.267988
 C      -2.799872    -1.455439    -0.162035
 C      -3.987911    -2.101784    -0.473313
 C      -5.092976    -1.369683    -0.890848
 C      -5.004434     0.013668    -0.994839
 C      -3.816118     0.660580    -0.683554
 H       1.851153     2.413428     1.161273
 H      -0.340482     3.192380     2.036522
 H      -2.420985     2.020085     1.394611
 H      -1.943313    -2.031369     0.171838
 H      -4.049758    -3.181885    -0.388721
 H      -6.021573    -1.875822    -1.134806
 H      -5.863128     0.591496    -1.321667
 H      -3.744884     1.739894    -0.777486
 C      -0.118404    -0.811191    -1.411553
 N      -0.018054    -1.660256    -2.180551
 C       2.764746    -0.785359    -0.565851
 O       3.607140    -1.095531    -1.388229
 C       2.373240    -1.791577     0.506346
 C       1.393130    -1.568681     1.463317
 H       0.964014    -2.418057     1.984044
 H       1.127895    -0.588726     1.830773
 C       2.545734    -3.216059     0.015155
 H       3.546190    -3.396204    -0.372908
 H       2.321941    -3.927456     0.812720
 H       1.846464    -3.391403    -0.808511
 N       2.237102     0.486741    -0.582484
 C       2.832012     1.412836    -1.552182
 H       2.523365     1.161786    -2.571994
 H       2.504013     2.424461    -1.310982
 H       3.918518     1.356845    -1.493873
 C       4.162626    -1.464155     1.712792
 C       5.411780    -1.647253     0.880771
 C       3.997344    -2.465454     2.832355
 H       5.428744    -2.635765     0.419240
 H       5.503365    -0.900953     0.094006
 H       6.286447    -1.574583     1.541922
 H       4.824766    -2.360460     3.545400
 H       3.061393    -2.316564     3.373068
 H       4.024358    -3.484441     2.440551
 C       3.923753    -0.104641     2.118959
 N       3.696988     0.982412     2.431450
48
  -29709.546253  -29700.539071    8.42   20.97
 C      -1.598309    -0.009765     1.068782
 C      -0.275371     0.346970     0.771433
 C       0.775047     0.017644     1.638022
 C       0.497351    -0.623421     2.836838
 C      -0.814484    -0.943961     3.156124
 C      -1.849494    -0.649114     2.280320
 C      -2.716299     0.271548     0.129857
 C      -3.873753     0.899551     0.590096
 C      -4.932923     1.144757    -0.273339
 C      -4.848233     0.761557    -1.606868
 C      -3.699928     0.131509    -2.071532
 C      -2.640957    -0.113789    -1.208689
 H       1.319360    -0.898318     3.487212
 H      -1.027007    -1.451100     4.091437
 H      -2.867262    -0.935426     2.522246
 H      -3.936525     1.210886     1.628339
 H      -5.826173     1.638520     0.095933
 H      -5.675764     0.953734    -2.282327
 H      -3.626926    -0.171469    -3.110992
 H      -1.750715    -0.613901    -1.575049
 C       0.036541     1.068797    -0.434715
 N       0.318144     1.636727    -1.394137
 C       2.800767     0.064662     0.181508
 O       3.748931     0.749261    -0.156794
 C       2.447484    -1.166112    -0.640507
 C       1.362417    -1.991448    -0.380597
 H       1.002350    -2.648960    -1.164668
 H       0.937943    -2.129504     0.602482
 C       2.850210    -0.993785    -2.092500
 H       2.258960    -0.181909    -2.527731
 H       3.897130    -0.715935    -2.196008
 H       2.649314    -1.905992    -2.658009
 N       2.114438     0.378894     1.333523
 C       2.669572     1.480005     2.128044
 H       2.492032     2.442915     1.638565
 H       2.190751     1.475678     3.107768
 H       3.743961     1.342294     2.245318
 C       4.059142    -2.389489     0.178059
 C       5.392972    -1.694901     0.021154
 C       3.924246    -3.679800    -0.596694
 H       5.458253    -0.778124     0.603920
 H       6.185744    -2.381138     0.349841
 H       5.581887    -1.450100    -1.025189
 H       2.930835    -4.116906    -0.484364
 H       4.121396    -3.510832    -1.657428
 H       4.661024    -4.406789    -0.232380
 C       3.607174    -2.488315     1.540510
 N       3.211623    -2.553059     2.622224
48
  -29709.508871  -29700.525493   31.88   29.49
 C      -0.975754     1.251508    -0.110445
 C      -0.046730     0.284914    -0.521201
 C       1.319037     0.583065    -0.601858
 C       1.749035     1.875501    -0.335340
 C       0.831614     2.850011     0.031541
 C      -0.514676     2.538661     0.155357
 C      -2.418302     0.929592     0.048908
 C      -3.385775     1.745380    -0.537692
 C      -4.735672     1.465488    -0.373383
 C      -5.133179     0.368576     0.382308
 C      -4.174647    -0.446173     0.973086
 C      -2.825197    -0.166927     0.809061
 H       2.807656     2.102507    -0.402609
 H       1.174738     3.857836     0.241487
 H      -1.222182     3.294156     0.478901
 H      -3.076985     2.594899    -1.139195
 H      -5.479286     2.104620    -0.838732
 H      -6.188400     0.149325     0.510316
 H      -4.477893    -1.303438     1.565287
 H      -2.081231    -0.800715     1.280257
 C      -0.480705    -1.033724    -0.903019
 N      -0.795496    -2.093156    -1.219865
 C       2.425196    -1.655537    -0.459403
 O       2.941885    -2.528989    -1.130118
 C       2.025167    -1.935488     0.980076
 C       1.577872    -0.938875     1.833608
 H       1.093651    -1.216738     2.762660
 H       1.830639     0.104500     1.712310
 C       1.466618    -3.331784     1.175367
 H       0.419166    -3.349257     0.861031
 H       2.003613    -4.059995     0.570550
 H       1.517987    -3.618022     2.228833
 N       2.268426    -0.393261    -1.009117
 C       2.786443    -0.229244    -2.373507
 H       2.798671     0.833964    -2.617080
 H       3.796800    -0.632319    -2.435685
 H       2.157262    -0.760297    -3.095024
 C       4.058477    -2.207659     1.728934
 C       4.786520    -0.961006     1.282636
 C       4.624067    -3.511576     1.214227
 H       4.251553    -0.053746     1.570995
 H       5.781376    -0.927467     1.744543
 H       4.922056    -0.967540     0.199078
 H       5.668381    -3.599164     1.544146
 H       4.079978    -4.372451     1.604480
 H       4.599729    -3.535806     0.125249
 C       3.754739    -2.239281     3.135131
 N       3.476077    -2.282220     4.253140
48
  -29709.508870  -29700.525465   31.88   29.51
 C      -1.200673     1.178869     0.381048
 C      -0.093845     0.568341    -0.225832
 C       1.209624     1.003361     0.043331
 C       1.402211     2.099905     0.872076
 C       0.310294     2.737081     1.444488
 C      -0.976666     2.273938     1.212101
 C      -2.584354     0.682011     0.160753
 C      -2.895721    -0.665863     0.339737
 C      -4.195123    -1.117152     0.155921
 C      -5.199037    -0.226632    -0.205674
 C      -4.897433     1.118818    -0.382010
 C      -3.597661     1.570852    -0.198116
 H       2.413691     2.435400     1.074773
 H       0.467922     3.592016     2.093920
 H      -1.823747     2.751881     1.691727
 H      -2.117683    -1.363636     0.631231
 H      -4.423724    -2.168615     0.296388
 H      -6.214957    -0.580221    -0.349998
 H      -5.676588     1.818994    -0.666035
 H      -3.361406     2.619757    -0.349178
 C      -0.273810    -0.503826    -1.169754
 N      -0.384028    -1.357696    -1.931753
 C       2.628002    -0.970245    -0.546658
 O       3.343114    -1.427683    -1.417914
 C       2.123477    -1.865036     0.573730
 C       1.437606    -1.366375     1.670430
 H       0.905041    -2.053446     2.317826
 H       1.537006    -0.349207     2.020748
 C       1.770593    -3.261362     0.098868
 H       1.751783    -3.956390     0.942041
 H       0.778644    -3.246541    -0.361664
 H       2.476147    -3.613350    -0.651300
 N       2.337586     0.384595    -0.561034
 C       2.967942     1.154700    -1.641029
 H       4.029514     0.915124    -1.694223
 H       2.510829     0.916417    -2.606809
 H       2.840542     2.217774    -1.432380
 C       4.081719    -2.227994     1.469685
 C       4.651030    -0.845112     1.686238
 C       4.895355    -3.134281     0.574333
 H       5.573025    -0.912350     2.277533
 H       4.901787    -0.383281     0.728982
 H       3.953725    -0.199018     2.223627
 H       4.452014    -4.127208     0.490797
 H       4.994143    -2.701087    -0.420469
 H       5.898263    -3.251934     1.007290
 C       3.636799    -2.875807     2.675112
 N       3.249348    -3.410518     3.620311
48
  -29709.560687  -29700.521601   -0.64   31.93
 C      -0.136355    -0.278567     2.491241
 C      -0.278699    -0.359042     1.098322
 C       0.004739    -1.545345     0.409414
 C       0.394799    -2.673550     1.115742
 C       0.528843    -2.604503     2.495160
 C       0.273375    -1.421417     3.174160
 C      -0.410219     0.976431     3.241161
 C       0.530627     1.455779     4.153425
 C       0.283988     2.613690     4.878643
 C      -0.908372     3.305609     4.701387
 C      -1.851267     2.832856     3.796521
 C      -1.605345     1.675044     3.071679
 H       0.614708    -3.582926     0.568005
 H       0.840473    -3.485716     3.046208
 H       0.371798    -1.380483     4.253522
 H       1.468415     0.924279     4.283098
 H       1.026217     2.977764     5.581981
 H      -1.102075     4.211416     5.267034
 H      -2.784585     3.367415     3.652851
 H      -2.350200     1.308356     2.373810
 C      -0.663089     0.796276     0.327830
 N      -0.951080     1.703009    -0.317968
 C       0.465698    -0.905158    -1.964221
 O      -0.050047    -0.763721    -3.058268
 C       1.872660    -0.364629    -1.728108
 C       2.142969     0.767539    -2.481930
 H       3.024017     1.365327    -2.275960
 H       1.501818     1.046799    -3.307276
 C       2.601936    -0.488656    -0.400639
 H       2.131525     0.133370     0.362308
 H       2.650653    -1.510462    -0.023751
 H       3.620110    -0.116891    -0.526452
 N      -0.192195    -1.628588    -0.997703
 C      -1.451215    -2.257246    -1.412458
 H      -2.238674    -1.508250    -1.543471
 H      -1.304533    -2.778789    -2.357530
 H      -1.748668    -2.970737    -0.642823
 C       2.875422    -1.937586    -2.816202
 C       4.345775    -1.637102    -2.622385
 C       2.420394    -1.861780    -4.254864
 H       4.678894    -1.814132    -1.599840
 H       4.936283    -2.280390    -3.286332
 H       4.556059    -0.599719    -2.895364
 H       1.364627    -2.096825    -4.370481
 H       2.593074    -0.855977    -4.644658
 H       3.015029    -2.564530    -4.852932
 C       2.424963    -3.102312    -2.106479
 N       2.057466    -4.015731    -1.503142
48
  -29709.560687  -29700.521329   -0.64   32.10
 C      -0.463906    -2.217391     1.441899
 C       0.110506    -1.618881     0.311054
 C       1.500906    -1.519816     0.172433
 C       2.328493    -2.056219     1.147780
 C       1.767745    -2.658414     2.265113
 C       0.389987    -2.732602     2.414407
 C      -1.937350    -2.313916     1.620919
 C      -2.755736    -2.835975     0.619516
 C      -4.126251    -2.937462     0.813916
 C      -4.695943    -2.521729     2.011391
 C      -3.887136    -2.003155     3.015786
 C      -2.516234    -1.900974     2.821570
 H       3.402398    -1.967889     1.028307
 H       2.415890    -3.071841     3.030809
 H      -0.038402    -3.213877     3.286898
 H      -2.318265    -3.170630    -0.314784
 H      -4.751134    -3.343600     0.025213
 H      -5.767889    -2.601348     2.161572
 H      -4.324908    -1.674405     3.953025
 H      -1.887795    -1.482862     3.601955
 C      -0.715761    -1.033449    -0.713988
 N      -1.345639    -0.541983    -1.540954
 C       1.930248     0.338179    -1.446162
 O       2.111052     0.588565    -2.624093
 C       1.653802     1.481830    -0.475011
 C       0.981436     2.537907    -1.071474
 H       0.552974     3.327528    -0.464070
 H       0.909091     2.607915    -2.148564
 C       1.413462     1.274308     1.011115
 H       0.462099     0.769543     1.185509
 H       2.198386     0.700042     1.503684
 H       1.344750     2.251089     1.492661
 N       2.071687    -0.955632    -1.002954
 C       2.527626    -1.929564    -2.000913
 H       1.736221    -2.148668    -2.724749
 H       3.388302    -1.528796    -2.535026
 H       2.812915    -2.845444    -1.481624
 C       3.697627     2.174549    -0.396255
 C       3.666966     3.290774     0.624988
 C       4.082015     2.627474    -1.785370
 H       2.882905     4.009314     0.372293
 H       3.507126     2.926657     1.639766
 H       4.624782     3.825108     0.604602
 H       5.069296     3.105567    -1.742585
 H       4.112101     1.806089    -2.497873
 H       3.363409     3.367640    -2.144782
 C       4.377956     0.993927     0.058207
 N       4.890655     0.032748     0.441186
48
  -29709.500980  -29700.514989   36.83   36.08
 C      -1.416076     0.777297     0.550717
 C      -0.503240    -0.253305     0.820523
 C       0.632759    -0.024400     1.607687
 C       0.827257     1.224858     2.176869
 C      -0.084019     2.243879     1.939111
 C      -1.187285     2.025213     1.126530
 C      -2.607666     0.566691    -0.314378
 C      -2.486861    -0.005292    -1.580851
 C      -3.605267    -0.174095    -2.385105
 C      -4.856863     0.229152    -1.935598
 C      -4.985315     0.802701    -0.676077
 C      -3.866994     0.971458     0.129093
 H       1.702064     1.389682     2.796612
 H       0.074512     3.221429     2.382748
 H      -1.880630     2.833155     0.920136
 H      -1.512763    -0.316981    -1.942323
 H      -3.497421    -0.622888    -3.367149
 H      -5.730854     0.096126    -2.565160
 H      -5.960135     1.117598    -0.317558
 H      -3.972281     1.406320     1.118284
 C      -0.733263    -1.585554     0.321623
 N      -0.898303    -2.657494    -0.059927
 C       2.238467    -1.820182     0.966878
 O       2.587633    -2.952832     1.239489
 C       2.638403    -1.198952    -0.362864
 C       2.529702    -2.085906    -1.423775
 H       2.614526    -1.728148    -2.444248
 H       2.430129    -3.149368    -1.248261
 C       2.429549     0.274855    -0.669494
 H       2.965116     0.522737    -1.586029
 H       1.374963     0.496365    -0.838603
 H       2.790178     0.936221     0.118974
 N       1.541492    -1.080685     1.906624
 C       1.292561    -1.751103     3.189162
 H       0.530890    -2.530646     3.083615
 H       2.212917    -2.213825     3.543044
 H       0.953812    -1.005081     3.910131
 C       4.765208    -1.181532     0.059519
 C       5.276729    -2.592662    -0.119397
 C       4.903142    -0.611846     1.455776
 H       4.788739    -3.264869     0.584603
 H       5.096252    -2.950322    -1.134890
 H       6.359596    -2.608715     0.060446
 H       4.510299    -1.315069     2.191819
 H       5.965133    -0.449317     1.680673
 H       4.391618     0.346345     1.567288
 C       5.230330    -0.298932    -0.977100
 N       5.599475     0.395331    -1.820987
48
  -29709.500979  -29700.514907   36.83   36.13
 C       0.486080    -0.356956     2.746766
 C       0.241546    -0.884249     1.469907
 C       1.192144    -1.686449     0.825421
 C       2.368216    -2.012058     1.483662
 C       2.608247    -1.518487     2.758076
 C       1.682243    -0.691682     3.377919
 C      -0.492232     0.528809     3.433032
 C      -1.024389     1.647797     2.792420
 C      -1.918750     2.477263     3.454430
 C      -2.289764     2.201030     4.764849
 C      -1.761730     1.089666     5.411304
 C      -0.867350     0.259301     4.749492
 H       3.092755    -2.645308     0.983088
 H       3.532081    -1.772012     3.267787
 H       1.887800    -0.284829     4.361948
 H      -0.735296     1.874586     1.771797
 H      -2.327149     3.342955     2.943312
 H      -2.989683     2.850053     5.281364
 H      -2.049053     0.866446     6.433844
 H      -0.467662    -0.616282     5.251779
 C      -1.013278    -0.641089     0.804338
 N      -2.008611    -0.466185     0.256072
 C       0.643817    -1.519692    -1.600571
 O      -0.016864    -2.031813    -2.483949
 C       1.218683    -0.124184    -1.790749
 C       0.323651     0.747251    -2.393721
 H       0.538054     1.809915    -2.430130
 H      -0.560299     0.373914    -2.894641
 C       2.229835     0.478745    -0.829609
 H       1.758416     0.759078     0.113254
 H       3.063247    -0.187420    -0.604253
 H       2.637411     1.387637    -1.272457
 N       0.928121    -2.247117    -0.457866
 C       0.398408    -3.616297    -0.424977
 H      -0.686962    -3.614222    -0.280271
 H       0.619728    -4.115296    -1.367536
 H       0.875207    -4.152662     0.397258
 C       2.547966    -0.678038    -3.411932
 C       1.709456    -0.814353    -4.662244
 C       3.247894    -1.941552    -2.957250
 H       0.968069    -1.602014    -4.537534
 H       1.197496     0.121042    -4.896023
 H       2.362393    -1.066402    -5.508025
 H       4.035331    -2.201830    -3.676290
 H       3.718750    -1.827964    -1.978674
 H       2.542008    -2.772801    -2.920468
 C       3.403891     0.477593    -3.454457
 N       4.075766     1.414248    -3.495381
48
  -29709.500980  -29700.514853   36.83   36.17
 C      -1.126765    -1.462158     1.643826
 C      -0.219413    -1.467033     0.573828
 C       1.126263    -1.803851     0.769333
 C       1.555105    -2.194801     2.028576
 C       0.659770    -2.220155     3.088336
 C      -0.663527    -1.847714     2.899993
 C      -2.550652    -1.070090     1.466451
 C      -3.563198    -1.890872     1.963921
 C      -4.896045    -1.527454     1.826572
 C      -5.231865    -0.337333     1.191993
 C      -4.228587     0.486566     0.696232
 C      -2.895972     0.124038     0.833584
 H       2.595580    -2.467604     2.168304
 H       1.000682    -2.522271     4.073249
 H      -1.352189    -1.841097     3.737727
 H      -3.304218    -2.828015     2.447018
 H      -5.674534    -2.176999     2.213889
 H      -6.273664    -0.053098     1.083502
 H      -4.483272     1.417024     0.199405
 H      -2.119044     0.776303     0.449378
 C      -0.660781    -1.159182    -0.763005
 N      -0.990298    -0.923273    -1.838942
 C       2.339662    -0.765104    -1.144434
 O       2.715144    -0.971121    -2.282724
 C       2.282834     0.656719    -0.606589
 C       1.780134     1.560422    -1.531059
 H       1.523372     2.568513    -1.223853
 H       1.703957     1.296636    -2.578096
 C       2.041203     0.963429     0.862184
 H       2.677347     0.387291     1.534881
 H       2.238670     2.021019     1.037748
 H       1.002642     0.775986     1.137996
 N       2.038734    -1.839042    -0.324771
 C       2.218820    -3.168077    -0.922744
 H       3.185191    -3.214534    -1.423113
 H       2.179006    -3.914240    -0.127287
 H       1.436359    -3.376503    -1.659822
 C       4.424049     0.987177    -0.696466
 C       4.785326     1.242705    -2.141850
 C       5.056606    -0.240400    -0.075161
 H       4.252184     2.111530    -2.532521
 H       5.862366     1.442685    -2.213923
 H       4.542607     0.374460    -2.752461
 H       4.912549    -1.108124    -0.720846
 H       6.136851    -0.079141     0.033873
 H       4.653949    -0.460430     0.915634
 C       4.539600     2.172505     0.110717
 N       4.623738     3.132729     0.744202
48
  -29709.470370  -29700.463369   56.04   68.47
 C      -0.853284    -1.985268     1.577116
 C       0.371612    -1.694349     0.956838
 C       0.446069    -1.473868    -0.424935
 C      -0.714101    -1.543080    -1.187656
 C      -1.932264    -1.799539    -0.577182
 C      -2.001806    -2.024116     0.790751
 C      -0.951278    -2.235494     3.040309
 C      -0.128033    -3.169110     3.669070
 C      -0.247640    -3.406244     5.031315
 C      -1.192489    -2.715963     5.781143
 C      -2.018748    -1.785852     5.161416
 C      -1.899320    -1.548236     3.798676
 H      -0.655276    -1.386049    -2.259243
 H      -2.834823    -1.840563    -1.178435
 H      -2.952411    -2.253111     1.259650
 H       0.606997    -3.716737     3.089152
 H       0.401237    -4.133488     5.508305
 H      -1.284435    -2.901907     6.846464
 H      -2.757337    -1.241256     5.741064
 H      -2.536094    -0.811221     3.319118
 C       1.567369    -1.542290     1.745754
 N       2.524112    -1.423007     2.372092
 C       1.790915    -0.249932    -2.043363
 O       2.449536    -0.462516    -3.039965
 C       1.099427     1.090407    -1.826671
 C       0.361816     1.517327    -2.921957
 H      -0.345445     2.334646    -2.828088
 H       0.538481     1.094433    -3.903767
 C       0.622074     1.472271    -0.435544
 H       0.334617     2.523800    -0.424537
 H      -0.261018     0.899009    -0.152221
 H       1.391063     1.309141     0.323166
 N       1.697764    -1.202405    -1.038742
 C       2.613210    -2.343351    -1.160728
 H       2.320157    -3.001427    -1.985094
 H       3.619228    -1.967299    -1.341683
 H       2.605237    -2.900892    -0.224101
 C       2.865766     2.316430    -1.933519
 C       2.476702     3.652016    -1.338878
 C       3.276928     2.400009    -3.385140
 H       3.278358     4.376022    -1.530307
 H       1.572169     4.031510    -1.822669
 H       2.316751     3.604226    -0.262061
 H       2.480322     2.874501    -3.963932
 H       4.173448     3.027967    -3.466329
 H       3.488072     1.419864    -3.805523
 C       3.742491     1.535290    -1.105679
 N       4.404988     0.873724    -0.431280
48
  -29709.422907  -29700.456212   85.82   72.96
 C      -1.489149     0.765778    -0.085175
 C      -0.620848    -0.083712     0.618552
 C       0.556083     0.406814     1.198294
 C       0.863213     1.755857     1.070457
 C       0.025846     2.596150     0.353629
 C      -1.141953     2.107565    -0.215586
 C      -2.747775     0.264769    -0.699496
 C      -3.029609     0.553688    -2.034951
 C      -4.209797     0.111931    -2.617824
 C      -5.123368    -0.622300    -1.870633
 C      -4.850256    -0.911797    -0.539031
 C      -3.670668    -0.470334     0.043963
 H       1.763632     2.139016     1.538839
 H       0.279029     3.646473     0.250858
 H      -1.808142     2.773145    -0.753301
 H      -2.310362     1.114619    -2.623762
 H      -4.415156     0.339600    -3.659029
 H      -6.045870    -0.968708    -2.325535
 H      -5.558386    -1.485035     0.050408
 H      -3.467409    -0.694143     1.085665
 C      -0.887522    -1.497537     0.692810
 N      -1.094401    -2.626899     0.754767
 C       2.779838    -0.407336     1.803886
 O       3.504538    -0.528309     2.770992
 C       3.353104    -0.246901     0.402471
 C       2.545986    -0.477357    -0.697811
 H       2.847263    -0.136769    -1.682403
 H       1.672414    -1.114572    -0.637751
 C       4.439363     0.806700     0.316024
 H       5.085421     0.780137     1.192847
 H       5.043124     0.679280    -0.585825
 H       3.981629     1.801144     0.267734
 N       1.402510    -0.461422     1.940770
 C       0.909118    -0.876897     3.258673
 H      -0.153891    -1.105295     3.179775
 H       1.443886    -1.774649     3.565816
 H       1.063100    -0.092565     4.007072
 C       4.561308    -2.069793     0.391681
 C       5.798923    -1.843319     1.228479
 C       4.824486    -2.336084    -1.071966
 H       5.551251    -1.497444     2.230408
 H       6.349572    -2.790071     1.311148
 H       6.459432    -1.121733     0.742610
 H       3.902170    -2.528896    -1.621448
 H       5.337744    -1.486805    -1.530747
 H       5.478044    -3.211735    -1.175191
 C       3.599127    -2.962656     0.977589
 N       2.794016    -3.645186     1.442310
48
  -29709.437742  -29700.446226   76.51   79.23
 C      -1.493929    -0.455772     1.588936
 C      -0.649494    -0.946506     0.582172
 C      -0.604798    -0.345197    -0.681726
 C      -1.457387     0.714426    -0.959712
 C      -2.320999     1.185690     0.018734
 C      -2.330465     0.615049     1.283419
 C      -1.513851    -1.048800     2.952334
 C      -0.333431    -1.235047     3.671752
 C      -0.367683    -1.767336     4.952971
 C      -1.581652    -2.117283     5.531934
 C      -2.762780    -1.931786     4.822942
 C      -2.728952    -1.399242     3.541252
 H      -1.424123     1.172015    -1.942802
 H      -2.981388     2.017539    -0.203653
 H      -2.982782     1.009201     2.054881
 H       0.617053    -0.956151     3.229639
 H       0.558306    -1.908610     5.500818
 H      -1.607570    -2.534112     6.533691
 H      -3.714159    -2.204829     5.268283
 H      -3.651514    -1.267897     2.984118
 C       0.162626    -2.113121     0.811134
 N       0.816104    -3.047138     0.961465
 C       1.614602    -1.028564    -1.613958
 O       2.157941    -1.821024    -2.354586
 C       2.445372    -0.203656    -0.640354
 C       1.912025     0.857646     0.071381
 H       2.445638     1.245286     0.931990
 H       1.046236     1.415001    -0.257429
 C       3.549143    -1.016481     0.009066
 H       3.113737    -1.674261     0.766672
 H       4.063459    -1.641838    -0.718107
 H       4.272479    -0.360720     0.499519
 N       0.243684    -0.839757    -1.709804
 C      -0.430247    -1.626093    -2.750540
 H      -0.481985    -2.683119    -2.469469
 H      -1.440652    -1.236516    -2.883742
 H       0.121615    -1.545509    -3.686361
 C       3.540374     0.888773    -2.164205
 C       4.206401     2.015058    -1.407019
 C       2.490801     1.324898    -3.160012
 H       4.843860     2.589329    -2.090807
 H       3.454945     2.689392    -0.991589
 H       4.837412     1.646267    -0.596089
 H       2.930154     2.041195    -3.866046
 H       2.099031     0.482761    -3.730786
 H       1.666176     1.828283    -2.647743
 C       4.485316    -0.068020    -2.667832
 N       5.291142    -0.797531    -3.052785
48
  -29709.444445  -29700.436103   72.30   85.58
 C      -1.119014    -1.691484     1.460012
 C       0.015201    -1.531651     0.651108
 C      -0.090012    -1.016444    -0.645832
 C      -1.334730    -0.653030    -1.140423
 C      -2.459701    -0.783835    -0.338669
 C      -2.353864    -1.303323     0.944330
 C      -1.027991    -2.245451     2.836941
 C      -1.642311    -1.576001     3.895739
 C      -1.582512    -2.090322     5.183960
 C      -0.909133    -3.281580     5.427798
 C      -0.296866    -3.954916     4.377472
 C      -0.356549    -3.441520     3.089381
 H      -1.410171    -0.259349    -2.148899
 H      -3.431416    -0.492069    -0.724045
 H      -3.240621    -1.429257     1.555788
 H      -2.155803    -0.637622     3.710245
 H      -2.060664    -1.557784     5.999960
 H      -0.861183    -3.683952     6.434628
 H       0.230446    -4.885472     4.560444
 H       0.116660    -3.977645     2.273692
 C       1.335343    -1.810299     1.156574
 N       2.404077    -2.004679     1.534907
 C       1.393147     0.251375    -2.141977
 O       1.887175     0.196408    -3.248129
 C       1.201344     1.588717    -1.446046
 C       0.740493     2.587270    -2.291075
 H       0.382605     3.528176    -1.886422
 H       0.829255     2.482987    -3.365180
 C       0.822115     1.675526     0.022145
 H       0.936320     2.706749     0.357844
 H      -0.223139     1.403604     0.176775
 H       1.434696     1.036336     0.660442
 N       1.074107    -0.914838    -1.458224
 C       1.471197    -2.169644    -2.105515
 H       0.802030    -2.419818    -2.936326
 H       2.483311    -2.068531    -2.493736
 H       1.446840    -2.969357    -1.363019
 C       3.325559     1.995752    -1.277214
 C       3.980898     0.706074    -0.832946
 C       3.432367     3.144710    -0.298019
 H       3.494741     0.293313     0.054264
 H       3.975560    -0.043239    -1.624268
 H       5.027573     0.907109    -0.568678
 H       4.457530     3.535140    -0.310357
 H       2.764043     3.966818    -0.565153
 H       3.212168     2.814981     0.718378
 C       3.664744     2.408124    -2.616390
 N       3.950242     2.799086    -3.661882
48
  -29709.444446  -29700.436049   72.30   85.62
 C      -0.471509    -0.229650     2.505090
 C      -0.057624     0.104434     1.207631
 C       1.252737     0.525322     0.953935
 C       2.160410     0.610243     2.000321
 C       1.767450     0.257722     3.283595
 C       0.464657    -0.151095     3.534107
 C      -1.861772    -0.670156     2.795290
 C      -2.958792     0.069053     2.353405
 C      -4.249932    -0.345638     2.648881
 C      -4.460616    -1.501502     3.391194
 C      -3.372483    -2.242303     3.837480
 C      -2.080645    -1.828243     3.541971
 H       3.173429     0.942600     1.797757
 H       2.480472     0.317301     4.099636
 H       0.156076    -0.398343     4.543921
 H      -2.802759     0.977055     1.780788
 H      -5.094675     0.237704     2.297325
 H      -5.470824    -1.824864     3.621031
 H      -3.529714    -3.147497     4.415394
 H      -1.232686    -2.416691     3.878620
 C      -0.940040    -0.056517     0.080091
 N      -1.612100    -0.191617    -0.843595
 C       2.774394     0.416116    -0.974375
 O       3.438611     1.132398    -1.693003
 C       3.131461    -1.050890    -0.801229
 C       4.494198    -1.273443    -0.670886
 H       4.865131    -2.242083    -0.352646
 H       5.206719    -0.520780    -0.984363
 C       2.188354    -2.024845    -0.116469
 H       1.163130    -1.957750    -0.484783
 H       2.546792    -3.041436    -0.281442
 H       2.169949    -1.864246     0.962549
 N       1.625650     0.905418    -0.365883
 C       1.231433     2.268570    -0.736822
 H       1.326316     2.388810    -1.814716
 H       0.190843     2.423289    -0.445843
 H       1.864824     3.015386    -0.245194
 C       2.719791    -1.568507    -2.867422
 C       1.426271    -0.876523    -3.239022
 C       2.673898    -3.080936    -2.895632
 H       1.553509     0.203044    -3.316671
 H       1.089153    -1.245518    -4.216764
 H       0.633697    -1.092747    -2.518645
 H       3.549989    -3.520904    -2.413165
 H       1.769381    -3.454515    -2.413400
 H       2.664760    -3.422216    -3.938221
 C       3.885598    -1.061417    -3.547303
 N       4.833139    -0.720021    -4.106791
48
  -29709.409404  -29700.416076   94.29   98.15
 C      -1.000052    -2.308094     1.604878
 C       0.125980    -1.586929     1.188944
 C       1.119729    -2.187959     0.408267
 C       1.002443    -3.518061     0.047248
 C      -0.106910    -4.245643     0.460630
 C      -1.096333    -3.646726     1.225410
 C      -2.073375    -1.690190     2.428155
 C      -3.407920    -1.833808     2.046149
 C      -4.424574    -1.280609     2.812842
 C      -4.119187    -0.578374     3.972889
 C      -2.792798    -0.433713     4.361436
 C      -1.775952    -0.986929     3.595516
 H       1.771343    -3.971785    -0.568953
 H      -0.201151    -5.289123     0.177966
 H      -1.954259    -4.223508     1.553552
 H      -3.647658    -2.369292     1.132678
 H      -5.458096    -1.395871     2.501846
 H      -4.913242    -0.144831     4.572450
 H      -2.546534     0.112241     5.266337
 H      -0.744200    -0.877706     3.911438
 C       0.297913    -0.196037     1.521847
 N       0.499705     0.909074     1.767363
 C       2.056035    -0.453746    -0.946550
 O       0.995800    -0.410695    -1.540272
 C       3.217265     0.493489    -1.221393
 C       3.713641     1.195906    -0.139702
 H       4.649621     1.737957    -0.218193
 H       3.114607     1.339701     0.753155
 C       4.149196    -0.001807    -2.312860
 H       3.597347    -0.322101    -3.197500
 H       4.858809     0.778202    -2.595362
 H       4.719610    -0.865884    -1.954738
 N       2.260831    -1.425375     0.011313
 C       3.484850    -1.666110     0.767312
 H       3.473350    -1.147583     1.732016
 H       3.573161    -2.740509     0.946959
 H       4.356866    -1.335858     0.207204
 C       2.261884     2.141865    -2.318966
 C       1.200506     2.680645    -1.389995
 C       1.771878     1.643250    -3.661433
 H       0.766251     3.589386    -1.827016
 H       0.406014     1.946980    -1.254844
 H       1.611578     2.940195    -0.413034
 H       1.203107     2.447306    -4.148190
 H       2.595169     1.375223    -4.325749
 H       1.109199     0.788967    -3.528851
 C       3.429204     2.977017    -2.417488
 N       4.398410     3.599094    -2.484727
48
  -29709.409396  -29700.414715   94.30   99.00
 C       0.210661    -2.165185     2.538811
 C       0.799152    -1.233493     1.674716
 C       2.014712    -1.507580     1.037901
 C       2.658401    -2.709856     1.269185
 C       2.087597    -3.638807     2.130664
 C       0.877920    -3.371008     2.753165
 C      -1.083996    -1.900986     3.221221
 C      -1.298853    -0.721533     3.934307
 C      -2.507042    -0.501184     4.581134
 C      -3.514399    -1.456928     4.526451
 C      -3.307320    -2.636537     3.820943
 C      -2.099244    -2.857307     3.173451
 H       3.593720    -2.918868     0.760977
 H       2.590683    -4.582890     2.312988
 H       0.443393    -4.096224     3.432606
 H      -0.514502     0.025388     3.990452
 H      -2.660835     0.421748     5.130771
 H      -4.458807    -1.283085     5.032246
 H      -4.090275    -3.386707     3.771956
 H      -1.944957    -3.772849     2.610755
 C       0.170911     0.029829     1.384445
 N      -0.272071     1.058837     1.125271
 C       1.967856    -0.328654    -1.042489
 O       1.097088    -1.096689    -1.403519
 C       2.454739     0.849283    -1.877172
 C       2.414693     2.093151    -1.276267
 H       2.915456     2.940546    -1.731459
 H       1.768525     2.279764    -0.425168
 C       3.584306     0.486242    -2.824478
 H       4.500708     0.290234    -2.256993
 H       3.356869    -0.415834    -3.393889
 H       3.783994     1.306651    -3.516445
 N       2.592175    -0.529401     0.171379
 C       3.695121     0.246016     0.728121
 H       4.334154    -0.428100     1.303975
 H       4.290484     0.695537    -0.063480
 H       3.336742     1.042107     1.389531
 C       0.847726     1.106688    -3.355443
 C      -0.401875     1.366537    -2.548741
 C       0.802197    -0.096451    -4.272705
 H      -0.267785     2.194047    -1.850143
 H      -1.222783     1.627531    -3.229449
 H      -0.685284     0.475092    -1.989493
 H       0.696797    -1.011629    -3.691436
 H      -0.073331    -0.003914    -4.929828
 H       1.685624    -0.160863    -4.910178
 C       1.387905     2.280423    -3.988165
 N       1.873665     3.208430    -4.471595
48
  -29709.410876  -29700.407205   93.37  103.72
 C       0.156751    -1.743324     2.732436
 C       0.447276    -0.800453     1.738774
 C       1.700869    -0.178576     1.677537
 C       2.656697    -0.466072     2.637059
 C       2.366027    -1.376262     3.645924
 C       1.135741    -2.014112     3.687742
 C      -1.153757    -2.442762     2.787503
 C      -1.860325    -2.508568     3.988814
 C      -3.075839    -3.176060     4.055705
 C      -3.598054    -3.788241     2.922231
 C      -2.898281    -3.729633     1.722825
 C      -1.683160    -3.062543     1.655406
 H       3.628981     0.011714     2.585211
 H       3.116517    -1.602523     4.396493
 H       0.928230    -2.748131     4.458698
 H      -1.461273    -2.018540     4.871585
 H      -3.618105    -3.216011     4.995133
 H      -4.548565    -4.309629     2.973739
 H      -3.299428    -4.206034     0.834139
 H      -1.136826    -3.028095     0.718934
 C      -0.546416    -0.394848     0.778179
 N      -1.305813    -0.019839     0.000408
 C       1.995871     0.296908    -0.650125
 O       1.933419    -0.898576    -0.857251
 C       2.108804     1.341767    -1.753406
 C       1.098172     2.282955    -1.801907
 H       1.192698     3.160763    -2.432071
 H       0.141021     2.095194    -1.326213
 C       3.539112     1.726916    -2.086163
 H       4.170717     0.849009    -2.229976
 H       3.570666     2.341734    -2.987476
 H       3.968355     2.309063    -1.263736
 N       1.958225     0.772647     0.648932
 C       2.343710     2.112431     1.078184
 H       2.125622     2.833814     0.292600
 H       1.758582     2.377927     1.961032
 H       3.409005     2.171042     1.331387
 C       1.628489     0.200523    -3.575461
 C       0.229445    -0.327599    -3.365472
 C       2.700079    -0.840844    -3.814983
 H       0.217279    -1.065172    -2.563319
 H      -0.470825     0.472715    -3.120580
 H      -0.116571    -0.809193    -4.289457
 H       3.662930    -0.390565    -4.062306
 H       2.805250    -1.484091    -2.942114
 H       2.399366    -1.465487    -4.667237
 C       1.699443     1.310219    -4.487472
 N       1.784013     2.232450    -5.175463
48
  -29709.410877  -29700.407014   93.37  103.84
 C      -1.189048    -2.084438     1.698190
 C       0.007225    -1.617696     1.139747
 C       0.599811    -2.271291     0.051800
 C       0.019936    -3.421380    -0.456128
 C      -1.149800    -3.910389     0.112492
 C      -1.752069    -3.245410     1.169506
 C      -1.852862    -1.379480     2.826049
 C      -2.090804    -0.005992     2.771705
 C      -2.728967     0.638817     3.821964
 C      -3.139713    -0.080631     4.937928
 C      -2.909328    -1.450119     4.998452
 C      -2.270949    -2.095663     3.948101
 H       0.476553    -3.923297    -1.302229
 H      -1.604737    -4.810831    -0.287534
 H      -2.682832    -3.614434     1.586303
 H      -1.780872     0.558926     1.899088
 H      -2.906321     1.708028     3.767420
 H      -3.638120     0.424698     5.759027
 H      -3.225461    -2.017767     5.867941
 H      -2.078790    -3.162733     4.003714
 C       0.700547    -0.484021     1.695431
 N       1.305633     0.401584     2.109941
 C       1.756902    -0.526240    -1.108864
 O       0.682286     0.015447    -1.275525
 C       3.086245     0.081246    -1.539613
 C       4.012355     0.286170    -0.534673
 H       5.038848     0.541242    -0.775183
 H       3.702850     0.335268     0.504305
 C       3.533236    -0.347066    -2.925833
 H       3.830830    -1.400991    -2.911466
 H       2.731592    -0.243505    -3.658616
 H       4.392813     0.242106    -3.250427
 N       1.815096    -1.762736    -0.489987
 C       2.954728    -2.673110    -0.508623
 H       3.884191    -2.107671    -0.547139
 H       2.947323    -3.260415     0.411864
 H       2.917824    -3.358582    -1.363705
 C       2.561155     2.174787    -1.980484
 C       2.015212     2.735826    -0.689159
 C       1.626201     2.220146    -3.169571
 H       1.842545     3.813457    -0.808752
 H       1.068954     2.258034    -0.436334
 H       2.713624     2.596706     0.137717
 H       1.294978     3.257167    -3.317297
 H       2.116010     1.898270    -4.090159
 H       0.746407     1.605256    -2.983553
 C       3.894637     2.617038    -2.287887
 N       4.981170     2.913508    -2.537983
48
  -29709.412201  -29700.388102   92.54  115.70
 C      -0.961957     1.121478     1.759831
 C      -0.366575     0.461331     0.676742
 C       1.022856     0.358717     0.575919
 C       1.835154     0.934725     1.535674
 C       1.253812     1.606490     2.604408
 C      -0.125740     1.694777     2.716894
 C      -2.438344     1.216681     1.906317
 C      -3.034884     2.448306     2.178843
 C      -4.410785     2.546162     2.336438
 C      -5.207360     1.412364     2.225758
 C      -4.620118     0.181466     1.958116
 C      -3.244660     0.083040     1.801267
 H       2.911812     0.847839     1.437572
 H       1.886003     2.057026     3.362790
 H      -0.571369     2.198156     3.568164
 H      -2.415866     3.337263     2.251147
 H      -4.862407     3.511263     2.543513
 H      -6.283188     1.488227     2.347703
 H      -5.235002    -0.708396     1.870622
 H      -2.790940    -0.881721     1.601334
 C      -1.157405    -0.097009    -0.390175
 N      -1.755179    -0.535084    -1.269436
 C       1.642629    -1.671532    -0.468487
 O       1.136074    -2.219186     0.497167
 C       2.334723    -2.536760    -1.519331
 C       1.847079    -3.833591    -1.545434
 H       2.111474    -4.500116    -2.359027
 H       1.233690    -4.207748    -0.737354
 C       2.866451    -1.995989    -2.835410
 H       3.642850    -1.239951    -2.721915
 H       3.281822    -2.825209    -3.410963
 H       2.054221    -1.569605    -3.428206
 N       1.608625    -0.302811    -0.552391
 C       1.976377     0.576006    -1.664196
 H       3.054538     0.602311    -1.826750
 H       1.454052     0.301445    -2.581818
 H       1.655069     1.581962    -1.390999
 C       4.188137    -2.745085    -0.410670
 C       5.063111    -3.553926    -1.341238
 C       3.852489    -3.434741     0.890199
 H       5.984559    -3.838900    -0.818446
 H       4.549701    -4.473526    -1.632961
 H       5.343798    -3.000265    -2.237649
 H       4.784355    -3.664456     1.423106
 H       3.216133    -2.826217     1.530424
 H       3.336943    -4.376303     0.688506
 C       4.593543    -1.376017    -0.271991
 N       4.894284    -0.263819    -0.187910
48
  -29709.408766  -29700.387531   94.69  116.06
 C      -1.452801    -2.136129    -0.547416
 C      -0.635716    -1.038110    -0.250056
 C      -0.220450    -0.154363    -1.253856
 C      -0.640655    -0.353300    -2.558146
 C      -1.476656    -1.421589    -2.857697
 C      -1.873421    -2.305148    -1.865880
 C      -1.874470    -3.105123     0.498397
 C      -3.219066    -3.456550     0.621930
 C      -3.621862    -4.376077     1.581011
 C      -2.683898    -4.957421     2.426290
 C      -1.342261    -4.614848     2.306719
 C      -0.939022    -3.695687     1.348163
 H      -0.298882     0.318491    -3.338210
 H      -1.805611    -1.574980    -3.880386
 H      -2.500816    -3.154971    -2.111730
 H      -3.954887    -2.992928    -0.027930
 H      -4.671575    -4.637476     1.670205
 H      -2.998151    -5.675833     3.176699
 H      -0.604404    -5.065616     2.962477
 H       0.110707    -3.439584     1.253071
 C      -0.228060    -0.759738     1.103023
 N       0.113063    -0.493256     2.168272
 C       1.892128     0.670523    -0.485451
 O       2.307900    -0.469088    -0.546697
 C       2.697549     1.841576     0.064578
 C       3.362760     2.596183    -0.883691
 H       3.794428     3.556383    -0.621409
 H       3.581699     2.193080    -1.866829
 C       2.096300     2.509508     1.292207
 H       1.733506     1.775187     2.012682
 H       2.832555     3.153742     1.772939
 H       1.247173     3.135778     1.010749
 N       0.611707     0.955507    -0.921966
 C       0.044342     2.283905    -1.121184
 H       0.840721     3.021226    -1.214351
 H      -0.532655     2.288322    -2.048618
 H      -0.621644     2.564040    -0.298191
 C       4.395398     0.842723     1.031000
 C       5.206377     0.170261    -0.053668
 C       3.838979    -0.066897     2.102922
 H       4.644531    -0.652126    -0.492040
 H       5.483035     0.878595    -0.837538
 H       6.132667    -0.223729     0.384853
 H       4.671111    -0.607999     2.573700
 H       3.319030     0.484903     2.886361
 H       3.160997    -0.800780     1.667589
 C       5.033075     2.029480     1.535639
 N       5.514093     3.010416     1.905647
48
  -29709.408766  -29700.387476   94.69  116.10
 C      -0.380117    -2.054436     2.362312
 C       0.081576    -0.979005     1.592907
 C      -0.803726    -0.015080     1.094753
 C      -2.154396    -0.111169     1.384176
 C      -2.617752    -1.156911     2.172591
 C      -1.742521    -2.119564     2.651202
 C       0.539475    -3.106738     2.869750
 C       0.503192    -3.474887     4.215057
 C       1.342500    -4.470807     4.696008
 C       2.226321    -5.112584     3.836230
 C       2.265543    -4.753596     2.494130
 C       1.426770    -3.758080     2.012783
 H      -2.841682     0.623110     0.977866
 H      -3.676553    -1.229670     2.399043
 H      -2.114943    -2.950614     3.240203
 H      -0.176410    -2.964946     4.890924
 H       1.308013    -4.744723     5.745754
 H       2.883188    -5.890767     4.211653
 H       2.952212    -5.251189     1.816981
 H       1.454987    -3.488973     0.962379
 C       1.485725    -0.807781     1.321686
 N       2.596894    -0.625704     1.088694
 C       0.229854     0.758083    -0.922111
 O       0.119107    -0.370424    -1.357477
 C       0.947026     1.885897    -1.654443
 C       0.131079     2.718016    -2.398060
 H       0.509578     3.656562    -2.789194
 H      -0.854826     2.396375    -2.716687
 C       2.159212     2.449657    -0.928157
 H       2.779882     1.657766    -0.506716
 H       2.759483     3.056856    -1.605792
 H       1.846848     3.092221    -0.102333
 N      -0.305397     1.069535     0.313900
 C      -0.452454     2.406136     0.877902
 H       0.321797     2.615105     1.623694
 H      -0.409211     3.153452     0.086575
 H      -1.428120     2.481511     1.363159
 C       1.992283     0.822556    -3.264123
 C       0.942113     0.244022    -4.185454
 C       2.929207    -0.173347    -2.618855
 H       0.247769     1.014611    -4.527230
 H       1.436400    -0.178638    -5.070089
 H       0.386992    -0.543671    -3.679937
 H       3.434665    -0.745614    -3.408720
 H       3.699351     0.310779    -2.017918
 H       2.372917    -0.873884    -1.996318
 C       2.649319     1.968638    -3.833779
 N       3.141165     2.919458    -4.263372
48
  -29709.408767  -29700.387476   94.69  116.10
 C      -1.728522    -0.221799     1.649460
 C      -0.713929    -0.669551     0.793998
 C      -0.144281    -1.939038     0.952038
 C      -0.604291    -2.776035     1.954601
 C      -1.631741    -2.352989     2.788419
 C      -2.183322    -1.089694     2.641307
 C      -2.320554     1.135823     1.519694
 C      -1.509560     2.269118     1.457545
 C      -2.074595     3.532864     1.357701
 C      -3.456120     3.680271     1.321621
 C      -4.271318     2.556234     1.386615
 C      -3.706654     1.291805     1.486516
 H      -0.145747    -3.749637     2.090433
 H      -1.991427    -3.011009     3.572810
 H      -2.963784    -0.753581     3.315229
 H      -0.430921     2.161015     1.495118
 H      -1.432122     4.406051     1.308551
 H      -3.896839     4.668982     1.242858
 H      -5.351001     2.663870     1.356885
 H      -4.344621     0.414097     1.522882
 C      -0.250535     0.144980    -0.299758
 N       0.143200     0.755937    -1.190734
 C       2.092710    -1.694774     0.133508
 O       2.281918    -0.890294     1.023642
 C       3.111586    -2.016385    -0.953253
 C       3.902344    -3.124006    -0.710293
 H       4.511965    -3.550822    -1.499790
 H       4.032936    -3.508674     0.295669
 C       2.658388    -1.693511    -2.369249
 H       2.166792    -0.721182    -2.422456
 H       3.507943    -1.706423    -3.052112
 H       1.943046    -2.439213    -2.722321
 N       0.887554    -2.368758     0.065976
 C       0.583627    -3.508101    -0.791779
 H       0.011174    -4.241159    -0.219061
 H      -0.010162    -3.208953    -1.661987
 H       1.505752    -3.983285    -1.124093
 C       4.593268    -0.416686    -0.708553
 C       5.252628    -0.608179     0.638661
 C       3.880414     0.900388    -0.916385
 H       6.089057     0.097119     0.730767
 H       4.540356    -0.419095     1.439337
 H       5.654707    -1.618282     0.742359
 H       3.071311     1.015239    -0.195321
 H       4.596740     1.718255    -0.758803
 H       3.481322     1.001299    -1.925925
 C       5.450163    -0.803052    -1.797648
 N       6.112915    -1.161701    -2.670947
48
  -29709.408767  -29700.387422   94.69  116.13
 C      -1.263472     0.243022     2.069813
 C      -0.285054     0.262893     1.067818
 C      -0.626655     0.494792    -0.270318
 C      -1.948463     0.730764    -0.608621
 C      -2.921861     0.744077     0.382436
 C      -2.584570     0.497926     1.704345
 C      -0.924894    -0.036784     3.490219
 C      -0.167034    -1.154396     3.840253
 C       0.124749    -1.416583     5.171572
 C      -0.339116    -0.567589     6.169409
 C      -1.097920     0.546282     5.829203
 C      -1.390130     0.809055     4.497598
 H      -2.214401     0.886724    -1.648606
 H      -3.957011     0.930278     0.115178
 H      -3.353580     0.478905     2.468888
 H       0.189475    -1.825941     3.066632
 H       0.716696    -2.288633     5.429974
 H      -0.109752    -0.773264     7.210118
 H      -1.461700     1.214689     6.603206
 H      -1.970923     1.687243     4.232715
 C       1.108324     0.084383     1.385832
 N       2.231930    -0.043173     1.594094
 C       1.037339    -0.685968    -1.523586
 O       0.625122    -1.710795    -1.018471
 C       2.257865    -0.617156    -2.433632
 C       1.986033    -0.663197    -3.788308
 H       2.755599    -0.422294    -4.514151
 H       1.047913    -1.063861    -4.157608
 C       3.397872     0.243059    -1.909127
 H       3.163943     1.303157    -2.027076
 H       3.579712     0.066719    -0.848108
 H       4.311615     0.045563    -2.469735
 N       0.390814     0.509377    -1.269814
 C       0.616303     1.774810    -1.958339
 H       1.102283     1.598178    -2.917072
 H      -0.347504     2.252082    -2.149050
 H       1.226782     2.456510    -1.356734
 C       3.176665    -2.589631    -2.151826
 C       2.221306    -3.621285    -2.708049
 C       3.520480    -2.726934    -0.685890
 H       1.947783    -3.391463    -3.740085
 H       2.712296    -4.603338    -2.701693
 H       1.321194    -3.671577    -2.098600
 H       2.624720    -2.631548    -0.072473
 H       3.946459    -3.725058    -0.515146
 H       4.259233    -1.993233    -0.362552
 C       4.313251    -2.377733    -3.007963
 N       5.198431    -2.165250    -3.716360
48
  -29709.457539  -29700.381735   64.09  119.70
 C      -1.482916     0.198670     0.304027
 C      -0.398169    -0.595418     0.704423
 C       0.474957    -0.169639     1.711786
 C       0.237422     1.036094     2.357034
 C      -0.826916     1.832990     1.963070
 C      -1.674850     1.419672     0.944734
 C      -2.407961    -0.228289    -0.778028
 C      -1.917483    -0.644589    -2.015975
 C      -2.798047    -1.021802    -3.020795
 C      -4.170361    -0.985002    -2.804390
 C      -4.663962    -0.566249    -1.573912
 C      -3.786490    -0.188376    -0.566531
 H       0.903181     1.348028     3.154135
 H      -0.996881     2.784600     2.456033
 H      -2.496607     2.053162     0.628925
 H      -0.848051    -0.659983    -2.192314
 H      -2.406281    -1.344969    -3.979718
 H      -4.854781    -1.281365    -3.593097
 H      -5.734470    -0.535964    -1.396985
 H      -4.171909     0.126035     0.398749
 C      -0.189811    -1.902679     0.134853
 N      -0.002755    -2.964280    -0.264857
 C       2.874072    -0.802066     2.147151
 O       3.584702    -1.514968     2.836323
 C       3.557772     0.256337     1.289214
 C       2.962032     1.420887     0.828289
 H       3.601683     2.239630     0.515005
 H       1.908343     1.526628     0.631566
 C       5.025173     0.365345     1.671145
 H       5.100365     0.678894     2.715970
 H       5.544911    -0.588439     1.593852
 H       5.526015     1.110106     1.049718
 N       1.518077    -1.039299     2.140988
 C       1.080669    -2.173431     2.970465
 H       0.009385    -2.313788     2.827036
 H       1.604582    -3.082150     2.673668
 H       1.285866    -1.978490     4.026813
 C       3.670755    -0.930315    -0.543495
 C       3.727310    -2.392571    -0.164461
 C       4.900082    -0.388210    -1.238424
 H       3.954302    -2.984597    -1.061281
 H       4.514699    -2.573288     0.569757
 H       2.778424    -2.751001     0.235507
 H       5.808383    -0.681214    -0.711129
 H       4.950329    -0.799165    -2.254397
 H       4.867827     0.700327    -1.323332
 C       2.466032    -0.531399    -1.221526
 N       1.524773    -0.168070    -1.779491
48
  -29709.342658  -29700.373082  136.18  125.13
 C      -1.986626     0.152153     0.489768
 C      -0.797888    -0.332276    -0.071900
 C       0.035101    -1.194860     0.645495
 C      -0.302586    -1.583927     1.928614
 C      -1.482925    -1.113449     2.491197
 C      -2.314766    -0.261071     1.780266
 C      -2.880245     1.086673    -0.243684
 C      -4.248872     0.826007    -0.321835
 C      -5.096796     1.701109    -0.987171
 C      -4.586609     2.849847    -1.580871
 C      -3.225199     3.118453    -1.503730
 C      -2.377310     2.244326    -0.837943
 H       0.372251    -2.230045     2.478396
 H      -1.750047    -1.410515     3.500075
 H      -3.224028     0.116902     2.235462
 H      -4.646823    -0.077798     0.129221
 H      -6.158763     1.483839    -1.044496
 H      -5.248669     3.533888    -2.102199
 H      -2.819251     4.013553    -1.963742
 H      -1.317175     2.464333    -0.772590
 C      -0.398219     0.020314    -1.409794
 N      -0.046098     0.258719    -2.478339
 C       2.344180    -0.899885     0.192404
 O       2.236012     0.212222     0.676466
 C       3.711865    -1.420908    -0.236076
 C       3.932841    -2.775676    -0.419140
 H       4.808695    -3.119204    -0.958748
 H       3.337316    -3.520815     0.093536
 C       4.450053    -0.427170    -1.111003
 H       4.357038     0.584828    -0.719620
 H       5.506063    -0.692016    -1.203487
 H       4.011254    -0.432616    -2.114840
 N       1.233951    -1.693491     0.038975
 C       1.047639    -2.791066    -0.908394
 H       1.817366    -2.768863    -1.678494
 H       1.063070    -3.765443    -0.409625
 H       0.078063    -2.664765    -1.395551
 C       4.733579    -1.159054     1.672339
 C       4.973287     0.310313     1.929331
 C       5.992558    -1.986974     1.548520
 H       5.408962     0.427636     2.930866
 H       5.695755     0.705284     1.211370
 H       4.053023     0.887548     1.875202
 H       6.599559    -1.870011     2.455247
 H       5.771829    -3.046880     1.416393
 H       6.594967    -1.643378     0.703406
 C       3.727772    -1.766882     2.500062
 N       2.895402    -2.293526     3.100461
48
  -29709.366980  -29700.364755  120.91  130.35
 C      -1.110264    -2.108170     1.406335
 C      -0.408399    -0.985364     0.939924
 C      -0.562488    -0.529032    -0.373708
 C      -1.411643    -1.200081    -1.239794
 C      -2.093146    -2.323095    -0.793708
 C      -1.948696    -2.769361     0.513272
 C      -0.972110    -2.601094     2.802385
 C      -0.705058    -3.950347     3.037897
 C      -0.593095    -4.431297     4.335471
 C      -0.749262    -3.568828     5.414269
 C      -1.018581    -2.224416     5.187827
 C      -1.131040    -1.743283     3.890764
 H      -1.516837    -0.848210    -2.257874
 H      -2.751808    -2.853510    -1.473785
 H      -2.504472    -3.634786     0.857655
 H      -0.568546    -4.622578     2.196445
 H      -0.380538    -5.482225     4.504426
 H      -0.661029    -3.943748     6.428965
 H      -1.142622    -1.545028     6.024861
 H      -1.350716    -0.694445     3.722819
 C       0.523669    -0.288231     1.790835
 N       1.267417     0.300258     2.442007
 C       1.038557     0.564015    -1.803520
 O       1.075803    -0.435371    -2.495711
 C       2.024546     1.697762    -2.045950
 C       2.134189     2.046185    -3.385481
 H       2.664237     2.948101    -3.672904
 H       1.780003     1.378502    -4.161246
 C       2.253101     2.788202    -1.011523
 H       1.447665     3.523489    -1.027212
 H       2.339345     2.395135     0.002766
 H       3.173625     3.319949    -1.249432
 N       0.134552     0.658551    -0.760562
 C      -0.449575     1.908085    -0.257604
 H       0.080400     2.302424     0.611777
 H      -0.472597     2.658466    -1.048486
 H      -1.482332     1.698604     0.028583
 C       3.804776     0.512583    -1.707274
 C       4.042748    -0.341193    -2.933106
 C       3.555681    -0.247557    -0.421993
 H       4.139127     0.274691    -3.829568
 H       4.979696    -0.898061    -2.802217
 H       3.225231    -1.045830    -3.071040
 H       2.778877    -0.999356    -0.571254
 H       4.474806    -0.772897    -0.131754
 H       3.271788     0.401528     0.407676
 C       4.791324     1.554778    -1.589059
 N       5.580505     2.393124    -1.520888
48
  -29709.366981  -29700.364755  120.91  130.35
 C      -0.559658    -2.703071     1.274907
 C      -0.139118    -1.381725     1.055725
 C      -0.787923    -0.559519     0.128021
 C      -1.857624    -1.055527    -0.600806
 C      -2.266689    -2.366750    -0.405981
 C      -1.629803    -3.179215     0.522724
 C       0.106501    -3.588930     2.266123
 C       0.310984    -3.175353     3.582485
 C       0.916389    -4.022791     4.500004
 C       1.322185    -5.295028     4.115301
 C       1.118894    -5.716544     2.806468
 C       0.513773    -4.869020     1.888275
 H      -2.347149    -0.417370    -1.325024
 H      -3.098917    -2.757987    -0.982182
 H      -1.973222    -4.195454     0.683256
 H      -0.011294    -2.187394     3.893291
 H       1.070902    -3.686793     5.520207
 H       1.795953    -5.956569     4.833539
 H       1.435040    -6.708066     2.498065
 H       0.368840    -5.194669     0.862840
 C       1.000628    -0.841481     1.754247
 N       1.898167    -0.371481     2.299250
 C       0.117121     1.210743    -1.231938
 O      -0.047334     0.514707    -2.215697
 C       0.882890     2.521300    -1.343270
 C       0.475370     3.299829    -2.418255
 H       0.813677     4.326783    -2.507297
 H      -0.101520     2.867707    -3.226668
 C       1.414904     3.238803    -0.113028
 H       1.887602     2.560146     0.598802
 H       2.154204     3.977217    -0.421078
 H       0.621120     3.779619     0.403733
 N      -0.346247     0.795227     0.003599
 C      -0.772716     1.685291     1.090526
 H      -1.124000     2.634419     0.684504
 H      -1.616280     1.210001     1.595375
 H       0.016317     1.865349     1.823475
 C       2.724926     1.635793    -2.058410
 C       2.543423     1.285369    -3.518714
 C       3.005275     0.467223    -1.137720
 H       2.272056     2.165997    -4.104462
 H       3.491725     0.896124    -3.911553
 H       1.771160     0.527839    -3.635461
 H       3.993951     0.053008    -1.374270
 H       3.009930     0.748123    -0.083521
 H       2.269829    -0.323537    -1.294936
 C       3.628251     2.744270    -1.888896
 N       4.340941     3.643876    -1.774612
48
  -29709.351113  -29700.350224  130.87  139.47
 C       0.614696    -2.850064     1.946527
 C       1.033845    -1.635595     1.389883
 C       2.196660    -1.560097     0.612670
 C       2.971284    -2.692106     0.425740
 C       2.581693    -3.894689     1.002932
 C       1.413324    -3.975265     1.745085
 C      -0.641284    -2.956056     2.734310
 C      -1.841318    -2.444815     2.239605
 C      -3.012688    -2.565998     2.973913
 C      -3.000412    -3.201669     4.209846
 C      -1.809464    -3.716809     4.708357
 C      -0.637346    -3.595849     3.974166
 H       3.867764    -2.633015    -0.181915
 H       3.188267    -4.782234     0.854289
 H       1.097672    -4.924880     2.163207
 H      -1.858460    -1.956183     1.271238
 H      -3.938953    -2.162332     2.578012
 H      -3.916896    -3.295351     4.783653
 H      -1.792242    -4.212534     5.673830
 H       0.294545    -3.985859     4.371828
 C       0.318277    -0.410476     1.638597
 N      -0.199343     0.600169     1.820539
 C       1.747209     0.232467    -0.906449
 O       0.809492    -0.414002    -1.321231
 C       2.079706     1.647196    -1.373751
 C       2.048883     2.630170    -0.406651
 H       2.487836     3.604867    -0.591809
 H       1.498921     2.487387     0.517796
 C       3.109351     1.694291    -2.488330
 H       3.313828     2.726243    -2.778915
 H       4.050301     1.254992    -2.140859
 H       2.789489     1.130862    -3.366106
 N       2.584158    -0.307256     0.057307
 C       3.890863     0.206129     0.449664
 H       4.049212    -0.010717     1.508356
 H       4.702380    -0.253054    -0.127660
 H       3.924750     1.285717     0.313621
 C       0.272507     2.181656    -2.497185
 C       0.552783     3.589147    -2.974923
 C      -0.877968     2.068685    -1.528072
 H      -0.324313     3.970505    -3.513124
 H       0.733152     4.248606    -2.122873
 H       1.404379     3.638248    -3.655122
 H      -1.033136     1.044984    -1.194612
 H      -0.699419     2.704211    -0.657339
 H      -1.794400     2.423212    -2.018305
 C       0.292531     1.219768    -3.561519
 N       0.355249     0.496550    -4.458552
48
  -29709.311091  -29700.285352  155.99  180.18
 C       0.282866    -1.230365     2.782635
 C       0.697491    -0.371856     1.755277
 C       2.032170    -0.334451     1.340206
 C       2.973954    -1.130422     1.969880
 C       2.577598    -1.964613     3.006659
 C       1.248816    -2.017434     3.404926
 C      -1.144905    -1.336045     3.178607
 C      -1.509268    -1.268164     4.523312
 C      -2.840663    -1.387180     4.898596
 C      -3.821614    -1.578865     3.932340
 C      -3.463689    -1.652708     2.591283
 C      -2.133187    -1.534726     2.213055
 H       4.000901    -1.107099     1.627528
 H       3.312196    -2.594583     3.497545
 H       0.943407    -2.697548     4.192937
 H      -0.744685    -1.105175     5.276855
 H      -3.113035    -1.327669     5.947670
 H      -4.862980    -1.671030     4.224311
 H      -4.224863    -1.803955     1.832652
 H      -1.855499    -1.604476     1.166483
 C      -0.230953     0.529351     1.119160
 N      -0.920920     1.299378     0.615874
 C       2.746782    -0.034912    -0.932481
 O       3.165017    -1.175049    -0.981429
 C       2.552419     0.778272    -2.205918
 C       1.697500     1.870012    -2.195741
 H       1.719069     2.588119    -3.008449
 H       0.900221     1.958934    -1.466865
 C       3.776054     0.801980    -3.099649
 H       4.506570     1.514267    -2.699692
 H       4.256448    -0.174944    -3.138461
 H       3.519094     1.123269    -4.112202
 N       2.369861     0.542458     0.264316
 C       2.552076     1.951037     0.615458
 H       3.158672     2.006598     1.525035
 H       3.079144     2.466956    -0.186066
 H       1.599513     2.458059     0.790208
 C       1.305566    -0.674187    -3.246435
 C       2.195923    -1.750284    -3.825858
 C       0.552430     0.141481    -4.272316
 H       2.830087    -2.200294    -3.064314
 H       1.563560    -2.535155    -4.261929
 H       2.813491    -1.342333    -4.628965
 H      -0.110563     0.868212    -3.801011
 H       1.249498     0.671260    -4.927116
 H      -0.052600    -0.524492    -4.900704
 C       0.476736    -1.126487    -2.159843
 N      -0.181073    -1.467374    -1.275713
48
  -29709.311089  -29700.285270  155.99  180.23
 C      -1.048089    -1.882992     1.615117
 C       0.214885    -1.462273     1.176576
 C       0.824882    -2.048566     0.063374
 C       0.194215    -3.084799    -0.604084
 C      -1.045290    -3.526462    -0.160864
 C      -1.660592    -2.930533     0.931536
 C      -1.739978    -1.215436     2.747440
 C      -1.866469     0.174362     2.777879
 C      -2.531667     0.791019     3.828809
 C      -3.080314     0.030888     4.855059
 C      -2.962507    -1.354019     4.826577
 C      -2.297223    -1.973529     3.777188
 H       0.667379    -3.518487    -1.476093
 H      -1.545059    -4.333857    -0.686040
 H      -2.644187    -3.260049     1.248950
 H      -1.449400     0.769571     1.972233
 H      -2.621967     1.872396     3.844749
 H      -3.599286     0.516535     5.675425
 H      -3.387760    -1.953871     5.625091
 H      -2.193705    -3.054281     3.761788
 C       0.943992    -0.437999     1.882335
 N       1.584697     0.338401     2.438205
 C       2.159582    -0.864342    -1.543462
 O       1.315865    -1.022826    -2.403844
 C       3.282020     0.148373    -1.731144
 C       3.959969     0.630587    -0.621755
 H       4.896097     1.164900    -0.743460
 H       3.513530     0.616389     0.365825
 C       4.023065    -0.008270    -3.043745
 H       4.726789    -0.844947    -2.968144
 H       3.337404    -0.228024    -3.861206
 H       4.599116     0.889621    -3.281392
 N       2.097681    -1.542004    -0.341504
 C       3.253084    -2.028267     0.412953
 H       4.168782    -1.824552    -0.140587
 H       3.328420    -1.559450     1.397597
 H       3.154664    -3.111193     0.539300
 C       2.008176     1.859431    -2.174517
 C       1.567612     1.774227    -3.618497
 C       2.863576     3.061618    -1.845865
 H       0.845685     2.577987    -3.815625
 H       2.418463     1.926213    -4.286139
 H       1.091637     0.820290    -3.837766
 H       3.790788     3.041683    -2.424841
 H       2.325652     3.980499    -2.111851
 H       3.111271     3.101408    -0.784315
 C       0.946083     1.641398    -1.227621
 N       0.110786     1.450960    -0.455213
48
  -29709.323925  -29700.281080  147.93  182.86
 C      -0.575081    -2.074622     2.229297
 C       0.068824    -1.105372     1.447542
 C      -0.573410     0.092037     1.117018
 C      -1.851664     0.335725     1.590915
 C      -2.488660    -0.606379     2.388368
 C      -1.858588    -1.801143     2.699140
 C       0.074998    -3.369660     2.563522
 C       0.113025    -3.808784     3.887241
 C       0.697020    -5.026555     4.209228
 C       1.247388    -5.821052     3.210197
 C       1.209883    -5.391618     1.888880
 C       0.626252    -4.174402     1.566440
 H      -2.347779     1.263166     1.324564
 H      -3.490554    -0.410783     2.756573
 H      -2.368241    -2.548269     3.297761
 H      -0.304199    -3.183069     4.670266
 H       0.724532    -5.354808     5.243486
 H       1.704700    -6.772845     3.461120
 H       1.636801    -6.007195     1.103759
 H       0.591434    -3.848431     0.532481
 C       1.423347    -1.306302     1.005536
 N       2.513321    -1.442947     0.666487
 C       0.193283     0.828232    -1.019375
 O      -0.072928    -0.293897    -1.409827
 C       0.582829     1.897080    -2.037399
 C       0.114585     1.597405    -3.307323
 H       0.173816     2.340378    -4.094751
 H      -0.234663     0.602684    -3.547503
 C       0.678137     3.379124    -1.710156
 H       0.835716     3.926259    -2.640163
 H      -0.257927     3.733126    -1.269983
 H       1.493399     3.646171    -1.040709
 N       0.081154     1.097617     0.334018
 C       0.383731     2.334860     1.052010
 H       1.367099     2.713999     0.783667
 H      -0.362450     3.118852     0.891070
 H       0.402971     2.094743     2.115993
 C       2.708927     1.379539    -2.214423
 C       2.753873    -0.035144    -2.738135
 C       3.367025     1.593691    -0.870364
 H       2.163251    -0.142718    -3.649000
 H       3.794141    -0.297135    -2.970975
 H       2.383179    -0.736196    -1.989990
 H       4.419840     1.288622    -0.935411
 H       3.350601     2.639859    -0.559244
 H       2.907393     0.965887    -0.105811
 C       3.027297     2.377866    -3.196749
 N       3.228879     3.197355    -3.983323
48
  -29709.309562  -29700.246630  156.94  204.48
 C       0.257546    -0.794109     2.848910
 C       0.067961    -0.956726     1.469808
 C       0.615568    -2.048760     0.788538
 C       1.329860    -3.008556     1.486429
 C       1.501836    -2.868108     2.857052
 C       0.976752    -1.773299     3.529502
 C      -0.252863     0.401000     3.568691
 C       0.013662     1.683716     3.087172
 C      -0.448516     2.797145     3.775555
 C      -1.175250     2.644304     4.950531
 C      -1.438440     1.369228     5.437878
 C      -0.977932     0.253866     4.751092
 H       1.761773    -3.842657     0.948881
 H       2.067487    -3.615326     3.404030
 H       1.145073    -1.656030     4.594704
 H       0.590450     1.806155     2.176397
 H      -0.238557     3.790118     3.391176
 H      -1.535538     3.517091     5.485898
 H      -2.006098     1.242305     6.354367
 H      -1.194638    -0.742338     5.124691
 C      -0.731996    -0.021747     0.718329
 N      -1.400124     0.672421     0.090740
 C       1.503491    -2.064486    -1.449152
 O       2.616324    -2.328764    -1.041395
 C       1.301080    -1.570403    -2.878445
 C       1.921938    -2.360285    -3.837550
 H       1.681552    -2.242175    -4.888921
 H       2.708595    -3.050825    -3.558719
 C       0.015535    -0.852619    -3.255002
 H      -0.271411    -0.101512    -2.515181
 H       0.139203    -0.366380    -4.222316
 H      -0.811858    -1.553821    -3.364749
 N       0.397833    -2.130522    -0.620832
 C      -0.922746    -2.605769    -1.043588
 H      -1.297209    -3.285072    -0.273273
 H      -1.642155    -1.794402    -1.177405
 H      -0.831870    -3.173977    -1.970449
 C       2.616819     0.125533    -2.729935
 C       2.222280     1.066572    -3.847743
 C       4.030197    -0.396199    -2.856023
 H       2.207784     0.534629    -4.803171
 H       1.252842     1.535082    -3.678899
 H       2.973990     1.861722    -3.927423
 H       4.730582     0.443926    -2.765591
 H       4.257937    -1.133938    -2.090600
 H       4.167417    -0.845344    -3.842866
 C       2.284381     0.616911    -1.419351
 N       1.990216     0.990593    -0.367754
48
  -29709.264489  -29700.242685  185.23  206.95
 C      -1.353328     1.156042     0.385030
 C      -0.343838     0.312806    -0.102565
 C       0.940366     0.802359    -0.368907
 C       1.230535     2.137493    -0.138476
 C       0.242286     2.974330     0.361064
 C      -1.033660     2.491691     0.616196
 C      -2.726941     0.661686     0.667558
 C      -3.326595     0.944847     1.895421
 C      -4.615640     0.508059     2.169227
 C      -5.322965    -0.216557     1.216978
 C      -4.733727    -0.500436    -0.009231
 C      -3.445292    -0.063304    -0.283223
 H       2.230630     2.502811    -0.331103
 H       0.470844     4.018288     0.549345
 H      -1.804253     3.159223     0.986554
 H      -2.769914     1.497579     2.645833
 H      -5.067802     0.731865     3.130319
 H      -6.330396    -0.559398     1.430361
 H      -5.278735    -1.065789    -0.758178
 H      -2.995415    -0.282416    -1.245393
 C      -0.589155    -1.091820    -0.314085
 N      -0.754397    -2.208173    -0.534540
 C       3.056447    -0.338441    -0.171212
 O       3.437807     0.438019     0.681910
 C       3.803696    -1.642019    -0.426055
 C       3.156602    -2.687908    -1.066220
 H       3.725367    -3.524315    -1.458093
 H       2.075681    -2.770158    -1.064965
 C       5.293073    -1.451683    -0.630827
 H       5.830861    -2.395810    -0.513098
 H       5.479497    -1.086715    -1.647279
 H       5.696052    -0.714297     0.062464
 N       1.904305    -0.107239    -0.898934
 C       1.733578    -0.451317    -2.312985
 H       1.503596     0.463856    -2.867714
 H       2.657682    -0.872768    -2.705870
 H       0.928366    -1.173989    -2.465972
 C       3.757841    -2.372389     1.625636
 C       4.820970    -1.655841     2.426798
 C       3.960567    -3.865143     1.502050
 H       5.816485    -1.955050     2.091228
 H       4.717613    -0.574629     2.356628
 H       4.727365    -1.948340     3.481297
 H       3.142134    -4.339372     0.958814
 H       4.900141    -4.083146     0.987034
 H       4.019172    -4.313229     2.502221
 C       2.409711    -2.003028     1.965847
 N       1.320120    -1.696645     2.188632
48
  -29709.265259  -29700.211174  184.75  226.73
 C       0.119515    -0.793255     2.923564
 C      -0.027313    -0.707940     1.531101
 C       0.102417    -1.841480     0.718792
 C       0.388491    -3.069877     1.293771
 C       0.554150    -3.158190     2.669041
 C       0.418983    -2.036511     3.474638
 C      -0.020191     0.394737     3.807150
 C       0.969233     0.676612     4.749969
 C       0.846758     1.769644     5.597184
 C      -0.268967     2.594443     5.513647
 C      -1.259994     2.318927     4.579144
 C      -1.137812     1.225905     3.732536
 H       0.498484    -3.939143     0.659883
 H       0.786832    -4.118510     3.117607
 H       0.529930    -2.121355     4.550277
 H       1.848149     0.041899     4.806231
 H       1.626428     1.979284     6.322727
 H      -0.365393     3.449813     6.174737
 H      -2.134145     2.957880     4.507090
 H      -1.919142     1.013471     3.011024
 C      -0.286462     0.558931     0.894143
 N      -0.532553     1.545031     0.356560
 C       0.909629    -2.063010    -1.548863
 O       1.782513    -2.833360    -1.204906
 C       0.943848    -1.430669    -2.938004
 C       1.127790    -2.348841    -3.964132
 H       0.961477    -2.061405    -4.997020
 H       1.514782    -3.338924    -3.755864
 C       0.127155    -0.181114    -3.223888
 H      -0.929233    -0.417564    -3.350923
 H       0.216813     0.562206    -2.428008
 H       0.458964     0.263743    -4.161532
 N      -0.101849    -1.681887    -0.684948
 C      -1.492611    -1.472955    -1.104801
 H      -2.141137    -1.956668    -0.369879
 H      -1.761515    -0.416542    -1.170597
 H      -1.664525    -1.957807    -2.066837
 C       2.886307    -0.530093    -2.745678
 C       2.965124     0.546536    -3.806579
 C       3.912562    -1.624971    -2.928103
 H       3.997290     0.913401    -3.867170
 H       2.708423     0.132708    -4.785984
 H       2.317974     1.396641    -3.591572
 H       4.916666    -1.194486    -2.822784
 H       3.787853    -2.422114    -2.199627
 H       3.828217    -2.040505    -3.935560
 C       2.788559    -0.019766    -1.405159
 N       2.654870     0.374596    -0.328735
