48
  -29709.657960  -29700.655454    0.00    0.00
 C       0.120686    -1.536930    -0.036625
 C      -0.434543    -0.257581    -0.144521
 C      -1.801323    -0.055710     0.046708
 C      -2.611137    -1.136193     0.376888
 C      -2.066912    -2.404909     0.496609
 C      -0.710809    -2.604543     0.285863
 C       1.582660    -1.756987    -0.197432
 C       2.300313    -2.370410     0.829338
 C       3.670047    -2.566788     0.709784
 C       4.335409    -2.155152    -0.439243
 C       3.623904    -1.550201    -1.469033
 C       2.254562    -1.352137    -1.350472
 H      -3.671551    -0.971593     0.535213
 H      -2.705375    -3.242969     0.755100
 H      -0.283554    -3.597365     0.374026
 H       1.781917    -2.667839     1.735314
 H       4.219032    -3.038284     1.518645
 H       5.405923    -2.307769    -0.533135
 H       4.136460    -1.230096    -2.370431
 H       1.702973    -0.881759    -2.156846
 C       0.432766     0.908863    -0.371624
 N       0.841442     1.668702    -1.178619
 C      -2.402052     2.081666    -1.091373
 O      -2.776691     3.235763    -0.978000
 C      -2.034961     1.556995    -2.455057
 C      -2.392893     0.343232    -2.862342
 H      -2.201014     0.026298    -3.883328
 H      -2.907029    -0.362390    -2.221296
 C      -1.420326     2.579889    -3.370382
 H      -1.183756     2.130181    -4.337106
 H      -2.119579     3.407518    -3.515906
 H      -0.506587     2.992947    -2.937797
 N      -2.365351     1.247978     0.007224
 C      -2.972950     1.729566     1.250003
 H      -2.468586     1.264428     2.099265
 H      -2.864600     2.812215     1.295888
 H      -4.042156     1.492078     1.292423
 C       1.231693     1.473505     1.409490
 C       2.723838     1.371401     1.184221
 C       0.698333     2.880276     1.574742
 H       3.246678     1.748796     2.072096
 H       3.043973     0.344627     1.006584
 H       3.005012     1.985945     0.327526
 H      -0.390591     2.897996     1.625481
 H       1.094118     3.312052     2.502288
 H       1.021424     3.496516     0.734621
 C       0.698233     0.527801     2.357067
 N       0.253763    -0.229306     3.105691
48
  -29709.657957  -29700.655291    0.00    0.10
 C      -0.805169    -1.181030    -0.577504
 C      -0.319728     0.129526    -0.518850
 C      -1.060418     1.187815    -1.044997
 C      -2.306957     0.935806    -1.606143
 C      -2.799847    -0.358230    -1.658039
 C      -2.051282    -1.410224    -1.151836
 C      -0.042880    -2.310975     0.017315
 C       1.273238    -2.576256    -0.359935
 C       1.971443    -3.624743     0.224502
 C       1.362897    -4.419133     1.189535
 C       0.049029    -4.163678     1.564910
 C      -0.650956    -3.116095     0.980430
 H      -2.883483     1.764047    -2.003972
 H      -3.773765    -0.546722    -2.097074
 H      -2.432756    -2.424398    -1.195925
 H       1.750880    -1.960294    -1.113720
 H       2.995538    -3.821184    -0.076064
 H       1.910742    -5.237272     1.646286
 H      -0.432203    -4.778492     2.318811
 H      -1.668416    -2.898251     1.289160
 C       0.940471     0.421244     0.181995
 N       2.094887     0.634218     0.049422
 C       0.532522     3.052848    -1.501659
 O       0.905027     4.178125    -1.218574
 C       1.299522     2.259249    -2.527118
 C       0.687607     1.527861    -3.453318
 H       1.259835     1.044496    -4.239824
 H      -0.387921     1.404106    -3.486519
 C       2.779802     2.524846    -2.539332
 H       3.225991     2.297244    -1.568885
 H       3.267555     1.918268    -3.305438
 H       2.959736     3.583388    -2.744798
 N      -0.609407     2.530465    -0.930298
 C      -1.452942     3.432809    -0.143012
 H      -1.979433     2.856517     0.620323
 H      -0.819327     4.184945     0.324729
 H      -2.186074     3.949094    -0.773390
 C       0.556496     0.541096     2.173895
 C       1.441323    -0.527196     2.776800
 C       0.952383     1.965739     2.497097
 H       1.369804    -0.476131     3.870597
 H       1.151765    -1.529000     2.459218
 H       2.477775    -0.346851     2.487163
 H       2.001783     2.121770     2.243418
 H       0.347160     2.689069     1.950150
 H       0.818113     2.145221     3.570956
 C      -0.857627     0.285346     2.282011
 N      -1.992747     0.090744     2.351549
48
  -29709.617457  -29700.596460   25.42   37.02
 C      -0.823264    -1.290179     0.001960
 C      -0.150813    -0.266957    -0.678214
 C      -0.864699     0.759766    -1.305443
 C      -2.252396     0.768897    -1.224707
 C      -2.919025    -0.212227    -0.510471
 C      -2.209677    -1.239486     0.093720
 C      -0.084419    -2.422055     0.623926
 C       0.779898    -3.211865    -0.134554
 C       1.465651    -4.266421     0.453692
 C       1.292526    -4.545323     1.804576
 C       0.424142    -3.768462     2.562992
 C      -0.263908    -2.714803     1.975478
 H      -2.803446     1.560756    -1.719177
 H      -4.001388    -0.185183    -0.440541
 H      -2.731189    -2.024028     0.630643
 H       0.913348    -3.001609    -1.189929
 H       2.136618    -4.872263    -0.146815
 H       1.830051    -5.368683     2.264367
 H       0.283549    -3.980056     3.618139
 H      -0.923880    -2.093153     2.570865
 C       1.323841    -0.258039    -0.715976
 N       2.260331    -0.448032    -1.413132
 C      -0.453016     3.100916    -1.995994
 O      -0.114074     3.840980    -2.903410
 C      -1.135370     3.683460    -0.787169
 C      -0.871806     3.266706     0.445382
 H      -1.311632     3.758802     1.307450
 H      -0.212064     2.436750     0.650426
 C      -2.024643     4.858980    -1.089366
 H      -2.446393     5.266911    -0.168439
 H      -1.457077     5.635153    -1.608539
 H      -2.846611     4.570258    -1.754141
 N      -0.176527     1.750338    -2.063562
 C       0.456433     1.306862    -3.313388
 H       0.591915     0.227809    -3.278221
 H      -0.172209     1.573274    -4.168025
 H       1.429462     1.783450    -3.432234
 C       2.079187     0.334537     1.086454
 C       3.008924    -0.789073     1.485540
 C       2.760619     1.635436     0.718627
 H       3.720922    -0.976943     0.680327
 H       3.564527    -0.490587     2.383434
 H       2.466583    -1.708699     1.706141
 H       3.218063     2.073043     1.614390
 H       3.542838     1.441813    -0.016851
 H       2.060914     2.361801     0.302361
 C       0.936249     0.488897     1.948311
 N       0.018641     0.618961     2.635280
48
  -29709.617457  -29700.596433   25.42   37.04
 C      -0.173504    -1.523006     0.045524
 C       0.054664    -0.341565    -0.671384
 C      -0.961799     0.229558    -1.444582
 C      -2.213181    -0.375000    -1.473917
 C      -2.458342    -1.514551    -0.726624
 C      -1.443141    -2.089272     0.023405
 C       0.911796    -2.177363     0.825150
 C       0.729595    -2.454027     2.179724
 C       1.739180    -3.062645     2.913962
 C       2.938070    -3.408222     2.300744
 C       3.120573    -3.146739     0.947613
 C       2.112728    -2.536334     0.212744
 H      -2.996349     0.064749    -2.080931
 H      -3.443871    -1.967925    -0.744434
 H      -1.625075    -2.997013     0.587919
 H      -0.197330    -2.162533     2.661739
 H       1.589106    -3.263676     3.969868
 H       3.726790    -3.883842     2.875175
 H       4.050965    -3.419454     0.459917
 H       2.257036    -2.339686    -0.843824
 C       1.371000     0.319810    -0.594259
 N       2.367230     0.532430    -1.195471
 C      -1.541602     2.473591    -2.313727
 O      -1.462037     3.242657    -3.256164
 C      -2.539531     2.749541    -1.220927
 C      -2.258785     2.553283     0.061645
 H      -2.962207     2.839441     0.837581
 H      -1.329710     2.114058     0.393357
 C      -3.813818     3.391143    -1.698957
 H      -3.589305     4.312689    -2.241602
 H      -4.347214     2.735473    -2.396458
 H      -4.470832     3.612914    -0.855432
 N      -0.696704     1.385032    -2.234620
 C       0.200903     1.209555    -3.384786
 H       0.874143     2.062472    -3.470379
 H       0.789682     0.306071    -3.239849
 H      -0.381706     1.127664    -4.306972
 C       1.585922     1.272151     1.199435
 C       2.862672     0.699211     1.772001
 C       1.666100     2.720994     0.767682
 H       3.128404     1.256316     2.679206
 H       2.756235    -0.353800     2.033435
 H       3.669612     0.808653     1.045726
 H       0.770236     3.039944     0.232736
 H       1.783610     3.358767     1.652319
 H       2.530490     2.859928     0.116674
 C       0.402715     0.943889     1.951229
 N      -0.549356     0.685587     2.549301
48
  -29709.595885  -29700.579453   38.95   47.69
 C      -0.603332    -1.142773    -0.625361
 C      -0.068590     0.129788    -0.392972
 C      -0.518002     1.226054    -1.130820
 C      -1.508166     1.051814    -2.088666
 C      -2.052266    -0.202368    -2.313393
 C      -1.603367    -1.290687    -1.581693
 C      -0.121726    -2.341330     0.111607
 C       1.222593    -2.710822     0.076578
 C       1.658227    -3.835855     0.764258
 C       0.754785    -4.605655     1.488371
 C      -0.588246    -4.247461     1.518406
 C      -1.025275    -3.122235     0.831376
 H      -1.851451     1.914402    -2.650091
 H      -2.828628    -0.330713    -3.060305
 H      -2.016634    -2.277589    -1.758919
 H       1.928788    -2.116248    -0.492471
 H       2.707064    -4.112861     0.731908
 H       1.096318    -5.484352     2.026286
 H      -1.298819    -4.843011     2.082529
 H      -2.068533    -2.826527     0.871312
 C       0.991584     0.331150     0.614830
 N       2.144507     0.561295     0.739407
 C       0.664322     3.258511    -1.832239
 O       0.735176     4.473024    -1.769125
 C       1.335502     2.515401    -2.956776
 C       2.146087     1.492121    -2.713548
 H       2.696405     1.017254    -3.520829
 H       2.320893     1.121010    -1.710078
 C       1.118555     3.114531    -4.318657
 H       1.395824     4.172050    -4.307395
 H       1.711616     2.590138    -5.070806
 H       0.062877     3.062227    -4.609201
 N      -0.011151     2.537664    -0.874477
 C      -0.714151     3.318737     0.145875
 H      -0.002399     3.932597     0.699426
 H      -1.455003     3.983747    -0.310179
 H      -1.223458     2.631672     0.822118
 C       0.229894     0.214525     2.514997
 C       0.926275    -0.978709     3.129129
 C       0.629216     1.540373     3.126307
 H       0.596672    -1.922135     2.698211
 H       2.004730    -0.879050     2.992930
 H       0.713968    -0.995458     4.205503
 H       1.713276     1.651998     3.077481
 H       0.163490     2.387258     2.625118
 H       0.321462     1.554602     4.179213
 C      -1.184863     0.059695     2.301206
 N      -2.316743    -0.053896     2.107864
48
  -29709.587940  -29700.574146   43.94   51.02
 C      -1.040668     1.673113     0.260372
 C      -0.731684     0.374549    -0.158115
 C      -1.290217    -0.143480    -1.325723
 C      -2.120396     0.643069    -2.107297
 C      -2.400788     1.945150    -1.719573
 C      -1.872222     2.450226    -0.541212
 C      -0.517541     2.222263     1.538837
 C       0.163161     3.439294     1.553881
 C       0.654246     3.954002     2.746474
 C       0.464821     3.261983     3.937419
 C      -0.222469     2.053623     3.930628
 C      -0.712456     1.536758     2.738464
 H      -2.526581     0.231518    -3.024661
 H      -3.042820     2.565971    -2.335463
 H      -2.110933     3.459954    -0.225332
 H       0.332100     3.963990     0.619730
 H       1.190884     4.897377     2.743896
 H       0.849221     3.665112     4.869073
 H      -0.379556     1.510162     4.856803
 H      -1.253451     0.596809     2.737920
 C       0.211569    -0.474765     0.595040
 N       0.281163    -1.456657     1.252052
 C       0.033789    -1.761745    -2.499307
 O       0.657825    -0.864571    -3.041940
 C       0.471451    -3.190980    -2.687784
 C       0.777451    -3.935594    -1.631145
 H       1.193415    -4.931829    -1.751505
 H       0.647220    -3.569964    -0.617310
 C       0.685370    -3.607875    -4.115156
 H      -0.257145    -3.595034    -4.674189
 H       1.360673    -2.902719    -4.607559
 H       1.107213    -4.613819    -4.166273
 N      -1.035496    -1.505130    -1.688356
 C      -1.954922    -2.499633    -1.145385
 H      -2.968932    -2.093399    -1.189722
 H      -1.916403    -3.407660    -1.744930
 H      -1.716752    -2.745577    -0.105457
 C       2.114916     0.205374     0.330610
 C       2.589250     0.490561     1.738615
 C       2.807384    -0.955175    -0.350435
 H       2.052366     1.321873     2.194859
 H       2.459714    -0.401399     2.354259
 H       3.656778     0.741896     1.708790
 H       3.879182    -0.730758    -0.421985
 H       2.683600    -1.859969     0.246797
 H       2.424709    -1.119720    -1.356703
 C       1.979592     1.373341    -0.503170
 N       1.873784     2.314613    -1.160634
48
  -29709.544521  -29700.565248   71.18   56.60
 C      -0.848098    -1.070689    -0.595671
 C      -0.274516     0.201916    -0.489872
 C      -0.988365     1.335735    -0.883823
 C      -2.293067     1.198501    -1.342316
 C      -2.871777    -0.056451    -1.435784
 C      -2.149706    -1.183975    -1.073245
 C      -0.118480    -2.285733    -0.145482
 C       1.145309    -2.599773    -0.644186
 C       1.814272    -3.730524    -0.194485
 C       1.227972    -4.559218     0.755322
 C      -0.034433    -4.254798     1.251334
 C      -0.705016    -3.124509     0.802114
 H      -2.843513     2.086526    -1.633397
 H      -3.890310    -0.156345    -1.795477
 H      -2.597569    -2.168573    -1.151249
 H       1.605296    -1.956765    -1.386265
 H       2.798051    -3.964351    -0.588458
 H       1.752941    -5.441886     1.106565
 H      -0.497770    -4.896133     1.994269
 H      -1.679834    -2.869995     1.205825
 C       1.047839     0.360345     0.139929
 N       2.207374     0.493908    -0.043756
 C       0.679447     3.086987    -1.428911
 O       1.220159     4.129357    -1.109031
 C       1.165052     2.292522    -2.617046
 C       2.479791     2.184683    -2.766599
 H       2.910888     1.658102    -3.613194
 H       3.159086     2.611827    -2.038307
 C       0.182593     1.746601    -3.626695
 H       0.687957     1.615779    -4.586141
 H      -0.231093     0.779463    -3.329625
 H      -0.658309     2.431242    -3.774849
 N      -0.431729     2.634674    -0.745097
 C      -1.085677     3.537354     0.202412
 H      -1.548763     2.951874     0.999350
 H      -0.335494     4.209798     0.616366
 H      -1.855987     4.143892    -0.288174
 C       0.800486     0.354635     2.158982
 C       1.640635    -0.813366     2.626374
 C       1.319664     1.720038     2.555479
 H       2.668380    -0.681999     2.284541
 H       1.637504    -0.840043     3.723378
 H       1.261992    -1.766709     2.257799
 H       0.742007     2.522857     2.097216
 H       1.259451     1.829585     3.645298
 H       2.361847     1.819041     2.249140
 C      -0.618775     0.186964     2.344783
 N      -1.758186     0.060929     2.475590
48
  -29709.544521  -29700.564840   71.18   56.86
 C       0.614144    -1.329424    -0.724504
 C      -0.181289    -0.197616    -0.510036
 C      -1.539759    -0.214813    -0.833409
 C      -2.110739    -1.380262    -1.330400
 C      -1.332403    -2.508244    -1.531410
 C       0.023177    -2.478972    -1.238699
 C       2.053367    -1.343110    -0.350634
 C       2.525600    -2.327298     0.517627
 C       3.861900    -2.348812     0.895612
 C       4.739862    -1.388258     0.406852
 C       4.276042    -0.409242    -0.464361
 C       2.940146    -0.386073    -0.842761
 H      -3.169389    -1.387295    -1.566031
 H      -1.784441    -3.414306    -1.920615
 H       0.636721    -3.358381    -1.400885
 H       1.832034    -3.060363     0.917141
 H       4.216389    -3.115188     1.577484
 H       5.784092    -1.403969     0.702493
 H       4.956909     0.341465    -0.852395
 H       2.582557     0.378227    -1.523720
 C       0.389496     0.983786     0.159939
 N       0.855476     2.059672     0.013506
 C      -2.223882     2.138334    -1.207264
 O      -2.827277     3.112871    -0.798097
 C      -1.356991     2.222316    -2.440168
 C      -0.601405     3.306571    -2.566606
 H       0.025781     3.459507    -3.440166
 H      -0.582831     4.064693    -1.792520
 C      -1.443225     1.159710    -3.510715
 H      -0.808394     0.295939    -3.297092
 H      -2.467851     0.792854    -3.626341
 H      -1.123928     1.583857    -4.465279
 N      -2.364622     0.913890    -0.584549
 C      -3.422780     0.753705     0.412886
 H      -3.114138     0.011243     1.151684
 H      -3.595053     1.715264     0.894607
 H      -4.362670     0.428509    -0.048419
 C       0.375889     0.650862     2.166585
 C       1.831875     0.755145     2.563794
 C      -0.511596     1.765899     2.676629
 H       1.911578     0.675215     3.655305
 H       2.438430    -0.031936     2.115825
 H       2.224111     1.725761     2.256513
 H      -0.082207     2.730482     2.402781
 H      -1.519679     1.702109     2.266865
 H      -0.578549     1.706159     3.769917
 C      -0.192792    -0.665924     2.306692
 N      -0.657661    -1.717663     2.401540
48
  -29709.537983  -29700.545547   75.29   68.97
 C      -1.218009     0.664467    -0.531342
 C      -0.031825    -0.050951    -0.336307
 C       0.322258    -1.077022    -1.216424
 C      -0.501345    -1.377470    -2.293294
 C      -1.669391    -0.660662    -2.500444
 C      -2.020141     0.356362    -1.626815
 C      -1.657259     1.728473     0.410438
 C      -1.905079     3.016124    -0.063046
 C      -2.324745     4.014422     0.806732
 C      -2.505812     3.733643     2.156283
 C      -2.269155     2.448735     2.631746
 C      -1.849574     1.449623     1.763271
 H      -0.212854    -2.177028    -2.967016
 H      -2.306590    -0.896006    -3.346382
 H      -2.937775     0.914588    -1.776931
 H      -1.740775     3.236977    -1.112649
 H      -2.506234     5.015533     0.429096
 H      -2.832671     4.514307     2.835850
 H      -2.413635     2.221491     3.683100
 H      -1.670702     0.447175     2.136550
 C       0.843240     0.232924     0.818950
 N       1.207284    -0.201281     1.856624
 C       1.578053    -3.157916    -0.865856
 O       2.586557    -3.789084    -1.122509
 C       0.341014    -3.833780    -0.326911
 C       0.005932    -4.990332    -0.888916
 H      -0.855852    -5.556951    -0.548596
 H       0.593723    -5.404561    -1.701265
 C      -0.404979    -3.232828     0.838479
 H       0.280972    -2.778180     1.558734
 H      -1.104951    -2.455134     0.522333
 H      -0.977162    -4.012911     1.345265
 N       1.545610    -1.791217    -1.042566
 C       2.735273    -1.194175    -1.653604
 H       2.936028    -1.641178    -2.632499
 H       2.563225    -0.125204    -1.780964
 H       3.605773    -1.363172    -1.018466
 C       1.849901     2.002790     0.566620
 C       1.349342     2.889079     1.684849
 C       3.302208     1.600129     0.709313
 H       0.316172     3.199268     1.542157
 H       1.437819     2.359810     2.635372
 H       1.978178     3.787071     1.730095
 H       3.927127     2.500434     0.660121
 H       3.454098     1.122115     1.678018
 H       3.625901     0.919623    -0.076248
 C       1.473852     2.414369    -0.760334
 N       1.166589     2.720498    -1.829573
48
  -29709.580979  -29700.545357   48.31   69.09
 C       0.673891    -1.524858    -0.127180
 C       0.279736    -0.321122    -0.723820
 C      -0.952646    -0.221728    -1.383104
 C      -1.791690    -1.330316    -1.421289
 C      -1.428268    -2.505643    -0.783151
 C      -0.201873    -2.605462    -0.145722
 C       2.003950    -1.667602     0.524401
 C       2.090308    -2.094009     1.849296
 C       3.328207    -2.227624     2.464479
 C       4.492799    -1.944589     1.759950
 C       4.413632    -1.532076     0.434757
 C       3.176402    -1.395860    -0.180925
 H      -2.734212    -1.261902    -1.949791
 H      -2.100524    -3.356940    -0.804292
 H       0.096443    -3.533795     0.328547
 H       1.179940    -2.292125     2.404622
 H       3.381791    -2.550264     3.499298
 H       5.460049    -2.049237     2.241344
 H       5.318396    -1.315882    -0.124268
 H       3.119573    -1.079798    -1.216605
 C       1.163930     0.856117    -0.638247
 N       1.905912     1.538578    -1.256934
 C      -2.584426     1.532026    -1.988667
 O      -2.935579     2.343953    -2.824458
 C      -3.514984     1.130214    -0.869514
 C      -4.764677     0.841098    -1.216366
 H      -5.507205     0.564553    -0.473973
 H      -5.079758     0.884308    -2.253817
 C      -3.039934     1.154735     0.557714
 H      -3.879830     0.963753     1.228664
 H      -2.268971     0.411217     0.761381
 H      -2.624185     2.135285     0.809164
 N      -1.316136     0.984611    -2.046115
 C      -0.525200     1.368990    -3.223450
 H       0.409902     0.812936    -3.221097
 H      -1.085641     1.145976    -4.135459
 H      -0.304457     2.436311    -3.200410
 C       1.092414     1.670166     1.232702
 C       2.535317     1.699292     1.683338
 C       0.478288     3.022622     0.942586
 H       2.931867     0.697270     1.848426
 H       3.142206     2.205766     0.931193
 H       2.604197     2.258618     2.624900
 H       1.144761     3.594188     0.295067
 H      -0.490416     2.929991     0.450344
 H       0.339969     3.572172     1.881749
 C       0.253350     0.789392     2.002195
 N      -0.412049     0.080668     2.623329
48
  -29709.580982  -29700.545330   48.30   69.10
 C      -0.790884    -1.217444    -0.295947
 C       0.060266    -0.198835    -0.741246
 C      -0.439834     0.868180    -1.499320
 C      -1.799399     0.914606    -1.788903
 C      -2.652714    -0.062703    -1.301656
 C      -2.152394    -1.124912    -0.565643
 C      -0.268738    -2.389133     0.458049
 C       0.743089    -3.187371    -0.075799
 C       1.224302    -4.279285     0.634494
 C       0.697439    -4.587365     1.883522
 C      -0.318857    -3.802064     2.415679
 C      -0.802624    -2.711102     1.705420
 H      -2.183592     1.726328    -2.393754
 H      -3.714088    -0.004233    -1.518795
 H      -2.814598    -1.905899    -0.208892
 H       1.152633    -2.954373    -1.052397
 H       2.013005    -4.891464     0.209016
 H       1.075113    -5.439947     2.439157
 H      -0.735381    -4.036218     3.390102
 H      -1.579322    -2.083908     2.129415
 C       1.491999    -0.242885    -0.390252
 N       2.573505    -0.453112    -0.820594
 C       0.151769     3.215190    -1.995972
 O       0.755998     3.973782    -2.731167
 C      -0.902362     3.739003    -1.050279
 C      -1.781068     4.594630    -1.561560
 H      -2.559453     5.038631    -0.948409
 H      -1.736947     4.881288    -2.607183
 C      -0.872051     3.359092     0.405056
 H      -1.624210     3.932116     0.950924
 H      -1.068079     2.299575     0.571407
 H       0.105586     3.584115     0.842266
 N       0.442841     1.863605    -2.006290
 C       1.414359     1.444066    -3.025906
 H       2.392411     1.879349    -2.820060
 H       1.498531     0.359471    -3.012495
 H       1.082655     1.776950    -4.013199
 C       1.765409     0.277595     1.564896
 C       2.526428    -0.886017     2.158802
 C       2.555046     1.560623     1.420759
 H       3.414485    -1.086178     1.557267
 H       2.843234    -0.623654     3.176117
 H       1.917358    -1.788774     2.210036
 H       3.509874     1.348608     0.937533
 H       2.019759     2.300372     0.824506
 H       2.747361     1.986902     2.412964
 C       0.442130     0.451753     2.103882
 N      -0.617477     0.583899     2.540490
48
  -29709.503459  -29700.544785   96.95   69.45
 C      -0.568073    -1.693068    -0.455308
 C      -0.065733    -0.397272    -0.640051
 C      -0.890658     0.627602    -1.097133
 C      -2.231733     0.372628    -1.351228
 C      -2.743678    -0.899059    -1.151461
 C      -1.916513    -1.924119    -0.713129
 C       0.289499    -2.804665     0.036694
 C       1.506546    -3.109813    -0.573337
 C       2.296441    -4.143507    -0.088284
 C       1.880178    -4.890069     1.007848
 C       0.661848    -4.603403     1.612250
 C      -0.128324    -3.569314     1.127176
 H      -2.867026     1.182164    -1.690727
 H      -3.792959    -1.094732    -1.345814
 H      -2.314139    -2.924453    -0.578206
 H       1.835100    -2.537821    -1.433076
 H       3.242411    -4.366089    -0.571361
 H       2.500014    -5.696832     1.385782
 H       0.325054    -5.185308     2.464430
 H      -1.076141    -3.343117     1.606473
 C       1.335507    -0.079576    -0.319913
 N       2.417567     0.046009    -0.776754
 C      -0.815913     2.965104    -0.550924
 O      -1.617043     2.782820     0.350759
 C      -0.335672     4.358232    -0.862904
 C       0.938832     4.697582    -0.715910
 H       1.256954     5.726036    -0.861459
 H       1.695021     3.986017    -0.403857
 C      -1.437950     5.320539    -1.213260
 H      -1.044710     6.331652    -1.337834
 H      -1.941108     5.025508    -2.141740
 H      -2.194267     5.321412    -0.422809
 N      -0.352489     1.932840    -1.325737
 C       0.506624     2.117064    -2.498521
 H       1.555129     2.244026    -2.223372
 H       0.420867     1.226625    -3.122846
 H       0.177075     2.982747    -3.076730
 C       1.436369     0.296146     1.697871
 C       0.033364     0.253808     2.261339
 C       2.396433    -0.766281     2.187097
 H       0.083220     0.483728     3.334080
 H      -0.626187     0.985059     1.791032
 H      -0.393420    -0.744776     2.155985
 H       1.961397    -1.760567     2.073042
 H       3.337446    -0.723601     1.637543
 H       2.604624    -0.600813     3.251723
 C       2.011020     1.619004     1.663746
 N       2.476031     2.672731     1.631686
48
  -29709.537985  -29700.544785   75.29   69.45
 C       0.439198    -1.375376     0.057742
 C      -0.113666    -0.096044    -0.062875
 C      -1.484847     0.097049     0.125206
 C      -2.296643    -0.983504     0.444010
 C      -1.751204    -2.250313     0.580919
 C      -0.391366    -2.441069     0.393699
 C       1.883801    -1.632676    -0.184965
 C       2.470725    -1.310355    -1.408292
 C       3.818434    -1.563943    -1.627142
 C       4.590771    -2.146669    -0.628650
 C       4.008201    -2.478631     0.589267
 C       2.660376    -2.225526     0.809575
 H      -3.358981    -0.817284     0.586248
 H      -2.389123    -3.090167     0.835331
 H       0.040622    -3.431256     0.489180
 H       1.869990    -0.860297    -2.191107
 H       4.265698    -1.307170    -2.582067
 H       5.644312    -2.343577    -0.800013
 H       4.605496    -2.932393     1.373558
 H       2.207464    -2.462303     1.766782
 C       0.726908     1.061346    -0.430051
 N       0.960030     1.818033    -1.308060
 C      -3.050162     1.708817    -0.865775
 O      -3.787502     2.657317    -0.670851
 C      -3.180499     0.849654    -2.099614
 C      -4.415854     0.530952    -2.471190
 H      -4.604400    -0.064389    -3.359765
 H      -5.273079     0.867014    -1.897411
 C      -1.952899     0.456680    -2.883419
 H      -1.216481     1.264976    -2.901943
 H      -1.458739    -0.422125    -2.461245
 H      -2.237751     0.219857    -3.910808
 N      -2.052025     1.403576     0.034625
 C      -2.024082     2.206722     1.259093
 H      -1.854805     3.255879     1.013453
 H      -2.975357     2.131780     1.795593
 H      -1.225026     1.836171     1.901525
 C       1.924401     1.631480     1.135336
 C       3.334667     1.404857     0.639063
 C       1.571729     3.090841     1.329182
 H       4.035026     1.862657     1.348844
 H       3.580555     0.349022     0.545415
 H       3.461398     1.890871    -0.330050
 H       0.536502     3.233245     1.634140
 H       2.218431     3.512270     2.108711
 H       1.745934     3.634190     0.399461
 C       1.503492     0.769653     2.208508
 N       1.144121     0.075259     3.057076
48
  -29709.546723  -29700.544758   69.80   69.46
 C      -0.951437     1.675421     0.366999
 C      -0.628890     0.453424    -0.233429
 C      -0.995460     0.198727    -1.554400
 C      -1.626444     1.180122    -2.301608
 C      -1.906360     2.411654    -1.727942
 C      -1.583040     2.649808    -0.400846
 C      -0.655533     1.938512     1.799837
 C      -1.095417     1.056595     2.787692
 C      -0.820174     1.306129     4.125770
 C      -0.105301     2.440906     4.491456
 C       0.327428     3.328216     3.512378
 C       0.051227     3.080932     2.174127
 H      -1.882407     0.972212    -3.334719
 H      -2.392342     3.183739    -2.314998
 H      -1.828883     3.601238     0.058048
 H      -1.659139     0.173726     2.506806
 H      -1.166790     0.611748     4.884412
 H       0.111274     2.635177     5.537210
 H       0.886836     4.215771     3.790330
 H       0.409946     3.758038     1.406495
 C       0.134657    -0.582139     0.489631
 N       0.054033    -1.673051     0.941655
 C       0.385747    -1.318133    -2.816185
 O       1.211553    -0.440525    -2.995267
 C       0.621617    -2.726544    -3.305256
 C       0.366022    -3.039922    -4.568374
 H       0.557613    -4.037384    -4.952718
 H      -0.029991    -2.306916    -5.264626
 C       1.213102    -3.664381    -2.288428
 H       0.641395    -3.651714    -1.354248
 H       1.247876    -4.685786    -2.673316
 H       2.232455    -3.351247    -2.041408
 N      -0.772777    -1.094533    -2.126240
 C      -1.804183    -2.095476    -1.875550
 H      -1.776819    -2.438823    -0.836176
 H      -2.785636    -1.657246    -2.079428
 H      -1.662025    -2.946129    -2.540277
 C       2.071207     0.014305     0.702282
 C       2.290952    -0.007241     2.198739
 C       2.839311    -1.035735    -0.069976
 H       2.023972    -0.990106     2.591269
 H       3.353561     0.173505     2.403351
 H       1.706554     0.755018     2.713251
 H       3.913063    -0.872058     0.086376
 H       2.581550    -2.027781     0.304892
 H       2.633147    -0.973870    -1.137929
 C       2.129035     1.325323     0.105647
 N       2.180518     2.377523    -0.363002
48
  -29709.503459  -29700.544758   96.95   69.46
 C      -0.830270    -1.607156     0.394372
 C      -0.345550    -0.522550    -0.350104
 C      -1.215847     0.441780    -0.852494
 C      -2.576866     0.344092    -0.595289
 C      -3.064224    -0.711831     0.157496
 C      -2.198085    -1.682197     0.642538
 C       0.077487    -2.648171     0.947014
 C       0.005892    -2.979435     2.301102
 C       0.852355    -3.938579     2.841983
 C       1.779481    -4.584064     2.032296
 C       1.846680    -4.271248     0.679609
 C       1.000464    -3.312513     0.138795
 H      -3.241773     1.109504    -0.977714
 H      -4.127397    -0.783328     0.361462
 H      -2.584096    -2.520169     1.213307
 H      -0.712158    -2.471600     2.938092
 H       0.787635    -4.181050     3.898048
 H       2.442864    -5.333053     2.452815
 H       2.561930    -4.776495     0.038586
 H       1.054338    -3.080263    -0.918291
 C       1.097720    -0.356196    -0.586978
 N       1.969763    -0.547869    -1.360367
 C      -0.829250     2.792042    -1.159880
 O      -1.291420     3.015449    -0.053276
 C      -0.402294     3.934693    -2.043519
 C       0.864823     4.090694    -2.405839
 H       1.173849     4.965186    -2.971404
 H       1.640018     3.389458    -2.117911
 C      -1.500942     4.917435    -2.345172
 H      -1.946559     5.273190    -1.411532
 H      -1.114887     5.769456    -2.908667
 H      -2.302732     4.448678    -2.927996
 N      -0.711650     1.516631    -1.650018
 C      -0.285962     1.205613    -3.017310
 H      -0.738977     1.905035    -3.722919
 H       0.799654     1.234918    -3.125877
 H      -0.627882     0.197609    -3.256161
 C       1.889340     0.575690     1.064566
 C       0.755834     0.929053     2.001589
 C       2.895447    -0.436299     1.567999
 H       1.174873     1.453529     2.870758
 H       0.019797     1.586024     1.535154
 H       0.262142     0.026676     2.365457
 H       3.599149    -0.710348     0.781210
 H       3.456944    -0.000599     2.404084
 H       2.391312    -1.335885     1.925020
 C       2.493975     1.718384     0.424271
 N       2.981022     2.625918    -0.092212
48
  -29709.482310  -29700.526581  110.22   80.87
 C      -1.107555    -1.374591     0.347044
 C      -0.568766    -0.187683    -0.156907
 C      -1.368718     0.944909    -0.299972
 C      -2.702689     0.903576     0.071889
 C      -3.240479    -0.266090     0.589416
 C      -2.448535    -1.395624     0.722124
 C      -0.268331    -2.588237     0.524249
 C       0.460862    -3.120887    -0.538923
 C       1.254161    -4.244929    -0.350434
 C       1.325792    -4.849633     0.899470
 C       0.595523    -4.327550     1.960996
 C      -0.198888    -3.203669     1.773954
 H      -3.316205     1.789469    -0.052459
 H      -4.284378    -0.297316     0.883057
 H      -2.869363    -2.314367     1.115951
 H       0.403972    -2.652837    -1.515437
 H       1.818271    -4.649641    -1.184584
 H       1.947367    -5.727418     1.045322
 H       0.647660    -4.793304     2.940015
 H      -0.750426    -2.778116     2.606225
 C       0.867333    -0.083493    -0.472299
 N       1.668440    -0.061161    -1.342048
 C      -0.539640     2.240927    -2.139343
 O      -0.752352     1.314891    -2.895353
 C       0.091693     3.513503    -2.646255
 C      -0.639855     4.596807    -2.871514
 H      -0.201246     5.494371    -3.297362
 H      -1.705041     4.620632    -2.661655
 C       1.557600     3.383877    -2.949671
 H       2.118244     3.107841    -2.049606
 H       1.715075     2.582419    -3.677326
 H       1.961115     4.317616    -3.346690
 N      -0.803795     2.160283    -0.793261
 C      -0.733201     3.291334     0.126782
 H       0.124488     3.919243    -0.115470
 H      -1.634952     3.914246     0.093341
 H      -0.615861     2.906480     1.141807
 C       1.898084     0.187747     1.257759
 C       2.819795    -1.009299     1.333948
 C       2.596722     1.511163     1.026059
 H       2.273374    -1.942039     1.470902
 H       3.407414    -1.072672     0.416421
 H       3.506436    -0.880955     2.180124
 H       3.221816     1.750600     1.895025
 H       3.234553     1.437559     0.143972
 H       1.886014     2.325903     0.882033
 C       0.879786     0.239087     2.276073
 N       0.052175     0.296057     3.077902
48
  -29709.527822  -29700.525003   81.66   81.86
 C      -0.829155     1.806084    -0.871998
 C      -0.671000     0.513660    -0.352816
 C      -0.851366    -0.605803    -1.162424
 C      -1.167291    -0.440644    -2.504134
 C      -1.303854     0.832553    -3.033483
 C      -1.141594     1.946504    -2.221356
 C      -0.638055     3.016133    -0.027111
 C      -1.317451     3.173442     1.181256
 C      -1.115862     4.305520     1.959247
 C      -0.238018     5.298189     1.539596
 C       0.431357     5.157354     0.329747
 C       0.229079     4.025254    -0.448854
 H      -1.289312    -1.318216    -3.128884
 H      -1.545537     0.957210    -4.083743
 H      -1.269499     2.942895    -2.631096
 H      -2.008713     2.407469     1.512509
 H      -1.648936     4.411262     2.898605
 H      -0.081018     6.181697     2.150059
 H       1.113454     5.930457    -0.009741
 H       0.758302     3.915437    -1.390733
 C      -0.275135     0.318799     1.050760
 N      -0.679490     0.101468     2.138952
 C       0.358041    -2.668625    -1.031395
 O       1.273018    -2.168527    -1.664026
 C       0.385049    -4.143853    -0.722162
 C      -0.601237    -4.929956    -1.140241
 H      -0.550848    -6.007375    -1.014410
 H      -1.478015    -4.535048    -1.643483
 C       1.648105    -4.641119    -0.079821
 H       1.635297    -5.730253    -0.002269
 H       2.509464    -4.328484    -0.676336
 H       1.778341    -4.204776     0.914654
 N      -0.719329    -1.923809    -0.621229
 C      -1.795021    -2.406375     0.241696
 H      -1.416108    -3.172199     0.916098
 H      -2.164425    -1.575700     0.842985
 H      -2.626989    -2.820226    -0.338873
 C       1.774620     0.466850     1.138364
 C       2.299726     0.777198    -0.245097
 C       1.981909     1.532174     2.191278
 H       2.037627     0.003145    -0.967504
 H       1.933476     1.746179    -0.585821
 H       3.395326     0.835960    -0.192234
 H       3.056419     1.647727     2.381874
 H       1.590390     2.491094     1.845337
 H       1.487331     1.261407     3.124477
 C       2.066062    -0.872164     1.588269
 N       2.285540    -1.944758     1.947528
48
  -29709.527822  -29700.524921   81.66   81.91
 C       0.222429    -1.849937    -0.485210
 C       0.197639    -0.465987    -0.706553
 C      -0.908485     0.140738    -1.297741
 C      -2.008954    -0.628920    -1.649690
 C      -2.004677    -1.994464    -1.414836
 C      -0.894620    -2.600105    -0.842353
 C       1.391338    -2.519001     0.147702
 C       1.199527    -3.346924     1.254891
 C       2.277675    -3.971549     1.868263
 C       3.563640    -3.781241     1.376621
 C       3.761607    -2.971380     0.264396
 C       2.683885    -2.346349    -0.348271
 H      -2.870881    -0.144193    -2.094047
 H      -2.868880    -2.591415    -1.686496
 H      -0.882976    -3.672451    -0.678094
 H       0.196725    -3.492796     1.645249
 H       2.112273    -4.607803     2.731987
 H       4.407794    -4.267791     1.854715
 H       4.761408    -2.823952    -0.131088
 H       2.846175    -1.722072    -1.219034
 C       1.327853     0.375671    -0.283574
 N       2.321165     0.900069    -0.648593
 C      -1.773331     2.318271    -0.802509
 O      -2.350998     1.863900     0.170804
 C      -2.028948     3.743359    -1.222543
 C      -2.498006     4.005388    -2.437793
 H      -2.781895     5.013831    -2.723538
 H      -2.640465     3.226448    -3.180019
 C      -1.873233     4.769309    -0.137016
 H      -0.835331     4.822473     0.203968
 H      -2.192767     5.751997    -0.490025
 H      -2.474927     4.479909     0.728849
 N      -0.917178     1.549126    -1.550204
 C      -0.091278     2.039317    -2.651230
 H       0.172867     3.081823    -2.483018
 H       0.829120     1.456643    -2.688283
 H      -0.604862     1.950966    -3.615029
 C       1.055037     0.817830     1.706691
 C      -0.197837     0.124492     2.192131
 C       2.357977     0.363532     2.325130
 H      -1.083847     0.443368     1.641594
 H      -0.086615    -0.958345     2.126955
 H      -0.344773     0.380307     3.250224
 H       3.208714     0.848234     1.845450
 H       2.360674     0.620599     3.391975
 H       2.466147    -0.719238     2.233485
 C       0.924157     2.249538     1.591009
 N       0.820937     3.392255     1.484972
48
  -29709.480592  -29700.518336  111.30   86.04
 C       1.290736    -0.911855    -0.450577
 C       0.114160    -0.172690    -0.264422
 C      -1.094773    -0.617049    -0.808062
 C      -1.136405    -1.828947    -1.486200
 C       0.014943    -2.584322    -1.643133
 C       1.219522    -2.124805    -1.132855
 C       2.616779    -0.420176     0.015333
 C       3.445241    -1.249036     0.773174
 C       4.687496    -0.803943     1.206124
 C       5.122645     0.474371     0.876454
 C       4.312701     1.298609     0.104037
 C       3.069798     0.854329    -0.326909
 H      -2.082439    -2.167728    -1.895006
 H      -0.025243    -3.527988    -2.177092
 H       2.129426    -2.695061    -1.287087
 H       3.109286    -2.248789     1.032802
 H       5.317329    -1.458346     1.800385
 H       6.093231     0.823775     1.213630
 H       4.649313     2.293951    -0.167449
 H       2.449281     1.499563    -0.937592
 C       0.131579     1.114824     0.452200
 N       0.075700     2.284337     0.297988
 C      -2.971389     0.628051    -1.764201
 O      -4.150413     0.923488    -1.692289
 C      -2.221433     0.808851    -3.057803
 C      -1.081578     1.489244    -3.090165
 H      -0.587164     1.701453    -4.033785
 H      -0.626005     1.888764    -2.190514
 C      -2.936659     0.298284    -4.277135
 H      -2.389665     0.560429    -5.185135
 H      -3.049825    -0.791483    -4.241711
 H      -3.942924     0.723615    -4.321064
 N      -2.286694     0.154775    -0.668576
 C      -3.058059     0.010543     0.567789
 H      -3.475284     0.972489     0.863730
 H      -3.877127    -0.703406     0.436698
 H      -2.397128    -0.341770     1.357159
 C       0.288815     0.775058     2.489592
 C       0.332452    -0.717896     2.730203
 C       1.528108     1.550110     2.875991
 H      -0.515698    -1.240393     2.285156
 H       1.256286    -1.144451     2.341893
 H       0.305123    -0.899940     3.812555
 H       1.626428     1.546652     3.968861
 H       2.419672     1.089493     2.448213
 H       1.460631     2.583885     2.536008
 C      -0.933904     1.396040     2.940519
 N      -1.906475     1.883336     3.320703
48
  -29709.493959  -29700.517220  102.91   86.74
 C       0.259365    -1.495727     0.987646
 C      -0.194623    -0.394791     0.256841
 C      -1.460956     0.138034     0.489740
 C      -2.272281    -0.411403     1.469645
 C      -1.820871    -1.491596     2.214356
 C      -0.567631    -2.031460     1.971221
 C       1.611668    -2.067237     0.757678
 C       2.016314    -2.465296    -0.516615
 C       3.290511    -2.978955    -0.718463
 C       4.172568    -3.102389     0.349149
 C       3.772355    -2.714273     1.622677
 C       2.497806    -2.201357     1.826341
 H      -3.260384     0.001939     1.639384
 H      -2.455757    -1.920233     2.982552
 H      -0.219836    -2.884235     2.543937
 H       1.328882    -2.372894    -1.350196
 H       3.594581    -3.283892    -1.714633
 H       5.168768    -3.502671     0.189481
 H       4.455978    -2.806163     2.460704
 H       2.190753    -1.873496     2.814344
 C       0.680603     0.282610    -0.715083
 N       0.913340     0.440736    -1.864000
 C      -2.298526     1.026679    -1.563285
 O      -2.356588    -0.097940    -2.018399
 C      -2.635731     2.207969    -2.435984
 C      -1.705138     3.116876    -2.701388
 H      -1.889435     3.922348    -3.406387
 H      -0.717997     3.061424    -2.254319
 C      -3.996961     2.166770    -3.069579
 H      -4.130748     1.215802    -3.593144
 H      -4.785923     2.233237    -2.311759
 H      -4.122217     2.990279    -3.775754
 N      -1.894828     1.269096    -0.266945
 C      -2.253527     2.466795     0.487271
 H      -2.238003     3.336005    -0.167089
 H      -3.251451     2.387035     0.936523
 H      -1.525376     2.609141     1.288741
 C       1.964159     1.480880     0.302499
 C       3.333230     0.953865    -0.066711
 C       1.643253     2.855825    -0.244533
 H       3.504704    -0.050983     0.318892
 H       3.435466     0.940153    -1.153227
 H       4.099527     1.620708     0.348111
 H       2.314632     3.595500     0.208406
 H       1.792134     2.862799    -1.325453
 H       0.615627     3.148648    -0.023937
 C       1.600262     1.311553     1.686747
 N       1.288724     1.182998     2.790079
48
  -29709.493959  -29700.517003  102.91   86.88
 C      -1.059559    -0.790256     1.161237
 C      -0.495338    -0.237153     0.008863
 C      -1.299757     0.367301    -0.955125
 C      -2.670044     0.443044    -0.762991
 C      -3.236176    -0.085033     0.388449
 C      -2.437442    -0.700574     1.339404
 C      -0.212780    -1.427894     2.202690
 C      -0.296585    -0.993140     3.525278
 C       0.503878    -1.565368     4.505509
 C       1.393324    -2.581160     4.174258
 C       1.475061    -3.024500     2.859031
 C       0.676235    -2.452614     1.877711
 H      -3.291483     0.906268    -1.521441
 H      -4.308781    -0.023898     0.539170
 H      -2.881166    -1.125363     2.233189
 H      -0.973592    -0.182523     3.775258
 H       0.435648    -1.212931     5.529818
 H       2.019510    -3.028155     4.939908
 H       2.164047    -3.819996     2.593917
 H       0.739364    -2.802155     0.853117
 C       0.965290    -0.201854    -0.177753
 N       1.881280    -0.685330    -0.749060
 C      -0.289250     0.045713    -3.095571
 O      -0.502990    -1.146842    -3.009613
 C       0.473026     0.588497    -4.276699
 C       1.638541     1.194735    -4.085364
 H       2.256092     1.505252    -4.923210
 H       2.030382     1.362934    -3.087586
 C      -0.103799     0.247863    -5.621068
 H      -0.259364    -0.832477    -5.691948
 H      -1.079812     0.725784    -5.763045
 H       0.562469     0.571715    -6.423405
 N      -0.693960     0.931635    -2.119028
 C      -0.919992     2.354941    -2.353851
 H      -0.842750     2.885146    -1.402150
 H      -0.168955     2.741889    -3.039536
 H      -1.912709     2.549653    -2.778876
 C       1.717431     1.324282     0.928578
 C       2.677382     0.650102     1.883770
 C       2.372087     2.203693    -0.115817
 H       3.397400     0.057926     1.316270
 H       3.222810     1.417487     2.447325
 H       2.163877     0.000908     2.592768
 H       3.128615     1.630377    -0.653943
 H       1.644607     2.593027    -0.829690
 H       2.858657     3.054966     0.375721
 C       0.564477     1.926610     1.549170
 N      -0.366807     2.412683     2.026001
48
  -29709.533219  -29700.501628   78.28   96.53
 C       0.242670    -1.277622     1.291596
 C       0.229241    -0.775482    -0.015003
 C      -0.575912    -1.362847    -0.991994
 C      -1.414210    -2.415713    -0.663906
 C      -1.438385    -2.894626     0.638404
 C      -0.609742    -2.336904     1.600618
 C       1.153945    -0.736570     2.334550
 C       0.657641    -0.388795     3.591101
 C       1.506891     0.098033     4.575095
 C       2.864847     0.235449     4.316765
 C       3.368944    -0.121286     3.073165
 C       2.520369    -0.604450     2.087854
 H      -2.048036    -2.845563    -1.431759
 H      -2.095933    -3.716958     0.900156
 H      -0.601978    -2.737019     2.608942
 H      -0.404099    -0.490000     3.795831
 H       1.105223     0.375907     5.544172
 H       3.527905     0.623972     5.082594
 H       4.428217    -0.016313     2.863861
 H       2.922460    -0.887341     1.121722
 C       1.044793     0.387134    -0.413134
 N       1.965111     0.709516    -1.081131
 C      -1.310731     0.108193    -2.742042
 O      -2.215592     0.517618    -2.029036
 C      -1.069737     0.756891    -4.079462
 C       0.109850     1.305548    -4.348033
 H       0.268794     1.865157    -5.265390
 H       0.943257     1.237484    -3.655617
 C      -2.281533     0.865941    -4.961018
 H      -2.638069    -0.125158    -5.263831
 H      -3.095890     1.347233    -4.412354
 H      -2.056043     1.444134    -5.859491
 N      -0.490317    -0.907772    -2.347816
 C       0.504394    -1.572750    -3.184325
 H       0.491492    -2.640793    -2.952276
 H       0.254314    -1.440903    -4.235609
 H       1.510417    -1.181815    -3.002040
 C       0.166546     2.082249     0.354487
 C       0.081483     2.991843    -0.851772
 C      -1.162505     1.689362     0.961433
 H      -0.286203     3.973526    -0.527781
 H       1.059360     3.121821    -1.315427
 H      -0.621015     2.587309    -1.581460
 H      -1.792963     1.200649     0.216904
 H      -1.046427     1.046312     1.832699
 H      -1.672704     2.606316     1.286369
 C       1.165830     2.494303     1.309637
 N       1.958298     2.847405     2.068331
48
  -29709.533216  -29700.500785   78.28   97.06
 C       0.167908    -1.803994    -0.710853
 C       0.201901    -0.410971    -0.844430
 C      -0.585833     0.228790    -1.802534
 C      -1.453316    -0.505201    -2.594776
 C      -1.524305    -1.882746    -2.442168
 C      -0.713272    -2.523306    -1.517252
 C       1.058938    -2.526951     0.234815
 C       2.434237    -2.294602     0.236738
 C       3.263210    -2.989563     1.105174
 C       2.730380    -3.925116     1.981955
 C       1.363108    -4.170501     1.980460
 C       0.533360    -3.478399     1.109272
 H      -2.072838     0.011804    -3.319347
 H      -2.204817    -2.460835    -3.058471
 H      -0.742351    -3.603856    -1.425402
 H       2.858497    -1.570652    -0.449571
 H       4.329936    -2.792174     1.100867
 H       3.378438    -4.459585     2.668580
 H       0.939068    -4.899296     2.663622
 H      -0.535618    -3.669983     1.114869
 C       1.050797     0.435312     0.014904
 N       1.996036     1.144866     0.001472
 C      -1.241373     2.475199    -1.263484
 O      -2.158274     2.051079    -0.574870
 C      -0.949463     3.952381    -1.280761
 C       0.247728     4.396620    -0.914753
 H       0.443803     5.461173    -0.823943
 H       1.059358     3.718259    -0.670369
 C      -2.133008     4.831211    -1.571209
 H      -1.870679     5.884862    -1.455416
 H      -2.499541     4.672680    -2.591805
 H      -2.953500     4.582846    -0.892269
 N      -0.452500     1.641481    -2.000538
 C       0.552967     2.059213    -2.973131
 H       0.335382     3.066646    -3.323658
 H       1.560562     2.036617    -2.546073
 H       0.513432     1.375544    -3.825038
 C       0.183558     0.534222     1.878261
 C       0.151408     2.021521     2.154935
 C      -1.170040    -0.137497     1.802811
 H      -0.537131     2.518535     1.470468
 H      -0.206556     2.181798     3.179647
 H       1.144755     2.460192     2.060351
 H      -1.672094    -0.001299     2.770319
 H      -1.787414     0.332382     1.035543
 H      -1.091920    -1.207565     1.615874
 C       1.162191    -0.171495     2.668747
 N       1.938758    -0.720614     3.319684
48
  -29709.489753  -29700.451478  105.55  128.00
 C      -0.291495    -0.568419     1.475193
 C       0.055019    -0.774263     0.134591
 C      -0.788434    -1.502732    -0.710066
 C      -1.946086    -2.070343    -0.194828
 C      -2.306854    -1.852571     1.124981
 C      -1.489703    -1.093771     1.948908
 C       0.595584     0.175461     2.409196
 C       0.119573     1.310811     3.063434
 C       0.936644     2.006229     3.945565
 C       2.234739     1.570224     4.185593
 C       2.711004     0.433298     3.542481
 C       1.895187    -0.263294     2.660386
 H      -2.568696    -2.668683    -0.850355
 H      -3.224965    -2.280699     1.513260
 H      -1.760281    -0.927843     2.986068
 H      -0.886421     1.660859     2.856798
 H       0.558824     2.893727     4.442949
 H       2.873492     2.114389     4.874103
 H       3.721584     0.084538     3.729251
 H       2.267448    -1.152837     2.164111
 C       1.346276    -0.287363    -0.388334
 N       2.416804    -0.653776    -0.728798
 C      -0.653346    -0.971473    -3.159599
 O      -0.085892    -1.225264    -4.209682
 C      -1.625857     0.189934    -3.089272
 C      -1.415396     1.164166    -3.970965
 H      -2.072860     2.026632    -4.021894
 H      -0.586099     1.114151    -4.667413
 C      -2.823339     0.212677    -2.172078
 H      -3.504385     0.999940    -2.502262
 H      -3.365918    -0.736418    -2.204640
 H      -2.555891     0.418790    -1.135355
 N      -0.416003    -1.768378    -2.063187
 C       0.488154    -2.905194    -2.270293
 H       1.508491    -2.565759    -2.463696
 H       0.477777    -3.519906    -1.368701
 H       0.145470    -3.496080    -3.121111
 C       1.327828     1.752691    -0.669502
 C       2.382391     2.279154     0.276629
 C       1.686981     1.868052    -2.133358
 H       2.578788     3.331340     0.034468
 H       2.076192     2.216426     1.319363
 H       3.308283     1.717601     0.138787
 H       2.680829     1.449335    -2.297132
 H       0.975072     1.348449    -2.771495
 H       1.698008     2.927542    -2.418643
 C      -0.023369     2.120972    -0.343230
 N      -1.109971     2.396973    -0.069377
48
  -29709.489753  -29700.451369  105.55  128.07
 C      -1.117672     1.047320     0.843705
 C      -0.762400    -0.060975     0.065810
 C      -1.440381    -0.334978    -1.126158
 C      -2.508023     0.468049    -1.504441
 C      -2.851320     1.579261    -0.751560
 C      -2.149346     1.872836     0.407497
 C      -0.438435     1.351705     2.131577
 C      -0.447677     0.430205     3.178153
 C       0.180853     0.729465     4.379935
 C       0.818876     1.953095     4.549279
 C       0.822760     2.878818     3.512077
 C       0.194840     2.580918     2.309440
 H      -3.052119     0.218721    -2.408413
 H      -3.672273     2.214576    -1.066824
 H      -2.419183     2.735055     1.007674
 H      -0.949145    -0.522902     3.050594
 H       0.169619     0.004358     5.187328
 H       1.310557     2.185578     5.488624
 H       1.320125     3.835304     3.636796
 H       0.214979     3.291996     1.490161
 C       0.283203    -0.994971     0.526495
 N       0.440814    -2.075647     0.977605
 C      -0.164376    -1.604571    -2.875632
 O       0.136072    -2.712521    -3.289476
 C       0.498546    -0.374208    -3.464124
 C       1.706488    -0.571896    -3.986232
 H       2.253474     0.238655    -4.457946
 H       2.169314    -1.551923    -3.961442
 C      -0.186057     0.966161    -3.566370
 H      -0.231303     1.489888    -2.611137
 H       0.372723     1.594252    -4.263431
 H      -1.205064     0.862788    -3.950002
 N      -1.124971    -1.495791    -1.896382
 C      -1.747729    -2.749073    -1.455695
 H      -1.029576    -3.380111    -0.926775
 H      -2.573856    -2.504223    -0.786063
 H      -2.126535    -3.294591    -2.321368
 C       2.166393    -0.191360     0.305055
 C       2.708581    -0.092871     1.712451
 C       2.848082    -1.229530    -0.556733
 H       3.782263     0.128260     1.661306
 H       2.222506     0.689183     2.293064
 H       2.580182    -1.050750     2.219994
 H       3.876488    -0.907070    -0.762718
 H       2.877829    -2.180742    -0.023636
 H       2.336781    -1.372606    -1.506533
 C       1.916291     1.068189    -0.342092
 N       1.693797     2.078342    -0.853917
48
  -29709.427485  -29700.449464  144.62  129.26
 C      -0.977566     1.151446    -0.523433
 C      -0.032746     0.121065    -0.429177
 C       0.170319    -0.754065    -1.503197
 C      -0.529590    -0.559632    -2.687925
 C      -1.438728     0.480986    -2.800593
 C      -1.662628     1.326047    -1.724943
 C      -1.312902     2.029064     0.632016
 C      -1.670092     1.483584     1.865502
 C      -1.994095     2.310435     2.932922
 C      -1.972555     3.691913     2.781165
 C      -1.636090     4.243501     1.550459
 C      -1.314057     3.416379     0.482248
 H      -0.359593    -1.239320    -3.515317
 H      -1.983561     0.624361    -3.727799
 H      -2.400577     2.117843    -1.798461
 H      -1.698446     0.407403     1.990159
 H      -2.266076     1.871312     3.887347
 H      -2.224749     4.336707     3.616891
 H      -1.626186     5.320951     1.419879
 H      -1.052145     3.851500    -0.477904
 C       0.710680    -0.115932     0.821330
 N       0.789789    -0.839106     1.751663
 C       0.687973    -3.145451    -1.607641
 O       1.503394    -4.001613    -1.893185
 C      -0.775051    -3.476460    -1.441101
 C      -1.330917    -4.234531    -2.379467
 H      -2.371616    -4.539057    -2.320002
 H      -0.752971    -4.579410    -3.230667
 C      -1.502805    -3.011894    -0.204804
 H      -0.864019    -3.088293     0.680074
 H      -1.823719    -1.969797    -0.282012
 H      -2.391657    -3.626698    -0.048667
 N       1.082192    -1.842556    -1.390290
 C       2.510263    -1.563523    -1.555036
 H       2.689426    -0.508596    -1.358963
 H       3.094919    -2.156051    -0.852140
 H       2.835930    -1.801789    -2.571880
 C       2.183170     1.324586     1.046010
 C       2.151348     2.239833    -0.158456
 C       1.854135     1.960738     2.377775
 H       1.238499     2.833827    -0.168137
 H       3.002844     2.930062    -0.097121
 H       2.232892     1.697008    -1.101492
 H       1.755124     1.203246     3.155718
 H       2.665662     2.644350     2.657109
 H       0.927891     2.533034     2.314180
 C       3.354022     0.481167     1.097741
 N       4.301585    -0.173112     1.139847
48
  -29709.413644  -29700.417273  153.31  149.46
 C      -1.106634    -0.725030    -0.410813
 C      -0.159199     0.299382    -0.282530
 C      -0.330895     1.510121    -0.961724
 C      -1.481880     1.721741    -1.709296
 C      -2.447004     0.730953    -1.802928
 C      -2.253945    -0.484381    -1.164993
 C      -0.898364    -2.077516     0.173375
 C       0.272515    -2.789352    -0.085971
 C       0.444744    -4.068258     0.422870
 C      -0.549934    -4.653164     1.195165
 C      -1.724312    -3.956142     1.449604
 C      -1.899272    -2.678064     0.937312
 H      -1.607254     2.669481    -2.222087
 H      -3.343145     0.901184    -2.390445
 H      -2.984957    -1.278581    -1.272243
 H       1.049751    -2.343532    -0.696181
 H       1.364443    -4.606581     0.219835
 H      -0.409319    -5.649087     1.601776
 H      -2.506480    -4.406832     2.051810
 H      -2.820363    -2.138216     1.137156
 C       1.058491     0.121715     0.529732
 N       2.234652     0.034487     0.459810
 C       1.347346     2.956173    -2.010907
 O       1.900219     4.041150    -2.035221
 C       1.425313     2.034278    -3.198933
 C       1.842937     0.781622    -3.059331
 H       1.986407     0.143776    -3.926823
 H       2.092341     0.364001    -2.090065
 C       1.139255     2.688120    -4.521759
 H       0.099284     3.030242    -4.576945
 H       1.774174     3.569770    -4.644609
 H       1.319035     1.992529    -5.344069
 N       0.660576     2.536172    -0.895762
 C       0.615275     3.472974     0.225640
 H       0.173784     4.427548    -0.077335
 H       0.011654     3.038204     1.021139
 H       1.624226     3.665286     0.594730
 C       0.559500     0.129285     2.536202
 C       1.545898     1.118291     3.119042
 C      -0.899833     0.510486     2.656627
 H       1.365913     2.121190     2.729622
 H       1.422152     1.145935     4.208715
 H       2.570758     0.828450     2.888733
 H      -1.139758     0.645723     3.719546
 H      -1.104459     1.455847     2.150848
 H      -1.561949    -0.255673     2.257038
 C       0.851253    -1.231030     2.913740
 N       1.098789    -2.304290     3.252302
48
  -29709.413643  -29700.417055  153.31  149.60
 C       0.458093    -1.351639     0.052171
 C      -0.167838    -0.117869    -0.170404
 C      -1.482465    -0.067736    -0.645698
 C      -2.192465    -1.246960    -0.829390
 C      -1.596236    -2.470521    -0.566131
 C      -0.279012    -2.519438    -0.137412
 C       1.896340    -1.458238     0.418169
 C       2.293503    -2.250160     1.495758
 C       3.637669    -2.384190     1.814802
 C       4.601715    -1.735808     1.053253
 C       4.215405    -0.958092    -0.030195
 C       2.872030    -0.820159    -0.347214
 H      -3.214862    -1.193047    -1.188113
 H      -2.155211    -3.388651    -0.713802
 H       0.205772    -3.475848     0.026601
 H       1.543781    -2.761113     2.092942
 H       3.931831    -2.994222     2.662676
 H       5.651987    -1.833844     1.306798
 H       4.962625    -0.448926    -0.629588
 H       2.579215    -0.219104    -1.200559
 C       0.544832     1.154692     0.045914
 N       0.981575     2.098448    -0.514826
 C      -2.508641     1.508568    -2.217526
 O      -3.345975     2.371924    -2.409685
 C      -1.870278     0.794009    -3.379103
 C      -0.549001     0.737983    -3.497991
 H      -0.088445     0.302989    -4.380399
 H       0.113405     1.154837    -2.747305
 C      -2.834979     0.302486    -4.421682
 H      -2.300254    -0.106664    -5.281349
 H      -3.490942    -0.477058    -4.017143
 H      -3.477366     1.124373    -4.749344
 N      -2.108758     1.181087    -0.942977
 C      -2.764492     1.904126     0.145342
 H      -2.389395     1.523905     1.094518
 H      -2.551288     2.971743     0.068356
 H      -3.849940     1.768302     0.109487
 C       0.788182     1.475817     2.073875
 C       0.299427     2.898028     2.244892
 C       0.000344     0.418173     2.815606
 H       0.843850     3.578640     1.590861
 H      -0.766165     2.971425     2.023584
 H       0.455762     3.206543     3.285970
 H       0.421504    -0.577438     2.687355
 H       0.015366     0.657613     3.887097
 H      -1.043352     0.406218     2.496312
 C       2.218016     1.361011     2.217095
 N       3.359842     1.300205     2.359653
48
  -29709.382456  -29700.384401  172.88  170.09
 C       1.673631    -0.608057    -0.345468
 C       0.628722     0.293648    -0.596606
 C      -0.203630     0.131892    -1.715031
 C       0.010830    -0.946986    -2.568210
 C       1.009874    -1.867351    -2.296798
 C       1.837332    -1.697802    -1.197828
 C       2.606803    -0.447219     0.804510
 C       3.273497     0.754718     1.040987
 C       4.144474     0.876331     2.116070
 C       4.368623    -0.201521     2.963833
 C       3.721929    -1.408726     2.725556
 C       2.850965    -1.529991     1.651267
 H      -0.615217    -1.057606    -3.444620
 H       1.157731    -2.711020    -2.962860
 H       2.643329    -2.398450    -1.008945
 H       3.118023     1.596747     0.377269
 H       4.652379     1.819791     2.288294
 H       5.049541    -0.103837     3.803288
 H       3.895165    -2.258937     3.377654
 H       2.340497    -2.472049     1.473780
 C       0.420149     1.439442     0.306000
 N       0.654681     2.587576     0.452371
 C      -2.498199     0.742766    -2.405062
 O      -3.212218     1.581425    -2.918808
 C      -2.998751    -0.669603    -2.208924
 C      -3.607871    -1.225851    -3.250828
 H      -4.022729    -2.227764    -3.194552
 H      -3.719077    -0.685335    -4.185058
 C      -2.882843    -1.344720    -0.869088
 H      -3.293924    -0.707682    -0.082033
 H      -3.436701    -2.285744    -0.883166
 H      -1.844850    -1.566734    -0.614795
 N      -1.219645     1.081364    -1.997987
 C      -0.808104     2.455132    -2.318429
 H       0.253430     2.567279    -2.108400
 H      -0.996703     2.654660    -3.375992
 H      -1.369277     3.172653    -1.719590
 C      -0.724232     0.864173     1.929666
 C      -0.592103    -0.629517     2.117619
 C      -0.180180     1.705377     3.059484
 H       0.397954    -0.874084     2.502071
 H      -1.335164    -0.958906     2.855509
 H      -0.763973    -1.187668     1.198405
 H       0.875367     1.474457     3.220136
 H      -0.277587     2.768687     2.843620
 H      -0.730428     1.472988     3.980049
 C      -2.004555     1.298606     1.430394
 N      -3.028597     1.646267     1.030355
48
  -29709.376566  -29700.345135  176.58  194.73
 C       0.247195    -0.602533     1.388846
 C       0.515268    -0.476713     0.018449
 C      -0.075897    -1.346661    -0.908055
 C      -0.987473    -2.295303    -0.456258
 C      -1.314276    -2.373354     0.887827
 C      -0.689900    -1.543818     1.806423
 C       0.957941     0.218652     2.406516
 C       0.240308     0.905727     3.385452
 C       0.900840     1.652016     4.351595
 C       2.288917     1.707305     4.360334
 C       3.011883     1.009812     3.400937
 C       2.351789     0.271071     2.429434
 H      -1.426759    -2.986421    -1.165102
 H      -2.033952    -3.112426     1.224199
 H      -0.903378    -1.640971     2.865306
 H      -0.844893     0.862715     3.386388
 H       0.329001     2.193338     5.098214
 H       2.805555     2.295710     5.111236
 H       4.096007     1.047390     3.400917
 H       2.923234    -0.274691     1.687558
 C       1.412650     0.591437    -0.456442
 N       2.486627     0.815989    -0.896449
 C      -0.588084    -1.502717    -3.311822
 O      -0.220587    -1.910953    -4.397444
 C      -2.039359    -1.147611    -3.114235
 C      -2.389406     0.080299    -2.754320
 H      -3.432363     0.380848    -2.712854
 H      -1.647848     0.838214    -2.538105
 C      -3.017173    -2.206908    -3.539709
 H      -2.930698    -3.109218    -2.924275
 H      -4.041704    -1.836743    -3.466987
 H      -2.809168    -2.503364    -4.571415
 N       0.310862    -1.316346    -2.280059
 C       1.692065    -1.717247    -2.586797
 H       2.090742    -1.096979    -3.389265
 H       2.307353    -1.586108    -1.699649
 H       1.717564    -2.763622    -2.904427
 C       0.399658     2.375922    -0.390358
 C       0.537254     2.840529    -1.825048
 C      -1.010764     2.112655     0.093176
 H       0.129593     2.097185    -2.513081
 H      -0.015399     3.778412    -1.959456
 H       1.583535     3.005948    -2.081239
 H      -1.614699     3.012506    -0.083405
 H      -1.473698     1.288906    -0.450036
 H      -1.040696     1.890788     1.158653
 C       1.194988     3.141331     0.537456
 N       1.812760     3.780928     1.270233
48
  -29709.377239  -29700.336591  176.16  200.09
 C      -1.069469     1.121471    -0.649421
 C      -0.464861     0.129454     0.136443
 C      -0.811472    -1.218968    -0.026623
 C      -1.709532    -1.570600    -1.028854
 C      -2.251866    -0.602591    -1.858274
 C      -1.947418     0.734943    -1.658942
 C      -0.824485     2.570573    -0.415804
 C      -0.957139     3.119717     0.859349
 C      -0.754234     4.476419     1.065363
 C      -0.419473     5.303135     0.001263
 C      -0.299955     4.768296    -1.275167
 C      -0.506613     3.411715    -1.482606
 H      -1.996320    -2.609250    -1.141098
 H      -2.945683    -0.891323    -2.640951
 H      -2.415408     1.498696    -2.270317
 H      -1.226949     2.483671     1.694409
 H      -0.851360     4.886682     2.064908
 H      -0.249555     6.361919     0.165860
 H      -0.040558     5.407855    -2.112579
 H      -0.411348     2.999239    -2.482799
 C       0.554443     0.495123     1.136579
 N       0.770871     0.569287     2.296578
 C       0.059204    -3.468420     0.449268
 O       0.025976    -4.422810     1.202932
 C       0.576537    -3.654314    -0.953799
 C       1.614936    -2.948557    -1.382326
 H       2.070339    -3.142359    -2.349195
 H       2.074103    -2.189921    -0.761615
 C      -0.034561    -4.796723    -1.715181
 H      -1.099991    -4.629855    -1.908570
 H       0.471639    -4.936360    -2.672409
 H       0.043370    -5.713501    -1.124442
 N      -0.318248    -2.209605     0.873040
 C      -0.813979    -2.145044     2.255457
 H      -0.028906    -2.453694     2.945062
 H      -1.102039    -1.121223     2.483423
 H      -1.674151    -2.809762     2.380082
 C       2.289644     1.014835     0.167096
 C       3.297966     0.120188     0.856533
 C       2.101676     0.781022    -1.316898
 H       3.356592     0.347787     1.920576
 H       3.024456    -0.930855     0.744636
 H       4.285843     0.270338     0.404141
 H       1.461684     1.535487    -1.771030
 H       3.083651     0.828759    -1.805770
 H       1.679226    -0.204199    -1.515807
 C       2.421376     2.404410     0.528172
 N       2.547570     3.514210     0.811589
