48
     -1091.833156     -1091.506866   0.00   0.00
C       0.990818     2.259097    -0.749483
C       0.670270     0.913918    -0.997249
C       1.673733    -0.045155    -1.186480
C       3.005111     0.347986    -1.111181
C       3.329912     1.665893    -0.834470
C       2.332723     2.616027    -0.661657
C      -0.061678     3.294465    -0.566486
C      -1.082298     3.459061    -1.502605
C      -2.043190     4.445281    -1.328636
C      -1.994876     5.280919    -0.219136
C      -0.979261     5.125471     0.716980
C      -0.017836     4.138912     0.543216
H       3.782831    -0.390709    -1.269999
H       4.372915     1.958848    -0.769812
H       2.590675     3.652461    -0.474140
H      -1.122281     2.815096    -2.374491
H      -2.833289     4.560295    -2.063503
H      -2.747320     6.051298    -0.083843
H      -0.936354     5.772876     1.587126
H       0.766750     4.009835     1.282396
C      -0.706968     0.490537    -0.993624
N      -1.807350     0.157801    -0.994814
C       1.946530    -2.442911    -0.824604
O       2.049569    -3.538102    -1.348480
C       2.418002    -2.233213     0.589099
C       1.631679    -1.622844     1.468700
H       1.913641    -1.546637     2.514924
H       0.669307    -1.211542     1.183377
C       3.719397    -2.898172     0.937385
H       4.548916    -2.475636     0.359110
H       3.671319    -3.962176     0.688493
H       3.943650    -2.780677     1.999914
N       1.334623    -1.392642    -1.470302
C       0.670090    -1.699828    -2.740660
H       1.398673    -2.020695    -3.490800
H       0.154698    -0.806977    -3.092794
H      -0.058935    -2.494041    -2.580802
C       0.318158    -5.207957     0.980281
C       0.922191    -6.316039     0.178036
C       0.616854    -5.043338     2.436029
H       1.650461    -6.871372     0.774071
H       1.419056    -5.913798    -0.710115
H       0.151672    -7.019370    -0.162170
H       0.007311    -4.259229     2.888121
H       1.674010    -4.781501     2.579131
H       0.444387    -5.983481     2.972825
C      -0.499363    -4.274485     0.334006
N      -1.168094    -3.492084    -0.203078
48
     -1091.806189     -1091.475979  16.92  19.38
C      -0.981075     0.076568     1.480183
C      -0.514409    -0.207004     0.188422
C      -0.174485    -1.511875    -0.184767
C      -0.301815    -2.543511     0.734737
C      -0.739629    -2.269368     2.022311
C      -1.080169    -0.974509     2.389258
C      -1.353847     1.455401     1.894059
C      -0.838877     1.986744     3.076827
C      -1.192336     3.265066     3.487467
C      -2.066839     4.026032     2.720538
C      -2.585363     3.502148     1.542349
C      -2.232695     2.224196     1.131443
H      -0.042813    -3.554236     0.436350
H      -0.830179    -3.075959     2.742809
H      -1.447063    -0.770209     3.389113
H      -0.143922     1.399739     3.669394
H      -0.781463     3.668944     4.407331
H      -2.343113     5.025708     3.040284
H      -3.268619     4.090571     0.938701
H      -2.648311     1.819404     0.214896
C      -0.298842     0.845953    -0.771092
N      -0.106381     1.665850    -1.554477
C       1.382535    -2.520691    -1.798194
O       1.392715    -3.283589    -2.745125
C       2.635917    -2.302295    -0.968473
C       3.364051    -3.465303    -0.760565
H       4.182495    -3.476874    -0.048679
H       3.182820    -4.345812    -1.364384
C       2.710490    -1.228527     0.104826
H       2.133000    -1.514515     0.984802
H       2.351720    -0.256033    -0.234922
H       3.748572    -1.112352     0.416501
N       0.246225    -1.776397    -1.519300
C      -0.852161    -1.889705    -2.485124
H      -1.544582    -1.061371    -2.325794
H      -1.385260    -2.840231    -2.373049
H      -0.450276    -1.834141    -3.495530
C       3.720968    -1.300266    -2.554955
C       4.158692    -2.354470    -3.546333
C       2.791548    -0.238761    -3.104103
H       4.765380    -1.879742    -4.328390
H       3.293222    -2.828080    -4.007161
H       4.767805    -3.121459    -3.064282
H       2.403932     0.430056    -2.334951
H       1.953840    -0.700612    -3.629091
H       3.338630     0.374387    -3.831793
C       4.827628    -0.776344    -1.798305
N       5.721851    -0.380340    -1.187026
48
     -1091.806189     -1091.475965  16.92  19.39
C      -0.835238     1.263957    -1.088582
C       0.015194     0.156785    -1.221930
C      -0.390129    -1.117145    -0.809228
C      -1.653100    -1.291033    -0.260923
C      -2.492522    -0.197871    -0.102641
C      -2.089820     1.064597    -0.516500
C      -0.425677     2.624549    -1.527307
C      -0.572451     3.706099    -0.658302
C      -0.213201     4.985856    -1.059328
C       0.295230     5.198844    -2.335312
C       0.442020     4.126376    -3.206928
C       0.082771     2.846842    -2.806787
H      -1.963431    -2.283120     0.050752
H      -3.476514    -0.334135     0.334503
H      -2.760218     1.910924    -0.414736
H      -0.955200     3.539444     0.343897
H      -0.327991     5.818414    -0.372483
H       0.577092     6.198740    -2.649444
H       0.838223     4.285320    -4.204541
H       0.192612     2.016407    -3.495963
C       1.359356     0.308343    -1.718015
N       2.440422     0.399645    -2.100013
C       0.749851    -3.137057     0.006707
O       0.868112    -4.319601    -0.250969
C       0.991992    -2.625531     1.416239
C       0.508210    -3.478342     2.398420
H       0.466835    -3.152379     3.432247
H       0.248872    -4.502747     2.161629
C       1.028532    -1.139824     1.735376
H       1.658304    -0.569020     1.051685
H       1.420466    -1.004784     2.743548
H       0.026299    -0.710144     1.711913
N       0.475626    -2.230527    -1.006200
C       0.458134    -2.772470    -2.369322
H       0.527425    -1.943663    -3.075892
H      -0.458163    -3.341810    -2.560378
H       1.312374    -3.433865    -2.504826
C       3.119561    -3.039024     1.387153
C       3.297579    -4.532704     1.538857
C       3.652134    -2.449455     0.098386
H       2.865367    -5.057119     0.688052
H       2.827667    -4.895574     2.454919
H       4.369919    -4.761208     1.592865
H       3.400219    -1.395843    -0.026402
H       3.277135    -3.008975    -0.760100
H       4.746660    -2.531744     0.092520
C       3.521367    -2.323404     2.569581
N       3.829202    -1.765851     3.531081
48
     -1091.806189     -1091.475930  16.92  19.41
C      -1.259924    -1.881044     0.301862
C      -0.586168    -0.749922    -0.181317
C       0.003314    -0.749500    -1.450182
C      -0.080000    -1.883651    -2.245628
C      -0.723468    -3.015720    -1.767040
C      -1.311133    -3.012591    -0.509296
C      -1.898752    -1.899087     1.644623
C      -2.779021    -0.891327     2.037750
C      -3.381768    -0.933730     3.287261
C      -3.114698    -1.983993     4.157359
C      -2.240504    -2.993550     3.771894
C      -1.636961    -2.951568     2.522240
H       0.373674    -1.873946    -3.231414
H      -0.780020    -3.904797    -2.386918
H      -1.835779    -3.891419    -0.150870
H      -2.999206    -0.072503     1.361217
H      -4.063224    -0.142222     3.581547
H      -3.586363    -2.015503     5.134323
H      -2.025270    -3.815378     4.447435
H      -0.942819    -3.733105     2.228916
C      -0.414734     0.420256     0.641577
N      -0.252388     1.364169     1.278471
C       1.901439     0.410656    -2.497346
O       2.158251     1.130232    -3.443416
C       2.982752    -0.446937    -1.863057
C       3.852473    -1.004698    -2.789609
H       4.560561    -1.767316    -2.483359
H       3.895196    -0.627522    -3.803828
C       2.742608    -1.218655    -0.575700
H       3.698385    -1.583180    -0.199037
H       2.106434    -2.086672    -0.753110
H       2.281952    -0.615002     0.207406
N       0.634636     0.431861    -1.933659
C      -0.293283     1.433203    -2.470664
H      -1.123851     1.550004    -1.772469
H      -0.678131     1.134586    -3.451977
H       0.225344     2.384753    -2.576105
C       4.095422     1.236112    -1.070657
C       4.820860     1.889438    -2.225078
C       3.090858     2.114072    -0.354989
H       5.444429     2.706250    -1.839037
H       4.109425     2.294858    -2.942849
H       5.472873     1.178028    -2.735407
H       2.505972     1.574800     0.390809
H       2.411776     2.578489    -1.071819
H       3.625404     2.920959     0.162687
C       4.995959     0.538108    -0.191132
N       5.727847    -0.032731     0.493409
48
     -1091.805104     -1091.475542  17.60  19.66
C      -1.749519     0.171572    -0.310310
C      -0.624940    -0.598771    -0.642179
C       0.355483    -0.107148    -1.512428
C       0.217862     1.164639    -2.049070
C      -0.878248     1.943050    -1.708086
C      -1.854829     1.449680    -0.853931
C      -2.804614    -0.337266     0.605461
C      -3.238264     0.452368     1.670861
C      -4.235804    -0.000983     2.523439
C      -4.812862    -1.248934     2.319178
C      -4.387380    -2.039919     1.258605
C      -3.390444    -1.587118     0.405825
H       0.977710     1.538675    -2.726914
H      -0.978496     2.940565    -2.123554
H      -2.722751     2.053123    -0.612024
H      -2.778642     1.421073     1.841128
H      -4.561374     0.620952     3.351270
H      -5.592185    -1.604382     2.985688
H      -4.833324    -3.015209     1.092970
H      -3.069709    -2.206755    -0.424762
C      -0.396634    -1.881944    -0.027934
N      -0.177023    -2.901559     0.457139
C       2.768455    -0.508892    -1.853434
O       3.552818    -0.918815    -2.688194
C       3.233618     0.418375    -0.746240
C       2.405604     0.759866     0.310036
H       2.679605     1.584089     0.958317
H       1.576417     0.144304     0.628064
C       4.255110     1.437571    -1.211150
H       3.741953     2.266863    -1.710629
H       4.952820     1.001944    -1.924405
H       4.805281     1.845813    -0.359919
N       1.451326    -0.941582    -1.873584
C       1.130603    -1.970574    -2.870197
H       0.174803    -2.427143    -2.609212
H       1.907183    -2.733756    -2.864349
H       1.069129    -1.543096    -3.876958
C       4.525398    -1.046430     0.237173
C       3.621570    -2.231743     0.483701
C       5.741370    -1.318726    -0.618724
H       3.369176    -2.722084    -0.458586
H       2.699493    -1.950787     0.994657
H       4.142987    -2.966026     1.110511
H       5.445417    -1.686879    -1.600346
H       6.353600    -2.086726    -0.126379
H       6.362115    -0.430052    -0.740509
C       4.825923    -0.272944     1.412615
N       5.064268     0.388831     2.326381
48
     -1091.805104     -1091.475541  17.60  19.66
C      -1.772685     0.011259    -0.673117
C      -0.572555    -0.696102    -0.839173
C       0.476259    -0.169083    -1.602387
C       0.330621     1.075554    -2.197402
C      -0.842888     1.793019    -2.019161
C      -1.885821     1.264038    -1.271381
C      -2.900037    -0.536317     0.126895
C      -3.382410    -1.825755    -0.096365
C      -4.447740    -2.315585     0.646121
C      -5.045578    -1.522695     1.618450
C      -4.572349    -0.235571     1.845312
C      -3.506478     0.254850     1.103078
H       1.144287     1.476938    -2.792030
H      -0.950158     2.769880    -2.479525
H      -2.810835     1.818444    -1.157652
H      -2.926570    -2.447667    -0.859340
H      -4.811852    -3.321345     0.463476
H      -5.878261    -1.907089     2.198797
H      -5.032778     0.388250     2.604886
H      -3.128992     1.255034     1.292203
C      -0.345904    -1.944169    -0.155863
N      -0.127604    -2.933586     0.388693
C       2.932263    -0.427902    -1.635941
O       3.835568    -0.811520    -2.354939
C       3.203093     0.558310    -0.515175
C       2.233491     0.877203     0.420840
H       2.377055     1.735362     1.067092
H       1.409450     0.220027     0.658934
C       4.211734     1.626051    -0.890565
H       5.016041     1.214856    -1.498274
H       4.628451     2.092723     0.005261
H       3.715430     2.406448    -1.478101
N       1.655286    -0.943018    -1.798615
C       1.520015    -2.018500    -2.788552
H       1.556521    -1.624924    -3.810238
H       0.568286    -2.526898    -2.627710
H       2.333957    -2.730560    -2.661952
C       4.449261    -0.793226     0.668824
C       3.593571    -2.025443     0.847942
C       5.774574    -1.013134    -0.024340
H       3.487311    -2.557649    -0.099426
H       2.601122    -1.788427     1.234082
H       4.077036    -2.707100     1.558958
H       6.352064    -0.091058    -0.102939
H       5.622941    -1.427463    -1.020354
H       6.366302    -1.726494     0.565600
C       4.557868     0.031340     1.842945
N       4.643390     0.732984     2.754045
48
     -1091.805368     -1091.474602  17.44  20.25
C      -1.077953    -1.155280     1.215524
C      -0.573352    -0.623928     0.020066
C      -0.006627    -1.453024    -0.957101
C       0.021498    -2.825770    -0.757937
C      -0.488367    -3.359949     0.416898
C      -1.025059    -2.535533     1.395192
C      -1.657456    -0.291483     2.278596
C      -2.654979     0.640227     1.992166
C      -3.197006     1.421893     3.002960
C      -2.751710     1.280869     4.311892
C      -1.759923     0.352534     4.606207
C      -1.217166    -0.429322     3.595435
H       0.483443    -3.454703    -1.509839
H      -0.456718    -4.433183     0.572854
H      -1.427189    -2.961883     2.307835
H      -3.013903     0.750660     0.974637
H      -3.971050     2.144380     2.765587
H      -3.176319     1.893329     5.100937
H      -1.405415     0.238221     5.625739
H      -0.432659    -1.144228     3.824005
C      -0.567957     0.798589    -0.202604
N      -0.539503     1.931253    -0.398756
C       1.456108     0.059542    -2.303600
O       1.500099     0.729244    -3.319312
C       2.517613     0.268420    -1.233983
C       2.536110    -0.398621    -0.017706
H       3.118695     0.012403     0.799579
H       2.110270    -1.378945     0.134057
C       3.045922     1.689834    -1.249831
H       3.397888     1.984546    -2.236333
H       3.846625     1.809878    -0.517330
H       2.231344     2.370451    -0.983433
N       0.491438    -0.915218    -2.175054
C      -0.357938    -1.134241    -3.350794
H      -1.076983    -0.317604    -3.472456
H      -0.893911    -2.075086    -3.220039
H       0.262005    -1.187645    -4.244989
C       4.064626    -0.840643    -2.303160
C       4.238260    -0.303002    -3.705750
C       5.271054    -0.673790    -1.408709
H       5.090498    -0.814693    -4.174071
H       4.464197     0.764203    -3.686872
H       3.355243    -0.454401    -4.323630
H       6.115024    -1.242970    -1.818438
H       5.076954    -1.033900    -0.397155
H       5.569746     0.375529    -1.362175
C       3.489610    -2.158498    -2.250154
N       3.005595    -3.203590    -2.184846
48
     -1091.805367     -1091.474567  17.44  20.27
C      -1.441723     0.242991     0.386266
C      -0.387411     0.138344    -0.532197
C      -0.210228    -1.020068    -1.300386
C      -1.113778    -2.066062    -1.180429
C      -2.167434    -1.964058    -0.283242
C      -2.326340    -0.827320     0.496073
C      -1.632005     1.451172     1.232547
C      -1.797342     1.308736     2.610697
C      -1.997202     2.421897     3.415974
C      -2.036076     3.691560     2.851607
C      -1.874695     3.840893     1.479334
C      -1.675234     2.728318     0.673796
H      -0.953259    -2.966119    -1.762178
H      -2.866950    -2.787679    -0.185894
H      -3.156353    -0.753221     1.190326
H      -1.753113     0.318727     3.054219
H      -2.120219     2.297465     4.487223
H      -2.191417     4.562729     3.480040
H      -1.904016     4.828880     1.031562
H      -1.558422     2.852774    -0.397303
C       0.578336     1.198598    -0.660096
N       1.370105     2.024996    -0.771353
C       2.193962    -0.972438    -1.977414
O       2.951436    -0.658342    -2.877289
C       2.766475    -1.267519    -0.599164
C       1.995901    -1.582086     0.510770
H       2.427939    -1.473925     1.499680
H       1.027839    -2.056302     0.452656
C       4.045019    -0.489734    -0.353863
H       4.474541    -0.753073     0.614769
H       3.810231     0.579165    -0.346709
H       4.778798    -0.649640    -1.141219
N       0.850182    -1.119743    -2.241859
C       0.455320    -0.980113    -3.647692
H       0.489142     0.068093    -3.962082
H      -0.559946    -1.362002    -3.761536
H       1.134651    -1.553879    -4.277026
C       3.496942    -3.253935    -1.134508
C       4.377115    -3.189359    -2.362330
C       4.201967    -3.699075     0.125719
H       3.830858    -2.881574    -3.251858
H       4.807896    -4.184949    -2.537539
H       5.204258    -2.494274    -2.210665
H       4.571022    -4.724646    -0.001236
H       3.535182    -3.681940     0.989262
H       5.063278    -3.058972     0.327855
C       2.239004    -3.917497    -1.352464
N       1.214475    -4.422738    -1.513148
48
     -1091.806282     -1091.474382  16.86  20.38
C      -1.376443    -0.577772     0.910977
C      -0.331803    -1.173827     0.189323
C      -0.171642    -0.936601    -1.181798
C      -1.087477    -0.140026    -1.852955
C      -2.138429     0.433047    -1.151011
C      -2.277648     0.223767     0.213941
C      -1.542889    -0.785066     2.374401
C      -0.478905    -0.595380     3.256354
C      -0.656625    -0.770973     4.621476
C      -1.900155    -1.135150     5.123509
C      -2.966651    -1.323093     4.252192
C      -2.789013    -1.147874     2.886531
H      -0.947332     0.037867    -2.913227
H      -2.850244     1.062535    -1.674833
H      -3.086201     0.699705     0.758059
H       0.494019    -0.304840     2.874813
H       0.181106    -0.622529     5.295016
H      -2.038087    -1.272852     6.191193
H      -3.940366    -1.609799     4.636528
H      -3.620201    -1.309089     2.206970
C       0.599923    -2.062794     0.835826
N       1.366929    -2.767207     1.323407
C       2.217898    -1.436999    -1.714578
O       2.975445    -2.314906    -2.086172
C       2.796626    -0.148649    -1.137186
C       3.997997    -0.352802    -0.474808
H       4.423539     0.430993     0.142309
H       4.545311    -1.277843    -0.598007
C       1.938146     1.006034    -0.648455
H       2.591618     1.839003    -0.384150
H       1.394315     0.731537     0.256591
H       1.214491     1.354141    -1.385750
N       0.865053    -1.585296    -1.909665
C       0.449980    -2.780613    -2.652310
H      -0.597854    -2.663998    -2.932139
H       0.569749    -3.682071    -2.043148
H       1.059115    -2.881525    -3.549745
C       3.405364     0.666546    -3.041139
C       3.945334     2.037698    -2.697091
C       4.437209    -0.265949    -3.631218
H       4.691395     1.958754    -1.902039
H       3.163355     2.731449    -2.388624
H       4.443800     2.460605    -3.577974
H       4.022196    -1.238389    -3.886776
H       5.250374    -0.416578    -2.917412
H       4.858591     0.196076    -4.533480
C       2.153299     0.698179    -3.744456
N       1.126599     0.726725    -4.272142
48
     -1091.804322     -1091.474194  18.09  20.50
C      -1.626186    -1.328650    -0.128882
C      -0.636954    -0.334938    -0.137487
C      -0.147096     0.187178    -1.340876
C      -0.699086    -0.239028    -2.540863
C      -1.707973    -1.191960    -2.540643
C      -2.158005    -1.740617    -1.348496
C      -2.104257    -1.943159     1.137529
C      -3.471569    -2.035360     1.397471
C      -3.926881    -2.629676     2.566675
C      -3.019931    -3.141543     3.487398
C      -1.656231    -3.056793     3.232924
C      -1.200575    -2.462721     2.064442
H      -0.318742     0.171014    -3.470346
H      -2.133202    -1.523121    -3.482470
H      -2.919977    -2.512214    -1.355971
H      -4.181013    -1.624323     0.685730
H      -4.993044    -2.691227     2.760341
H      -3.375729    -3.605615     4.401724
H      -0.942676    -3.455335     3.946765
H      -0.135256    -2.407646     1.866296
C      -0.122323     0.198200     1.096957
N       0.304685     0.648663     2.064753
C       2.088058     1.120360    -0.717539
O       2.668643     2.154588    -0.447290
C       2.737654    -0.220214    -0.415284
C       2.192980    -1.421921    -0.840807
H       2.558518    -2.348568    -0.413583
H       1.540237    -1.507778    -1.697423
C       3.507688    -0.220440     0.891160
H       4.225521    -1.044300     0.909350
H       2.808857    -0.349789     1.722533
H       4.028119     0.723268     1.042887
N       0.861539     1.188569    -1.358724
C       0.391917     2.541930    -1.682275
H       1.190787     3.104455    -2.164498
H       0.091179     3.076541    -0.775515
H      -0.461919     2.463498    -2.356591
C       4.373420    -0.004432    -1.845947
C       3.683244     0.324039    -3.149460
C       5.355291     1.032239    -1.349702
H       3.257494     1.328920    -3.111253
H       2.891525    -0.391599    -3.380764
H       4.410903     0.299448    -3.970516
H       5.847311     0.717543    -0.428658
H       4.853583     1.984489    -1.180705
H       6.133688     1.175819    -2.111671
C       4.885059    -1.347460    -1.773962
N       5.284320    -2.424818    -1.677378
48
     -1091.804322     -1091.474190  18.09  20.50
C      -1.342703    -1.826305     0.456214
C      -0.702982    -0.764252    -0.198706
C      -0.197349    -0.914166    -1.495847
C      -0.393477    -2.113097    -2.166978
C      -1.062347    -3.156360    -1.542362
C      -1.520824    -3.019357    -0.240134
C      -1.820360    -1.704256     1.858682
C      -0.969412    -1.247952     2.865372
C      -1.415836    -1.160274     4.176446
C      -2.716423    -1.530438     4.497490
C      -3.569199    -1.989936     3.500529
C      -3.123051    -2.077968     2.188750
H      -0.003036    -2.223223    -3.173041
H      -1.209733    -4.092191    -2.071531
H      -2.009441    -3.850203     0.256824
H       0.049777    -0.966660     2.621794
H      -0.744395    -0.801806     4.949901
H      -3.065274    -1.461001     5.522882
H      -4.586535    -2.278925     3.744481
H      -3.794648    -2.424583     1.409229
C      -0.579208     0.521513     0.437235
N      -0.469576     1.561494     0.915043
C       1.528581     0.887239    -1.672373
O       1.725507     2.005314    -2.109242
C       2.485338     0.286388    -0.655491
C       2.397062    -1.034133    -0.242852
H       2.943853    -1.350256     0.638001
H       1.949156    -1.814490    -0.840898
C       2.994846     1.303929     0.346885
H       3.910439     0.943676     0.822560
H       2.238219     1.458355     1.121446
H       3.181341     2.265766    -0.126975
N       0.459916     0.154663    -2.163719
C      -0.327701     0.812759    -3.214139
H      -0.918420     1.635926    -2.799500
H      -0.996544     0.076688    -3.662177
H       0.337978     1.216649    -3.976305
C       4.197135     0.160096    -2.005666
C       3.665709    -0.586336    -3.207249
C       4.733634     1.545497    -2.284680
H       3.169983    -1.516104    -2.920470
H       4.493222    -0.839267    -3.882137
H       2.962154     0.038140    -3.761822
H       5.136662     2.013605    -1.385860
H       3.953009     2.181556    -2.700732
H       5.550308     1.468193    -3.015560
C       5.062940    -0.622140    -1.163544
N       5.740549    -1.230767    -0.456540
48
     -1091.803831     -1091.474030  18.40  20.60
C       1.024696     1.993763    -0.663683
C       1.465379     0.724046    -0.263237
C       1.920288    -0.211403    -1.201088
C       1.978931     0.142870    -2.541666
C       1.557057     1.401250    -2.946389
C       1.075154     2.313107    -2.018601
C       0.512301     2.992892     0.311996
C       1.252484     3.351933     1.438144
C       0.765107     4.303100     2.323819
C      -0.464633     4.908387     2.094001
C      -1.206821     4.558028     0.972203
C      -0.720228     3.606488     0.085931
H       2.338915    -0.584030    -3.261968
H       1.600565     1.670191    -3.996759
H       0.751595     3.297646    -2.338079
H       2.216930     2.890482     1.620479
H       1.349893     4.572053     3.197387
H      -0.844220     5.651498     2.788028
H      -2.169114     5.024952     0.787576
H      -1.307017     3.322925    -0.782478
C       1.423736     0.338507     1.123334
N       1.399727     0.003718     2.222933
C       1.683951    -2.423323    -0.051183
O       2.303532    -3.263821     0.572952
C       0.164261    -2.442783    -0.055202
C      -0.585847    -1.606246    -0.866685
H      -1.644906    -1.488343    -0.669296
H      -0.214129    -1.181191    -1.787457
C      -0.424360    -2.836649     1.285572
H       0.164979    -3.618396     1.761011
H      -1.455893    -3.175900     1.162521
H      -0.420752    -1.968535     1.950365
N       2.385472    -1.496050    -0.804639
C       3.846072    -1.649108    -0.797095
H       4.107973    -2.691087    -0.977938
H       4.265661    -1.350151     0.169013
H       4.266739    -1.021924    -1.584458
C      -0.031757    -4.323646    -1.147268
C       0.813881    -4.124575    -2.383644
C       0.376432    -5.476359    -0.258577
H       0.556371    -3.201083    -2.906448
H       0.658111    -4.960164    -3.077757
H       1.873369    -4.103212    -2.119970
H       0.337919    -6.405574    -0.843544
H      -0.296783    -5.591727     0.591627
H       1.393503    -5.336451     0.106259
C      -1.449155    -4.272463    -1.390965
N      -2.589367    -4.213970    -1.551948
48
     -1091.803707     -1091.473101  18.48  21.19
C      -1.603035     0.423640    -0.438975
C      -0.541169    -0.408169    -0.823891
C       0.553014     0.100327    -1.535896
C       0.564613     1.437283    -1.903896
C      -0.485463     2.266828    -1.537084
C      -1.552856     1.767077    -0.805036
C      -2.765867    -0.088158     0.335214
C      -3.170708     0.577410     1.492862
C      -4.267500     0.129191     2.216623
C      -4.973593    -0.989148     1.789367
C      -4.577733    -1.655138     0.635633
C      -3.481664    -1.207428    -0.088752
H       1.407992     1.819456    -2.468931
H      -0.470067     3.313052    -1.824592
H      -2.375874     2.416806    -0.528190
H      -2.612396     1.443177     1.835676
H      -4.569651     0.653205     3.117837
H      -5.830606    -1.341078     2.354712
H      -5.124574    -2.528662     0.296020
H      -3.184802    -1.728077    -0.992634
C      -0.530577    -1.802183    -0.458838
N      -0.496613    -2.916723    -0.178628
C       2.430249    -1.505183    -1.144838
O       2.964443    -2.502122    -1.593113
C       2.742666    -1.050942     0.272540
C       2.880678    -2.108406     1.159011
H       2.932362    -1.921316     2.226006
H       3.001311    -3.121421     0.797854
C       2.235804     0.262616     0.843439
H       1.164664     0.213799     1.045343
H       2.419377     1.119195     0.194557
H       2.737315     0.448729     1.793332
N       1.609115    -0.753688    -1.967019
C       1.469233    -1.242262    -3.344719
H       1.002066    -0.459256    -3.944457
H       0.853338    -2.146856    -3.380366
H       2.452197    -1.479440    -3.749872
C       4.797205    -0.498778    -0.159467
C       5.597846    -1.776886    -0.258895
C       4.750477     0.336564    -1.421284
H       5.227154    -2.394443    -1.075817
H       5.543257    -2.348713     0.669284
H       6.650866    -1.529024    -0.445839
H       4.465290    -0.280480    -2.274995
H       5.748129     0.747087    -1.624149
H       4.057782     1.176453    -1.339211
C       5.111877     0.253696     1.025408
N       5.361590     0.841294     1.986014
48
     -1091.803707     -1091.473079  18.48  21.20
C      -1.669515    -0.079923    -0.671684
C      -0.479321    -0.813363    -0.786253
C       0.555331    -0.384072    -1.627654
C       0.381550     0.759696    -2.392249
C      -0.795891     1.487287    -2.294268
C      -1.806236     1.076557    -1.436666
C      -2.774111    -0.503911     0.230313
C      -3.294954    -1.796564     0.178842
C      -4.341116    -2.165273     1.013193
C      -4.881226    -1.247336     1.905956
C      -4.369967     0.043939     1.960903
C      -3.323193     0.413432     1.126982
H       1.181180     1.076437    -3.053215
H      -0.925657     2.383467    -2.892186
H      -2.728555     1.643140    -1.369852
H      -2.885081    -2.516737    -0.520844
H      -4.735581    -3.174956     0.964650
H      -5.698891    -1.537705     2.557915
H      -4.785450     0.765626     2.657046
H      -2.916370     1.418606     1.180900
C      -0.274959    -2.008199    -0.006970
N      -0.085910    -2.963102     0.604823
C       2.634209    -1.477995    -0.769587
O       3.330656    -2.468323    -0.889628
C       2.814355    -0.567081     0.434873
C       3.071862    -1.265644     1.604839
H       3.049492    -0.753911     2.560759
H       3.358549    -2.308772     1.575090
C       2.092181     0.762436     0.573133
H       2.172471     1.395611    -0.310677
H       2.519198     1.307402     1.415224
H       1.032909     0.611640     0.786897
N       1.745134    -1.153484    -1.779180
C       1.738800    -2.057418    -2.936412
H       1.266331    -3.012973    -2.686247
H       2.762608    -2.252605    -3.253138
H       1.186639    -1.578904    -3.747085
C       4.779322     0.138912    -0.159739
C       5.766139    -0.966767     0.137103
C       4.661466     0.528154    -1.618073
H       5.526828    -1.855466    -0.445218
H       5.759063    -1.226451     1.197288
H       6.776960    -0.627759    -0.124716
H       4.507923    -0.357768    -2.236517
H       5.594232     1.005980    -1.944607
H       3.848226     1.234502    -1.796081
C       4.926728     1.258391     0.731468
N       5.044195     2.144053     1.460992
48
     -1091.802830     -1091.471841  19.03  21.98
C      -0.952397    -0.718875     1.559263
C      -0.509934    -0.256186     0.310484
C      -0.190903    -1.152408    -0.718073
C      -0.329133    -2.517840    -0.497970
C      -0.757797    -2.982927     0.735915
C      -1.070553    -2.092731     1.753792
C      -1.282169     0.212336     2.672137
C      -0.375061     1.184288     3.093049
C      -0.689521     2.028071     4.149172
C      -1.911875     1.908742     4.799587
C      -2.819653     0.939708     4.388852
C      -2.505546     0.095531     3.332117
H      -0.093699    -3.210552    -1.298770
H      -0.852796    -4.051015     0.903095
H      -1.395178    -2.459745     2.721243
H       0.583889     1.278863     2.595398
H       0.024269     2.782204     4.464226
H      -2.156849     2.569704     5.624848
H      -3.776851     0.841749     4.891059
H      -3.220783    -0.652614     3.004240
C      -0.372266     1.156426     0.063798
N      -0.267222     2.283140    -0.139609
C       1.285487    -1.297940    -2.647279
O       1.226148    -1.496885    -3.842960
C       2.527740    -1.673019    -1.848321
C       2.975655    -2.963031    -2.094997
H       3.708725    -3.427893    -1.444142
H       2.659797    -3.495276    -2.984284
C       2.738879    -1.085701    -0.462750
H       3.756764    -1.291186    -0.131166
H       2.069679    -1.546011     0.264612
H       2.573463    -0.005804    -0.442735
N       0.244739    -0.668306    -1.981228
C      -0.795446    -0.086275    -2.838192
H      -0.316720     0.514832    -3.609993
H      -1.432374     0.556538    -2.230838
H      -1.400978    -0.865635    -3.312168
C       3.923437    -0.461192    -2.953409
C       5.159232    -0.360514    -2.086511
C       4.171165    -1.143956    -4.278418
H       5.971255     0.088115    -2.672011
H       5.489228    -1.357900    -1.782180
H       5.004472     0.254357    -1.200256
H       4.888868    -0.548791    -4.857509
H       3.256242    -1.259904    -4.854097
H       4.612920    -2.128639    -4.105250
C       3.161495     0.753833    -3.037338
N       2.511239     1.706351    -3.073876
48
     -1091.801708     -1091.471280  19.73  22.33
C       2.572296     1.237266    -0.737908
C       1.686144     0.517223     0.076791
C       1.972304    -0.794586     0.474639
C       3.182652    -1.366476     0.107230
C       4.081326    -0.650113    -0.670255
C       3.774281     0.633317    -1.098833
C       2.258572     2.610696    -1.213507
C       1.043657     2.894620    -1.837215
C       0.772631     4.175248    -2.298261
C       1.713047     5.186838    -2.144345
C       2.927514     4.911344    -1.526838
C       3.199066     3.630345    -1.065560
H       3.402772    -2.380394     0.424212
H       5.023606    -1.104906    -0.958026
H       4.465052     1.175990    -1.734732
H       0.308351     2.108026    -1.968606
H      -0.177290     4.382818    -2.780045
H       1.500098     6.188248    -2.504573
H       3.665625     5.697152    -1.401527
H       4.142782     3.420669    -0.571387
C       0.476230     1.128244     0.562301
N      -0.492908     1.591843     0.972015
C      -0.260161    -1.767394     1.050523
O      -1.004254    -2.018388     1.975224
C      -0.788388    -1.783736    -0.377505
C       0.050825    -1.715810    -1.476827
H      -0.361107    -1.466790    -2.448402
H       1.086430    -2.024332    -1.450601
C      -2.165642    -1.158327    -0.490552
H      -2.074011    -0.070722    -0.420249
H      -2.820318    -1.489365     0.313303
H      -2.621342    -1.402251    -1.453162
N       1.082561    -1.529572     1.305040
C       1.486072    -1.634557     2.712806
H       2.575783    -1.653968     2.763581
H       1.081208    -2.549768     3.143253
H       1.109989    -0.784409     3.291414
C      -1.262361    -3.902481    -0.407000
C      -1.507235    -4.207734    -1.867236
C      -0.051108    -4.580386     0.190288
H      -1.822105    -5.253177    -1.975003
H      -0.591035    -4.064784    -2.443550
H      -2.292977    -3.579194    -2.290715
H       0.860010    -4.242257    -0.311066
H      -0.128201    -5.665311     0.043356
H       0.034537    -4.388136     1.259946
C      -2.457472    -4.003368     0.382645
N      -3.447261    -4.107240     0.965104
48
     -1091.801708     -1091.471270  19.73  22.34
C      -1.586043    -0.805428     0.709282
C      -0.676078    -0.299590    -0.230700
C      -0.252691    -1.074339    -1.317678
C      -0.792340    -2.340255    -1.499940
C      -1.718944    -2.836879    -0.594382
C      -2.102417    -2.082753     0.505342
C      -2.004199    -0.015959     1.897904
C      -3.359058     0.122230     2.200184
C      -3.761446     0.836880     3.320377
C      -2.813105     1.419266     4.153212
C      -1.461449     1.282944     3.860254
C      -1.058802     0.568717     2.740531
H      -0.466562    -2.933557    -2.347775
H      -2.133202    -3.829204    -0.740057
H      -2.800951    -2.488954     1.228583
H      -4.101934    -0.320274     1.543605
H      -4.818783     0.941161     3.542120
H      -3.127231     1.978530     5.028704
H      -0.715480     1.734226     4.506338
H      -0.001760     0.459179     2.522984
C      -0.187466     1.050572    -0.124510
N       0.213534     2.126831    -0.070781
C       1.918046    -0.038298    -2.007844
O       2.423223     0.727378    -2.801743
C       2.687601    -0.462702    -0.764375
C       2.253643    -1.487640     0.059378
H       2.670862    -1.585103     1.055412
H       1.607249    -2.285183    -0.278929
C       3.443876     0.690206    -0.132240
H       4.173230     0.320805     0.592581
H       2.737373     1.339517     0.392615
H       3.953207     1.291377    -0.882937
N       0.664616    -0.567402    -2.278423
C       0.066801    -0.153048    -3.553795
H      -0.259110     0.891445    -3.511393
H      -0.792350    -0.792753    -3.761327
H       0.800983    -0.252246    -4.352510
C       4.270584    -1.495226    -1.833321
C       4.988847    -2.283709    -0.761952
C       3.557978    -2.332760    -2.869742
H       4.325580    -3.040908    -0.339198
H       5.352590    -1.642861     0.043524
H       5.856207    -2.792264    -1.201005
H       2.769760    -2.928498    -2.401092
H       4.269997    -3.028434    -3.331980
H       3.123476    -1.718201    -3.658403
C       5.078065    -0.435574    -2.369158
N       5.775610     0.392913    -2.765097
48
     -1091.801742     -1091.470839  19.71  22.61
C      -1.586790    -0.535429     0.492482
C      -0.482662     0.022323    -0.168094
C      -0.021343    -0.510197    -1.377469
C      -0.667388    -1.604052    -1.936186
C      -1.755031    -2.168849    -1.285651
C      -2.212984    -1.636432    -0.088226
C      -2.092964     0.008403     1.781387
C      -3.449080     0.305012     1.920778
C      -3.943885     0.792022     3.123174
C      -3.088277     0.985478     4.201310
C      -1.736951     0.688614     4.070779
C      -1.241793     0.201393     2.869158
H      -0.307117    -2.008636    -2.876547
H      -2.254171    -3.029269    -1.719703
H      -3.057802    -2.087093     0.421010
H      -4.116717     0.167257     1.075761
H      -5.000107     1.023433     3.217333
H      -3.474099     1.367000     5.141250
H      -1.063088     0.836337     4.908396
H      -0.187358    -0.035961     2.779212
C       0.222258     1.153643     0.378853
N       0.816095     2.047533     0.792880
C       2.154407    -0.622541    -2.515503
O       2.685286    -0.330220    -3.565937
C       2.721361    -1.732434    -1.645839
C       3.132865    -2.842149    -2.368594
H       3.375417    -3.769882    -1.861017
H       3.318006    -2.767447    -3.432811
C       2.236509    -1.956486    -0.224203
H       1.242412    -2.406065    -0.212162
H       2.197415    -1.037274     0.363321
H       2.909119    -2.654875     0.274743
N       1.069663     0.109804    -2.050242
C       0.698884     1.284245    -2.847560
H       1.600084     1.830271    -3.121473
H       0.055241     1.928018    -2.245731
H       0.174153     0.994239    -3.764719
C       4.570916    -0.681143    -1.217878
C       4.193732     0.752596    -0.913917
C       5.202655    -1.440793    -0.071492
H       3.413013     0.809399    -0.151437
H       3.858881     1.280171    -1.806774
H       5.072925     1.280861    -0.521811
H       4.658794    -1.271286     0.858984
H       6.231582    -1.088093     0.071513
H       5.247931    -2.513517    -0.274289
C       5.312429    -0.857334    -2.441552
N       5.950211    -1.034922    -3.384475
48
     -1091.800667     -1091.470196  20.39  23.01
C      -1.961720    -1.439258     0.012851
C      -0.849490    -0.593949    -0.084266
C      -0.659324     0.222223    -1.204947
C      -1.585543     0.209541    -2.232185
C      -2.697021    -0.619691    -2.143245
C      -2.879526    -1.435859    -1.037300
C      -2.182241    -2.321636     1.189453
C      -2.129046    -1.820429     2.490117
C      -2.356853    -2.655465     3.575234
C      -2.643488    -4.000436     3.374989
C      -2.701827    -4.507323     2.082022
C      -2.473662    -3.672687     0.996317
H      -1.422968     0.835977    -3.102774
H      -3.424557    -0.631606    -2.948342
H      -3.754884    -2.072696    -0.969630
H      -1.915803    -0.769928     2.655120
H      -2.310592    -2.252156     4.581593
H      -2.820882    -4.652341     4.224405
H      -2.922999    -5.557232     1.917868
H      -2.505209    -4.073748    -0.012049
C       0.155708    -0.546294     0.946404
N       0.982275    -0.451862     1.740218
C       1.704695     0.475400    -1.463898
O       1.749766    -0.701849    -1.764764
C       2.937708     1.359286    -1.323631
C       3.089417     2.025716    -0.122509
H       3.830104     2.810973    -0.018649
H       2.580112     1.683803     0.772148
C       3.356833     2.014507    -2.627522
H       3.398110     1.293088    -3.444566
H       4.332535     2.492470    -2.521077
H       2.630734     2.784739    -2.909977
N       0.480968     1.080882    -1.265456
C       0.237602     2.488340    -0.969574
H       1.036006     3.110981    -1.367163
H       0.159443     2.667783     0.108083
H      -0.702034     2.782613    -1.443804
C       4.573143    -0.098908    -1.140406
C       4.236514    -0.928865     0.075181
C       4.722952    -0.861938    -2.438982
H       5.077568    -1.598088     0.299111
H       3.350940    -1.535700    -0.112571
H       4.058454    -0.306428     0.953622
H       3.777305    -1.325906    -2.716477
H       5.466955    -1.657321    -2.294884
H       5.076782    -0.225013    -3.251440
C       5.626294     0.856361    -0.920946
N       6.435378     1.664218    -0.767296
48
     -1091.800667     -1091.470187  20.39  23.02
C       2.127983     1.992631    -0.721891
C       1.429130     0.950942    -0.099376
C       2.039609     0.154297     0.875764
C       3.349576     0.400013     1.245724
C       4.050457     1.435868     0.640173
C       3.448356     2.218258    -0.333424
C       1.504264     2.848144    -1.766249
C       2.173644     3.068747    -2.970753
C       1.615849     3.880241    -3.949411
C       0.382020     4.483271    -3.734652
C      -0.289218     4.270810    -2.536526
C       0.268160     3.459905    -1.557535
H       3.818536    -0.231027     1.993148
H       5.078474     1.629927     0.928536
H       3.997909     3.031906    -0.794251
H       3.130544     2.586936    -3.146392
H       2.145027     4.039777    -4.883592
H      -0.055223     5.117151    -4.499486
H      -1.252348     4.738954    -2.361092
H      -0.257956     3.307508    -0.621466
C       0.067796     0.638082    -0.451313
N      -1.022233     0.349500    -0.676763
C       1.015298    -2.001638     0.726065
O       1.559945    -2.132763    -0.353117
C       0.050335    -3.023042     1.314985
C      -1.197073    -2.556532     1.684008
H      -1.861780    -3.173876     2.278218
H      -1.591461    -1.634523     1.270402
C       0.742543    -4.101285     2.129444
H       1.592133    -4.526344     1.593501
H       0.042642    -4.899599     2.383624
H       1.126561    -3.676613     3.063489
N       1.293038    -0.892670     1.498429
C       0.788193    -0.608640     2.837145
H      -0.111546     0.015208     2.806525
H       1.565130    -0.077667     3.392883
H       0.552822    -1.529893     3.365441
C      -0.515213    -4.233359    -0.431400
C      -1.128111    -3.261949    -1.411457
C       0.689726    -5.001524    -0.930384
H      -1.934065    -2.683153    -0.957332
H      -1.547868    -3.820591    -2.258275
H      -0.370843    -2.575631    -1.789949
H       0.417988    -5.512905    -1.863973
H       1.013441    -5.764621    -0.220557
H       1.512133    -4.319406    -1.142238
C      -1.475854    -5.064475     0.244057
N      -2.221544    -5.714945     0.837096
48
     -1091.800197     -1091.469679  20.68  23.34
C      -1.742682    -1.883605     0.247674
C      -0.807674    -0.884437    -0.050591
C      -0.665851    -0.395938    -1.355212
C      -1.473857    -0.887704    -2.365726
C      -2.412136    -1.871025    -2.077743
C      -2.539933    -2.367028    -0.789289
C      -1.905440    -2.426635     1.622628
C      -1.909975    -3.807365     1.825129
C      -2.081308    -4.333028     3.098634
C      -2.252725    -3.483828     4.185634
C      -2.252592    -2.107754     3.991417
C      -2.081610    -1.581666     2.718373
H      -1.355113    -0.512534    -3.376465
H      -3.045401    -2.257551    -2.869776
H      -3.280487    -3.128359    -0.569622
H      -1.761953    -4.471808     0.979390
H      -2.078204    -5.408847     3.242828
H      -2.385927    -3.893749     5.181722
H      -2.386700    -1.438400     4.834949
H      -2.092101    -0.506827     2.574100
C       0.057410    -0.337387     0.963142
N       0.760735     0.144095     1.734944
C       1.626000     0.265600    -1.538975
O       1.925633    -0.900574    -1.376140
C       2.645272     1.391055    -1.664679
C       2.546545     2.407377    -0.733848
H       3.108208     3.326716    -0.860087
H       2.021843     2.252839     0.203395
C       3.044481     1.692801    -3.097866
H       3.888472     2.384539    -3.123571
H       2.206221     2.159979    -3.626083
H       3.308997     0.785445    -3.642832
N       0.293492     0.626406    -1.616053
C      -0.230905     1.898165    -2.099413
H      -0.491372     1.851321    -3.163534
H       0.502581     2.687766    -1.947464
H      -1.128816     2.148996    -1.529877
C       4.514795     0.451410    -0.975784
C       4.246232     0.015144     0.444742
C       4.915024    -0.643732    -1.940421
H       3.889330     0.842950     1.059734
H       5.177782    -0.359281     0.889100
H       3.505884    -0.784172     0.464389
H       5.195092    -0.248078    -2.918208
H       4.106609    -1.365532    -2.050384
H       5.790543    -1.168079    -1.533607
C       5.336480     1.627330    -1.077738
N       5.951880     2.596357    -1.192960
48
     -1091.800197     -1091.469672  20.68  23.34
C      -1.547488    -0.419156     1.405870
C      -0.232994    -0.397716     0.922978
C       0.498035     0.795624     0.874732
C      -0.073112     1.971323     1.330114
C      -1.372605     1.958367     1.821410
C      -2.102261     0.779766     1.852428
C      -2.348563    -1.671142     1.457656
C      -1.844053    -2.829257     2.049183
C      -2.614596    -3.982356     2.106407
C      -3.899246    -3.992464     1.576435
C      -4.410963    -2.841652     0.988327
C      -3.640592    -1.688099     0.930573
H       0.493619     2.894944     1.283366
H      -1.821229     2.880010     2.177859
H      -3.113128     0.775079     2.245397
H      -0.845962    -2.827053     2.473460
H      -2.208496    -4.876601     2.567898
H      -4.500376    -4.895012     1.621358
H      -5.412725    -2.842543     0.570401
H      -4.036574    -0.794416     0.458134
C       0.409389    -1.592388     0.437807
N       0.974372    -2.517175     0.053447
C       1.998425     0.545700    -0.971989
O       1.023387     0.493646    -1.695064
C       3.428604     0.368984    -1.466690
C       4.147567    -0.661570    -0.892101
H       5.217575    -0.742317    -1.050692
H       3.640872    -1.481310    -0.393197
C       4.110380     1.674263    -1.835301
H       5.062442     1.482517    -2.333590
H       4.312278     2.256219    -0.929483
H       3.483977     2.287580    -2.484695
N       1.836059     0.773726     0.382031
C       2.879439     1.160266     1.324354
H       2.930006     2.248440     1.449749
H       3.846537     0.796606     0.982223
H       2.664872     0.705641     2.294291
C       3.158861    -0.462967    -3.488516
C       2.406793    -1.757892    -3.293794
C       2.488194     0.565830    -4.372723
H       1.397326    -1.561802    -2.933333
H       2.913657    -2.415545    -2.585672
H       2.339414    -2.283742    -4.255238
H       1.546483     0.888852    -3.930611
H       2.270391     0.104803    -5.345855
H       3.128409     1.430522    -4.555701
C       4.555901    -0.639849    -3.780645
N       5.689390    -0.745809    -3.967678
48
     -1091.802665     -1091.469219  19.13  23.62
C      -0.907305     0.266505     1.133357
C      -0.468006    -0.382736    -0.029417
C      -0.269262    -1.768309    -0.050564
C      -0.564131    -2.519373     1.076940
C      -0.995754    -1.887110     2.234136
C      -1.158419    -0.509374     2.262916
C      -1.099512     1.739392     1.182112
C      -2.289962     2.266684     1.683557
C      -2.476318     3.640727     1.752606
C      -1.471649     4.500625     1.323186
C      -0.282725     3.979464     0.826979
C      -0.092404     2.606132     0.756388
H      -0.442756    -3.596498     1.040986
H      -1.209610    -2.474891     3.120903
H      -1.478772    -0.017205     3.174717
H      -3.080187     1.595416     2.006219
H      -3.408199     4.040437     2.139892
H      -1.615864     5.575221     1.375939
H       0.506318     4.644908     0.492365
H       0.842024     2.204521     0.381140
C      -0.276386     0.346690    -1.257825
N      -0.147980     0.876990    -2.269691
C       1.293831    -3.083215    -1.514051
O       1.352504    -3.777007    -2.515250
C       2.535376    -2.948863    -0.631633
C       3.449508    -3.965955    -0.871791
H       4.286990    -4.113091    -0.198688
H       3.372995    -4.585517    -1.754688
C       2.528991    -2.411606     0.792384
H       3.565284    -2.288170     1.118615
H       2.058124    -3.132736     1.465220
H       2.030308    -1.454970     0.915288
N       0.128933    -2.395639    -1.265234
C      -0.930613    -2.555256    -2.271918
H      -1.764416    -1.906933    -2.001396
H      -1.270801    -3.593714    -2.309725
H      -0.560436    -2.272223    -3.257617
C       3.419856    -1.244902    -1.673602
C       4.905462    -1.505981    -1.557502
C       2.891377    -1.233484    -3.090358
H       5.458352    -0.669994    -2.003527
H       5.168482    -2.418909    -2.094628
H       5.225705    -1.602365    -0.518065
H       3.447629    -0.482799    -3.666785
H       1.834359    -0.968419    -3.134212
H       3.035302    -2.207472    -3.560062
C       3.004892    -0.119656    -0.884340
N       2.699483     0.777254    -0.225100
48
     -1091.802665     -1091.469214  19.13  23.63
C       0.950256     1.770206     0.077427
C       1.026692     0.424044     0.462885
C       2.180074    -0.331336     0.220233
C       3.285110     0.273434    -0.358947
C       3.219411     1.603719    -0.747774
C       2.062499     2.340563    -0.537863
C      -0.274759     2.580703     0.303622
C      -1.525497     2.114342    -0.102493
C      -2.656317     2.893748     0.100023
C      -2.552381     4.141289     0.703515
C      -1.307503     4.611926     1.105966
C      -0.174197     3.835493     0.905337
H       4.187608    -0.308743    -0.509925
H       4.079528     2.070580    -1.216617
H       2.009106     3.374912    -0.859582
H      -1.609947     1.147591    -0.585720
H      -3.624447     2.521421    -0.218515
H      -3.439612     4.746800     0.860093
H      -1.218735     5.584616     1.579417
H       0.795959     4.197563     1.232244
C      -0.052637    -0.202583     1.184096
N      -0.868801    -0.734252     1.794657
C       2.360768    -2.818269    -0.090455
O       2.658422    -3.859656     0.469995
C       2.065183    -2.842198    -1.590530
C       2.574283    -3.982833    -2.196818
H       2.609076    -4.053032    -3.278463
H       2.889363    -4.832675    -1.607147
C       2.012827    -1.608594    -2.480472
H       1.634294    -1.907599    -3.461736
H       3.018430    -1.206304    -2.626670
H       1.376256    -0.809420    -2.113000
N       2.236088    -1.680475     0.672141
C       2.453166    -1.855667     2.115625
H       3.484180    -2.160694     2.314475
H       1.780604    -2.618585     2.508461
H       2.250129    -0.906922     2.613031
C      -0.068012    -3.285777    -1.435001
C      -0.325669    -4.157504    -2.644291
C      -0.311981    -3.964604    -0.105987
H      -0.044940    -3.661505    -3.575663
H      -1.394832    -4.396895    -2.699844
H       0.232704    -5.091328    -2.558762
H      -0.187334    -3.281607     0.735114
H       0.362288    -4.812880     0.019594
H      -1.345398    -4.334493    -0.084885
C      -0.686407    -1.995731    -1.556296
N      -1.179325    -0.960848    -1.691817
48
     -1091.800378     -1091.469121  20.57  23.69
C      -1.986296    -1.026874     0.212775
C      -0.643375    -0.681596     0.427508
C       0.106180    -0.059439    -0.572923
C      -0.472957     0.228930    -1.796509
C      -1.795716    -0.123614    -2.024023
C      -2.543097    -0.743394    -1.031826
C      -2.809248    -1.682095     1.263773
C      -2.886303    -1.156351     2.553521
C      -3.674256    -1.769531     3.517608
C      -4.398365    -2.913758     3.205038
C      -4.330540    -3.442248     1.921202
C      -3.541870    -2.829422     0.956916
H       0.119968     0.723324    -2.557183
H      -2.251633     0.094590    -2.984388
H      -3.582463    -0.996483    -1.211310
H      -2.330499    -0.259012     2.802975
H      -3.721808    -1.350429     4.517438
H      -5.013809    -3.392783     3.959855
H      -4.891576    -4.336836     1.669866
H      -3.478589    -3.251797    -0.041157
C       0.016580    -0.983977     1.672151
N       0.570744    -1.191943     2.658239
C       2.403362    -0.575865    -0.787492
O       2.029495    -1.613006    -1.309547
C       3.901696    -0.283726    -0.732235
C       4.671710    -1.434954    -0.782601
H       5.733288    -1.391656    -0.565529
H       4.234177    -2.377922    -1.080610
C       4.501350     0.889203     0.024215
H       5.587585     0.849828    -0.075270
H       4.274163     0.812251     1.089644
H       4.163396     1.862780    -0.329555
N       1.466374     0.306929    -0.311372
C       1.645302     1.494942     0.525834
H       2.093458     2.318923    -0.030883
H       2.220355     1.273751     1.425365
H       0.650859     1.810873     0.843717
C       4.031752     0.462920    -2.764159
C       5.484919     0.857331    -2.900888
C       3.598383    -0.656920    -3.680156
H       6.128187     0.012540    -2.642525
H       5.746412     1.711490    -2.275671
H       5.692134     1.126907    -3.943934
H       4.197796    -1.548968    -3.485574
H       3.769079    -0.352852    -4.721103
H       2.548788    -0.916372    -3.552000
C       3.128556     1.576416    -2.715306
N       2.402391     2.471247    -2.636219
48
     -1091.800378     -1091.469115  20.57  23.69
C      -0.977418    -1.097260     1.820221
C      -0.220604    -0.345999     0.908295
C       0.043487    -0.829599    -0.374736
C      -0.445087    -2.064228    -0.765516
C      -1.180623    -2.821789     0.134941
C      -1.443803    -2.344226     1.411589
C      -1.280444    -0.602046     3.189198
C      -1.046089    -1.423888     4.292334
C      -1.341672    -0.984239     5.575589
C      -1.877888     0.283066     5.771918
C      -2.117219     1.106300     4.678166
C      -1.822426     0.666669     3.395144
H      -0.240966    -2.418521    -1.769223
H      -1.559807    -3.793337    -0.165208
H      -2.037342    -2.934106     2.101735
H      -0.613787    -2.408301     4.142004
H      -1.149982    -1.632362     6.424948
H      -2.108278     0.628049     6.774860
H      -2.535786     2.096993     4.822728
H      -2.019637     1.311948     2.545977
C       0.335569     0.932324     1.272533
N       0.779033     1.964001     1.520926
C       2.125004    -0.347529    -1.387001
O       2.579732    -1.210171    -0.654170
C       3.050331     0.301058    -2.414861
C       4.384892     0.236470    -2.046713
H       5.128050     0.815387    -2.583851
H       4.705920    -0.422611    -1.251738
C       2.650405     1.488315    -3.273958
H       3.500529     1.769309    -3.898205
H       2.414463     2.350704    -2.646828
H       1.799517     1.295183    -3.926571
N       0.794298    -0.024773    -1.291950
C       0.060861     1.092207    -1.890891
H      -0.925007     1.109977    -1.424495
H      -0.081536     0.954401    -2.963488
H       0.538423     2.049567    -1.680755
C       2.881559    -1.299111    -3.868956
C       3.727201    -0.813935    -5.024572
C       3.388716    -2.558754    -3.207909
H       4.732794    -0.567180    -4.675124
H       3.296476     0.056161    -5.520828
H       3.820370    -1.614749    -5.768596
H       3.431022    -3.361808    -3.955223
H       2.758365    -2.875998    -2.378812
H       4.399595    -2.397277    -2.827171
C       1.472043    -1.291892    -4.135835
N       0.334724    -1.250187    -4.333466
48
     -1091.802436     -1091.468907  19.28  23.82
C      -1.482660     0.199695    -0.304485
C      -0.398041    -0.594466    -0.705062
C       0.475677    -0.168191    -1.711700
C       0.238880     1.038171    -2.356042
C      -0.825326     1.835145    -1.961877
C      -1.673868     1.421298    -0.944260
C      -2.408379    -0.227867     0.776764
C      -1.918678    -0.644937     2.014754
C      -2.799878    -1.022745     3.018795
C      -4.172057    -0.985765     2.801564
C      -4.664883    -0.566223     1.571045
C      -3.786774    -0.187760     0.564440
H       0.905100     1.350510    -3.152598
H      -0.994718     2.787227    -2.454127
H      -2.495547     2.054814    -0.628300
H      -0.849359    -0.660442     2.191770
H      -2.408719    -1.346515     3.977763
H      -4.856974    -1.282595     3.589665
H      -5.735282    -0.535783     1.393479
H      -4.171577     0.127280    -0.400880
C      -0.190439    -1.902273    -0.136453
N      -0.003989    -2.964264     0.262503
C       2.874731    -0.801262    -2.146520
O       3.585356    -1.513938    -2.835929
C       3.558484     0.256212    -1.287454
C       2.962968     1.420554    -0.825712
H       3.602784     2.238810    -0.511491
H       1.909249     1.526464    -0.629239
C       5.026057     0.365073    -1.668777
H       5.101710     0.679499    -2.713307
H       5.545463    -0.588940    -1.592124
H       5.526929     1.109136    -1.046539
N       1.518627    -1.037921    -2.141175
C       1.081134    -2.171297    -2.971660
H       0.009706    -2.311257    -2.828955
H       1.604416    -3.080463    -2.675126
H       1.287055    -1.975760    -4.027750
C       3.670364    -0.932090     0.544274
C       3.726589    -2.394024     0.163970
C       4.899602    -0.391000     1.240138
H       3.953114    -2.986921     1.060333
H       4.514166    -2.574296    -0.570159
H       2.777723    -2.751804    -0.236625
H       5.808000    -0.683826     0.712912
H       4.949349    -0.802881     2.255762
H       4.867662     0.697470     1.326007
C       2.465505    -0.533344     1.222177
N       1.524169    -0.170163     1.780111
48
     -1091.802436     -1091.468905  19.28  23.82
C       0.624668     1.825772    -0.795202
C       0.528571     0.457626    -1.089329
C       1.659545    -0.284815    -1.447234
C       2.887830     0.352053    -1.558039
C       2.995648     1.702316    -1.261006
C       1.876321     2.429416    -0.879868
C      -0.562163     2.625040    -0.393399
C      -0.830657     3.835663    -1.032907
C      -1.924839     4.602729    -0.656164
C      -2.759646     4.167120     0.366780
C      -2.493124     2.964104     1.009548
C      -1.399894     2.194388     0.635742
H       3.755375    -0.223922    -1.860570
H       3.961690     2.191844    -1.328745
H       1.967915     3.481570    -0.633071
H      -0.186440     4.169684    -1.840732
H      -2.127211     5.540639    -1.163687
H      -3.615952     4.765164     0.662420
H      -3.139055     2.619695     1.810551
H      -1.185698     1.263796     1.148713
C      -0.749235    -0.208656    -1.095019
N      -1.748438    -0.775006    -1.145964
C       2.103258    -2.756104    -1.244700
O       2.112461    -3.799918    -1.876008
C       2.696381    -2.776251     0.159407
C       3.201110    -1.672989     0.831414
H       3.877932    -1.839545     1.663167
H       2.866530    -0.661331     0.674111
C       3.423069    -4.090228     0.396909
H       2.779198    -4.953902     0.237832
H       3.836956    -4.119302     1.406629
H       4.246227    -4.177794    -0.317492
N       1.506139    -1.653052    -1.811950
C       0.911425    -1.880256    -3.138709
H       0.188765    -2.695167    -3.093726
H       1.685193    -2.136512    -3.867820
H       0.404091    -0.967583    -3.451060
C       0.819440    -3.116195     1.227699
C      -0.126339    -3.857017     0.310233
C       1.251048    -3.869502     2.466364
H      -1.002510    -4.180917     0.887916
H       0.352691    -4.745090    -0.106388
H      -0.483807    -3.229081    -0.506312
H       0.403145    -3.939943     3.158976
H       2.062148    -3.356343     2.987848
H       1.567696    -4.882700     2.217236
C       0.418884    -1.771092     1.544657
N       0.132115    -0.693530     1.837789
48
     -1091.800228     -1091.468610  20.66  24.01
C       0.762409     1.932281    -1.745310
C       0.354179     0.852461    -0.951654
C      -0.567147    -0.086633    -1.430960
C      -1.090648     0.053763    -2.704935
C      -0.699860     1.126497    -3.496079
C       0.217871     2.051811    -3.023297
C       1.744040     2.939614    -1.261804
C       1.577311     3.582060    -0.034958
C       2.492853     4.535065     0.389622
C       3.584402     4.860310    -0.406651
C       3.756203     4.227265    -1.632146
C       2.840848     3.273850    -2.057222
H      -1.787340    -0.688176    -3.080291
H      -1.111871     1.236071    -4.494006
H       0.511839     2.892925    -3.641686
H       0.723055     3.340830     0.588182
H       2.351593     5.025707     1.347168
H       4.299788     5.605239    -0.073057
H       4.607466     4.474530    -2.258572
H       2.984303     2.770192    -3.008228
C       0.892696     0.653487     0.369420
N       1.291773     0.460999     1.430420
C      -0.023472    -2.140424    -0.327325
O       1.040640    -2.118619    -0.912193
C      -0.396729    -3.179067     0.723545
C      -1.122871    -4.257667     0.254261
H      -1.604487    -4.941583     0.945233
H      -1.119340    -4.519091    -0.798649
C      -0.671041    -2.614266     2.109301
H      -0.681704    -3.413809     2.850161
H      -1.648143    -2.127493     2.138333
H       0.072062    -1.868063     2.393665
N      -0.971873    -1.172252    -0.597864
C      -2.364486    -1.180802    -0.166231
H      -2.528667    -0.499735     0.675590
H      -2.663227    -2.189655     0.116077
H      -2.995503    -0.859935    -0.998421
C       1.525763    -4.151524     1.138609
C       1.951799    -4.874176    -0.119395
C       2.473647    -3.088279     1.645518
H       1.169180    -5.549233    -0.472296
H       2.842366    -5.477988     0.099396
H       2.192668    -4.159196    -0.903574
H       3.456350    -3.546635     1.821818
H       2.140551    -2.650082     2.586603
H       2.596071    -2.299351     0.903832
C       1.050599    -5.052945     2.154180
N       0.618702    -5.766348     2.951080
48
     -1091.800228     -1091.468606  20.66  24.01
C       0.709433     1.989778    -1.712580
C       0.299294     0.837076    -1.030214
C      -0.433014    -0.163442    -1.680723
C      -0.765206    -0.012557    -3.016264
C      -0.371846     1.131256    -3.699153
C       0.359385     2.118047    -3.056109
C       1.493151     3.063863    -1.046076
C       2.658411     3.543485    -1.645676
C       3.391718     4.560335    -1.049151
C       2.967014     5.112048     0.153904
C       1.805841     4.641838     0.755481
C       1.072232     3.625352     0.159429
H      -1.313613    -0.800113    -3.521982
H      -0.633929     1.248852    -4.745623
H       0.655292     3.013572    -3.591615
H       2.999248     3.104018    -2.578072
H       4.298790     4.920961    -1.523880
H       3.539930     5.906487     0.621467
H       1.467518     5.068264     1.694244
H       0.162094     3.270591     0.630641
C       0.645130     0.627163     0.352232
N       0.893510     0.422834     1.456132
C       0.146490    -2.205618    -0.573761
O       1.279965    -2.050087    -0.981098
C      -0.273373    -3.326726     0.369239
C      -0.800471    -4.447242    -0.245167
H      -1.308445    -5.208717     0.337290
H      -0.606567    -4.654645    -1.292239
C      -0.816683    -2.861005     1.711800
H      -0.857464    -3.693329     2.414530
H      -1.832314    -2.475226     1.601409
H      -0.209268    -2.059983     2.135242
N      -0.845194    -1.323519    -0.959099
C      -2.279088    -1.490858    -0.754889
H      -2.642321    -0.871812     0.072344
H      -2.510013    -2.537002    -0.557449
H      -2.803984    -1.193085    -1.665653
C       1.653359    -4.123840     1.052067
C       2.342663    -4.737743    -0.145553
C       2.393990    -2.998514     1.738386
H       3.247166    -5.260821     0.191839
H       2.625402    -3.964522    -0.857124
H       1.699553    -5.468432    -0.640768
H       2.545639    -2.165491     1.052394
H       3.380456    -3.365571     2.053073
H       1.875087    -2.642708     2.628758
C       1.124435    -5.116944     1.948562
N       0.652032    -5.908091     2.642430
48
     -1091.800228     -1091.468602  20.66  24.01
C      -0.078633     1.959893    -1.527823
C       0.014807     0.873590    -0.648175
C      -1.021317    -0.062658    -0.546404
C      -2.160097     0.087061    -1.319423
C      -2.266721     1.166234    -2.187405
C      -1.237249     2.088761    -2.292712
C       1.010338     2.964423    -1.658869
C       1.487814     3.305761    -2.924924
C       2.489080     4.256765    -3.068543
C       3.023724     4.880266    -1.947158
C       2.551136     4.547917    -0.683228
C       1.549991     3.597319    -0.539091
H      -2.950824    -0.652635    -1.253492
H      -3.160375     1.283096    -2.791842
H      -1.330152     2.934903    -2.964804
H       1.081327     2.809521    -3.800812
H       2.854614     4.509613    -4.058821
H       3.807013     5.623301    -2.058250
H       2.963013     5.031096     0.196815
H       1.180170     3.350521     0.450137
C       1.191956     0.665003     0.155361
N       2.109455     0.464895     0.818829
C       0.033611    -2.124478     0.060008
O       0.599002    -2.097014    -1.014454
C       0.297840    -3.171888     1.134983
C      -0.570317    -4.247626     1.135657
H      -0.593714    -4.937631     1.972607
H      -1.148496    -4.500628     0.253231
C       0.834534    -2.618525     2.446591
H       1.231448    -3.423945     3.064664
H       0.036860    -2.133383     3.013038
H       1.613704    -1.873572     2.279699
N      -0.903301    -1.155086     0.364147
C      -1.827423    -1.168641     1.491795
H      -2.811367    -0.841395     1.147662
H      -1.497860    -0.494843     2.289826
H      -1.924966    -2.180129     1.884364
C       2.127521    -4.145178     0.414699
C       1.787468    -4.857244    -0.875121
C       3.201277    -3.084715     0.323236
H       0.937435    -5.530179    -0.743433
H       2.649050    -5.461967    -1.187460
H       1.559117    -4.135741    -1.657070
H       2.897069    -2.289498    -0.356897
H       4.116840    -3.542951    -0.075062
H       3.443620    -2.654920     1.295428
C       2.287678    -5.055331     1.517316
N       2.364035    -5.775650     2.415002
48
     -1091.798029     -1091.468360  22.04  24.16
C      -1.894926    -0.872913     0.408261
C      -0.497182    -0.963261     0.479090
C       0.258236    -1.290591    -0.650065
C      -0.365105    -1.511298    -1.865574
C      -1.747189    -1.405578    -1.948195
C      -2.502229    -1.097364    -0.825562
C      -2.724035    -0.539701     1.596504
C      -3.694432     0.459324     1.508405
C      -4.489714     0.769642     2.603166
C      -4.326138     0.082945     3.800625
C      -3.363952    -0.915306     3.895707
C      -2.569298    -1.226009     2.801106
H       0.240092    -1.738431    -2.735810
H      -2.239791    -1.571532    -2.900687
H      -3.583211    -1.040000    -0.895534
H      -3.813370     1.006846     0.578571
H      -5.237541     1.552168     2.521613
H      -4.946765     0.325601     4.657318
H      -3.229893    -1.456344     4.826785
H      -1.826261    -2.012137     2.880680
C       0.209045    -0.669417     1.699689
N       0.808261    -0.456171     2.657950
C       2.389906    -0.273255    -0.874503
O       1.803608     0.774743    -1.073585
C       3.909988    -0.338491    -0.985432
C       4.556190    -1.546025    -1.189245
H       5.623374    -1.632510    -1.016307
H       4.057798    -2.380508    -1.666885
C       4.584324     0.730092    -0.147734
H       4.080662     1.689716    -0.256247
H       5.638475     0.834342    -0.415500
H       4.530385     0.448511     0.909735
N       1.682555    -1.404105    -0.545119
C       2.176334    -2.596178     0.141132
H       2.309456    -3.436331    -0.547738
H       1.446308    -2.883432     0.900719
H       3.120456    -2.388896     0.642768
C       4.108474     0.500600    -2.988352
C       3.821837     1.983697    -2.955606
C       5.514354     0.144076    -3.415592
H       2.853299     2.200019    -2.510469
H       3.834961     2.369195    -3.984118
H       4.605178     2.506405    -2.401826
H       6.244182     0.559703    -2.715700
H       5.719443     0.578526    -4.402234
H       5.660141    -0.935037    -3.477586
C       3.097797    -0.303189    -3.619320
N       2.297190    -1.002767    -4.066942
48
     -1091.799137     -1091.468318  21.35  24.19
C       1.125855     1.625141    -2.004002
C       0.590967     0.739334    -1.055162
C      -0.156194    -0.376044    -1.446963
C      -0.376020    -0.618968    -2.793714
C       0.150493     0.249238    -3.738800
C       0.888925     1.359183    -3.349598
C       1.928118     2.813295    -1.609657
C       3.012214     2.696096    -0.739877
C       3.763676     3.811737    -0.397958
C       3.443922     5.057972    -0.923309
C       2.367764     5.183017    -1.794083
C       1.615561     4.067230    -2.135899
H      -0.943986    -1.492134    -3.088573
H      -0.013915     0.055118    -4.793766
H       1.308936     2.023108    -4.097446
H       3.274349     1.725214    -0.333435
H       4.603082     3.705902     0.281601
H       4.031882     5.929854    -0.654855
H       2.110942     6.153437    -2.206984
H       0.766972     4.169209    -2.805289
C       0.760651     0.974137     0.357367
N       0.860258     1.135346     1.492068
C      -0.305783    -2.521155    -0.369900
O       0.345381    -2.997670    -1.280294
C      -0.618107    -3.354989     0.863935
C      -1.070800    -4.631509     0.558961
H      -1.492091    -5.260934     1.335701
H      -0.922437    -5.049219    -0.429224
C      -1.119342    -2.716197     2.149105
H      -0.570993    -1.809919     2.411090
H      -1.011978    -3.426959     2.967708
H      -2.179115    -2.467604     2.079647
N      -0.721646    -1.203297    -0.425564
C      -1.937939    -0.668866     0.199073
H      -1.746012    -0.208556     1.170458
H      -2.685751    -1.455621     0.303390
H      -2.347912     0.089576    -0.471121
C       1.447449    -3.693333     1.419286
C       2.016379    -4.747505     0.495670
C       2.120250    -2.338690     1.354452
H       1.434552    -5.670123     0.545209
H       3.043410    -4.977333     0.807914
H       2.027620    -4.388341    -0.531380
H       1.607916    -1.581229     1.949466
H       2.187063    -1.997421     0.319825
H       3.143768    -2.427651     1.741326
C       1.275813    -4.197490     2.757032
N       1.129596    -4.623925     3.818659
48
     -1091.799137     -1091.468315  21.35  24.19
C       2.111415     1.523294    -1.532795
C       1.108317     0.600206    -1.197008
C       1.078089    -0.675596    -1.769065
C       2.052568    -1.043357    -2.683516
C       3.049211    -0.139031    -3.019795
C       3.076849     1.129376    -2.454893
C       2.165863     2.882345    -0.932076
C       2.299572     4.000326    -1.756221
C       2.372930     5.274590    -1.209871
C       2.315996     5.446329     0.168267
C       2.186589     4.337389     0.995821
C       2.113737     3.063427     0.449955
H       2.029333    -2.037597    -3.111173
H       3.817465    -0.429100    -3.729240
H       3.869428     1.823264    -2.713395
H       2.330311     3.869243    -2.833467
H       2.472162     6.136118    -1.862621
H       2.372337     6.442170     0.596134
H       2.142598     4.463294     2.072769
H       2.022866     2.202240     1.103117
C       0.052128     0.952904    -0.280911
N      -0.815606     1.201382     0.432359
C       0.304606    -2.730187    -0.787004
O       1.459980    -3.104417    -0.716551
C      -0.801147    -3.535553    -0.120790
C      -0.714503    -4.897112    -0.377871
H      -1.533946    -5.555940    -0.110576
H       0.202751    -5.330837    -0.756722
C      -2.183492    -2.947317     0.111694
H      -2.772077    -2.946332    -0.806630
H      -2.148045    -1.927193     0.497370
H      -2.718697    -3.564678     0.832281
N      -0.006297    -1.544074    -1.426760
C      -1.269231    -1.257073    -2.117998
H      -1.976334    -0.707013    -1.493698
H      -1.726784    -2.182859    -2.468209
H      -1.035305    -0.651598    -2.996150
C      -0.004101    -3.369660     1.885873
C       1.162700    -4.324313     2.009212
C       0.328975    -1.905502     2.078758
H       1.965406    -4.034157     1.334359
H       0.859111    -5.348637     1.783832
H       1.534304    -4.300452     3.041905
H       1.171280    -1.621389     1.445361
H       0.627701    -1.740007     3.122095
H      -0.515217    -1.246881     1.869411
C      -1.138267    -3.817120     2.651812
N      -2.041986    -4.200067     3.257551
48
     -1091.798525     -1091.467749  21.73  24.55
C       0.134989     1.726084    -2.076182
C       0.798720     0.839832    -1.219162
C       1.679307    -0.127128    -1.720600
C       1.934926    -0.182800    -3.080001
C       1.307171     0.715133    -3.934861
C       0.411036     1.650742    -3.440950
C      -0.837666     2.726702    -1.564296
C      -1.865833     2.348139    -0.700733
C      -2.780892     3.286095    -0.243667
C      -2.681968     4.612883    -0.645670
C      -1.662406     4.997595    -1.508647
C      -0.746719     4.059669    -1.966189
H       2.611979    -0.936621    -3.467001
H       1.506374     0.669642    -5.000699
H      -0.101341     2.325192    -4.118311
H      -1.953417     1.312088    -0.391350
H      -3.574857     2.978364     0.429066
H      -3.397698     5.345796    -0.287138
H      -1.577946     6.032497    -1.824911
H       0.057549     4.364946    -2.628476
C       0.644347     0.922585     0.210571
N       0.576717     0.955781     1.358073
C       1.520010    -1.913780    -0.137781
O       0.343299    -1.995986    -0.416889
C       2.198068    -2.745508     0.947962
C       2.756859    -2.040992     1.993845
H       3.447774    -2.520185     2.679417
H       2.442389    -1.026317     2.215189
C       2.864342    -4.004778     0.423555
H       3.646627    -3.737246    -0.294472
H       2.158231    -4.658757    -0.090227
H       3.337651    -4.556391     1.237726
N       2.328269    -1.015352    -0.816094
C       3.785712    -0.988620    -0.805568
H       4.159978    -1.373803     0.141385
H       4.118110     0.046583    -0.909503
H       4.212829    -1.578213    -1.625726
C       0.472269    -3.624507     1.978789
C       1.098029    -4.455471     3.076856
C      -0.362557    -2.467961     2.469723
H       0.304890    -4.903372     3.688989
H       1.705444    -3.823934     3.729251
H       1.713119    -5.268147     2.687598
H      -1.188197    -2.856944     3.080357
H      -0.777738    -1.885859     1.649956
H       0.239578    -1.812405     3.103469
C      -0.113271    -4.424870     0.941978
N      -0.534761    -5.127648     0.129516
48
     -1091.797912     -1091.467636  22.12  24.62
C      -1.753457    -1.918984    -0.077256
C      -0.778789    -0.931679    -0.268753
C      -0.380620    -0.551477    -1.556337
C      -0.970292    -1.140680    -2.661064
C      -1.946248    -2.113273    -2.481846
C      -2.327741    -2.501644    -1.206634
C      -2.185781    -2.348213     1.279458
C      -2.230857    -3.707147     1.593673
C      -2.651320    -4.127690     2.848201
C      -3.034457    -3.193880     3.803867
C      -2.995366    -1.838967     3.497333
C      -2.575313    -1.418009     2.243137
H      -0.651356    -0.849375    -3.656036
H      -2.408487    -2.576448    -3.347597
H      -3.096467    -3.255139    -1.073926
H      -1.918383    -4.437187     0.853359
H      -2.677199    -5.187576     3.080938
H      -3.362553    -3.521545     4.785172
H      -3.293795    -1.103958     4.237789
H      -2.556761    -0.359246     2.008929
C      -0.131792    -0.286230     0.844927
N       0.405092     0.272764     1.694429
C       1.900129     0.131064    -1.331692
O       2.159127    -1.008852    -1.010713
C       2.921834     1.264994    -1.346661
C       2.661724     2.332579    -0.513397
H       3.197968     3.268853    -0.626740
H       1.992214     2.229294     0.334235
C       3.562428     1.485106    -2.705200
H       4.275006     2.310909    -2.665316
H       2.791600     1.746341    -3.438097
H       4.069684     0.590381    -3.069078
N       0.609935     0.462620    -1.708842
C       0.178991     1.695309    -2.355497
H      -0.802443     1.976296    -1.965460
H       0.103007     1.577449    -3.443167
H       0.877329     2.499755    -2.132415
C       4.604407     0.361329    -0.266099
C       5.644998     1.458837    -0.245353
C       4.074693    -0.024394     1.092626
H       5.984513     1.732035    -1.245612
H       6.520959     1.117184     0.320676
H       5.249500     2.345216     0.255925
H       3.314656    -0.799960     1.030746
H       3.652123     0.850298     1.592935
H       4.905721    -0.392541     1.708890
C       4.961873    -0.725372    -1.131968
N       5.297668    -1.547800    -1.868493
48
     -1091.797054     -1091.465358  22.65  26.05
C      -1.254404    -0.119417     1.401679
C       0.011391    -0.522127     0.954457
C       1.107657     0.343665     1.014954
C       0.958629     1.610269     1.553960
C      -0.285572     2.008728     2.024148
C      -1.378857     1.156948     1.944991
C      -2.442242    -1.001613     1.270308
C      -3.288320    -1.209724     2.359548
C      -4.410802    -2.017214     2.234622
C      -4.700642    -2.622537     1.017151
C      -3.864009    -2.414328    -0.073121
C      -2.741298    -1.606913     0.048570
H       1.810006     2.278797     1.578361
H      -0.406990     3.003229     2.440910
H      -2.354070     1.490117     2.283736
H      -3.054699    -0.747673     3.313964
H      -5.059264    -2.176087     3.090509
H      -5.577315    -3.254898     0.918422
H      -4.086112    -2.882837    -1.026511
H      -2.096512    -1.436824    -0.807356
C       0.233519    -1.855758     0.453557
N       0.471666    -2.921192     0.092405
C       2.844029     0.465411    -0.639120
O       2.478187     1.572172    -0.983292
C       3.802565    -0.341921    -1.505214
C       3.872805    -1.717739    -1.346886
H       4.695899    -2.275971    -1.779936
H       3.051350    -2.282003    -0.920693
C       5.048369     0.424129    -1.902391
H       5.749982     0.441832    -1.060728
H       4.813287     1.457019    -2.156459
H       5.553479    -0.053659    -2.745657
N       2.357087    -0.128798     0.508750
C       3.127709    -0.993355     1.402770
H       3.121213    -0.551455     2.404308
H       4.158799    -1.057358     1.057577
H       2.713690    -2.003690     1.455733
C       2.640090    -0.227362    -3.344361
C       2.876026     1.122572    -3.983471
C       3.114689    -1.405154    -4.164443
H       2.214590     1.221496    -4.854554
H       3.904750     1.199889    -4.342004
H       2.663140     1.936751    -3.293241
H       2.632908    -1.385845    -5.150326
H       2.876134    -2.353922    -3.681995
H       4.195072    -1.350882    -4.323054
C       1.310788    -0.398926    -2.819284
N       0.255818    -0.546608    -2.376755
48
     -1091.797054     -1091.465355  22.65  26.05
C      -1.459334     1.068283    -0.533576
C      -0.103465     0.718167    -0.474752
C       0.602008     0.365932    -1.629442
C      -0.030999     0.391896    -2.860560
C      -1.366988     0.763218    -2.932219
C      -2.073296     1.092716    -1.783470
C      -2.238798     1.368058     0.694863
C      -2.208335     0.493293     1.782210
C      -2.954719     0.768896     2.919825
C      -3.740723     1.913503     2.983660
C      -3.779448     2.784987     1.901223
C      -3.033549     2.512354     0.762400
H       0.519965     0.099019    -3.745447
H      -1.867617     0.777962    -3.894829
H      -3.125676     1.348379    -1.846109
H      -1.604838    -0.406949     1.730756
H      -2.921843     0.084001     3.761028
H      -4.322582     2.126007     3.874988
H      -4.390379     3.681190     1.944446
H      -3.053473     3.199827    -0.077815
C       0.618681     0.747574     0.772830
N       1.249148     0.802642     1.732919
C       2.299005    -1.329997    -1.728975
O       1.588136    -2.041944    -2.410899
C       3.545575    -1.890372    -1.056119
C       4.091978    -1.226391     0.031749
H       5.090604    -1.472451     0.376473
H       3.497570    -0.560114     0.646226
C       4.460296    -2.637064    -2.006028
H       5.165672    -3.268612    -1.460033
H       5.042734    -1.917889    -2.592991
H       3.890638    -3.247759    -2.705463
N       1.972105    -0.010767    -1.482914
C       2.931566     1.087102    -1.361390
H       3.939899     0.719521    -1.547288
H       2.905110     1.548865    -0.370907
H       2.690928     1.843740    -2.115030
C       2.561499    -3.546545    -0.038441
C       2.345830    -4.666123    -1.031636
C       3.486829    -3.888768     1.106819
H       3.302539    -5.099851    -1.330615
H       1.804135    -4.323948    -1.911472
H       1.760474    -5.459569    -0.548031
H       3.568120    -3.066028     1.818378
H       4.484814    -4.132917     0.732988
H       3.105995    -4.770739     1.637427
C       1.346319    -2.901821     0.385641
N       0.384218    -2.361753     0.722241
48
     -1091.797058     -1091.464256  22.65  26.74
C      -1.492378    -1.902063     0.556360
C      -0.246534    -1.361816     0.205279
C       0.570153    -1.998645    -0.733449
C       0.148726    -3.181199    -1.318053
C      -1.081670    -3.725940    -0.976251
C      -1.894405    -3.090711    -0.050065
C      -2.384755    -1.245445     1.549611
C      -3.723620    -1.015743     1.230582
C      -4.578041    -0.426452     2.152749
C      -4.104027    -0.061540     3.407369
C      -2.772509    -0.289730     3.733548
C      -1.918216    -0.878963     2.811895
H       0.786913    -3.664656    -2.050159
H      -1.407725    -4.652420    -1.437654
H      -2.849771    -3.523324     0.226369
H      -4.091826    -1.287828     0.246179
H      -5.616168    -0.249586     1.889671
H      -4.770702     0.399918     4.128893
H      -2.394825    -0.007573     4.710932
H      -0.882341    -1.060489     3.076473
C       0.196105    -0.117453     0.777029
N       0.553158     0.873798     1.235747
C       1.856578    -0.401109    -1.934390
O       0.791338     0.119532    -2.214528
C       3.130819     0.129123    -2.596512
C       2.861425     0.769423    -3.794999
H       3.669426     1.017098    -4.474331
H       1.855017     1.076576    -4.043703
C       4.472834    -0.580471    -2.510793
H       4.375257    -1.619810    -2.833291
H       4.921286    -0.571813    -1.518181
H       5.167234    -0.095229    -3.199192
N       1.861101    -1.476678    -1.072344
C       2.986788    -2.270741    -0.575703
H       3.773046    -1.633790    -0.179452
H       3.391003    -2.949504    -1.333225
H       2.611157    -2.871552     0.253576
C       3.481883     1.813915    -1.261366
C       4.702611     2.475299    -1.860270
C       2.234683     2.661321    -1.277996
H       4.934115     3.388624    -1.297985
H       4.502921     2.762865    -2.895199
H       5.583613     1.832757    -1.830564
H       2.429234     3.587707    -0.721776
H       1.383308     2.159284    -0.824686
H       1.984031     2.930558    -2.306359
C       3.750929     1.124424    -0.034825
N       4.015768     0.519720     0.912301
48
     -1091.795341     -1091.463796  23.73  27.03
C      -1.326901    -1.534991     1.167974
C      -0.580238    -0.710080     0.313646
C      -0.411309    -1.034035    -1.037764
C      -0.977409    -2.192629    -1.544779
C      -1.702399    -3.023471    -0.701824
C      -1.878266    -2.697888     0.635759
C      -1.527530    -1.208132     2.604609
C      -1.987929     0.046452     3.004206
C      -2.187637     0.327676     4.348546
C      -1.933076    -0.641541     5.311456
C      -1.477038    -1.895563     4.922082
C      -1.276699    -2.176735     3.577391
H      -0.826956    -2.443407    -2.586519
H      -2.139408    -3.935083    -1.096189
H      -2.464451    -3.343628     1.280728
H      -2.196177     0.805781     2.258404
H      -2.543592     1.309345     4.643844
H      -2.089070    -0.420314     6.362510
H      -1.273536    -2.657299     5.668127
H      -0.906066    -3.151597     3.276062
C       0.063435     0.480834     0.808896
N       0.558725     1.459402     1.154211
C       1.479595    -0.587227    -2.467137
O       1.682043    -1.773633    -2.633201
C       2.526320     0.444059    -2.871360
C       2.489167     1.712290    -2.312237
H       3.069748     2.518576    -2.747508
H       2.005612     1.896902    -1.359741
C       3.023470     0.271555    -4.292441
H       3.166584    -0.780616    -4.535828
H       3.959083     0.813670    -4.451157
H       2.282080     0.675000    -4.991513
N       0.329778    -0.126964    -1.853523
C      -0.374785     1.102093    -2.227800
H      -1.398369     0.841709    -2.515245
H       0.118074     1.566549    -3.080632
H      -0.406318     1.823891    -1.408022
C       4.182706    -0.413413    -1.746232
C       4.730665    -1.600715    -2.504904
C       5.157115     0.729284    -1.574580
H       5.214627    -1.272263    -3.427443
H       3.952226    -2.325853    -2.734764
H       5.495667    -2.092360    -1.888987
H       6.063117     0.368643    -1.070941
H       4.729780     1.537323    -0.979360
H       5.456666     1.127246    -2.547958
C       3.480888    -0.754929    -0.537760
N       2.877646    -1.001176     0.414173
