48
     -1091.813251     -1091.479152   0.00   0.00
C       1.431402    -0.759818    -0.294061
C       0.478393     0.019422    -0.980256
C      -0.350052    -0.571051    -1.953197
C      -0.299234    -1.942971    -2.149323
C       0.571307    -2.726607    -1.403556
C       1.441644    -2.134941    -0.498721
C       2.397631    -0.146475     0.657585
C       3.204565     0.921199     0.263869
C       4.115596     1.481083     1.149351
C       4.232119     0.978559     2.440944
C       3.433854    -0.087417     2.839264
C       2.523684    -0.648845     1.952300
H      -0.942790    -2.395974    -2.893982
H       0.590589    -3.800895    -1.553340
H       2.154742    -2.742373     0.047883
H       3.119158     1.312338    -0.744978
H       4.736822     2.311602     0.829347
H       4.942720     1.416869     3.134541
H       3.514857    -0.481687     3.847213
H       1.880139    -1.461423     2.272230
C       0.362631     1.430432    -0.709460
N       0.103293     2.281955     0.119272
C      -2.517274    -0.058653    -2.991393
O      -3.095171     0.349728    -3.980383
C      -3.214662    -0.880290    -1.939427
C      -3.920248    -1.929325    -2.344640
H      -4.448443    -2.564227    -1.639303
H      -3.992438    -2.177424    -3.398577
C      -3.129460    -0.422395    -0.504562
H      -2.314959     0.285534    -0.357654
H      -4.058543     0.086667    -0.227853
H      -2.977470    -1.257329     0.182005
N      -1.192245     0.253164    -2.755856
C      -0.524233     1.073238    -3.767670
H      -0.325014     0.491388    -4.674232
H      -1.163055     1.915406    -4.029541
H       0.417525     1.441068    -3.360320
C      -0.439826     2.105830     1.502747
C       0.604312     2.666398     2.474389
C      -1.762377     2.875134     1.581696
H       1.535210     2.102111     2.405510
H       0.800322     3.709418     2.217393
H       0.229910     2.611119     3.499881
H      -2.178598     2.806316     2.589878
H      -1.578138     3.923466     1.339160
H      -2.486801     2.471272     0.871824
C      -0.687700     0.688558     1.835444
N      -0.892816    -0.399545     2.141547
48
     -1091.805203     -1091.476984   5.05   1.36
C       0.886443    -1.544779     0.119071
C      -0.112775    -0.679378    -0.373828
C      -1.324686    -1.195163    -0.880452
C      -1.529924    -2.564674    -0.875671
C      -0.554843    -3.420395    -0.377838
C       0.641283    -2.912011     0.114115
C       2.152937    -1.004200     0.676454
C       2.580233    -1.402866     1.943526
C       3.762005    -0.907025     2.478281
C       4.530888    -0.003990     1.753113
C       4.110662     0.400004     0.490597
C       2.930811    -0.097080    -0.044457
H      -2.461629    -2.958614    -1.268079
H      -0.728947    -4.491104    -0.378093
H       1.405359    -3.584407     0.488992
H       1.968633    -2.089506     2.520247
H       4.081008    -1.222962     3.466601
H       5.454263     0.384633     2.170625
H       4.705804     1.104632    -0.081705
H       2.613213     0.215382    -1.034035
C       0.069587     0.718517    -0.335203
N       0.121332     1.885343    -0.169182
C      -2.198464     0.719117    -2.184345
O      -2.980856     1.653356    -2.202924
C      -1.078916     0.652685    -3.186283
C      -0.739019    -0.496869    -3.761254
H       0.007882    -0.524930    -4.549318
H      -1.204698    -1.438599    -3.494278
C      -0.511874     1.983709    -3.592968
H      -0.064668     2.497982    -2.737932
H       0.247162     1.855475    -4.367758
H      -1.312647     2.624501    -3.971168
N      -2.366808    -0.323732    -1.296706
C      -3.561811    -0.282792    -0.449653
H      -3.751325    -1.283147    -0.057926
H      -3.429935     0.404102     0.391609
H      -4.412653     0.044619    -1.045376
C      -0.598552     2.645527     1.351025
C       0.599021     3.292172     2.009058
C      -1.637186     3.591510     0.792123
H       1.324915     2.543007     2.333081
H       1.083244     3.967225     1.300079
H       0.285180     3.873483     2.883211
H      -2.115171     4.154049     1.601894
H      -1.153533     4.301441     0.117327
H      -2.407511     3.055763     0.233351
C      -1.129109     1.517793     2.060463
N      -1.520879     0.553822     2.557567
48
     -1091.805203     -1091.476980   5.05   1.36
C      -1.609687    -0.791349    -0.945631
C      -0.553682     0.143628    -0.914552
C      -0.454558     1.149282    -1.899570
C      -1.416666     1.218200    -2.893199
C      -2.466863     0.308661    -2.919814
C      -2.559570    -0.685858    -1.953623
C      -1.731497    -1.835662     0.103885
C      -0.658585    -2.669687     0.421578
C      -0.787663    -3.639503     1.405559
C      -1.991630    -3.790854     2.084749
C      -3.065439    -2.964149     1.774884
C      -2.935495    -1.992285     0.791522
H      -1.336610     1.990919    -3.650656
H      -3.214979     0.374810    -3.702550
H      -3.373276    -1.402298    -1.986158
H       0.280974    -2.562860    -0.110947
H       0.055160    -4.281422     1.641815
H      -2.092087    -4.550177     2.853712
H      -4.006743    -3.072960     2.304471
H      -3.766943    -1.331689     0.566922
C       0.400819     0.109719     0.123065
N       1.114446     0.209988     1.057097
C       1.900875     1.874139    -1.665963
O       2.656704     2.716178    -1.213220
C       2.439857     0.550951    -2.135393
C       1.984226    -0.021468    -3.245497
H       2.438322    -0.930519    -3.629054
H       1.171243     0.401638    -3.824315
C       3.618030     0.034337    -1.358493
H       3.990171    -0.892938    -1.799571
H       4.415125     0.782352    -1.358543
H       3.349849    -0.150321    -0.314684
N       0.556802     2.144184    -1.821964
C       0.113992     3.501821    -1.493418
H       0.008151     3.635262    -0.412713
H       0.843129     4.217799    -1.869907
H      -0.853529     3.681332    -1.964345
C       0.673246     1.333639     2.453464
C       0.564637     0.390028     3.629533
C       1.836019     2.299535     2.485624
H      -0.264776    -0.308985     3.500626
H       1.491929    -0.178814     3.726320
H       0.404356     0.953142     4.555694
H       1.914219     2.863421     1.553654
H       1.722627     3.004729     3.316582
H       2.764600     1.742566     2.629821
C      -0.573408     1.903949     2.032530
N      -1.569168     2.306242     1.612460
48
     -1091.805203     -1091.476977   5.05   1.36
C       1.681027    -0.925584    -0.292182
C       0.468369    -0.363361    -0.743487
C       0.135256    -0.378427    -2.114712
C       1.021234    -0.940429    -3.018536
C       2.223523    -1.482438    -2.580802
C       2.547400    -1.473693    -1.229426
C       2.046657    -0.888993     1.147223
C       1.168022    -1.351099     2.128103
C       1.523635    -1.308821     3.468691
C       2.763369    -0.805826     3.847903
C       3.644630    -0.343124     2.877434
C       3.287803    -0.383630     1.536003
H       0.761421    -0.952854    -4.071908
H       2.909590    -1.917933    -3.299402
H       3.480658    -1.910259    -0.890456
H       0.202597    -1.753234     1.838265
H       0.830306    -1.672127     4.220707
H       3.041139    -0.773821     4.896610
H       4.612015     0.055719     3.166304
H       3.966931    -0.000228     0.781068
C      -0.414896     0.254962     0.165555
N      -1.092378     0.916945     0.868777
C      -2.302409     0.049335    -2.061202
O      -3.184036     0.878746    -2.202971
C      -2.599371    -1.258410    -1.380540
C      -2.092815    -2.400247    -1.835739
H      -2.381733    -3.350811    -1.396826
H      -1.402132    -2.436129    -2.670401
C      -3.621506    -1.183609    -0.281360
H      -3.276820    -0.539827     0.532453
H      -4.545920    -0.746681    -0.667934
H      -3.829072    -2.179416     0.116338
N      -1.042946     0.263163    -2.582575
C      -0.853233     1.484487    -3.369711
H      -1.721642     1.637775    -4.008753
H      -0.726794     2.358510    -2.723928
H       0.040295     1.372461    -3.985459
C      -0.812579     2.737295     0.991980
C      -2.135990     3.310471     0.538021
C      -0.473449     2.932326     2.452215
H      -2.361871     3.029133    -0.492746
H      -2.933599     2.931306     1.180925
H      -2.122748     4.403707     0.610875
H       0.467779     2.440994     2.708819
H      -0.382877     3.999701     2.682583
H      -1.269621     2.511196     3.069937
C       0.282090     2.961212     0.093016
N       1.162928     3.043398    -0.646718
48
     -1091.805203     -1091.476972   5.05   1.37
C       1.678163    -0.561225    -1.064701
C       0.330221    -0.153167    -0.981948
C      -0.424833     0.075639    -2.151984
C       0.177612    -0.091369    -3.387651
C       1.509176    -0.479034    -3.474441
C       2.249831    -0.711205    -2.321742
C       2.483450    -0.778511     0.164613
C       3.719394    -0.146524     0.306106
C       4.484267    -0.339847     1.448910
C       4.021597    -1.166494     2.466314
C       2.789812    -1.798084     2.333860
C       2.026548    -1.606414     1.191007
H      -0.406014     0.082837    -4.285582
H       1.969660    -0.604467    -4.448581
H       3.284935    -1.027083    -2.394157
H       4.070678     0.517744    -0.477146
H       5.442468     0.160636     1.547523
H       4.618407    -1.317533     3.360168
H       2.422005    -2.445184     3.123927
H       1.070236    -2.109447     1.090054
C      -0.274209     0.067058     0.273050
N      -0.756633     0.414215     1.292106
C      -2.745592     0.009737    -1.293006
O      -3.711919     0.667030    -0.947362
C      -2.659301    -1.449009    -0.937640
C      -2.203758    -2.342746    -1.810171
H      -2.227740    -3.404462    -1.582410
H      -1.820720    -2.059392    -2.783815
C      -3.272565    -1.817209     0.384060
H      -4.314826    -1.488725     0.410100
H      -3.228317    -2.897513     0.538543
H      -2.756965    -1.318061     1.209021
N      -1.754574     0.569804    -2.072742
C      -1.966712     1.949336    -2.518941
H      -1.736932     2.664623    -1.723637
H      -1.313215     2.149837    -3.369128
H      -3.006302     2.073480    -2.818698
C      -0.655870     2.180170     1.819736
C      -2.109937     2.578383     1.934384
C       0.113558     2.104773     3.118824
H      -2.609397     1.920823     2.649525
H      -2.195232     3.609807     2.294296
H      -2.624444     2.496865     0.974546
H       1.135533     1.756267     2.953678
H       0.154832     3.090999     3.594447
H      -0.388088     1.413093     3.799080
C       0.057119     2.802894     0.742499
N       0.636416     3.213974    -0.165942
48
     -1091.803668     -1091.475693   6.01   2.17
C       1.288882    -1.438930     0.115352
C       0.060789    -0.748946    -0.003379
C      -0.837316    -1.072381    -1.044449
C      -0.502954    -2.055352    -1.959047
C       0.712799    -2.718942    -1.857712
C       1.592174    -2.415683    -0.823588
C       2.235698    -1.140818     1.220783
C       2.691830    -2.172044     2.042209
C       3.583092    -1.908260     3.074109
C       4.027548    -0.609716     3.295855
C       3.579375     0.420917     2.477648
C       2.691374     0.158621     1.443701
H      -1.199076    -2.293340    -2.755829
H       0.972753    -3.481830    -2.583836
H       2.541584    -2.934451    -0.746989
H       2.331957    -3.183386     1.879589
H       3.927784    -2.717950     3.709565
H       4.722715    -0.402280     4.103265
H       3.925874     1.436433     2.640015
H       2.367835     0.963771     0.794526
C      -0.329332     0.230993     0.934779
N      -0.713457     1.083668     1.656682
C      -2.559093     0.262532    -2.208185
O      -3.740360     0.548464    -2.305240
C      -1.593415     0.685493    -3.281551
C      -0.419609     1.229556    -2.981357
H       0.229392     1.616098    -3.761593
H      -0.062747     1.334431    -1.964659
C      -2.128920     0.576412    -4.681773
H      -1.408872     0.971176    -5.401543
H      -2.345362    -0.466577    -4.939708
H      -3.069639     1.126523    -4.766059
N      -2.089252    -0.399342    -1.097330
C      -3.079415    -0.741199    -0.072176
H      -3.637491     0.149032     0.217969
H      -3.786980    -1.486000    -0.449790
H      -2.561356    -1.145003     0.797954
C      -0.665184     2.854422     1.176154
C      -1.976076     3.066609     0.450102
C      -0.540766     3.554672     2.509199
H      -2.017351     2.502120    -0.482730
H      -2.802946     2.750469     1.090234
H      -2.111570     4.127783     0.212807
H      -0.582184     4.641119     2.376976
H      -1.365681     3.250904     3.157181
H       0.400327     3.298369     3.000315
C       0.495801     2.970055     0.339689
N       1.437557     2.995544    -0.325279
48
     -1091.804484     -1091.475502   5.50   2.29
C       0.936453     0.773685    -1.413757
C      -0.184265     0.319368    -0.690849
C      -1.276968    -0.256653    -1.359216
C      -1.248507    -0.376944    -2.738555
C      -0.148809     0.073998    -3.457340
C       0.937090     0.635367    -2.796302
C       2.108040     1.363132    -0.712250
C       3.372441     0.796856    -0.871694
C       4.473323     1.340537    -0.221638
C       4.323026     2.457942     0.591635
C       3.064777     3.027537     0.754751
C       1.964119     2.482750     0.107772
H      -2.093971    -0.828826    -3.246146
H      -0.135150    -0.021988    -4.537929
H       1.796204     0.985845    -3.358478
H       3.484435    -0.089365    -1.487961
H       5.451365     0.886986    -0.347735
H       5.183645     2.882978     1.098366
H       2.939862     3.900037     1.388333
H       0.983911     2.931630     0.234450
C      -0.222901     0.441674     0.726704
N      -0.014816     0.317386     1.884860
C      -3.666398    -0.347925    -0.802919
O      -4.609665    -1.026899    -0.439011
C      -3.900563     0.995477    -1.443037
C      -3.258799     2.072424    -1.005341
H      -3.486332     3.059374    -1.396969
H      -2.509320     2.013673    -0.223416
C      -4.990059     1.024272    -2.476637
H      -5.176048     2.045030    -2.817052
H      -4.723066     0.410347    -3.344614
H      -5.908849     0.604652    -2.058509
N      -2.370649    -0.756586    -0.596499
C      -2.177888    -2.037344     0.087717
H      -2.714209    -2.030766     1.037038
H      -2.558338    -2.865007    -0.519297
H      -1.112931    -2.185342     0.263597
C       1.209444    -0.917395     2.490998
C       2.361802    -0.061075     2.969348
C       0.452624    -1.653119     3.574154
H       2.849323     0.451866     2.138980
H       1.990713     0.684882     3.675954
H       3.106577    -0.682068     3.480156
H       0.088344    -0.937020     4.313971
H      -0.401587    -2.194980     3.162659
H       1.108960    -2.370557     4.078943
C       1.504619    -1.708618     1.330096
N       1.683311    -2.292022     0.351450
48
     -1091.804484     -1091.475502   5.50   2.29
C       0.914036     0.045266    -1.512097
C      -0.234543     0.133904    -0.700985
C      -1.467394    -0.361746    -1.155863
C      -1.550217    -0.940784    -2.411137
C      -0.422594    -1.026183    -3.217678
C       0.799906    -0.544829    -2.764825
C       2.228632     0.545870    -1.028968
C       3.320517    -0.318912    -0.960148
C       4.552926     0.139135    -0.511299
C       4.708211     1.466946    -0.129983
C       3.623270     2.334550    -0.196333
C       2.391016     1.876475    -0.641907
H      -2.504951    -1.326712    -2.752017
H      -0.496264    -1.479385    -4.200661
H       1.680395    -0.613442    -3.394894
H       3.192070    -1.360693    -1.235661
H       5.393851    -0.544890    -0.455376
H       5.671569     1.824548     0.219530
H       3.737081     3.372612     0.099910
H       1.546953     2.556927    -0.695712
C      -0.158894     0.730059     0.589280
N       0.085381     0.956651     1.724649
C      -3.777722     0.297493    -0.650987
O      -4.826144     0.019143    -0.097348
C      -3.740911     1.363657    -1.714588
C      -2.847421     2.344233    -1.656271
H      -2.869590     3.166796    -2.364869
H      -2.084701     2.378444    -0.885775
C      -4.856212     1.296822    -2.718478
H      -4.827185     2.157696    -3.389654
H      -4.787676     0.383067    -3.320081
H      -5.819016     1.267948    -2.201505
N      -2.597542    -0.307744    -0.291194
C      -2.657760    -1.292278     0.791720
H      -3.250698    -2.163147     0.494652
H      -1.644994    -1.615816     1.029623
H      -3.120838    -0.843188     1.670792
C       1.033777    -0.252107     2.739685
C       2.376255     0.422104     2.921962
C       0.197179    -0.384542     3.992623
H       2.916207     0.498049     1.976986
H       2.226197     1.426589     3.324386
H       2.990939    -0.146401     3.629216
H      -0.780572    -0.818246     3.772344
H       0.703796    -1.023162     4.724612
H       0.049357     0.601981     4.437313
C       1.072371    -1.432383     1.923409
N       1.055587    -2.334731     1.205407
48
     -1091.802878     -1091.475499   6.51   2.29
C       1.439144    -0.996110    -0.104236
C       0.311892    -0.276452    -0.564110
C      -0.218347    -0.531789    -1.846511
C       0.350955    -1.510879    -2.639954
C       1.435566    -2.246762    -2.176185
C       1.976262    -1.980594    -0.922729
C       2.028141    -0.715927     1.230406
C       2.173480    -1.741432     2.164160
C       2.733127    -1.484926     3.409325
C       3.156240    -0.200789     3.732518
C       3.019215     0.824211     2.802933
C       2.459206     0.570402     1.558501
H      -0.065469    -1.698903    -3.623930
H       1.871200    -3.018575    -2.801771
H       2.840235    -2.535726    -0.573262
H       1.830511    -2.741372     1.916656
H       2.836741    -2.289490     4.130488
H       3.594882    -0.000218     4.704848
H       3.358672     1.826678     3.044553
H       2.375616     1.366932     0.827187
C      -0.368120     0.621213     0.279955
N      -0.975676     1.338981     0.994460
C      -2.506806    -0.318802    -2.696641
O      -3.270784     0.253263    -3.452325
C      -2.873926    -1.657938    -2.113840
C      -2.812892    -1.861153    -0.802748
H      -3.159515    -2.792052    -0.363746
H      -2.450805    -1.100640    -0.119539
C      -3.430119    -2.647428    -3.097424
H      -3.774489    -3.549981    -2.588303
H      -4.261904    -2.197386    -3.645971
H      -2.673765    -2.932495    -3.837904
N      -1.314998     0.250831    -2.308655
C      -0.990342     1.571162    -2.850039
H      -1.877957     2.201484    -2.809379
H      -0.191403     2.015113    -2.255487
H      -0.664464     1.501382    -3.894089
C      -0.606108     3.134115     1.107812
C      -1.904176     3.775022     0.668587
C      -0.253849     3.314110     2.567721
H      -2.119892     3.556721    -0.379348
H      -2.722911     3.390448     1.280704
H      -1.857504     4.862403     0.794991
H      -0.084968     4.372735     2.794263
H      -1.079660     2.955047     3.185920
H       0.645224     2.752253     2.827930
C       0.487453     3.331421     0.201533
N       1.360147     3.387441    -0.550638
48
     -1091.802878     -1091.475497   6.51   2.29
C      -0.732091    -1.444190    -0.741759
C      -0.213381    -0.128800    -0.769550
C      -0.060980     0.548207    -1.998106
C      -0.392740    -0.092029    -3.178067
C      -0.867095    -1.398768    -3.157713
C      -1.042062    -2.060159    -1.946807
C      -0.928387    -2.157646     0.546308
C      -0.332759    -3.400387     0.759631
C      -0.522535    -4.074821     1.959031
C      -1.312605    -3.514939     2.956430
C      -1.913806    -2.278788     2.746623
C      -1.724606    -1.602554     1.549313
H      -0.270924     0.438093    -4.116737
H      -1.117438    -1.896583    -4.088486
H      -1.439100    -3.069528    -1.929985
H       0.295303    -3.831253    -0.014098
H      -0.049956    -5.039191     2.116491
H      -1.462294    -4.042242     3.893237
H      -2.541777    -1.841586     3.516725
H      -2.214188    -0.649754     1.379752
C       0.262570     0.487097     0.402967
N       0.710513     0.994474     1.370822
C       1.535153     2.279375    -2.676749
O       1.711481     3.434678    -3.017582
C       2.587069     1.236835    -2.949371
C       3.034261     0.459454    -1.969738
H       3.854259    -0.233247    -2.134699
H       2.626953     0.508442    -0.965762
C       3.159624     1.260542    -4.337716
H       3.509524     2.268249    -4.577312
H       3.988302     0.555247    -4.428549
H       2.397485     0.999839    -5.081237
N       0.404878     1.894160    -1.991601
C      -0.589842     2.926157    -1.696241
H      -0.080033     3.823654    -1.347801
H      -1.169774     3.183881    -2.589753
H      -1.267174     2.559784    -0.924308
C      -0.311619     2.046854     2.475260
C      -0.224362     1.326668     3.802487
C       0.392182     3.384606     2.414146
H      -0.676941     0.335035     3.742806
H       0.824849     1.213908     4.084447
H      -0.734678     1.899754     4.584585
H       0.334529     3.818022     1.413556
H      -0.057252     4.087660     3.124271
H       1.444025     3.252449     2.676963
C      -1.613694     2.035401     1.874763
N      -2.619995     1.966236     1.315237
48
     -1091.802878     -1091.475494   6.51   2.30
C       1.396739    -1.110313    -0.452730
C       0.346374    -0.199276    -0.711253
C      -0.111882    -0.000341    -2.030855
C       0.450411    -0.723350    -3.066885
C       1.457052    -1.647758    -2.811678
C       1.928307    -1.828159    -1.515635
C       1.911609    -1.306413     0.926804
C       2.394093    -0.223462     1.663377
C       2.884560    -0.414167     2.947788
C       2.900148    -1.685452     3.510922
C       2.425388    -2.768460     2.780046
C       1.935181    -2.580110     1.494100
H       0.089731    -0.562520    -4.077337
H       1.887216    -2.216667    -3.629071
H       2.733337    -2.528854    -1.321469
H       2.405374     0.765513     1.218321
H       3.265005     0.433930     3.508629
H       3.284578    -1.832401     4.515254
H       2.434259    -3.763387     3.213838
H       1.551772    -3.423710     0.928325
C      -0.334353     0.439271     0.342081
N      -0.945265     0.941942     1.218971
C      -2.322752     0.641496    -2.870731
O      -3.000427     1.477581    -3.439683
C      -2.805196    -0.780585    -2.758225
C      -2.843108    -1.387194    -1.577305
H      -3.271781    -2.379360    -1.471050
H      -2.483311    -0.908078    -0.673282
C      -3.351791    -1.367892    -4.027945
H      -2.565943    -1.464283    -4.786098
H      -3.781300    -2.355251    -3.846171
H      -4.117659    -0.706938    -4.442549
N      -1.127907     0.968709    -2.270209
C      -0.691741     2.363339    -2.350897
H      -1.541769     3.015023    -2.151947
H       0.090885     2.536810    -1.611783
H      -0.302463     2.599018    -3.347904
C      -0.480258     2.578161     1.910785
C      -1.706950     3.420959     1.639558
C      -0.215576     2.265481     3.366802
H      -1.605681     4.407452     2.105529
H      -1.865070     3.558285     0.567879
H      -2.585392     2.927684     2.061375
H      -0.000695     3.184172     3.923901
H      -1.100028     1.795174     3.802251
H       0.630032     1.583702     3.475641
C       0.680518     2.965102     1.163116
N       1.602880     3.186890     0.506950
48
     -1091.802878     -1091.475494   6.51   2.30
C       1.120457     0.428271    -1.699945
C       0.038582     0.159981    -0.829515
C      -1.198829    -0.276025    -1.348771
C      -1.358153    -0.410533    -2.715810
C      -0.308641    -0.111139    -3.577134
C       0.920003     0.294884    -3.067302
C       2.438616     0.856928    -1.165729
C       3.116086     0.068028    -0.234719
C       4.352739     0.467779     0.252651
C       4.927251     1.656725    -0.183093
C       4.259235     2.443979    -1.113937
C       3.022115     2.045309    -1.603868
H      -2.314154    -0.745987    -3.103757
H      -0.444491    -0.211601    -4.648713
H       1.746935     0.500840    -3.738504
H       2.681809    -0.871485     0.089300
H       4.874661    -0.157601     0.970319
H       5.894586     1.967172     0.198939
H       4.701838     3.373448    -1.457919
H       2.494078     2.666807    -2.320585
C       0.134840     0.426164     0.549088
N       0.186913     0.692120     1.698602
C      -3.478156     0.023972    -0.500311
O      -4.478841    -0.496973    -0.042896
C      -3.544385     1.405189    -1.096624
C      -2.702253     2.351687    -0.697951
H      -2.798006     3.372875    -1.054952
H      -1.913791     2.154171     0.020089
C      -4.695128     1.637742    -2.033423
H      -4.601316     1.017221    -2.932198
H      -5.632546     1.356356    -1.546208
H      -4.742448     2.685155    -2.338520
N      -2.251557    -0.598766    -0.445291
C      -2.194242    -1.923030     0.175009
H      -1.156836    -2.164211     0.408482
H      -2.788475    -1.915257     1.088047
H      -2.599512    -2.690964    -0.493682
C       0.738209    -0.530741     2.952682
C       1.940000     0.144035     3.575730
C      -0.471715    -0.662500     3.851224
H       2.737816     0.281714     2.843432
H       1.646385     1.123888     3.958794
H       2.326594    -0.453220     4.409012
H      -1.315241    -1.106328     3.318461
H      -0.239114    -1.290004     4.718801
H      -0.766378     0.326575     4.208737
C       1.042303    -1.708511     2.193392
N       1.255984    -2.602796     1.496908
48
     -1091.802878     -1091.475490   6.51   2.30
C       1.592515    -0.642142    -0.776579
C       0.297222    -0.078146    -0.711709
C      -0.545896    -0.104736    -1.842795
C      -0.110992    -0.712269    -3.006427
C       1.147107    -1.301392    -3.062215
C       1.990309    -1.255088    -1.957129
C       2.503331    -0.593166     0.395891
C       2.841303     0.628728     0.979723
C       3.701789     0.669596     2.068086
C       4.234854    -0.506004     2.585132
C       3.905570    -1.725422     2.004550
C       3.045559    -1.768579     0.914616
H      -0.767991    -0.727186    -3.869620
H       1.477449    -1.782989    -3.976418
H       2.982660    -1.689966    -2.010689
H       2.446171     1.549281     0.564123
H       3.964413     1.626133     2.509240
H       4.907926    -0.471713     3.435932
H       4.317780    -2.646860     2.403509
H       2.777566    -2.721965     0.469644
C      -0.217406     0.416828     0.501064
N      -0.678002     0.789041     1.522894
C      -2.990174    -0.160619    -2.008137
O      -4.008241     0.413546    -2.348507
C      -2.995609    -1.649553    -1.782792
C      -2.530084    -2.160489    -0.648678
H      -2.610665    -3.222947    -0.438602
H      -2.086376    -1.539587     0.121953
C      -3.681093    -2.451016    -2.852210
H      -4.687291    -2.058569    -3.022090
H      -3.142534    -2.377258    -3.804134
H      -3.742943    -3.503919    -2.569426
N      -1.820970     0.525615    -1.768506
C      -1.841178     1.977558    -1.950643
H      -2.752283     2.379767    -1.509138
H      -0.968234     2.411620    -1.462333
H      -1.826806     2.243138    -3.013834
C      -0.526497     2.533398     2.076343
C      -1.967615     2.982267     2.178077
C       0.209154     2.406838     3.391870
H      -2.027029     3.987629     2.609667
H      -2.448918     2.996652     1.198028
H      -2.515889     2.294775     2.825890
H      -0.347322     1.740510     4.054745
H       1.209734     1.995600     3.245414
H       0.298454     3.384956     3.877502
C       0.220823     3.174972     1.034222
N       0.821878     3.598389     0.145433
48
     -1091.802878     -1091.475489   6.51   2.30
C      -0.870637    -1.384708    -0.871033
C      -0.455685    -0.051789    -0.644722
C      -0.832723     0.970769    -1.540900
C      -1.584629     0.658300    -2.658607
C      -1.962245    -0.656932    -2.904715
C      -1.613549    -1.663357    -2.010366
C      -0.508710    -2.466302     0.080719
C       0.168317    -3.600003    -0.367658
C       0.499276    -4.617820     0.517751
C       0.153770    -4.513962     1.860258
C      -0.526709    -3.388424     2.311520
C      -0.857418    -2.369614     1.428741
H      -1.868224     1.452577    -3.341006
H      -2.545233    -0.894734    -3.788119
H      -1.932856    -2.684695    -2.188300
H       0.450094    -3.674795    -1.413494
H       1.030917    -5.493485     0.159000
H       0.410947    -5.309683     2.552176
H      -0.810096    -3.306591     3.356291
H      -1.409030    -1.504119     1.779329
C       0.426310     0.263897     0.405551
N       1.204765     0.532812     1.252026
C       0.293268     3.064771    -2.134608
O       0.275490     4.281732    -2.108586
C       1.186463     2.337648    -3.104782
C       2.016551     1.392970    -2.677563
H       2.727343     0.925223    -3.352420
H       2.043085     1.077369    -1.640283
C       1.154973     2.861759    -4.511978
H       0.169272     2.707973    -4.966275
H       1.342685     3.938826    -4.510751
H       1.903515     2.361545    -5.129933
N      -0.453650     2.313665    -1.255230
C      -1.285182     3.033624    -0.289862
H      -1.582568     2.350294     0.506075
H      -0.712786     3.861967     0.126101
H      -2.183552     3.440778    -0.767636
C       0.671352     1.030190     2.937297
C       1.308789    -0.022355     3.816863
C       1.241767     2.424597     3.074783
H       2.386552    -0.037080     3.640027
H       1.133276     0.203459     4.874564
H       0.907008    -1.013680     3.598769
H       1.087378     2.804083     4.091005
H       2.315192     2.397808     2.874900
H       0.773231     3.116151     2.371514
C      -0.760805     0.979050     2.888063
N      -1.903564     0.910687     2.746917
48
     -1091.803696     -1091.475353   6.00   2.38
C       1.831960    -0.696917    -0.669800
C       0.447886    -0.616887    -0.394805
C      -0.492673    -1.073039    -1.344561
C      -0.054412    -1.585089    -2.553005
C       1.304370    -1.646602    -2.833609
C       2.234189    -1.213150    -1.894304
C       2.840579    -0.247590     0.324295
C       3.857890    -1.114262     0.724130
C       4.810852    -0.702895     1.646908
C       4.756289     0.579937     2.180029
C       3.747135     1.449165     1.781640
C       2.796060     1.040977     0.856932
H      -0.785592    -1.929436    -3.276106
H       1.640578    -2.040783    -3.786717
H       3.294711    -1.259761    -2.116772
H       3.890950    -2.121535     0.320290
H       5.595319    -1.387396     1.953954
H       5.499578     0.901618     2.902679
H       3.700739     2.454305     2.188182
H       2.028537     1.733396     0.531382
C      -0.032094    -0.137872     0.843464
N      -0.515330     0.291801     1.832291
C      -2.834446    -0.415729    -1.781841
O      -4.015575    -0.668053    -1.614019
C      -2.423246     0.615984    -2.796227
C      -1.502260     1.531542    -2.516614
H      -1.280220     2.329803    -3.218590
H      -0.949759     1.544812    -1.586989
C      -3.237417     0.609519    -4.059934
H      -3.114765    -0.335006    -4.602111
H      -4.299883     0.703169    -3.821043
H      -2.936807     1.429346    -4.715656
N      -1.874174    -1.028906    -1.009815
C      -2.352826    -1.986082    -0.008414
H      -1.511479    -2.299469     0.610160
H      -3.111692    -1.519650     0.619921
H      -2.793969    -2.864047    -0.490628
C      -1.276564     1.959603     1.892366
C      -2.720495     1.707484     1.514742
C      -1.043667     2.379358     3.325002
H      -3.140929     0.943215     2.172445
H      -3.309606     2.623970     1.631712
H      -2.814889     1.372401     0.480538
H      -1.527858     3.340879     3.526539
H      -1.466593     1.629009     3.996379
H       0.023331     2.474486     3.537173
C      -0.542458     2.725740     0.925504
N       0.081563     3.277632     0.128176
48
     -1091.802489     -1091.475182   6.75   2.49
C      -0.524201    -1.580015    -0.406597
C      -0.302165    -0.238335    -0.788171
C      -0.929734     0.292609    -1.936817
C      -1.787503    -0.508294    -2.671503
C      -2.021151    -1.823865    -2.290396
C      -1.391173    -2.351650    -1.169091
C       0.115094    -2.139258     0.811771
C       1.491636    -2.035425     1.017438
C       2.074239    -2.561345     2.161685
C       1.289725    -3.200347     3.115593
C      -0.082213    -3.307811     2.918883
C      -0.665652    -2.779567     1.774803
H      -2.266899    -0.094142    -3.552241
H      -2.694859    -2.441757    -2.874323
H      -1.564918    -3.383442    -0.882901
H       2.110849    -1.544988     0.273221
H       3.146109    -2.473251     2.308515
H       1.746279    -3.612204     4.009960
H      -0.701649    -3.800489     3.661792
H      -1.740032    -2.842720     1.633911
C       0.509398     0.600373     0.002210
N       1.064189     1.353506     0.719626
C       0.474639     2.256805    -2.433010
O       0.606475     3.459675    -2.302114
C       1.630395     1.376318    -2.837440
C       2.816575     1.657210    -2.309744
H       3.703573     1.088401    -2.572701
H       2.925149     2.460954    -1.589908
C       1.422158     0.290173    -3.864783
H       2.376424     0.045761    -4.336422
H       1.017042    -0.625775    -3.426528
H       0.726896     0.613721    -4.645535
N      -0.762308     1.660768    -2.282786
C      -1.910188     2.536266    -2.041101
H      -1.796624     3.442130    -2.634530
H      -2.822069     2.014611    -2.337835
H      -1.991167     2.809159    -0.984706
C       0.108581     2.320198     1.972241
C       0.726157     1.886554     3.281973
C       0.371860     3.750038     1.556938
H       1.805562     2.048916     3.246104
H       0.313976     2.473259     4.110608
H       0.536140     0.828812     3.477439
H       1.447927     3.937197     1.568913
H       0.001196     3.948170     0.549014
H      -0.109268     4.445540     2.253719
C      -1.238064     1.871252     1.770954
N      -2.284667     1.448268     1.534528
48
     -1091.802490     -1091.474414   6.75   2.97
C       1.619028     0.606639    -1.356351
C       0.256937     0.508510    -0.995877
C      -0.752543     0.601955    -1.979400
C      -0.392759     0.763786    -3.306515
C       0.946598     0.844742    -3.667326
C       1.939986     0.769039    -2.697660
C       2.686892     0.488502    -0.330911
C       3.731289    -0.418071    -0.516141
C       4.737074    -0.539330     0.433618
C       4.709944     0.243206     1.582250
C       3.671036     1.147136     1.775343
C       2.667165     1.269903     0.825356
H      -1.173002     0.833928    -4.057077
H       1.216267     0.972178    -4.710245
H       2.984023     0.847071    -2.981535
H       3.740563    -1.046845    -1.400830
H       5.541971    -1.251021     0.278772
H       5.495237     0.148297     2.325395
H       3.642859     1.761284     2.669910
H       1.863530     1.982996     0.978591
C      -0.108519     0.266240     0.343759
N      -0.430921    -0.075792     1.424866
C      -2.738969     1.164138    -0.632597
O      -3.728432     0.735722    -0.067960
C      -2.190271     2.535773    -0.328804
C      -2.200130     2.921829     0.942110
H      -1.849109     3.905788     1.238876
H      -2.551915     2.253560     1.720329
C      -1.740482     3.430680    -1.458117
H      -0.719316     3.212115    -1.781492
H      -2.390272     3.320240    -2.331743
H      -1.776689     4.473179    -1.134546
N      -2.119175     0.433361    -1.627560
C      -2.738677    -0.830739    -2.028184
H      -3.821147    -0.723697    -1.982684
H      -2.435272    -1.066728    -3.050104
H      -2.432585    -1.652681    -1.374086
C      -0.655784    -1.870749     1.804461
C       0.332634    -2.109815     2.922789
C      -2.117356    -1.947668     2.184412
H       0.142007    -1.403252     3.733461
H       0.224913    -3.126949     3.315936
H       1.360241    -1.978482     2.576492
H      -2.762362    -1.643913     1.357202
H      -2.381775    -2.968442     2.482462
H      -2.306553    -1.280762     3.028537
C      -0.319819    -2.509485     0.565641
N      -0.032564    -2.928827    -0.469651
48
     -1091.802490     -1091.474399   6.75   2.98
C      -1.441851    -0.964836    -0.621678
C      -0.446671     0.008627    -0.860105
C      -0.430022     0.733589    -2.072238
C      -1.416387     0.499808    -3.015267
C      -2.406541    -0.445635    -2.777890
C      -2.413909    -1.170864    -1.591807
C      -1.478368    -1.716403     0.658803
C      -0.347516    -2.377603     1.140378
C      -0.396473    -3.074347     2.339317
C      -1.576843    -3.121898     3.072920
C      -2.707763    -2.465727     2.600781
C      -2.658248    -1.766608     1.401978
H      -1.398358     1.060679    -3.943782
H      -3.173768    -0.620526    -3.524494
H      -3.180197    -1.918299    -1.416222
H       0.574738    -2.351149     0.568923
H       0.490773    -3.583899     2.701768
H      -1.614594    -3.667746     4.010247
H      -3.631119    -2.493885     3.170834
H      -3.534978    -1.234496     1.046561
C       0.512176     0.302796     0.130323
N       1.231503     0.664352     0.991466
C       1.888780     1.566267    -2.147204
O       2.632754     2.500164    -1.911131
C       2.420508     0.173442    -2.375345
C       3.427702    -0.221739    -1.604791
H       3.885050    -1.199293    -1.725972
H       3.812508     0.424131    -0.823295
C       1.862016    -0.668260    -3.497019
H       2.595769    -1.423412    -3.787132
H       0.940789    -1.183480    -3.212386
H       1.635458    -0.055472    -4.374973
N       0.528161     1.761699    -2.283862
C       0.028588     3.135580    -2.212425
H      -0.132651     3.450668    -1.177121
H       0.754565     3.800089    -2.677881
H      -0.921247     3.196316    -2.747390
C       0.740079     2.071244     2.084946
C       0.752022     1.452387     3.463949
C       1.817326     3.095970     1.809343
H      -0.018737     0.684226     3.558840
H       1.727056     0.996618     3.649271
H       0.575955     2.218588     4.227274
H       1.818567     3.403305     0.761429
H       1.671932     3.982017     2.437442
H       2.793769     2.664428     2.040507
C      -0.563126     2.420150     1.599705
N      -1.600690     2.625067     1.139636
48
     -1091.803384     -1091.474337   6.19   3.02
C       0.990636    -1.326493     0.141523
C      -0.293367    -0.799464    -0.107508
C      -1.058533    -1.260912    -1.196080
C      -0.518401    -2.208589    -2.051959
C       0.770426    -2.684538    -1.844033
C       1.512634    -2.254268    -0.751072
C       1.785488    -0.867939     1.311121
C       1.264621    -0.951665     2.603017
C       2.010811    -0.524125     3.692495
C       3.286955    -0.004680     3.503029
C       3.811426     0.083066     2.218617
C       3.066588    -0.348458     1.128496
H      -1.107745    -2.567789    -2.887159
H       1.189295    -3.413419    -2.529792
H       2.506791    -2.651042    -0.575507
H       0.269942    -1.359709     2.754099
H       1.595082    -0.596851     4.692637
H       3.870523     0.331584     4.354297
H       4.803674     0.494527     2.063044
H       3.465556    -0.255173     0.124012
C      -0.804599     0.233814     0.721630
N      -1.000018     1.238667     1.314204
C      -2.860805    -0.374068    -2.609679
O      -4.054188    -0.387004    -2.843483
C      -1.863729     0.128893    -3.621384
C      -2.021195    -0.271881    -4.878200
H      -1.359066     0.068864    -5.668474
H      -2.825569    -0.947811    -5.149685
C      -0.809309     1.107799    -3.177509
H       0.000472     0.636357    -2.618630
H      -0.372600     1.603059    -4.046911
H      -1.241297     1.874902    -2.527239
N      -2.378425    -0.763766    -1.373541
C      -3.377803    -1.179954    -0.387738
H      -4.179305    -0.443683    -0.352093
H      -3.807616    -2.152268    -0.650715
H      -2.905114    -1.248710     0.592451
C       0.010736     2.737879     1.005726
C      -1.022525     3.785369     0.654771
C       0.726375     2.942892     2.323804
H      -1.540371     3.534835    -0.273690
H      -1.759309     3.853463     1.458062
H      -0.547840     4.765390     0.534844
H       1.274280     3.891897     2.313354
H      -0.005217     2.974115     3.134414
H       1.434288     2.135158     2.518553
C       0.885161     2.381674    -0.077150
N       1.569673     2.034181    -0.937475
48
     -1091.801728     -1091.474332   7.23   3.02
C       1.334935    -1.187286    -0.245229
C       0.151344    -0.444619    -0.462292
C      -0.866161    -0.957518    -1.297636
C      -0.682892    -2.172007    -1.933783
C       0.498427    -2.884210    -1.754970
C       1.488669    -2.397739    -0.908241
C       2.398389    -0.678424     0.658229
C       2.107534    -0.360595     1.985755
C       3.107743     0.103481     2.828881
C       4.407445     0.254789     2.358419
C       4.703883    -0.064951     1.038424
C       3.704833    -0.530648     0.193258
H      -1.467098    -2.554373    -2.577675
H       0.637791    -3.832334    -2.263187
H       2.395506    -2.970510    -0.745545
H       1.100248    -0.499937     2.362821
H       2.872084     0.339951     3.861857
H       5.188041     0.617394     3.019658
H       5.716282     0.051170     0.664668
H       3.933855    -0.767791    -0.841189
C       0.013136     0.861176     0.042149
N      -0.091115     1.976587     0.415099
C      -2.558533     0.134835    -2.691553
O      -3.740122     0.371506    -2.854722
C      -1.561475     0.265392    -3.815026
C      -1.908964    -0.235433    -4.995204
H      -1.255957    -0.158016    -5.859490
H      -2.864351    -0.732447    -5.127899
C      -0.273710     1.012497    -3.571438
H       0.483542     0.387458    -3.091239
H       0.133883     1.362975    -4.522059
H      -0.438906     1.880477    -2.925462
N      -2.067509    -0.211551    -1.449332
C      -3.029815    -0.294918    -0.349716
H      -3.666437    -1.180772    -0.451136
H      -2.489721    -0.349358     0.595619
H      -3.667597     0.588259    -0.362662
C      -0.806751     2.395276     2.057594
C       0.332236     3.112990     2.747027
C      -1.995264     3.258650     1.696266
H       1.185042     2.447858     2.894997
H       0.651988     3.957842     2.132992
H       0.010558     3.494646     3.722484
H      -2.456089     3.674438     2.599252
H      -1.663248     4.085849     1.065046
H      -2.750594     2.686903     1.153282
C      -1.149538     1.127867     2.634052
N      -1.392409     0.065384     3.011952
48
     -1091.803384     -1091.474325   6.19   3.03
C       1.782872    -0.233369     0.006265
C       0.433712    -0.640893    -0.039827
C       0.031430    -1.692718    -0.885542
C       0.968228    -2.296413    -1.710364
C       2.285986    -1.855568    -1.711448
C       2.690081    -0.840522    -0.852986
C       2.216933     0.851757     0.925027
C       1.971981     0.764463     2.296044
C       2.380561     1.778992     3.150647
C       3.037197     2.895402     2.643970
C       3.283104     2.989600     1.279002
C       2.878000     1.972640     0.423987
H       0.661011    -3.108765    -2.358138
H       3.006856    -2.323938    -2.373234
H       3.726228    -0.520066    -0.835444
H       1.462422    -0.107411     2.694663
H       2.186094     1.697887     4.215546
H       3.355483     3.690130     3.311340
H       3.788275     3.861682     0.876093
H       3.046299     2.058768    -0.644247
C      -0.535899     0.040330     0.742682
N      -1.261517     0.834336     1.234717
C      -2.043456    -2.386537    -2.001986
O      -2.985693    -3.155246    -1.985380
C      -1.663536    -1.630489    -3.248874
C      -1.643703    -2.312714    -4.388688
H      -1.405580    -1.831659    -5.332583
H      -1.874359    -3.372947    -4.406258
C      -1.411398    -0.149254    -3.151741
H      -2.169610     0.333129    -2.526972
H      -0.440568     0.089192    -2.714735
H      -1.451084     0.300352    -4.145791
N      -1.321125    -2.128802    -0.851162
C      -1.758884    -2.824773     0.360354
H      -1.264708    -2.381015     1.225109
H      -2.837579    -2.721145     0.467365
H      -1.513184    -3.890846     0.311290
C      -1.429437     2.526064     0.546023
C      -2.914644     2.647943     0.286537
C      -0.886838     3.400714     1.656010
H      -3.463329     2.442460     1.208211
H      -3.162539     3.661706    -0.046606
H      -3.241745     1.941394    -0.479469
H      -1.049091     4.458097     1.418238
H      -1.408011     3.171291     2.588230
H       0.182706     3.237271     1.800458
C      -0.618418     2.528027    -0.639878
N       0.057976     2.473575    -1.572077
48
     -1091.801728     -1091.474324   7.23   3.03
C       0.734455    -0.372064    -1.822577
C      -0.200705    -0.040544    -0.815047
C      -1.579569    -0.268019    -1.022807
C      -2.014834    -0.780182    -2.231722
C      -1.100425    -1.067419    -3.239732
C       0.260424    -0.874930    -3.027085
C       2.190231    -0.172359    -1.605920
C       2.833521    -0.771246    -0.521739
C       4.196443    -0.590775    -0.330638
C       4.932116     0.187168    -1.217792
C       4.297499     0.782014    -2.302189
C       2.933966     0.601815    -2.496057
H      -3.075641    -0.945542    -2.383802
H      -1.450237    -1.461843    -4.187734
H       0.974120    -1.129770    -3.803348
H       2.267704    -1.398115     0.158783
H       4.688145    -1.067911     0.511420
H       5.997849     0.326504    -1.066627
H       4.865787     1.390798    -2.998292
H       2.436125     1.077256    -3.335629
C       0.201806     0.629969     0.354170
N       0.520504     1.239906     1.313601
C      -3.581146     0.844339    -0.152953
O      -4.558206     0.758517     0.565918
C      -3.485320     1.885481    -1.239312
C      -4.557774     2.066545    -2.001835
H      -4.575522     2.815191    -2.788355
H      -5.452306     1.470833    -1.852371
C      -2.227997     2.710748    -1.357081
H      -2.447048     3.642091    -1.883638
H      -1.826460     2.958513    -0.369483
H      -1.440754     2.190232    -1.908446
N      -2.487530     0.023450     0.032367
C      -2.564179    -0.957450     1.115933
H      -2.930333    -0.468473     2.018025
H      -3.252753    -1.770772     0.861599
H      -1.571957    -1.372009     1.294696
C       1.045716     0.410275     2.869593
C       2.459240     0.914338     3.058250
C       0.035909     0.914548     3.876834
H       3.108172     0.580777     2.246338
H       2.454789     2.006485     3.074169
H       2.871064     0.554804     4.007879
H      -0.968959     0.555737     3.645001
H       0.300681     0.579897     4.886055
H       0.027690     2.006672     3.865548
C       0.945219    -0.990841     2.581647
N       0.830253    -2.092101     2.258109
48
     -1091.803393     -1091.473130   6.19   3.78
C       0.969353    -1.629145    -0.114363
C      -0.045500    -0.691179    -0.414160
C      -1.201274    -1.095130    -1.122587
C      -1.347016    -2.423344    -1.487002
C      -0.357156    -3.348581    -1.181379
C       0.791440    -2.948589    -0.507855
C       2.201861    -1.222389     0.606980
C       2.129630    -0.506981     1.802152
C       3.285433    -0.131210     2.471637
C       4.530009    -0.477640     1.958333
C       4.612202    -1.198469     0.771961
C       3.455044    -1.567246     0.098894
H      -2.237933    -2.729203    -2.024856
H      -0.481643    -4.386152    -1.472341
H       1.559480    -3.674251    -0.263705
H       1.165813    -0.247988     2.223948
H       3.202824     0.436637     3.392031
H       5.435398    -0.185546     2.481041
H       5.581726    -1.468949     0.365486
H       3.521685    -2.111835    -0.837973
C       0.095526     0.668753    -0.068280
N       0.147983     1.819876     0.185088
C      -2.080641     1.047077    -2.021408
O      -2.910396     1.934394    -1.916169
C      -0.893184     1.242539    -2.923901
C      -0.450930     0.257244    -3.699668
H       0.345302     0.431706    -4.417403
H      -0.873329    -0.740130    -3.673054
C      -0.384503     2.653776    -3.013173
H      -1.199992     3.322277    -3.301189
H      -0.006167     2.998027    -2.047601
H       0.417767     2.722187    -3.751065
N      -2.245290    -0.166933    -1.378991
C      -3.539909    -0.469481    -0.770770
H      -4.009857    -1.326289    -1.264164
H      -3.418819    -0.703401     0.290657
H      -4.182016     0.401480    -0.884571
C      -0.812629     2.538941     1.589311
C      -0.954851     3.979599     1.160755
C      -2.100901     1.758275     1.682630
H       0.022955     4.443656     1.019530
H      -1.506301     4.021408     0.217986
H      -1.507706     4.549167     1.915718
H      -2.703619     2.127773     2.520364
H      -2.674692     1.883236     0.761764
H      -1.906516     0.695320     1.849781
C       0.070896     2.338121     2.710041
N       0.778796     2.155381     3.601520
48
     -1091.803393     -1091.473129   6.19   3.78
C       1.329852    -1.365817    -0.468971
C       0.162374    -0.595274    -0.675945
C      -0.836376    -1.043059    -1.571960
C      -0.678010    -2.259086    -2.215690
C       0.462062    -3.023510    -2.003116
C       1.456838    -2.573076    -1.142633
C       2.402052    -0.903648     0.448442
C       2.106539    -0.500568     1.750617
C       3.113617    -0.071002     2.603002
C       4.432994    -0.050640     2.165627
C       4.738808    -0.458983     0.871964
C       3.729169    -0.881314     0.017390
H      -1.449572    -2.600825    -2.897215
H       0.575798    -3.974058    -2.513245
H       2.342602    -3.175194    -0.972465
H       1.085204    -0.530649     2.111034
H       2.856172     0.250447     3.606392
H       5.222466     0.284077     2.831187
H       5.767147    -0.442229     0.524696
H       3.967208    -1.179889    -0.998942
C      -0.006065     0.654327    -0.044219
N      -0.211554     1.708074     0.445093
C      -2.085548     1.038305    -2.098944
O      -3.087375     1.705148    -1.902566
C      -0.910641     1.652766    -2.809428
C      -0.224176     0.968347    -3.719673
H       0.561673     1.447009    -4.296639
H      -0.429610    -0.071431    -3.944487
C      -0.703556     3.118604    -2.551068
H      -1.620889     3.666847    -2.780854
H      -0.467325     3.303971    -1.500444
H       0.111688     3.501512    -3.168774
N      -2.033027    -0.297111    -1.741821
C      -3.271550    -0.968613    -1.351118
H      -3.171219    -1.406890    -0.354196
H      -4.072898    -0.232632    -1.350445
H      -3.520309    -1.766461    -2.058207
C      -1.387979     1.898701     1.856241
C      -1.800941     3.344589     1.721149
C      -2.487809     0.886351     1.648112
H      -0.934875     4.005907     1.784287
H      -2.288192     3.490366     0.753682
H      -2.507300     3.615001     2.513587
H      -3.206096     0.937506     2.474575
H      -3.015767     1.102481     0.716772
H      -2.086408    -0.130111     1.612334
C      -0.554553     1.624373     2.999539
N       0.118193     1.385143     3.904763
48
     -1091.803393     -1091.473128   6.19   3.78
C       1.729908    -0.949329    -0.447307
C       0.542005    -0.261004    -0.785952
C       0.089750    -0.238642    -2.126034
C       0.839276    -0.864626    -3.108147
C       2.013438    -1.529741    -2.779117
C       2.446258    -1.574922    -1.458689
C       2.210539    -1.006273     0.956477
C       2.342224     0.155811     1.716531
C       2.793157     0.095412     3.027371
C       3.129711    -1.129938     3.591034
C       3.010237    -2.293198     2.838451
C       2.551515    -2.232308     1.529291
H       0.491270    -0.839476    -4.135195
H       2.592107    -2.017135    -3.556483
H       3.367256    -2.088400    -1.205344
H       2.102738     1.119538     1.283165
H       2.873677     1.011826     3.601916
H       3.483658    -1.179286     4.616001
H       3.269034    -3.252819     3.274924
H       2.439037    -3.143724     0.950144
C      -0.243715     0.364661     0.204060
N      -0.951733     0.904556     0.978176
C      -2.316880     0.330261    -1.892151
O      -3.175577     1.191505    -1.980454
C      -2.633688    -0.967685    -1.200976
C      -2.206622    -2.128074    -1.690183
H      -2.517322    -3.066896    -1.241136
H      -1.563017    -2.192871    -2.559353
C      -3.601017    -0.861742    -0.055828
H      -3.187015    -0.257501     0.755017
H      -4.518496    -0.371832    -0.392121
H      -3.841311    -1.854340     0.331224
N      -1.074256     0.495588    -2.477118
C      -0.879550     1.603875    -3.410549
H      -1.796931     2.188017    -3.442439
H      -0.049246     2.236925    -3.085201
H      -0.658965     1.230615    -4.415751
C      -0.967297     2.744030     1.144783
C      -0.708127     3.309586    -0.230271
C      -2.349041     2.992326     1.700221
H       0.251517     2.963963    -0.624258
H      -1.509722     3.009772    -0.908803
H      -0.681284     4.404562    -0.186606
H      -2.489443     2.468377     2.647408
H      -2.506772     4.063731     1.865259
H      -3.093756     2.635450     0.984191
C       0.100615     2.983782     2.082368
N       0.969019     3.163792     2.819065
48
     -1091.800823     -1091.473051   7.80   3.83
C       0.866214    -1.548767     0.741820
C      -0.158994    -0.854635     0.065261
C      -0.774091    -1.425284    -1.062873
C      -0.359700    -2.655768    -1.531108
C       0.664539    -3.336749    -0.880523
C       1.264757    -2.785617     0.244667
C       1.531232    -0.963130     1.935372
C       2.922854    -0.870146     1.985693
C       3.555139    -0.320313     3.093984
C       2.803366     0.141628     4.167994
C       1.416319     0.048966     4.127683
C       0.784870    -0.499451     3.020028
H      -0.834666    -3.070842    -2.413198
H       0.992204    -4.302035    -1.251426
H       2.051063    -3.327426     0.759818
H       3.511567    -1.216637     1.141723
H       4.638183    -0.250741     3.117498
H       3.296352     0.570952     5.034331
H       0.822463     0.405299     4.963515
H      -0.297548    -0.574804     2.997474
C      -0.580627     0.432986     0.489796
N      -0.721510     1.577686     0.743572
C      -1.519477     0.171979    -2.688606
O      -0.373507     0.310311    -3.076820
C      -2.636487     1.010947    -3.255335
C      -3.333349     0.576307    -4.297193
H      -4.109797     1.186105    -4.749476
H      -3.140737    -0.394253    -4.744617
C      -2.808005     2.350841    -2.597861
H      -2.971925     2.247020    -1.519671
H      -1.901799     2.952279    -2.716980
H      -3.649754     2.893749    -3.032546
N      -1.842338    -0.721252    -1.699182
C      -3.161051    -0.847981    -1.090837
H      -3.393875    -1.907401    -0.950623
H      -3.199081    -0.347703    -0.116136
H      -3.912499    -0.408380    -1.743936
C       0.618039     2.777358     0.268790
C       1.279184     3.066875     1.599140
C       1.495442     2.106783    -0.759684
H       0.551434     3.420515     2.332067
H       1.756381     2.161762     1.982420
H       2.049394     3.836938     1.474661
H       1.947035     1.208736    -0.329418
H       0.941881     1.826776    -1.657760
H       2.308431     2.783941    -1.047246
C      -0.148183     3.887257    -0.247626
N      -0.752461     4.777696    -0.660207
48
     -1091.800823     -1091.472991   7.80   3.87
C       1.018129    -1.528335     0.387734
C      -0.043110    -0.802750    -0.193553
C      -0.567544    -1.192064    -1.438564
C      -0.029025    -2.269866    -2.111917
C       1.030896    -2.977642    -1.553636
C       1.542365    -2.608059    -0.315943
C       1.588775    -1.132918     1.702186
C       2.964001    -0.937411     1.837530
C       3.508032    -0.563113     3.059963
C       2.683391    -0.381819     4.164112
C       1.312366    -0.578572     4.038866
C       0.769019    -0.951556     2.817373
H      -0.435900    -2.543355    -3.079189
H       1.456045    -3.822251    -2.085234
H       2.357275    -3.173072     0.124396
H       3.608495    -1.063887     0.972919
H       4.579074    -0.410654     3.149421
H       3.107441    -0.089791     5.119516
H       0.662126    -0.441301     4.897117
H      -0.300910    -1.109804     2.727787
C      -0.592604     0.338850     0.447369
N      -0.844315     1.397036     0.907233
C      -1.400939     0.623351    -2.765101
O      -0.260212     0.927576    -3.063887
C      -2.570207     1.461910    -3.215012
C      -3.189651     1.184088    -4.354792
H      -4.003087     1.804262    -4.719472
H      -2.894628     0.339730    -4.970657
C      -2.884740     2.627772    -2.321202
H      -3.758323     3.173047    -2.684209
H      -3.072843     2.301333    -1.292522
H      -2.034121     3.314571    -2.277650
N      -1.673755    -0.468012    -1.980516
C      -2.994735    -0.818441    -1.473237
H      -3.109721    -0.521183    -0.424340
H      -3.761159    -0.324313    -2.067304
H      -3.135196    -1.900494    -1.548533
C       0.396148     2.772111     0.735716
C       0.985695     2.851193     2.127457
C       1.362818     2.388487    -0.357738
H       0.206036     2.994950     2.878008
H       1.529820     1.931165     2.354024
H       1.687156     3.691311     2.189669
H       1.879330     1.464095    -0.085207
H       0.865786     2.243862    -1.318683
H       2.120413     3.172998    -0.470769
C      -0.450144     3.894243     0.403664
N      -1.118811     4.794974     0.139413
48
     -1091.800138     -1091.472231   8.23   4.34
C      -1.137359    -0.812882    -0.962128
C      -0.098415     0.129245    -0.774017
C       0.449444     0.808311    -1.881337
C      -0.026219     0.546956    -3.154333
C      -1.033821    -0.390365    -3.345230
C      -1.585644    -1.053753    -2.255474
C      -1.768436    -1.503059     0.192951
C      -1.001750    -2.121631     1.181474
C      -1.610165    -2.715063     2.278301
C      -2.994936    -2.711861     2.395945
C      -3.769104    -2.117563     1.406260
C      -3.159512    -1.515830     0.313100
H       0.403458     1.077844    -3.997026
H      -1.395988    -0.598061    -4.346593
H      -2.370513    -1.786764    -2.408230
H       0.079310    -2.138646     1.095838
H      -0.998391    -3.168512     3.050741
H      -3.468402    -3.169957     3.258104
H      -4.851378    -2.112663     1.490408
H      -3.765852    -1.027450    -0.443660
C       0.440565     0.392410     0.507977
N       0.795157     0.649813     1.605286
C       2.687287     1.720371    -2.300273
O       3.371039     2.714781    -2.456967
C       3.186199     0.373148    -2.750080
C       3.155728    -0.664842    -1.922101
H       3.593329    -1.618535    -2.201591
H       2.724519    -0.593696    -0.929395
C       3.827417     0.352712    -4.107867
H       4.256562    -0.628719    -4.319808
H       3.097617     0.590145    -4.890522
H       4.610971     1.113273    -4.159893
N       1.467947     1.779245    -1.660833
C       1.039910     3.083353    -1.159128
H       0.227819     2.936947    -0.445618
H       1.878192     3.571230    -0.663132
H       0.690897     3.729832    -1.972248
C      -0.357090     1.486451     2.780818
C       0.368036     2.777600     3.090281
C      -1.700699     1.632805     2.107461
H       1.374518     2.579882     3.463197
H       0.442037     3.390068     2.187988
H      -0.179487     3.347630     3.849039
H      -2.167176     0.663167     1.926804
H      -2.371455     2.225118     2.740559
H      -1.590169     2.158328     1.154398
C      -0.368017     0.554561     3.884031
N      -0.382481    -0.194796     4.759247
48
     -1091.801319     -1091.471456   7.49   4.83
C       1.634492    -1.274162     0.153077
C       0.495448    -0.682500    -0.433904
C      -0.490178    -1.486367    -1.044125
C      -0.352912    -2.861398    -1.032898
C       0.748498    -3.450130    -0.419450
C       1.732972    -2.660789     0.160945
C       2.686493    -0.434576     0.781781
C       3.255760     0.636903     0.091690
C       4.223121     1.428715     0.694729
C       4.637360     1.159558     1.994816
C       4.081122     0.089921     2.686701
C       3.113094    -0.702577     2.083027
H      -1.104442    -3.474397    -1.518415
H       0.846356    -4.530480    -0.411908
H       2.604751    -3.122742     0.611834
H       2.941728     0.845745    -0.925983
H       4.657043     2.258912     0.146257
H       5.393483     1.779563     2.465758
H       4.399676    -0.126653     3.701586
H       2.666830    -1.526510     2.631649
C       0.311969     0.716806    -0.408553
N       0.117679     1.870037    -0.242514
C      -1.418971    -0.042104    -2.717906
O      -0.326421     0.066738    -3.240111
C      -2.597644     0.774449    -3.182607
C      -3.177567     0.490496    -4.341652
H      -4.005097     1.084228    -4.718253
H      -2.835979    -0.335657    -4.957416
C      -2.967902     1.929457    -2.293366
H      -3.248811     1.594914    -1.290280
H      -2.107181     2.596209    -2.174844
H      -3.797780     2.496155    -2.720822
N      -1.625626    -0.867394    -1.634918
C      -2.943014    -1.190540    -1.092398
H      -3.111114    -0.696144    -0.131625
H      -3.713108    -0.881563    -1.797462
H      -3.027598    -2.271463    -0.953307
C      -0.530631     2.438594     1.370121
C       0.443661     1.921268     2.404656
C      -0.577573     3.939390     1.207578
H       1.453984     2.269666     2.176804
H       0.166895     2.284485     3.401055
H       0.451182     0.829497     2.429907
H      -0.927014     4.415720     2.130060
H       0.424542     4.311229     0.981976
H      -1.245767     4.224716     0.392557
C      -1.822524     1.808291     1.427136
N      -2.841725     1.268956     1.430343
48
     -1091.801814     -1091.471175   7.18   5.01
C       0.298686    -1.959624     0.062173
C      -0.382237    -0.881146    -0.543352
C      -0.674446    -0.912428    -1.921394
C      -0.312579    -2.003616    -2.684433
C       0.338419    -3.080052    -2.087905
C       0.643328    -3.048419    -0.733552
C       0.686725    -1.916798     1.495925
C       1.993395    -2.241141     1.867315
C       2.392703    -2.159772     3.194645
C       1.492164    -1.746478     4.169397
C       0.187019    -1.431239     3.811076
C      -0.215051    -1.524441     2.486416
H      -0.533034    -2.006914    -3.746798
H       0.618521    -3.940577    -2.686040
H       1.151589    -3.889783    -0.274711
H       2.709202    -2.531618     1.104518
H       3.414168    -2.407303     3.466339
H       1.806479    -1.665979     5.204787
H      -0.519102    -1.096128     4.563190
H      -1.239262    -1.285634     2.221560
C      -0.800455     0.253081     0.191440
N      -1.000436     1.258723     0.777708
C      -0.720321     1.383500    -2.605936
O       0.479513     1.475305    -2.406820
C      -1.512996     2.615239    -2.955463
C      -2.454598     3.050302    -2.126380
H      -2.971990     3.988128    -2.308191
H      -2.716778     2.506137    -1.224301
C      -1.044240     3.351524    -4.177832
H       0.025670     3.563416    -4.093281
H      -1.183561     2.745558    -5.080335
H      -1.590433     4.289146    -4.300278
N      -1.379349     0.187385    -2.498896
C      -2.778029    -0.031039    -2.845626
H      -3.426714     0.014814    -1.963842
H      -3.109028     0.716904    -3.564282
H      -2.877769    -1.020167    -3.298886
C       0.442092     2.310635     1.283035
C       1.705388     1.609020     0.845239
C       0.155548     3.625587     0.594232
H       1.837184     0.660279     1.369027
H       1.675989     1.434097    -0.233107
H       2.571472     2.244141     1.066203
H       0.896524     4.375054     0.895311
H       0.217077     3.491901    -0.487833
H      -0.837735     3.997347     0.853094
C       0.264581     2.342610     2.716379
N       0.124393     2.344523     3.860473
48
     -1091.801814     -1091.471137   7.18   5.03
C       1.604054    -1.040083    -1.039782
C       0.260700    -0.605649    -1.029715
C      -0.427736    -0.405194    -2.242655
C       0.200230    -0.647958    -3.447062
C       1.517420    -1.098655    -3.462354
C       2.206364    -1.283062    -2.270888
C       2.375378    -1.184627     0.222050
C       1.844788    -1.843288     1.332395
C       2.557826    -1.911608     2.520661
C       3.820463    -1.338445     2.612321
C       4.368018    -0.699285     1.506164
C       3.649112    -0.620401     0.320911
H      -0.339147    -0.476282    -4.372714
H       2.010115    -1.294783    -4.408670
H       3.232804    -1.633539    -2.289367
H       0.864823    -2.303795     1.270894
H       2.117610    -2.401679     3.382423
H       4.373354    -1.386767     3.544675
H       5.353539    -0.248533     1.569799
H       4.066407    -0.090760    -0.529947
C      -0.443516    -0.364015     0.173196
N      -0.966908    -0.013086     1.172150
C      -2.049527     1.294618    -1.771159
O      -1.158897     2.114798    -1.623613
C      -3.471965     1.676167    -1.456946
C      -4.114519     1.066906    -0.467396
H      -5.104621     1.390485    -0.158756
H      -3.663814     0.250732     0.088770
C      -3.999396     2.859097    -2.217551
H      -4.989354     3.144226    -1.855425
H      -3.314692     3.704890    -2.105441
H      -4.069154     2.639334    -3.288972
N      -1.790973     0.018380    -2.196392
C      -2.805043    -0.976260    -2.522854
H      -2.461336    -1.561091    -3.379363
H      -2.987913    -1.659231    -1.685871
H      -3.740921    -0.486915    -2.787640
C      -0.351779     1.516316     2.023951
C       0.821280     2.047838     1.235746
C      -1.576231     2.402808     2.046580
H       0.516145     2.240881     0.204281
H       1.159112     2.993463     1.676162
H       1.659736     1.348775     1.247325
H      -1.367723     3.314427     2.618310
H      -1.840619     2.686297     1.025670
H      -2.423866     1.891653     2.507079
C       0.013451     0.978944     3.314234
N       0.319881     0.535380     4.333038
48
     -1091.801813     -1091.471102   7.18   5.05
C       1.917186    -0.929202    -0.113041
C       0.761218    -0.498226    -0.799711
C       0.118196    -1.357892    -1.712383
C       0.622639    -2.619335    -1.953425
C       1.775311    -3.041033    -1.296260
C       2.404824    -2.204419    -0.384118
C       2.569079    -0.071355     0.910252
C       2.895222    -0.610376     2.156689
C       3.459270     0.184327     3.145708
C       3.699596     1.531901     2.904428
C       3.387619     2.075090     1.663954
C       2.835243     1.277908     0.671767
H       0.108495    -3.274152    -2.649202
H       2.175543    -4.030641    -1.489163
H       3.302197    -2.538949     0.125354
H       2.677897    -1.654266     2.360821
H       3.699627    -0.247479     4.112274
H       4.124893     2.158724     3.681301
H       3.560455     3.128400     1.470891
H       2.606077     1.711724    -0.295431
C       0.211360     0.791690    -0.612948
N      -0.327740     1.804470    -0.332439
C      -2.186029    -0.701219    -1.677800
O      -2.292932    -1.107536    -0.532724
C      -3.330044     0.044389    -2.312576
C      -3.176946     1.317845    -2.656291
H      -4.014274     1.903556    -3.025189
H      -2.224088     1.827155    -2.550198
C      -4.632408    -0.702428    -2.359001
H      -4.560735    -1.578864    -3.013091
H      -4.885187    -1.066047    -1.358693
H      -5.436187    -0.059968    -2.724567
N      -1.038697    -0.884473    -2.403386
C      -0.876012    -0.546521    -3.811704
H      -0.252576    -1.307970    -4.286372
H      -1.844490    -0.529042    -4.308780
H      -0.394199     0.428867    -3.942247
C      -1.126157     1.970078     1.334238
C      -2.568828     2.260323     0.987714
C      -0.885492     0.687998     2.094587
H      -3.011012     1.386704     0.504274
H      -3.136186     2.478157     1.899890
H      -2.647774     3.118602     0.317684
H      -1.409680     0.729782     3.056763
H      -1.280487    -0.157957     1.526553
H       0.177102     0.534823     2.292760
C      -0.406650     3.103528     1.867739
N       0.187309     3.996139     2.290894
48
     -1091.799566     -1091.470841   8.59   5.22
C       1.749843    -0.935312    -0.229207
C       0.395810    -0.711436    -0.542912
C      -0.108849    -1.057660    -1.806665
C       0.731358    -1.581856    -2.767702
C       2.078879    -1.777498    -2.476377
C       2.574725    -1.462101    -1.218896
C       2.294099    -0.594400     1.110416
C       3.445002     0.186189     1.220193
C       3.952226     0.519486     2.468430
C       3.318585     0.074713     3.623187
C       2.174320    -0.708299     3.522012
C       1.666508    -1.041192     2.273668
H       0.329541    -1.832768    -3.743746
H       2.740903    -2.184836    -3.233109
H       3.620983    -1.633181    -0.989314
H       3.919382     0.564426     0.321273
H       4.840980     1.138354     2.539564
H       3.715360     0.337420     4.598781
H       1.675345    -1.062962     4.418506
H       0.776803    -1.658709     2.200615
C      -0.483242    -0.097234     0.390626
N      -1.044906     0.674467     1.087028
C      -2.003749     0.329670    -2.316293
O      -1.286605     1.313835    -2.310589
C      -3.468863     0.480078    -2.633186
C      -4.016395    -0.189302    -3.640694
H      -5.048432    -0.021237    -3.933599
H      -3.447448    -0.909151    -4.221553
C      -4.178074     1.529654    -1.825174
H      -4.122565     1.302127    -0.754968
H      -3.696167     2.499489    -1.974794
H      -5.227979     1.600715    -2.117038
N      -1.510941    -0.924293    -2.063043
C      -2.308208    -2.106265    -1.754012
H      -3.365038    -1.852371    -1.727736
H      -2.149942    -2.892635    -2.500190
H      -2.016368    -2.493154    -0.772258
C      -0.496853     2.440655     1.170736
C      -1.673415     3.201924     0.602884
C      -0.237565     2.627514     2.649666
H      -2.588457     2.896222     1.116327
H      -1.533718     4.278391     0.754938
H      -1.775094     3.007568    -0.465192
H      -1.133513     2.360904     3.214832
H       0.590528     1.998614     2.985261
H       0.009854     3.673615     2.862584
C       0.690342     2.511279     0.364110
N       1.647649     2.527340    -0.277731
48
     -1091.800104     -1091.470820   8.25   5.23
C       1.530281    -1.234133    -0.254470
C       0.167389    -0.886883    -0.403009
C      -0.622203    -1.515014    -1.391749
C      -0.073056    -2.516843    -2.169895
C       1.259867    -2.877916    -2.012210
C       2.051055    -2.231116    -1.068849
C       2.379986    -0.573505     0.768824
C       3.082430    -1.341246     1.697922
C       3.881877    -0.729882     2.655037
C       3.987750     0.655905     2.692942
C       3.293583     1.425646     1.766378
C       2.495934     0.816546     0.807397
H      -0.697786    -3.002323    -2.911941
H       1.684954    -3.659308    -2.632826
H       3.097139    -2.497747    -0.961496
H       2.986709    -2.422590     1.679553
H       4.420316    -1.336843     3.376026
H       4.612143     1.134056     3.441079
H       3.378517     2.507643     1.783837
H       1.975606     1.422897     0.074816
C      -0.450212     0.005754     0.497876
N      -1.013818     0.590759     1.352353
C      -2.478202     0.047239    -1.894935
O      -3.596564     0.402794    -1.565355
C      -1.614471     0.918666    -2.772378
C      -1.878479     2.221177    -2.741753
H      -1.319654     2.926494    -3.347877
H      -2.658833     2.615523    -2.102286
C      -0.566674     0.346980    -3.696286
H       0.370689     0.122048    -3.181854
H      -0.911701    -0.573004    -4.176587
H      -0.350709     1.076536    -4.479679
N      -2.005811    -1.191899    -1.505519
C      -2.909126    -2.020080    -0.704674
H      -2.554522    -3.052432    -0.735828
H      -2.943922    -1.679035     0.336115
H      -3.913477    -1.961983    -1.121803
C      -1.166553     2.450847     1.374690
C      -2.653588     2.657428     1.206687
C      -0.607661     2.792196     2.737290
H      -3.181832     2.146319     2.014858
H      -2.899189     3.724783     1.254071
H      -3.011099     2.256419     0.256792
H      -0.725415     3.862312     2.943133
H      -1.148017     2.230490     3.502505
H       0.452794     2.538642     2.801880
C      -0.359043     2.910824     0.282774
N       0.324654     3.225486    -0.591410
48
     -1091.800104     -1091.470816   8.25   5.23
C      -1.482178    -1.189828    -0.884640
C      -0.975260     0.129494    -0.935223
C      -1.041060     0.870380    -2.136211
C      -1.661787     0.323062    -3.243406
C      -2.182149    -0.964767    -3.192063
C      -2.080289    -1.712390    -2.023758
C      -1.407806    -1.989650     0.364481
C      -0.186129    -2.192474     1.007557
C      -0.125613    -2.942733     2.173897
C      -1.280522    -3.502743     2.708184
C      -2.499620    -3.310145     2.068064
C      -2.562797    -2.557804     0.902330
H      -1.720738     0.911987    -4.152419
H      -2.660127    -1.389627    -4.068115
H      -2.466600    -2.725601    -1.990969
H       0.722237    -1.777909     0.585552
H       0.831197    -3.096437     2.662898
H      -1.230837    -4.090343     3.619481
H      -3.405319    -3.743678     2.480254
H      -3.517609    -2.393519     0.412280
C      -0.498676     0.762627     0.231731
N      -0.283865     1.358137     1.226343
C       0.757033     2.569913    -2.004202
O       1.043347     3.687022    -1.609382
C       1.832396     1.578528    -2.373109
C       3.015592     1.758976    -1.794612
H       3.855006     1.105065    -2.006565
H       3.171753     2.564502    -1.087415
C       1.612729     0.494008    -3.399688
H       2.582668     0.163786    -3.777533
H       1.100355    -0.378524    -2.987328
H       1.024418     0.855281    -4.247907
N      -0.568731     2.214865    -2.167055
C      -1.568662     3.236163    -1.850369
H      -1.241251     4.194823    -2.250191
H      -2.517278     2.948551    -2.308487
H      -1.704096     3.338174    -0.767770
C       1.393419     1.390256     2.044472
C       1.793952     2.840586     1.909225
C       1.064323     0.929594     3.446273
H       1.040053     3.468759     2.389277
H       2.756948     3.018939     2.401812
H       1.873586     3.140492     0.862975
H       0.284554     1.569572     3.865130
H       0.706536    -0.102403     3.446968
H       1.949783     0.994077     4.089070
C       2.195793     0.463390     1.300814
N       2.786321    -0.312121     0.683962
48
     -1091.800104     -1091.470814   8.25   5.23
C       1.740844    -0.991232    -0.558464
C       0.680190    -0.134909    -0.935087
C       0.048481    -0.295139    -2.188432
C       0.514970    -1.250956    -3.071350
C       1.572219    -2.079943    -2.715095
C       2.167818    -1.952863    -1.464749
C       2.406681    -0.848075     0.761285
C       3.790992    -0.691735     0.834223
C       4.420374    -0.561250     2.065401
C       3.672067    -0.586184     3.236923
C       2.292668    -0.746496     3.170235
C       1.661876    -0.879532     1.940884
H       0.031175    -1.348872    -4.037252
H       1.926458    -2.832923    -3.410778
H       2.978198    -2.614863    -1.178483
H       4.373890    -0.655104    -0.081032
H       5.497552    -0.435434     2.110137
H       4.163577    -0.483836     4.199288
H       1.702802    -0.776199     4.080955
H       0.588674    -1.026325     1.898777
C       0.310371     0.954577    -0.118966
N       0.128752     1.968075     0.455367
C      -2.219454     0.674280    -1.952869
O      -2.875319     1.699504    -2.020268
C      -2.753544    -0.542493    -1.239046
C      -3.664933    -0.314056    -0.298642
H      -4.117112    -1.126327     0.260724
H      -3.977160     0.695464    -0.060381
C      -2.346205    -1.945198    -1.619569
H      -2.263325    -2.060527    -2.703975
H      -1.390328    -2.239947    -1.179905
H      -3.106891    -2.642829    -1.262832
N      -0.989634     0.600034    -2.579164
C      -0.547327     1.790752    -3.307008
H      -1.385629     2.199268    -3.869551
H      -0.178905     2.562140    -2.621447
H       0.252923     1.502859    -3.991977
C      -1.058394     2.121173     1.887465
C      -0.172434     2.704789     2.964508
C      -2.115837     3.048517     1.336088
H       0.294711     3.619973     2.594015
H      -0.762425     2.951192     3.854778
H       0.613888     2.002453     3.249900
H      -2.866446     3.271772     2.103263
H      -1.647691     3.986595     1.029066
H      -2.617711     2.616512     0.468669
C      -1.500024     0.784237     2.158556
N      -1.800558    -0.313091     2.348812
48
     -1091.800104     -1091.470810   8.25   5.23
C      -1.564786    -1.018385    -0.756957
C      -0.758245     0.133139    -0.910616
C      -0.435985     0.607793    -2.201530
C      -0.966263    -0.020752    -3.312601
C      -1.778303    -1.139267    -3.166229
C      -2.062028    -1.634336    -1.897898
C      -1.901238    -1.541247     0.591741
C      -0.893912    -1.847763     1.507450
C      -1.217419    -2.337491     2.765389
C      -2.547178    -2.531732     3.121618
C      -3.554982    -2.234919     2.210969
C      -3.233630    -1.742532     0.952702
H      -0.724390     0.367299    -4.296230
H      -2.183354    -1.631375    -4.043839
H      -2.677536    -2.520523    -1.785068
H       0.146132    -1.720142     1.229769
H      -0.424717    -2.575645     3.467630
H      -2.797979    -2.916194     4.105229
H      -4.595277    -2.383254     2.482860
H      -4.021721    -1.494869     0.248159
C      -0.355685     0.885013     0.212958
N      -0.182124     1.617658     1.120223
C       1.662954     1.902469    -1.962470
O       2.133135     2.996496    -1.702044
C       2.519382     0.661329    -1.924420
C       3.592097     0.716459    -1.141209
H       4.275852    -0.121791    -1.057806
H       3.809439     1.602648    -0.557413
C       2.230730    -0.545274    -2.784124
H       3.145030    -1.133916    -2.884874
H       1.462002    -1.193089    -2.356019
H       1.902114    -0.256521    -3.786491
N       0.340034     1.794429    -2.347748
C      -0.428214     3.038245    -2.424579
H      -1.322984     2.858374    -3.024167
H      -0.722463     3.386351    -1.428078
H       0.182161     3.808356    -2.894099
C       1.285882     1.481218     2.264761
C       2.036752     2.761953     1.985316
C       0.617801     1.395612     3.618237
H       2.366344     2.817053     0.946444
H       1.381925     3.613819     2.182647
H       2.913583     2.841515     2.638501
H       0.030858     0.478991     3.709512
H       1.367322     1.413028     4.417799
H      -0.048525     2.251155     3.749032
C       1.962028     0.279143     1.872631
N       2.449652    -0.709313     1.532297
48
     -1091.800104     -1091.470806   8.25   5.24
C       1.847926    -0.361712    -0.976607
C       0.622408     0.336202    -1.082235
C      -0.035391     0.432258    -2.328705
C       0.557011    -0.103512    -3.456867
C       1.772761    -0.770549    -3.362400
C       2.401430    -0.903917    -2.129014
C       2.546204    -0.486580     0.328146
C       3.876129    -0.084125     0.452276
C       4.536206    -0.201829     1.668579
C       3.873413    -0.723753     2.773725
C       2.549419    -1.130798     2.654376
C       1.888555    -1.016295     1.439038
H       0.048101    -0.005003    -4.409714
H       2.226452    -1.195255    -4.251346
H       3.339174    -1.443938    -2.052063
H       4.388946     0.339297    -0.405941
H       5.569588     0.118799     1.754970
H       4.388858    -0.815521     3.724566
H       2.028192    -1.547821     3.510326
H       0.863278    -1.356514     1.348818
C       0.095164     1.036086     0.023191
N      -0.246655     1.774633     0.876263
C      -2.431276     0.810882    -1.823366
O      -3.275789     1.655867    -1.581308
C      -2.679358    -0.644429    -1.513728
C      -3.564229    -0.894023    -0.553579
H      -3.818947    -1.909387    -0.268457
H      -4.052269    -0.085362    -0.023229
C      -2.029897    -1.758707    -2.297875
H      -2.620198    -2.668948    -2.172977
H      -1.986442    -1.527573    -3.365953
H      -1.012192    -1.972054    -1.962247
N      -1.247114     1.175163    -2.435957
C      -1.084586     2.591854    -2.767280
H      -0.283481     2.687651    -3.503162
H      -2.016194     2.971873    -3.184144
H      -0.834213     3.182095    -1.878629
C      -1.359386     1.252805     2.280927
C      -0.544468     1.655384     3.488983
C      -2.605245     2.069561     2.030075
H      -1.120530     1.501994     4.408771
H       0.377422     1.073100     3.552955
H      -0.284387     2.713674     3.415278
H      -3.341060     1.898542     2.824519
H      -2.345261     3.130592     2.024096
H      -3.061457     1.823545     1.069726
C      -1.518379    -0.164449     2.132414
N      -1.589993    -1.305644     1.980124
48
     -1091.799051     -1091.470648   8.91   5.34
C       1.481207    -0.235402    -0.857267
C       0.087258    -0.054372    -0.696631
C      -0.788430    -0.305399    -1.775122
C      -0.281548    -0.743384    -2.986641
C       1.085543    -0.943492    -3.139553
C       1.953615    -0.679857    -2.086620
C       2.429011     0.077781     0.243780
C       3.528647     0.900952    -0.006217
C       4.402191     1.243375     1.017717
C       4.185033     0.769692     2.306303
C       3.100358    -0.060853     2.561596
C       2.233111    -0.410511     1.536369
H      -0.963220    -0.934628    -3.807521
H       1.475792    -1.295603    -4.088530
H       3.019884    -0.835835    -2.211158
H       3.684312     1.296149    -1.005431
H       5.248463     1.890912     0.810543
H       4.857927     1.047821     3.110797
H       2.918624    -0.427235     3.566216
H       1.395048    -1.066383     1.745693
C      -0.468546     0.337826     0.543134
N      -0.886008     0.740423     1.572044
C      -3.123101    -1.043273    -1.904249
O      -4.271453    -0.732756    -2.155317
C      -2.682285    -2.484049    -1.858527
C      -3.097751    -3.277606    -2.839257
H      -2.843530    -4.333153    -2.861514
H      -3.711710    -2.889790    -3.645544
C      -1.871554    -2.964859    -0.681089
H      -2.231135    -2.516800     0.250472
H      -1.954559    -4.050244    -0.594919
H      -0.811954    -2.714811    -0.776967
N      -2.181380    -0.082939    -1.592839
C      -2.637283     1.305973    -1.571502
H      -3.544497     1.382570    -0.972691
H      -1.855539     1.926219    -1.131607
H      -2.856005     1.666583    -2.582372
C      -0.472754     2.451713     2.137207
C       0.491331     3.059526     1.146449
C      -1.832674     3.109353     2.220160
H       0.664998     4.112929     1.395112
H       1.452388     2.543071     1.151981
H       0.070825     3.019778     0.137275
H      -1.739342     4.123388     2.624616
H      -2.276289     3.177236     1.223516
H      -2.503601     2.538719     2.864696
C       0.120733     2.191923     3.427852
N       0.602925     1.981469     4.453059
48
     -1091.800051     -1091.470520   8.28   5.42
C      -1.810491    -0.430269    -0.837771
C      -0.700672     0.435831    -0.690332
C      -0.645194     1.645701    -1.424038
C      -1.703446     1.996430    -2.245389
C      -2.800010     1.154736    -2.377221
C      -2.842416    -0.050834    -1.685004
C      -1.882771    -1.719268    -0.104626
C      -2.156943    -2.900991    -0.794569
C      -2.237401    -4.109077    -0.114871
C      -2.041217    -4.149889     1.261277
C      -1.768884    -2.976837     1.955661
C      -1.696028    -1.768982     1.276455
H      -1.654142     2.927929    -2.798831
H      -3.622493     1.437339    -3.025502
H      -3.701701    -0.705094    -1.784449
H      -2.290824    -2.873709    -1.871666
H      -2.447649    -5.022728    -0.662059
H      -2.099596    -5.095502     1.791065
H      -1.606962    -2.991197     3.028038
H      -1.502838    -0.859618     1.832674
C       0.381775     0.090615     0.145931
N       1.328762    -0.163572     0.800744
C       1.772579     2.155403    -1.455537
O       2.686339     2.795117    -0.966339
C       2.040673     0.974174    -2.354405
C       3.052980     0.181521    -2.022253
H       3.330841    -0.670370    -2.635759
H       3.621493     0.358195    -1.116559
C       1.236673     0.788896    -3.618923
H       0.993327     1.751160    -4.079677
H       1.818530     0.205905    -4.336020
H       0.294971     0.262582    -3.442447
N       0.454503     2.528815    -1.260362
C       0.160792     3.833829    -0.674279
H       1.104639     4.337228    -0.474473
H      -0.431751     4.441483    -1.365706
H      -0.401050     3.722421     0.257409
C       1.607073     0.640814     2.445162
C       3.094659     0.462263     2.629213
C       1.133467     2.066836     2.307830
H       3.367361    -0.594195     2.601782
H       3.622590     0.983716     1.827132
H       3.413413     0.882697     3.589365
H       1.281266     2.605812     3.250916
H       1.705880     2.571608     1.526172
H       0.069079     2.103728     2.061026
C       0.802751    -0.157461     3.334393
N       0.142821    -0.794721     4.033014
48
     -1091.800051     -1091.470517   8.28   5.42
C       1.117389     0.067165    -1.841688
C       0.014803    -0.103805    -0.970688
C      -1.130138    -0.812124    -1.409533
C      -1.142318    -1.375821    -2.674295
C      -0.053860    -1.222487    -3.522841
C       1.058495    -0.497885    -3.108138
C       2.319170     0.830327    -1.420321
C       2.975002     0.531448    -0.226468
C       4.100045     1.246395     0.159111
C       4.589775     2.263272    -0.652375
C       3.947542     2.562888    -1.848913
C       2.817534     1.851801    -2.230188
H      -2.021666    -1.921386    -2.999141
H      -0.074585    -1.665486    -4.512757
H       1.910339    -0.383188    -3.769592
H       2.615708    -0.271657     0.405653
H       4.584709     1.003596     1.098562
H       5.470317     2.822922    -0.352866
H       4.324459     3.357853    -2.484793
H       2.305825     2.100103    -3.155016
C       0.017142     0.463206     0.321093
N      -0.050301     0.945194     1.395018
C      -2.901961     0.027382     0.094555
O      -3.569447    -0.170351     1.093991
C      -2.841298     1.391638    -0.545963
C      -2.800337     2.439006     0.269348
H      -2.788755     3.455215    -0.113405
H      -2.762503     2.303922     1.344068
C      -2.924458     1.525909    -2.047564
H      -3.596712     0.776768    -2.476895
H      -3.310787     2.515196    -2.301977
H      -1.951655     1.409489    -2.532388
N      -2.228080    -1.007001    -0.530577
C      -2.514142    -2.385009    -0.140604
H      -2.889064    -2.956798    -0.995537
H      -1.612366    -2.876221     0.235740
H      -3.273545    -2.367388     0.638613
C       0.183545    -0.072497     2.924147
C      -0.505282     0.773606     3.967359
C      -0.453256    -1.411906     2.646360
H      -1.561191     0.878959     3.706755
H      -0.433341     0.298691     4.952012
H      -0.055610     1.766496     4.023830
H      -1.515049    -1.276903     2.427706
H       0.032089    -1.908463     1.801929
H      -0.358219    -2.063702     3.522649
C       1.616625    -0.125300     3.059800
N       2.765349    -0.173049     3.148307
48
     -1091.800051     -1091.470516   8.28   5.42
C       1.608177    -0.855032    -0.765064
C       0.513249     0.035928    -0.869398
C       0.213326     0.645667    -2.111755
C       1.025746     0.402697    -3.206501
C       2.109993    -0.458324    -3.100036
C       2.387225    -1.086174    -1.890364
C       1.929089    -1.532304     0.516560
C       2.075205    -0.801863     1.695473
C       2.379058    -1.441173     2.888997
C       2.551817    -2.820255     2.914914
C       2.416560    -3.556161     1.742700
C       2.105203    -2.916318     0.550394
H       0.791131     0.878950    -4.152311
H       2.738472    -0.644259    -3.964358
H       3.237438    -1.754355    -1.806759
H       1.962878     0.275603     1.685668
H       2.474623    -0.852460     3.794923
H       2.790542    -3.321941     3.847432
H       2.547817    -4.633616     1.758211
H       1.980541    -3.494607    -0.360017
C      -0.319461     0.293627     0.239828
N      -1.068927     0.516799     1.122250
C      -2.170759     1.246726    -1.864175
O      -2.981458     2.120744    -1.614441
C      -2.569744    -0.207871    -1.874200
C      -3.425339    -0.604652    -0.939369
H      -3.786909    -1.627872    -0.899359
H      -3.774956     0.084357    -0.179278
C      -2.075436    -1.119549    -2.971581
H      -1.088158    -1.536400    -2.756015
H      -2.772546    -1.951395    -3.092962
H      -2.006637    -0.590386    -3.926946
N      -0.869017     1.558870    -2.214726
C      -0.526183     2.943051    -2.529893
H      -1.425663     3.547399    -2.430489
H       0.244448     3.315828    -1.849242
H      -0.150825     3.022512    -3.555181
C      -1.001999     2.110040     2.063375
C      -0.661901     3.184114     1.059682
C      -2.391034     2.181534     2.650007
H       0.310521     2.994251     0.597575
H      -1.431536     3.221884     0.285295
H      -0.616862     4.161567     1.553957
H      -3.123355     2.218410     1.839881
H      -2.597472     1.308784     3.272032
H      -2.500558     3.083374     3.262338
C       0.035829     1.868206     3.032567
N       0.878995     1.667547     3.793151
48
     -1091.797657     -1091.470455   9.79   5.46
C       1.847872    -0.738491    -0.945567
C       0.557850    -0.160445    -0.931427
C      -0.312810    -0.352462    -2.023254
C       0.100762    -1.083758    -3.118748
C       1.378789    -1.630934    -3.146862
C       2.236551    -1.461186    -2.065441
C       2.771880    -0.582427     0.208005
C       2.418966    -1.071029     1.466444
C       3.295082    -0.945414     2.536239
C       4.528890    -0.328500     2.363224
C       4.886352     0.157872     1.111015
C       4.013366     0.028870     0.038262
H      -0.576075    -1.202499    -3.956874
H       1.704137    -2.197549    -4.012678
H       3.225802    -1.906304    -2.079977
H       1.465553    -1.571565     1.596923
H       3.015575    -1.338664     3.508895
H       5.211741    -0.230787     3.201179
H       5.848255     0.640328     0.969114
H       4.287083     0.415755    -0.938500
C       0.150555     0.696867     0.111888
N      -0.240914     1.360444     1.009675
C      -1.866405     1.351612    -2.702072
O      -1.075433     1.784035    -3.519511
C      -3.162906     2.076545    -2.445897
C      -3.402956     2.584830    -1.242694
H      -4.284301     3.191433    -1.054162
H      -2.710064     2.445360    -0.418627
C      -4.029696     2.293127    -3.652778
H      -4.888592     2.921590    -3.408133
H      -3.444766     2.769679    -4.444685
H      -4.396281     1.339786    -4.050395
N      -1.616865     0.223153    -1.961828
C      -2.621883    -0.463391    -1.152011
H      -2.731881    -0.025320    -0.158292
H      -3.591536    -0.436211    -1.652359
H      -2.316641    -1.503924    -1.032242
C      -0.999707     0.628956     2.493372
C       0.011461     0.926701     3.580926
C      -2.308270     1.376911     2.634118
H       0.186620     2.004067     3.622072
H      -0.366551     0.598588     4.555371
H       0.962155     0.428714     3.388228
H      -3.003358     1.135202     1.827849
H      -2.789719     1.130923     3.586813
H      -2.112488     2.451447     2.614922
C      -1.140727    -0.765270     2.179372
N      -1.205148    -1.866829     1.844246
48
     -1091.797657     -1091.470454   9.79   5.46
C       1.151037    -1.596503     0.242286
C       0.263907    -0.666826    -0.346968
C      -0.654874    -1.092876    -1.327455
C      -0.673514    -2.412586    -1.732401
C       0.216192    -3.323603    -1.173825
C       1.112798    -2.914393    -0.192657
C       2.104287    -1.181343     1.304268
C       3.477335    -1.335246     1.117597
C       4.368733    -0.966083     2.116932
C       3.895579    -0.444645     3.315512
C       2.527003    -0.295874     3.509588
C       1.634503    -0.659671     2.510134
H      -1.373367    -2.715854    -2.502394
H       0.205231    -4.357928    -1.500309
H       1.792065    -3.630764     0.257193
H       3.845248    -1.734610     0.177484
H       5.436015    -1.085067     1.959117
H       4.591331    -0.158829     4.097969
H       2.150844     0.098878     4.448473
H       0.566016    -0.563530     2.670290
C       0.342633     0.709944    -0.050957
N       0.340733     1.858166     0.233991
C      -1.305254     0.340122    -3.144628
O      -0.448816    -0.139321    -3.863984
C      -2.119087     1.517508    -3.617388
C      -2.040112     2.672456    -2.966589
H      -2.541148     3.562242    -3.337431
H      -1.442750     2.777320    -2.066143
C      -2.856598     1.314195    -4.909491
H      -3.324768     2.243245    -5.241458
H      -2.161978     0.962750    -5.677831
H      -3.634635     0.549621    -4.802601
N      -1.553231    -0.131995    -1.879988
C      -2.715900     0.246230    -1.078499
H      -2.563863     1.178215    -0.530995
H      -3.593509     0.358598    -1.717623
H      -2.907719    -0.545944    -0.353315
C      -0.588080     2.498289     1.662143
C       0.503730     2.941731     2.613563
C      -1.408109     3.629778     1.080014
H       1.115446     2.099562     2.938370
H       1.148545     3.663662     2.107479
H       0.069680     3.422805     3.496887
H      -0.749227     4.306231     0.530821
H      -2.178533     3.264516     0.398344
H      -1.898162     4.197931     1.878124
C      -1.360049     1.379106     2.124568
N      -1.932641     0.425746     2.429748
48
     -1091.798198     -1091.470285   9.45   5.56
C       1.528876    -0.382527    -1.293263
C       0.159262    -0.575068    -0.993624
C      -0.771632    -0.746163    -2.042314
C      -0.339342    -0.698250    -3.356569
C       0.998249    -0.472749    -3.653504
C       1.920243    -0.320502    -2.625622
C       2.553777    -0.264758    -0.221909
C       2.661912    -1.233887     0.776536
C       3.642892    -1.132115     1.753733
C       4.527900    -0.059683     1.748443
C       4.429447     0.908728     0.756106
C       3.451108     0.804507    -0.224283
H      -1.069499    -0.834580    -4.147088
H       1.324080    -0.430251    -4.687279
H       2.970778    -0.177133    -2.855132
H       1.980361    -2.078361     0.781526
H       3.717596    -1.895256     2.522258
H       5.293903     0.019319     2.513202
H       5.117384     1.748290     0.744434
H       3.372022     1.566617    -0.993903
C      -0.283509    -0.623001     0.353938
N      -0.570679    -0.506233     1.493167
C      -3.053353    -0.266210    -1.153205
O      -4.073125    -0.744865    -0.693449
C      -2.802343     1.220383    -1.104649
C      -3.319217     1.862694    -0.061232
H      -3.218164     2.938697     0.049162
H      -3.853898     1.328753     0.714692
C      -2.093264     1.940408    -2.226765
H      -2.353346     3.000981    -2.193170
H      -1.004795     1.858471    -2.164457
H      -2.393789     1.549891    -3.203590
N      -2.128040    -1.083739    -1.771626
C      -2.443845    -2.512347    -1.822140
H      -3.493991    -2.641577    -2.080226
H      -1.814772    -2.984161    -2.579361
H      -2.264596    -2.990943    -0.852865
C      -0.349289     1.118739     2.368991
C       0.665723     0.773750     3.436118
C       0.103730     2.141504     1.355465
H       0.826441     1.636633     4.092755
H       0.323861    -0.065020     4.045354
H       1.617479     0.510338     2.970029
H       0.220723     3.117619     1.840994
H       1.072217     1.851013     0.942976
H      -0.618588     2.248614     0.544824
C      -1.667471     1.369359     2.903095
N      -2.710613     1.584830     3.342689
48
     -1091.798744     -1091.470093   9.10   5.68
C       1.297769    -1.651039     0.297621
C       0.435690    -0.741267    -0.348200
C      -0.430466    -1.188047    -1.365596
C      -0.432346    -2.516646    -1.737113
C       0.425941    -3.416435    -1.110893
C       1.279388    -2.981657    -0.104640
C       2.194480    -1.203977     1.394795
C       3.569269    -1.421318     1.315181
C       4.407214    -1.012027     2.344813
C       3.878535    -0.383784     3.466330
C       2.507225    -0.170380     3.554258
C       1.668664    -0.577818     2.526196
H      -1.100239    -2.843529    -2.527150
H       0.424787    -4.459724    -1.407724
H       1.935476    -3.686369     0.395160
H       3.982948    -1.899838     0.432783
H       5.476705    -1.181622     2.269771
H       4.532727    -0.064654     4.271463
H       2.087276     0.308773     4.433332
H       0.596677    -0.434722     2.606817
C       0.470063     0.638502    -0.054230
N       0.369940     1.776961     0.246894
C      -0.808672     0.641890    -2.858955
O       0.384877     0.677060    -3.098318
C      -1.732891     1.607421    -3.553205
C      -2.767620     1.174594    -4.264332
H      -3.378553     1.860882    -4.843210
H      -3.025119     0.121151    -4.315355
C      -1.284370     3.040504    -3.495513
H      -0.270081     3.123036    -3.895064
H      -1.956612     3.682525    -4.068726
H      -1.248589     3.398813    -2.461405
N      -1.334814    -0.262245    -1.971166
C      -2.713045    -0.300625    -1.488784
H      -3.290070    -1.096745    -1.973610
H      -2.708558    -0.480135    -0.411379
H      -3.205095     0.650213    -1.684089
C      -0.874684     2.343646     1.442979
C      -0.043303     2.997710     2.525938
C      -1.729171     3.291861     0.629219
H       0.605110     2.270703     3.018621
H       0.583236     3.773579     2.080292
H      -0.688214     3.461046     3.280611
H      -1.088989     4.047846     0.168680
H      -2.267667     2.762065    -0.159955
H      -2.460431     3.798958     1.268089
C      -1.555717     1.150103     1.857879
N      -2.046063     0.142181     2.130060
48
     -1091.798351     -1091.469477   9.35   6.07
C       1.013445    -1.768254     0.128073
C       0.181092    -0.791757    -0.466070
C       0.061840    -0.730376    -1.869163
C       0.821185    -1.555600    -2.673066
C       1.687958    -2.476366    -2.094064
C       1.761938    -2.587844    -0.711682
C       1.071399    -1.973242     1.599408
C       1.271230    -0.916365     2.486066
C       1.313552    -1.134246     3.855820
C       1.168551    -2.421091     4.359595
C       0.976818    -3.485304     3.485597
C       0.924851    -3.262609     2.116311
H       0.729711    -1.473095    -3.750590
H       2.293814    -3.119926    -2.722984
H       2.425184    -3.320026    -0.263872
H       1.406845     0.088349     2.110530
H       1.451530    -0.288395     4.520738
H       1.202293    -2.594590     5.430538
H       0.858503    -4.492835     3.871982
H       0.750047    -4.093089     1.439545
C      -0.600440     0.111795     0.298686
N      -1.090001     1.023579     0.871835
C      -0.563199     1.394391    -2.816886
O       0.603936     1.751608    -2.816523
C      -1.638401     2.374743    -3.207812
C      -2.643414     2.632131    -2.377687
H      -3.370974     3.406826    -2.603575
H      -2.762381     2.100128    -1.438875
C      -1.386151     3.118548    -4.488157
H      -2.148605     3.883616    -4.648822
H      -0.399355     3.588202    -4.454411
H      -1.389320     2.436414    -5.345736
N      -0.929257     0.133136    -2.436253
C      -2.259246    -0.451551    -2.573806
H      -2.785865    -0.483584    -1.613230
H      -2.852359     0.123415    -3.281906
H      -2.154944    -1.473004    -2.949569
C      -0.099856     2.539102     1.249715
C       1.180465     2.515597     0.447358
C      -1.053973     3.659255     0.900944
H       0.967456     2.531310    -0.622685
H       1.777788     3.401480     0.692976
H       1.788537     1.635540     0.666707
H      -1.213491     3.683285    -0.178979
H      -2.015074     3.524540     1.400467
H      -0.632152     4.621862     1.210250
C       0.112534     2.396842     2.672645
N       0.299012     2.276178     3.803502
48
     -1091.798354     -1091.468816   9.35   6.49
C       1.383209    -1.436981    -0.727700
C       0.203249    -0.670963    -0.584571
C      -0.661115    -0.501147    -1.684690
C      -0.322332    -1.002268    -2.925050
C       0.866273    -1.706313    -3.084190
C       1.692402    -1.932540    -1.990743
C       2.263149    -1.760748     0.425791
C       2.648430    -3.085732     0.642139
C       3.472400    -3.416581     1.709316
C       3.917638    -2.428556     2.580408
C       3.538764    -1.107554     2.374827
C       2.723149    -0.778607     1.301446
H      -0.992279    -0.837694    -3.761819
H       1.140294    -2.093295    -4.059862
H       2.610210    -2.497130    -2.114896
H       2.283366    -3.863538    -0.021225
H       3.761021    -4.451249     1.866073
H       4.556332    -2.688507     3.418654
H       3.864780    -0.323509     3.049741
H       2.455223     0.257096     1.143540
C      -0.189152    -0.100875     0.653741
N      -0.448310     0.575153     1.589401
C      -2.065617     1.455159    -1.717957
O      -1.173632     2.100186    -2.245118
C      -3.331046     2.151791    -1.289969
C      -3.753549     2.061152    -0.033450
H      -4.608018     2.636427     0.312190
H      -3.252585     1.432240     0.695884
C      -3.944801     3.049394    -2.326143
H      -4.791776     3.599017    -1.910181
H      -3.195731     3.756100    -2.693320
H      -4.293090     2.471521    -3.189553
N      -1.933792     0.116939    -1.467396
C      -2.996891    -0.783508    -1.032403
H      -2.901215    -1.035393     0.029826
H      -3.969877    -0.326484    -1.200070
H      -2.935514    -1.705316    -1.617281
C       0.285327     2.263264     1.760671
C       0.882279     2.682798     0.437497
C      -0.886988     3.095395     2.229905
H       1.656711     1.991669     0.098029
H       0.112365     2.744756    -0.333353
H       1.342816     3.671907     0.544146
H      -0.548505     4.101209     2.501873
H      -1.621198     3.183962     1.426702
H      -1.364267     2.642380     3.100751
C       1.273984     2.048045     2.793209
N       2.074222     1.877033     3.604699
48
     -1091.795844     -1091.468331  10.92   6.79
C       1.974735    -0.222374    -0.568493
C       0.579508    -0.198920    -0.774336
C       0.048144    -0.402592    -2.060942
C       0.892301    -0.593464    -3.136598
C       2.270912    -0.587387    -2.945109
C       2.799975    -0.408128    -1.673330
C       2.549182    -0.009868     0.784970
C       2.093698    -0.744643     1.880525
C       2.618836    -0.521909     3.144846
C       3.606468     0.437708     3.332510
C       4.072414     1.168132     2.246300
C       3.548409     0.944639     0.979865
H       0.467687    -0.761440    -4.120649
H       2.933804    -0.738125    -3.790498
H       3.874559    -0.428757    -1.525425
H       1.323375    -1.496169     1.739912
H       2.246634    -1.092310     3.989369
H       4.006811     0.620175     4.324180
H       4.841196     1.921506     2.386497
H       3.900640     1.530670     0.136162
C      -0.321482     0.051098     0.292071
N      -1.009945     0.489093     1.147147
C      -2.074685    -1.482620    -1.813673
O      -1.515313    -2.515561    -1.497470
C      -3.574149    -1.377331    -1.723751
C      -4.123228    -0.481538    -0.911481
H      -5.197760    -0.449238    -0.754838
H      -3.518367     0.221693    -0.347496
C      -4.336412    -2.432616    -2.472298
H      -5.406325    -2.360108    -2.266324
H      -4.181163    -2.338628    -3.553144
H      -3.976167    -3.422992    -2.179767
N      -1.369337    -0.378071    -2.229007
C      -1.956083     0.822012    -2.808264
H      -1.294182     1.193869    -3.594507
H      -2.925677     0.593447    -3.249049
H      -2.091142     1.614455    -2.062667
C      -0.883362     2.278504     1.570473
C       0.002421     2.935165     0.538465
C      -2.327624     2.726343     1.577532
H       1.016658     2.531677     0.571168
H      -0.407600     2.783047    -0.463714
H       0.057753     4.014279     0.722298
H      -2.401640     3.772833     1.893220
H      -2.748320     2.641523     0.571821
H      -2.921546     2.115664     2.259903
C      -0.289575     2.230998     2.885588
N       0.189344     2.196404     3.932965
