48
  -29709.681111  -29700.711401    0.00    0.00
 C       0.006836    -1.494183     0.579100
 C      -0.698326    -0.345360     0.964521
 C      -1.231369    -0.217875     2.254388
 C      -1.107198    -1.275365     3.145118
 C      -0.443320    -2.431710     2.761581
 C       0.119778    -2.534971     1.497743
 C       0.636414    -1.638594    -0.763380
 C       1.505810    -0.682667    -1.251664
 C       2.143278    -0.842842    -2.522209
 C       2.017475    -2.117349    -3.160639
 C       1.129133    -3.051242    -2.677811
 C       0.417207    -2.815941    -1.498441
 H      -1.520147    -1.175476     4.143066
 H      -0.347322    -3.253479     3.463780
 H       0.669216    -3.426725     1.216554
 H       1.714646     0.205236    -0.664448
 H       3.066347    -0.291954    -2.681912
 H       2.589027    -2.309656    -4.062124
 H       0.993837    -3.990931    -3.204173
 H      -0.286710    -3.554349    -1.129665
 C      -0.946419     0.715310     0.025382
 N      -1.175238     1.574867    -0.703504
 C      -1.438595     2.234155     2.566519
 O      -2.185609     3.190770     2.636331
 C       0.049799     2.443594     2.466689
 C       0.897199     1.726133     3.197564
 H       1.960734     1.946222     3.191560
 H       0.568235     0.922628     3.846808
 C       0.464212     3.617768     1.624854
 H       1.549026     3.741234     1.647304
 H       0.139408     3.490549     0.588374
 H      -0.013612     4.525487     2.002254
 N      -1.938654     0.948119     2.646028
 C      -3.381761     0.818539     2.861083
 H      -3.935904     1.084125     1.955297
 H      -3.606787    -0.213824     3.131975
 H      -3.692707     1.486650     3.664033
 C       1.168520     0.462887    -3.810625
 C       1.379620     1.832916    -3.205946
 C      -0.263139    -0.007546    -3.893076
 H       2.440284     2.053023    -3.059523
 H       0.968666     2.600871    -3.872961
 H       0.855773     1.911495    -2.251655
 H      -0.832791     0.651794    -4.559969
 H      -0.327908    -1.026199    -4.278866
 H      -0.728400     0.031850    -2.906647
 C       1.943431     0.230020    -5.000530
 N       2.602452     0.002501    -5.919877
48
  -29709.660153  -29700.706231   13.15    3.24
 C       1.351382     0.386855     0.082249
 C       0.244729     0.973415    -0.549745
 C       0.161352     2.360029    -0.727245
 C       1.186138     3.169065    -0.257098
 C       2.273548     2.601956     0.390471
 C       2.359273     1.226164     0.551247
 C       1.485675    -1.084299     0.275810
 C       1.359753    -1.964713    -0.780897
 C       1.528283    -3.373199    -0.593499
 C       2.045147    -3.807972     0.668343
 C       2.141487    -2.925551     1.720160
 C       1.842019    -1.571861     1.545065
 H       1.122263     4.241997    -0.400018
 H       3.070444     3.238888     0.760940
 H       3.225591     0.787067     1.033851
 H       1.130925    -1.587843    -1.772125
 H       1.793435    -3.957248    -1.470783
 H       2.301019    -4.854068     0.796665
 H       2.473752    -3.277303     2.691916
 H       1.910982    -0.885506     2.382191
 C      -0.873651     0.173089    -0.976431
 N      -1.783390    -0.441999    -1.318699
 C      -1.697918     3.948395    -0.876790
 O      -2.332091     4.708908    -1.582269
 C      -1.759627     4.069595     0.623128
 C      -2.009194     3.003040     1.374300
 H      -2.147312     3.094277     2.447636
 H      -2.118296     2.011887     0.946588
 C      -1.672462     5.473229     1.151627
 H      -2.423966     6.099986     0.664177
 H      -1.827901     5.490675     2.232263
 H      -0.694687     5.917989     0.933479
 N      -0.953089     2.916877    -1.413324
 C      -0.988331     2.748935    -2.867420
 H      -0.343968     3.481051    -3.366388
 H      -0.655192     1.741253    -3.119243
 H      -2.010268     2.889059    -3.215345
 C      -0.382700    -4.184106    -0.657862
 C      -0.903694    -3.842495    -2.035848
 C      -1.140704    -3.584031     0.501162
 H      -1.035029    -2.763753    -2.137220
 H      -0.237094    -4.204587    -2.822853
 H      -1.884159    -4.310477    -2.188315
 H      -0.666733    -3.820630     1.455163
 H      -1.199362    -2.499823     0.389592
 H      -2.165358    -3.976192     0.517341
 C      -0.047239    -5.574166    -0.495888
 N       0.283817    -6.671841    -0.366633
48
  -29709.660153  -29700.705850   13.15    3.48
 C       1.320193     0.315771     0.351916
 C       0.329920     0.986093    -0.381694
 C       0.306023     2.384147    -0.459338
 C       1.271863     3.119602     0.212986
 C       2.241333     2.468178     0.960777
 C       2.270207     1.082075     1.023106
 C       1.390150    -1.169510     0.445945
 C       1.396049    -1.963713    -0.684021
 C       1.502273    -3.387273    -0.586304
 C       1.822335    -3.932727     0.697619
 C       1.787917    -3.135128     1.818744
 C       1.549070    -1.762530     1.710373
 H       1.254798     4.201782     0.147492
 H       2.991880     3.047505     1.489013
 H       3.047637     0.578239     1.586996
 H       1.320780    -1.506198    -1.664807
 H       1.876444    -3.913139    -1.460665
 H       2.032102    -4.993765     0.777920
 H       1.968916    -3.569765     2.796889
 H       1.513666    -1.143361     2.600314
 C      -0.734531     0.259305    -1.023631
 N      -1.600221    -0.296500    -1.538185
 C      -1.474104     4.043114    -0.743963
 O      -1.982130     4.875991    -1.469548
 C      -1.747434     4.053825     0.737063
 C      -2.127653     2.943437     1.358796
 H      -2.416098     2.958882     2.405702
 H      -2.197982     1.991491     0.842969
 C      -1.703390     5.410068     1.381857
 H      -2.011791     5.352032     2.427688
 H      -0.694061     5.835426     1.339787
 H      -2.361955     6.097447     0.844278
 N      -0.684881     3.029218    -1.249770
 C      -0.514935     2.971881    -2.702925
 H       0.212614     3.715509    -3.046242
 H      -0.174438     1.974478    -2.984138
 H      -1.472420     3.174484    -3.179585
 C      -0.398556    -4.123985    -0.983387
 C      -0.708298    -3.662537    -2.389838
 C      -1.300350    -3.586011     0.100747
 H      -1.667678    -4.083348    -2.715528
 H      -0.797925    -2.575315    -2.423373
 H       0.055398    -3.987928    -3.100984
 H      -0.973824    -3.909505     1.090433
 H      -1.316518    -2.495117     0.067822
 H      -2.325803    -3.942339    -0.058767
 C      -0.123074    -5.533106    -0.885786
 N       0.159724    -6.648239    -0.798046
48
  -29709.660215  -29700.695210   13.11   10.16
 C       0.694945     1.046679    -1.056668
 C       0.301959     0.974573     0.287857
 C       0.087975     2.133899     1.043446
 C       0.263453     3.375608     0.449646
 C       0.640982     3.459002    -0.882395
 C       0.860000     2.307535    -1.625359
 C       0.925009    -0.160208    -1.900060
 C      -0.042069    -1.135955    -2.041740
 C       0.172390    -2.271549    -2.885308
 C       1.321554    -2.245296    -3.738067
 C       2.288540    -1.280339    -3.570832
 C       2.114990    -0.250379    -2.642323
 H       0.101082     4.271582     1.038477
 H       0.770128     4.432341    -1.344889
 H       1.144575     2.378116    -2.669575
 H      -0.982203    -1.044885    -1.508300
 H      -0.712239    -2.784166    -3.253686
 H       1.443992    -3.031039    -4.475534
 H       3.186741    -1.304153    -4.180003
 H       2.885535     0.501923    -2.511531
 C       0.105508    -0.296469     0.935352
 N      -0.056569    -1.298532     1.476332
 C      -1.376525     2.670594     2.930844
 O      -1.455898     2.963377     4.108203
 C      -2.526240     2.947986     1.997881
 C      -2.990189     1.993559     1.199244
 H      -3.875051     2.153611     0.590326
 H      -2.529035     1.012755     1.149653
 C      -3.166936     4.296759     2.162434
 H      -3.449187     4.447734     3.207767
 H      -2.469275     5.100374     1.900030
 H      -4.051933     4.385306     1.529027
 N      -0.268075     2.027063     2.417277
 C       0.804535     1.682756     3.352703
 H       0.361346     1.328428     4.281614
 H       1.418376     0.891911     2.919710
 H       1.432861     2.553011     3.572726
 C       0.533874    -3.865070    -1.602875
 C      -0.728816    -3.996042    -0.780994
 C       1.787172    -3.519631    -0.836083
 H      -1.612164    -4.122941    -1.412182
 H      -0.656973    -4.874719    -0.128043
 H      -0.860387    -3.121352    -0.141625
 H       2.030603    -4.330343    -0.137897
 H       2.637820    -3.373773    -1.503909
 H       1.630538    -2.610831    -0.252112
 C       0.699494    -4.911292    -2.577016
 N       0.818235    -5.707446    -3.403597
48
  -29709.610042  -29700.688788   44.60   14.19
 C       0.544238     1.345423    -0.634877
 C       0.447636     0.874924     0.682420
 C      -0.182779     1.632379     1.676333
 C      -0.729032     2.864686     1.342778
 C      -0.662331     3.324861     0.035961
 C      -0.026236     2.575236    -0.945038
 C       1.222780     0.542520    -1.689092
 C       0.536091     0.192211    -2.833554
 C       1.139174    -0.639720    -3.827383
 C       2.548139    -0.870368    -3.716579
 C       3.222678    -0.507019    -2.573400
 C       2.567970     0.170139    -1.540547
 H      -1.211548     3.455168     2.113729
 H      -1.099900     4.285139    -0.217617
 H       0.042568     2.946460    -1.962006
 H      -0.493878     0.509853    -2.957497
 H       0.714250    -0.612394    -4.827382
 H       3.059221    -1.385658    -4.522703
 H       4.279027    -0.735505    -2.473442
 H       3.106733     0.443842    -0.640064
 C       0.930468    -0.441499     1.016831
 N       1.297475    -1.498053     1.285566
 C      -1.412377     1.077715     3.721346
 O      -1.427180     1.093930     4.937106
 C      -2.692940     0.910969     2.945874
 C      -2.782796     0.000141     1.983307
 H      -3.726065    -0.192337     1.480693
 H      -1.933709    -0.606131     1.685352
 C      -3.850687     1.726150     3.447994
 H      -4.764730     1.476187     2.905522
 H      -3.997597     1.542719     4.515678
 H      -3.658984     2.799018     3.331174
 N      -0.230141     1.147916     3.012085
 C       1.015128     1.193940     3.780784
 H       1.844014     0.895899     3.137250
 H       1.201608     2.199690     4.173006
 H       0.940000     0.501386     4.617308
 C       0.293411    -2.508794    -3.502522
 C      -1.196222    -2.292574    -3.658543
 C       0.739625    -2.964058    -2.134669
 H      -1.724973    -3.251644    -3.597033
 H      -1.569156    -1.654132    -2.853920
 H      -1.445831    -1.835406    -4.619524
 H       0.309928    -3.948586    -1.911675
 H       1.825473    -3.041437    -2.068170
 H       0.394046    -2.266184    -1.369420
 C       0.891283    -3.222669    -4.598587
 N       1.399174    -3.736947    -5.497780
48
  -29709.665005  -29700.688706   10.11   14.24
 C       0.709907     0.407087    -1.715000
 C      -0.357477     1.065065    -1.087378
 C      -0.749846     2.351812    -1.480928
 C      -0.102041     2.961533    -2.546241
 C       0.939359     2.309642    -3.190498
 C       1.349030     1.052194    -2.771351
 C       1.182248    -0.946125    -1.305432
 C       0.321416    -2.023408    -1.225983
 C       0.796676    -3.322473    -0.859458
 C       2.214498    -3.508595    -0.800472
 C       3.059906    -2.424342    -0.859773
 C       2.556976    -1.140119    -1.085133
 H      -0.410063     3.956144    -2.850174
 H       1.442905     2.792066    -4.021915
 H       2.162959     0.546478    -3.279286
 H      -0.733092    -1.889302    -1.441838
 H       0.193363    -4.171886    -1.168359
 H       2.605228    -4.508875    -0.649035
 H       4.130567    -2.566918    -0.751344
 H       3.229521    -0.289694    -1.119970
 C      -1.081370     0.440451    -0.012996
 N      -1.685741    -0.032318     0.843440
 C      -1.902137     3.277259     0.512438
 O      -2.962613     3.575948     1.026442
 C      -0.641288     3.257091     1.336430
 C       0.485827     3.796747     0.883073
 H       1.364620     3.862751     1.517759
 H       0.569593     4.217762    -0.112329
 C      -0.813906     2.747588     2.739802
 H      -1.585123     3.331774     3.248507
 H      -1.144850     1.705526     2.741429
 H       0.124835     2.824804     3.292225
 N      -1.828531     3.019615    -0.843689
 C      -3.068320     3.165543    -1.609536
 H      -3.749000     2.330409    -1.414979
 H      -3.566233     4.091024    -1.321629
 H      -2.825283     3.192555    -2.672795
 C       0.168089    -3.615399     1.098883
 C      -1.342367    -3.577589     1.031390
 C       0.818993    -2.530993     1.922947
 H      -1.734693    -4.313101     0.324392
 H      -1.763716    -3.806522     2.018167
 H      -1.687229    -2.581308     0.749668
 H       0.486993    -1.549319     1.579902
 H       0.524900    -2.636840     2.974789
 H       1.907513    -2.581714     1.863369
 C       0.702183    -4.933369     1.319263
 N       1.149258    -5.990629     1.435696
48
  -29709.612364  -29700.674312   43.14   23.27
 C      -1.137566    -0.327939     0.420291
 C      -0.401166     0.845937     0.634820
 C       0.132854     1.143981     1.893956
 C      -0.066974     0.256018     2.942043
 C      -0.774438    -0.918833     2.732606
 C      -1.309977    -1.207182     1.484393
 C      -1.702674    -0.646455    -0.919289
 C      -1.398371    -1.849131    -1.521735
 C      -1.846550    -2.139851    -2.849361
 C      -2.827108    -1.263204    -3.411768
 C      -3.134852    -0.072917    -2.791004
 C      -2.559587     0.261339    -1.562667
 H       0.341530     0.490578     3.918801
 H      -0.919569    -1.611924     3.555047
 H      -1.878029    -2.117924     1.327863
 H      -0.743019    -2.557493    -1.025010
 H      -1.875340    -3.185046    -3.146046
 H      -3.306161    -1.530996    -4.347337
 H      -3.846163     0.608038    -3.247804
 H      -2.801905     1.204889    -1.086561
 C      -0.109401     1.734129    -0.462661
 N       0.143226     2.443495    -1.332253
 C       2.113514     2.378624     2.635877
 O       2.550684     3.363857     3.198770
 C       2.977203     1.157213     2.456847
 C       3.100445     0.589368     1.262420
 H       3.790630    -0.233751     1.102616
 H       2.547634     0.942432     0.398103
 C       3.770411     0.756902     3.668259
 H       4.447615    -0.066780     3.433302
 H       4.346928     1.611390     4.032540
 H       3.111506     0.443230     4.486119
 N       0.845820     2.358664     2.090978
 C       0.054184     3.587299     2.170055
 H       0.708223     4.439731     1.995371
 H      -0.721944     3.562884     1.403618
 H      -0.410693     3.697064     3.156092
 C      -0.148833    -1.836046    -4.004193
 C       0.328399    -0.433144    -3.718729
 C      -0.594339    -2.093560    -5.426999
 H       0.647193    -0.315122    -2.682527
 H       1.177970    -0.188403    -4.368236
 H      -0.468642     0.286635    -3.917304
 H      -1.302668    -1.324642    -5.743557
 H       0.267182    -2.056292    -6.104846
 H      -1.063686    -3.074475    -5.537777
 C       0.683620    -2.875887    -3.462657
 N       1.296196    -3.729808    -2.986469
48
  -29709.606116  -29700.671155   47.06   25.25
 C      -0.202076    -0.006930    -1.280529
 C      -0.130794     0.914808    -0.226275
 C      -0.735785     2.173274    -0.325306
 C      -1.414125     2.508426    -1.489341
 C      -1.485291     1.604278    -2.538971
 C      -0.890242     0.353974    -2.434025
 C       0.452862    -1.341213    -1.185908
 C      -0.295697    -2.487184    -1.351037
 C       0.295960    -3.780510    -1.189667
 C       1.723103    -3.838775    -1.116043
 C       2.459820    -2.685043    -0.963700
 C       1.836894    -1.434789    -0.966628
 H      -1.886278     3.481859    -1.563876
 H      -2.014713     1.875641    -3.446669
 H      -0.941541    -0.350000    -3.257706
 H      -1.363803    -2.419417    -1.531586
 H      -0.220873    -4.621945    -1.643713
 H       2.218972    -4.802847    -1.150356
 H       3.538947    -2.741068    -0.860274
 H       2.425147    -0.532969    -0.839392
 C       0.562624     0.573574     0.990786
 N       1.104987     0.305207     1.969041
 C      -0.238378     4.373315     0.626953
 O      -0.584797     5.257752     1.386153
 C       0.751569     4.658595    -0.472250
 C       1.815550     3.881180    -0.637863
 H       2.582912     4.129481    -1.365130
 H       1.976730     2.993780    -0.034760
 C       0.513346     5.935903    -1.226245
 H       1.324632     6.126584    -1.931731
 H      -0.429925     5.895980    -1.783046
 H       0.435022     6.770885    -0.524942
 N      -0.685125     3.075576     0.774173
 C      -1.575627     2.794084     1.902044
 H      -2.603299     3.104316     1.682485
 H      -1.556753     1.724665     2.115824
 H      -1.223984     3.343039     2.773775
 C      -0.342959    -4.379422     0.693452
 C       0.113277    -3.320167     1.666617
 C       0.267364    -5.749594     0.891908
 H      -0.135341    -3.623016     2.691340
 H       1.195966    -3.191328     1.604240
 H      -0.359718    -2.357252     1.471860
 H      -0.096809    -6.193304     1.826578
 H       0.013464    -6.432725     0.077328
 H       1.354600    -5.670094     0.961250
 C      -1.760486    -4.407936     0.455185
 N      -2.884620    -4.414150     0.195499
48
  -29709.626401  -29700.671155   34.33   25.25
 C      -1.166106    -0.074575     0.385201
 C      -0.467221     1.119856     0.163605
 C      -0.887856     2.323771     0.743887
 C      -1.983786     2.313244     1.596875
 C      -2.657234     1.127218     1.852674
 C      -2.260652    -0.055387     1.243300
 C      -0.748075    -1.342276    -0.273752
 C      -0.493262    -2.463864     0.486645
 C      -0.013543    -3.668519    -0.119191
 C      -0.064208    -3.744181    -1.546581
 C      -0.332693    -2.619036    -2.294184
 C      -0.645424    -1.407674    -1.673214
 H      -2.310800     3.245178     2.045354
 H      -3.512173     1.129574     2.520933
 H      -2.806889    -0.975371     1.421463
 H      -0.579472    -2.421108     1.567703
 H      -0.145594    -4.591086     0.439950
 H       0.140830    -4.689651    -2.037012
 H      -0.322597    -2.673904    -3.378299
 H      -0.848913    -0.525973    -2.270426
 C       0.742960     1.117199    -0.616765
 N       1.721523     1.133854    -1.220744
 C       0.093412     4.058258    -0.730322
 O       0.941364     4.919149    -0.862900
 C      -0.716875     3.604883    -1.916878
 C      -2.034280     3.450472    -1.829763
 H      -2.626014     3.216694    -2.709941
 H      -2.573678     3.579867    -0.898189
 C       0.049771     3.514692    -3.206233
 H       0.536049     4.472120    -3.410117
 H       0.838133     2.759395    -3.141442
 H      -0.618994     3.263159    -4.032095
 N      -0.186248     3.536107     0.518528
 C       0.553625     4.104370     1.647645
 H       0.078581     3.786715     2.576807
 H       1.595308     3.767968     1.640288
 H       0.541837     5.191986     1.580417
 C       2.014095    -3.663619     0.327542
 C       2.576994    -2.371734    -0.212165
 C       2.554822    -4.924448    -0.310593
 H       2.152507    -1.501351     0.288672
 H       3.664821    -2.351459    -0.071567
 H       2.371744    -2.287182    -1.281495
 H       2.009795    -5.814220     0.014914
 H       2.493888    -4.850496    -1.398723
 H       3.609485    -5.061095    -0.042052
 C       1.931660    -3.731830     1.761299
 N       1.793941    -3.791241     2.905271
48
  -29709.615876  -29700.666747   40.94   28.02
 C       0.937919     0.992848     0.119004
 C       0.109658     0.085821     0.794461
 C      -0.172406     0.237301     2.159842
 C       0.371559     1.310335     2.852659
 C       1.180022     2.221803     2.188384
 C       1.466531     2.061347     0.840291
 C       1.257830     0.873857    -1.331613
 C       0.261624     0.793867    -2.284704
 C       0.577130     0.719779    -3.678273
 C       1.938285     0.953272    -4.054026
 C       2.923920     1.008807    -3.095096
 C       2.601482     0.946215    -1.736647
 H       0.157496     1.424143     3.908648
 H       1.597487     3.063356     2.731867
 H       2.093174     2.781842     0.325937
 H      -0.778948     0.786655    -1.978313
 H      -0.195237     1.035579    -4.374507
 H       2.185013     1.026449    -5.107606
 H       3.961469     1.124225    -3.392711
 H       3.385044     0.983356    -0.987316
 C      -0.486657    -1.028886     0.105485
 N      -0.974535    -1.930610    -0.415879
 C      -2.062634    -0.357428     3.604214
 O      -2.490260    -1.109975     4.456842
 C      -2.716048     0.972202     3.319975
 C      -3.036980     1.727589     4.364090
 H      -3.534936     2.684677     4.240577
 H      -2.815288     1.401869     5.375165
 C      -3.044899     1.334273     1.892705
 H      -2.174428     1.708399     1.347496
 H      -3.424491     0.464630     1.347326
 H      -3.810932     2.112266     1.876692
 N      -0.988535    -0.721441     2.815047
 C      -0.431141    -2.058987     3.036305
 H       0.351997    -2.243577     2.301173
 H      -0.012432    -2.140509     4.043683
 H      -1.214403    -2.807836     2.920449
 C       0.233364    -1.253600    -4.228458
 C      -1.238333    -1.479290    -3.963508
 C       1.186765    -2.095215    -3.415657
 H      -1.527890    -2.480134    -4.307103
 H      -1.446204    -1.426304    -2.893360
 H      -1.861476    -0.753673    -4.492655
 H       1.051764    -3.155126    -3.665301
 H       2.225863    -1.825389    -3.611467
 H       0.979708    -1.973253    -2.350914
 C       0.560846    -1.162714    -5.626796
 N       0.832449    -1.026935    -6.739900
48
  -29709.619665  -29700.666529   38.56   28.16
 C       0.452175     0.006200     1.165417
 C       0.747751     0.757272     0.018942
 C       1.381082     2.005502     0.110210
 C       1.708199     2.513015     1.360406
 C       1.395244     1.788428     2.501651
 C       0.783504     0.546831     2.406165
 C      -0.207179    -1.328520     1.109505
 C       0.286384    -2.344065     0.314218
 C      -0.332889    -3.633786     0.293843
 C      -1.332923    -3.894976     1.283915
 C      -1.833488    -2.868800     2.052329
 C      -1.299643    -1.580847     1.957116
 H       2.204309     3.473433     1.431013
 H       1.647885     2.190989     3.477338
 H       0.569860    -0.025581     3.302203
 H       1.158095    -2.167293    -0.306896
 H       0.282965    -4.469421    -0.027765
 H      -1.729763    -4.900256     1.374340
 H      -2.637136    -3.062810     2.755868
 H      -1.707745    -0.776137     2.559113
 C       0.342345     0.306109    -1.286830
 N       0.027460    -0.023685    -2.342803
 C       1.371673     4.051664    -1.244019
 O       1.961790     4.733412    -2.058264
 C       0.226103     4.601676    -0.431361
 C       0.405590     5.777131     0.159896
 H      -0.384115     6.248284     0.737405
 H       1.349825     6.305143     0.073983
 C      -1.076118     3.841566    -0.408707
 H      -1.035089     2.962795     0.240147
 H      -1.876660     4.490203    -0.047167
 H      -1.338893     3.494664    -1.412948
 N       1.690906     2.717973    -1.076532
 C       2.727396     2.172027    -1.957313
 H       2.445992     2.326022    -2.998974
 H       3.686370     2.665570    -1.775090
 H       2.827271     1.103363    -1.767317
 C      -1.370031    -3.732990    -1.502887
 C      -0.310618    -3.585206    -2.571866
 C      -2.414368    -2.644313    -1.454310
 H      -0.763336    -3.712928    -3.562972
 H       0.129125    -2.586881    -2.537556
 H       0.477794    -4.335170    -2.468008
 H      -3.102380    -2.786418    -0.619311
 H      -1.934932    -1.668190    -1.361079
 H      -2.995382    -2.645853    -2.385118
 C      -1.894585    -5.068417    -1.391185
 N      -2.282819    -6.145220    -1.246361
48
  -29709.613017  -29700.665386   42.73   28.87
 C       1.271468     0.903674    -0.769070
 C       0.926104     0.599056     0.554202
 C       1.420111     1.354258     1.625942
 C       2.327109     2.373519     1.377983
 C       2.710111     2.657419     0.073861
 C       2.174352     1.942510    -0.987574
 C       0.698812     0.174721    -1.934134
 C      -0.667770     0.030648    -2.077595
 C      -1.225328    -0.629645    -3.217435
 C      -0.335034    -0.937489    -4.294800
 C       1.025667    -0.812848    -4.129066
 C       1.555472    -0.282522    -2.949404
 H       2.713477     2.948014     2.212860
 H       3.416281     3.458951    -0.116860
 H       2.445163     2.196121    -2.006784
 H      -1.332213     0.426779    -1.316611
 H      -2.253948    -0.387863    -3.471509
 H      -0.747632    -1.325074    -5.219973
 H       1.696596    -1.107920    -4.929803
 H       2.629571    -0.195350    -2.824596
 C       0.109480    -0.545679     0.862028
 N      -0.514017    -1.468942     1.146659
 C      -0.271049     1.171292     3.398301
 O      -0.637191     0.667069     4.439705
 C      -1.196448     2.020141     2.558914
 C      -2.253281     1.454215     1.989721
 H      -2.959387     2.040564     1.408744
 H      -2.448195     0.392364     2.093623
 C      -0.905026     3.496751     2.509472
 H      -0.859583     3.906088     3.524470
 H       0.052789     3.711379     2.027746
 H      -1.691608     4.019020     1.960826
 N       1.034040     1.054145     2.961367
 C       1.970506     0.279024     3.773881
 H       1.872282    -0.793615     3.573661
 H       2.989338     0.597726     3.543798
 H       1.756409     0.458217     4.826504
 C      -1.855451    -2.489770    -2.539221
 C      -2.874413    -2.184644    -1.464345
 C      -0.616197    -3.221217    -2.084278
 H      -3.332432    -3.116715    -1.110869
 H      -2.392181    -1.709723    -0.608176
 H      -3.675794    -1.540426    -1.835366
 H       0.096689    -3.346790    -2.900783
 H      -0.135779    -2.675544    -1.270313
 H      -0.889110    -4.214942    -1.707421
 C      -2.432376    -2.992311    -3.757958
 N      -2.880867    -3.337843    -4.763312
48
  -29709.578150  -29700.653196   64.61   36.52
 C      -0.337585     0.194439    -0.405796
 C      -0.778053     0.372683     0.914316
 C      -1.112430     1.643702     1.398288
 C      -0.989713     2.743621     0.560593
 C      -0.524094     2.580531    -0.735481
 C      -0.207210     1.318219    -1.217808
 C       0.003007    -1.149056    -0.949981
 C       1.183991    -1.319466    -1.641887
 C       1.490381    -2.558046    -2.289619
 C       0.667240    -3.681968    -1.964409
 C      -0.505070    -3.501733    -1.264057
 C      -0.866975    -2.239686    -0.785588
 H      -1.255268     3.726040     0.935020
 H      -0.420265     3.446204    -1.381899
 H       0.141580     1.196081    -2.237800
 H       1.875044    -0.490592    -1.749870
 H       2.534722    -2.746240    -2.524964
 H       0.956474    -4.671680    -2.301665
 H      -1.151675    -4.349851    -1.062315
 H      -1.805092    -2.109496    -0.258761
 C      -0.829001    -0.738032     1.831467
 N      -0.871303    -1.608110     2.582618
 C      -1.058447     2.698264     3.608783
 O      -1.700133     3.140909     4.542323
 C       0.386214     3.084112     3.426929
 C       1.312648     2.151119     3.239245
 H       2.366802     2.409314     3.199599
 H       1.059561     1.099637     3.151798
 C       0.684474     4.543019     3.626410
 H       0.295646     4.871685     4.593861
 H       1.759686     4.728162     3.582988
 H       0.194775     5.155021     2.860185
 N      -1.602388     1.788707     2.725499
 C      -2.971905     1.339078     2.982159
 H      -3.092328     1.160907     4.049381
 H      -3.701555     2.093240     2.667545
 H      -3.150869     0.411008     2.437827
 C       1.081724    -2.177771    -4.289232
 C      -0.406585    -1.942065    -4.390236
 C       1.597866    -3.394981    -5.024533
 H      -0.682691    -1.723979    -5.429518
 H      -0.948767    -2.834940    -4.072045
 H      -0.725578    -1.104201    -3.767866
 H       2.661416    -3.562994    -4.838765
 H       1.040999    -4.284066    -4.719003
 H       1.461641    -3.272040    -6.106080
 C       1.877772    -0.996881    -4.482091
 N       2.525415    -0.045797    -4.567297
48
  -29709.560714  -29700.647481   75.55   40.11
 C       0.654055     0.183486     0.142698
 C      -0.648659    -0.057407     0.604330
 C      -0.874777    -0.608471     1.871654
 C       0.209606    -0.905793     2.686392
 C       1.499407    -0.645247     2.248968
 C       1.720707    -0.112174     0.986292
 C       0.917123     0.753309    -1.206767
 C       0.363133     0.187963    -2.337115
 C       0.689982     0.673754    -3.640475
 C       1.413552     1.906845    -3.717751
 C       1.959692     2.461706    -2.582789
 C       1.744875     1.881428    -1.328805
 H       0.032877    -1.338005     3.665036
 H       2.341978    -0.873567     2.893892
 H       2.732873     0.067482     0.639686
 H      -0.303538    -0.661750    -2.242477
 H      -0.008369     0.451788    -4.442960
 H       1.565429     2.365556    -4.688804
 H       2.549220     3.370353    -2.655536
 H       2.172282     2.331060    -0.438918
 C      -1.790110     0.318883    -0.191270
 N      -2.712769     0.616589    -0.810147
 C      -2.689214    -0.445455     3.509415
 O      -3.607284    -1.011800     4.070815
 C      -2.093881     0.807322     4.096484
 C      -1.931160     1.890243     3.344827
 H      -1.590143     2.825938     3.778022
 H      -2.161765     1.893668     2.284568
 C      -1.860486     0.765718     5.580035
 H      -1.102641     0.017814     5.840353
 H      -1.527818     1.738693     5.947313
 H      -2.782323     0.477381     6.092144
 N      -2.203272    -0.886422     2.295060
 C      -2.869092    -2.038430     1.683682
 H      -3.945583    -1.930492     1.804863
 H      -2.625974    -2.069212     0.620885
 H      -2.554541    -2.974744     2.157462
 C       2.011830    -0.745494    -4.380950
 C       1.232982    -2.042751    -4.381401
 C       3.221658    -0.716780    -3.478230
 H       0.301436    -1.960042    -4.946867
 H       1.831183    -2.841359    -4.837071
 H       0.999876    -2.344062    -3.357317
 H       2.924369    -0.941535    -2.450860
 H       3.946861    -1.475819    -3.797499
 H       3.711979     0.257638    -3.493713
 C       2.231107    -0.201590    -5.693746
 N       2.364104     0.281823    -6.732673
48
  -29709.558521  -29700.645359   76.93   41.44
 C      -0.637945     0.116636    -1.229481
 C      -0.425054     1.135676    -0.292328
 C      -1.146186     2.335133    -0.351696
 C      -2.133579     2.484028    -1.314731
 C      -2.380129     1.462546    -2.222725
 C      -1.629278     0.295641    -2.189932
 C       0.175130    -1.129283    -1.204466
 C      -0.444196    -2.360359    -1.162965
 C       0.322646    -3.564121    -1.057139
 C       1.734214    -3.457249    -1.261826
 C       2.338647    -2.220704    -1.314428
 C       1.576896    -1.051328    -1.256913
 H      -2.695280     3.411239    -1.351208
 H      -3.152850     1.586575    -2.974333
 H      -1.801318    -0.487853    -2.920217
 H      -1.527103    -2.426118    -1.130752
 H      -0.162306    -4.488896    -1.358513
 H       2.329527    -4.360122    -1.345158
 H       3.416389    -2.148556    -1.422530
 H       2.060633    -0.081547    -1.292204
 C       0.490262     0.938282     0.803290
 N       1.192462     0.786776     1.701281
 C       0.291366     4.051052     0.660494
 O       0.572973     4.748331     1.613071
 C       1.198843     3.946601    -0.542534
 C       2.375469     3.345550    -0.420336
 H       3.064502     3.288204    -1.258125
 H       2.688807     2.899993     0.517518
 C       0.732086     4.637143    -1.796798
 H       1.498834     4.574193    -2.571782
 H      -0.190762     4.198615    -2.186739
 H       0.530725     5.694216    -1.592052
 N      -0.909565     3.373035     0.591474
 C      -1.843304     3.489015     1.710251
 H      -2.858165     3.308844     1.348765
 H      -1.607234     2.766571     2.499406
 H      -1.771708     4.493786     2.123857
 C       0.127763    -4.090461     0.942698
 C       0.616501    -2.915223     1.753243
 C       0.935420    -5.361488     1.089055
 H       1.642451    -2.664716     1.474997
 H      -0.004809    -2.031402     1.606194
 H       0.605357    -3.168170     2.820700
 H       0.624665    -6.128501     0.375042
 H       1.997171    -5.150782     0.942406
 H       0.811334    -5.773492     2.097997
 C      -1.293748    -4.301551     0.984747
 N      -2.436293    -4.457696     0.947463
48
  -29709.576983  -29700.642964   65.34   42.94
 C       1.232527     0.020201    -1.105389
 C       1.351546     0.980084    -0.091172
 C       2.375595     0.900531     0.861216
 C       3.352116    -0.079426     0.721850
 C       3.285092    -0.983405    -0.328225
 C       2.221345    -0.951647    -1.219947
 C       0.052416    -0.007649    -2.009081
 C      -1.217898     0.048877    -1.474777
 C      -2.374053    -0.117753    -2.298842
 C      -2.173134    -0.100621    -3.715010
 C      -0.898596    -0.147271    -4.236778
 C       0.219382    -0.131874    -3.397798
 H       4.148666    -0.140469     1.455319
 H       4.052202    -1.744269    -0.429968
 H       2.141037    -1.699253    -2.001738
 H      -1.355310     0.146901    -0.403525
 H      -3.314085     0.271087    -1.916071
 H      -3.032923    -0.072319    -4.375831
 H      -0.756133    -0.173614    -5.312788
 H       1.218841    -0.165954    -3.818414
 C       0.444427     2.095974    -0.029211
 N      -0.249174     3.011249     0.029757
 C       1.412151     2.054913     2.838379
 O       1.513399     2.969112     3.634281
 C       0.193871     1.167868     2.861650
 C       0.282066    -0.154343     2.756176
 H      -0.601843    -0.778771     2.850065
 H       1.225954    -0.664466     2.597960
 C      -1.091038     1.887848     3.164622
 H      -1.288513     2.665058     2.421642
 H      -1.926136     1.184646     3.175124
 H      -1.015388     2.379828     4.137884
 N       2.438992     1.806121     1.945474
 C       3.636894     2.636689     2.092651
 H       4.059715     2.527623     3.093784
 H       4.369820     2.330151     1.346153
 H       3.383693     3.688709     1.941566
 C      -2.976706    -2.053541    -1.859275
 C      -1.825444    -2.956407    -2.233161
 C      -4.245515    -2.253349    -2.658105
 H      -1.570966    -2.820188    -3.286775
 H      -0.939749    -2.746483    -1.631008
 H      -2.105999    -4.006129    -2.080368
 H      -4.995352    -1.491564    -2.430975
 H      -4.024738    -2.223713    -3.727645
 H      -4.684588    -3.233214    -2.433818
 C      -3.191908    -1.923282    -0.443324
 N      -3.338433    -1.754473     0.688700
48
  -29709.579356  -29700.642855   63.85   43.01
 C      -0.932353    -0.037898    -1.289729
 C      -1.076306     1.193288    -0.634640
 C      -1.121113     2.394673    -1.354477
 C      -1.084845     2.353674    -2.742121
 C      -0.982450     1.136664    -3.400067
 C      -0.892674    -0.047035    -2.681129
 C      -0.821650    -1.318125    -0.539474
 C       0.088074    -1.457747     0.489107
 C       0.275573    -2.713839     1.143131
 C      -0.673794    -3.747560     0.860732
 C      -1.579061    -3.595088    -0.164702
 C      -1.644339    -2.401118    -0.889664
 H      -1.120441     3.284854    -3.297250
 H      -0.952384     1.113293    -4.484589
 H      -0.777635    -0.992763    -3.199854
 H       0.701760    -0.614175     0.783460
 H       0.716654    -2.696560     2.136147
 H      -0.633506    -4.667418     1.434047
 H      -2.264003    -4.402216    -0.405084
 H      -2.366604    -2.288676    -1.691200
 C      -1.237318     1.249258     0.794998
 N      -1.376773     1.325653     1.933945
 C      -0.402397     4.097657     0.296576
 O      -0.731694     5.019978     1.016588
 C       0.968503     3.486294     0.429519
 C       1.709647     3.219711    -0.641340
 H       2.731985     2.868583    -0.535957
 H       1.345705     3.368953    -1.651630
 C       1.471389     3.369207     1.840797
 H       2.496443     2.992537     1.851569
 H       1.438396     4.349371     2.323377
 H       0.837626     2.698632     2.428093
 N      -1.251991     3.643834    -0.694710
 C      -2.525630     4.351538    -0.843038
 H      -2.980598     4.064423    -1.792029
 H      -3.207987     4.101697    -0.024281
 H      -2.348416     5.426616    -0.829040
 C       2.059572    -3.416314     0.349090
 C       3.086370    -2.363373     0.705309
 C       1.822781    -3.615995    -1.128592
 H       4.085467    -2.689533     0.391285
 H       2.862967    -1.427552     0.186898
 H       3.120339    -2.172771     1.780896
 H       2.746263    -3.955006    -1.614605
 H       1.042807    -4.355746    -1.314483
 H       1.523880    -2.670706    -1.588445
 C       2.190781    -4.632754     1.104413
 N       2.240580    -5.592478     1.742541
48
  -29709.562426  -29700.640052   74.48   44.77
 C      -0.408265    -0.003092    -1.239518
 C      -1.030056     0.914737    -0.380015
 C      -1.021786     2.286162    -0.662162
 C      -0.387074     2.740537    -1.810172
 C       0.236423     1.841219    -2.662012
 C       0.220791     0.481516    -2.382698
 C      -0.390194    -1.464350    -0.956027
 C       0.056889    -1.947802     0.256585
 C       0.170026    -3.352075     0.494237
 C      -0.416816    -4.229866    -0.472644
 C      -0.859786    -3.735238    -1.678244
 C      -0.825326    -2.362769    -1.943999
 H      -0.386468     3.802848    -2.028008
 H       0.735727     2.203573    -3.554967
 H       0.716986    -0.217755    -3.047342
 H       0.363503    -1.255796     1.032493
 H       0.179050    -3.681568     1.529743
 H      -0.458871    -5.292397    -0.258867
 H      -1.257839    -4.413122    -2.426914
 H      -1.182732    -1.981673    -2.894744
 C      -1.693771     0.467753     0.818763
 N      -2.226387     0.130526     1.780819
 C      -1.052214     4.297778     0.732157
 O      -1.668767     5.284197     1.086431
 C       0.440973     4.225481     0.919195
 C       0.995904     3.165756     1.496406
 H       2.058436     3.141385     1.719666
 H       0.409455     2.303673     1.796549
 C       1.189067     5.474653     0.549530
 H       1.110354     5.679240    -0.524405
 H       0.756852     6.333082     1.070560
 H       2.245926     5.384595     0.808788
 N      -1.691406     3.193662     0.205459
 C      -3.152429     3.237288     0.118244
 H      -3.480098     3.812428    -0.754912
 H      -3.538394     2.219523     0.049069
 H      -3.544195     3.712010     1.016056
 C       2.209489    -3.713459     0.349346
 C       2.836512    -2.848404     1.420859
 C       2.605433    -3.377347    -1.068256
 H       2.692124    -1.791158     1.185277
 H       2.415428    -3.051729     2.408633
 H       3.916168    -3.035300     1.472319
 H       2.369574    -2.331909    -1.282148
 H       3.685757    -3.517284    -1.199882
 H       2.084868    -4.006972    -1.791263
 C       2.222371    -5.117759     0.657675
 N       2.168092    -6.241133     0.914250
48
  -29709.556532  -29700.639345   78.17   45.22
 C       0.225425    -0.859753     0.579836
 C       1.235554     0.098573     0.411567
 C       1.599949     0.952864     1.459322
 C       0.947550     0.847856     2.680377
 C      -0.058064    -0.091299     2.853011
 C      -0.411623    -0.942035     1.814300
 C      -0.186378    -1.772554    -0.521474
 C      -0.559639    -1.275499    -1.751889
 C      -1.055709    -2.141835    -2.776476
 C      -0.922744    -3.549618    -2.563544
 C      -0.548051    -4.033576    -1.329303
 C      -0.207010    -3.159025    -0.294035
 H       1.235074     1.507992     3.491265
 H      -0.567780    -0.164201     3.808429
 H      -1.203802    -1.670632     1.950560
 H      -0.541875    -0.207637    -1.940176
 H      -1.000352    -1.777429    -3.798797
 H      -1.144198    -4.234586    -3.374836
 H      -0.491273    -5.104943    -1.162548
 H       0.093657    -3.547803     0.673071
 C       1.924641     0.226848    -0.847948
 N       2.486996     0.345296    -1.844217
 C       2.488950     3.232035     1.552507
 O       3.431832     3.948707     1.828614
 C       1.102045     3.809363     1.438816
 C       0.352047     3.553696     0.372892
 H      -0.610790     4.037213     0.236629
 H       0.682657     2.883978    -0.414145
 C       0.727744     4.781410     2.521361
 H       0.682323     4.286604     3.498349
 H       1.487268     5.564264     2.595072
 H      -0.244506     5.234208     2.316462
 N       2.655103     1.889985     1.277195
 C       4.020668     1.361666     1.295720
 H       4.054223     0.433757     0.723569
 H       4.686599     2.091820     0.839263
 H       4.357713     1.171307     2.320747
 C      -3.102657    -1.796812    -2.745991
 C      -3.565620    -2.091930    -1.339640
 C      -3.666843    -2.702032    -3.818703
 H      -3.299038    -3.115528    -1.066071
 H      -3.113646    -1.409909    -0.617544
 H      -4.656365    -1.991934    -1.274011
 H      -3.189261    -2.534393    -4.787286
 H      -3.534354    -3.748735    -3.535647
 H      -4.741782    -2.520273    -3.939709
 C      -3.111860    -0.403615    -3.099682
 N      -3.051459     0.711503    -3.389042
48
  -29709.556435  -29700.637168   78.24   46.58
 C       0.143223     0.461990    -0.846284
 C       0.147818     0.727343     0.531013
 C       0.864506     1.810397     1.054901
 C       1.567202     2.641050     0.191905
 C       1.544402     2.402426    -1.173776
 C       0.844991     1.318838    -1.688450
 C      -0.598671    -0.693469    -1.419804
 C      -0.405834    -1.969630    -0.935173
 C      -1.039307    -3.094807    -1.550954
 C      -2.056639    -2.823633    -2.518728
 C      -2.241230    -1.543465    -2.993096
 C      -1.500855    -0.477399    -2.475239
 H       2.126698     3.475516     0.599724
 H       2.090005     3.059953    -1.843062
 H       0.850357     1.122433    -2.755357
 H       0.281967    -2.146226    -0.115289
 H      -1.141445    -3.993270    -0.948178
 H      -2.665076    -3.638879    -2.895011
 H      -2.986647    -1.352429    -3.759072
 H      -1.658430     0.529111    -2.847801
 C      -0.640710    -0.071632     1.435236
 N      -1.266690    -0.691552     2.174609
 C       0.598313     3.252512     3.019717
 O       1.014211     3.559371     4.120718
 C      -0.310087     4.184030     2.261104
 C      -1.447743     3.737704     1.740866
 H      -2.154112     4.417449     1.273457
 H      -1.730210     2.691161     1.789631
 C       0.097657     5.629833     2.285855
 H       1.051322     5.780663     1.766950
 H      -0.659776     6.254312     1.807779
 H       0.241737     5.956323     3.319210
 N       0.888549     2.026178     2.459155
 C       1.667600     1.089678     3.272550
 H       1.619723     0.099667     2.818254
 H       2.712806     1.407581     3.346292
 H       1.244024     1.046253     4.274931
 C       0.495743    -3.975173    -2.636087
 C       1.025092    -2.911971    -3.568121
 C      -0.138665    -5.171926    -3.309733
 H       0.217837    -2.534059    -4.199918
 H       1.456592    -2.074636    -3.017162
 H       1.801110    -3.334585    -4.218662
 H      -0.875867    -4.842602    -4.045479
 H       0.624407    -5.757023    -3.837518
 H      -0.627852    -5.833656    -2.590598
 C       1.379985    -4.319629    -1.556424
 N       2.043313    -4.571523    -0.646819
48
  -29709.554073  -29700.635018   79.72   47.93
 C       0.315262    -0.091032     0.040187
 C      -0.590072     0.594546     0.863834
 C      -0.142068     1.517761     1.816533
 C       1.219373     1.758344     1.942758
 C       2.121488     1.091905     1.127491
 C       1.674043     0.171201     0.190056
 C      -0.140461    -1.071597    -0.984135
 C       0.404659    -2.340240    -1.005520
 C       0.057834    -3.276730    -2.028196
 C      -1.048317    -2.939614    -2.872694
 C      -1.581596    -1.671509    -2.842636
 C      -1.116724    -0.720382    -1.929727
 H       1.563302     2.470815     2.684421
 H       3.184269     1.287953     1.227385
 H       2.383496    -0.343424    -0.448963
 H       1.121954    -2.625830    -0.243406
 H       0.222481    -4.329966    -1.816531
 H      -1.419924    -3.682183    -3.570609
 H      -2.384127    -1.405552    -3.523045
 H      -1.534525     0.279696    -1.929008
 C      -2.008290     0.361811     0.752775
 N      -3.143374     0.190772     0.680747
 C      -1.105138     3.543540     2.796904
 O      -1.550106     4.082674     3.791915
 C      -0.624459     4.371035     1.633362
 C      -1.041901     4.105102     0.400864
 H      -0.776195     4.749750    -0.431734
 H      -1.687448     3.260478     0.183871
 C       0.208598     5.565014     2.003766
 H       1.155224     5.259088     2.463881
 H       0.431036     6.170700     1.122900
 H      -0.322683     6.173062     2.740773
 N      -1.076846     2.169657     2.668565
 C      -1.635099     1.378912     3.767422
 H      -2.541214     1.864409     4.125491
 H      -1.879366     0.380481     3.402924
 H      -0.926150     1.301075     4.599197
 C       1.694899    -3.268229    -3.308957
 C       2.869498    -3.666249    -2.442710
 C       1.767274    -1.883004    -3.904708
 H       3.773867    -3.768714    -3.054878
 H       3.062147    -2.897175    -1.690518
 H       2.699925    -4.619755    -1.936324
 H       1.862413    -1.138213    -3.110817
 H       2.645240    -1.799715    -4.557648
 H       0.877326    -1.651001    -4.491269
 C       1.279134    -4.293834    -4.226468
 N       0.891218    -5.125907    -4.925103
48
  -29709.577913  -29700.627263   64.76   52.80
 C       0.493641     0.324496    -0.594597
 C      -0.587427     1.208485    -0.722797
 C      -0.380951     2.567878    -0.994894
 C       0.913790     3.032559    -1.179813
 C       1.988772     2.163492    -1.063601
 C       1.782647     0.824971    -0.762380
 C       0.306110    -1.122874    -0.295226
 C       1.055600    -1.705568     0.705681
 C       1.006354    -3.115944     0.942762
 C      -0.040378    -3.846473     0.296771
 C      -0.788225    -3.252221    -0.695438
 C      -0.600477    -1.907650    -1.027275
 H       1.068481     4.084620    -1.394288
 H       2.998626     2.535955    -1.201796
 H       2.627705     0.151630    -0.665941
 H       1.739851    -1.102890     1.292984
 H       1.340791    -3.464033     1.916640
 H      -0.217887    -4.881140     0.570471
 H      -1.547310    -3.825052    -1.218622
 H      -1.178307    -1.463482    -1.829149
 C      -1.941919     0.746612    -0.563871
 N      -3.034827     0.408459    -0.446803
 C      -2.435133     3.697554    -0.179752
 O      -3.485688     4.234218    -0.473922
 C      -2.143429     3.343410     1.255348
 C      -0.958791     3.600147     1.800886
 H      -0.786120     3.428715     2.859288
 H      -0.134569     4.015315     1.232263
 C      -3.330268     2.851193     2.034716
 H      -3.058949     2.684592     3.079225
 H      -4.134293     3.589730     1.980456
 H      -3.717889     1.919993     1.612648
 N      -1.471631     3.466187    -1.142485
 C      -1.776071     3.918433    -2.501647
 H      -2.494137     3.248527    -2.986257
 H      -2.208211     4.917655    -2.461859
 H      -0.852488     3.937973    -3.082377
 C       2.749309    -3.821915     0.063220
 C       2.611716    -3.585862    -1.422131
 C       2.831820    -5.272386     0.485239
 H       1.758063    -4.144363    -1.811712
 H       2.465952    -2.528735    -1.650997
 H       3.514388    -3.929771    -1.942537
 H       3.750159    -5.729921     0.096989
 H       2.838327    -5.380925     1.572467
 H       1.985396    -5.831673     0.079397
 C       3.711821    -2.970279     0.706407
 N       4.431316    -2.247990     1.246677
48
  -29709.563406  -29700.626882   73.86   53.04
 C       0.300149    -1.001740     0.128463
 C       0.525677     0.357887     0.382327
 C       1.669839     0.785440     1.070230
 C       2.588579    -0.159393     1.509074
 C       2.366814    -1.508009     1.267792
 C       1.237760    -1.926611     0.576867
 C      -0.920737    -1.462178    -0.589790
 C      -0.798661    -2.206079    -1.744010
 C      -1.955004    -2.595128    -2.492535
 C      -3.227441    -2.414429    -1.865039
 C      -3.333489    -1.679528    -0.705003
 C      -2.194645    -1.173230    -0.074149
 H       3.475976     0.168975     2.037280
 H       3.087914    -2.240032     1.616943
 H       1.065552    -2.981593     0.392481
 H       0.184278    -2.440986    -2.139901
 H      -1.843849    -3.432337    -3.176621
 H      -4.113553    -2.835576    -2.327582
 H      -4.308682    -1.506052    -0.260872
 H      -2.289622    -0.589105     0.834304
 C      -0.422994     1.346288    -0.065888
 N      -1.169029     2.142604    -0.429695
 C       2.215713     2.674772     2.530165
 O       2.813612     3.726577     2.641054
 C       1.745978     1.899094     3.735899
 C       2.601791     1.766212     4.742846
 H       2.328194     1.244429     5.655054
 H       3.600832     2.185258     4.682042
 C       0.325618     1.391590     3.773769
 H       0.031572     1.196295     4.807078
 H      -0.364234     2.128759     3.351574
 H       0.200749     0.464781     3.207744
 N       1.886188     2.172898     1.284580
 C       2.271016     2.980823     0.124202
 H       3.357282     2.975311    -0.012532
 H       1.790079     2.577813    -0.767113
 H       1.944041     4.008518     0.276044
 C      -1.973224    -1.267696    -4.089771
 C      -2.005011     0.121962    -3.502407
 C      -3.188440    -1.656916    -4.902776
 H      -1.104231     0.342469    -2.928977
 H      -2.090217     0.864533    -4.305461
 H      -2.869016     0.233955    -2.843884
 H      -4.100258    -1.450540    -4.337783
 H      -3.227255    -1.069712    -5.828409
 H      -3.174663    -2.714357    -5.179006
 C      -0.726067    -1.633329    -4.704414
 N       0.281540    -1.978347    -5.148102
48
  -29709.549287  -29700.626093   82.72   53.53
 C      -1.223033    -0.735279     0.555939
 C      -0.735226     0.490519     1.021397
 C      -0.392404     0.667016     2.367600
 C      -0.659689    -0.350619     3.271760
 C      -1.205052    -1.548781     2.828968
 C      -1.455317    -1.750686     1.478299
 C      -1.409667    -0.974279    -0.902201
 C      -0.615701    -1.919706    -1.516311
 C      -0.651051    -2.103246    -2.934789
 C      -1.719907    -1.467197    -3.642454
 C      -2.516259    -0.536729    -3.011626
 C      -2.352139    -0.254806    -1.652225
 H      -0.410098    -0.203896     4.317130
 H      -1.406503    -2.342895     3.540333
 H      -1.842222    -2.701387     1.127055
 H       0.109419    -2.478548    -0.933848
 H      -0.278726    -3.048050    -3.322451
 H      -1.879889    -1.701223    -4.689616
 H      -3.293481    -0.023897    -3.569526
 H      -2.970009     0.494829    -1.170369
 C      -0.567899     1.602014     0.119752
 N      -0.452459     2.510826    -0.575190
 C       1.485113     2.240167     2.376070
 O       1.918017     3.358529     2.561394
 C       2.323010     1.157135     1.734571
 C       2.625555     1.238050     0.445061
 H       3.240452     0.482428    -0.035484
 H       2.268409     2.057744    -0.168682
 C       2.846342     0.081362     2.649591
 H       3.457605    -0.627418     2.087069
 H       3.463684     0.526029     3.437774
 H       2.039344    -0.470065     3.139783
 N       0.222717     1.872512     2.803020
 C      -0.614634     2.865520     3.471265
 H      -1.187329     3.453399     2.745443
 H      -1.305733     2.355656     4.146424
 H       0.026549     3.538356     4.038608
 C       1.067359    -1.138658    -3.590303
 C       0.922954     0.319422    -3.229689
 C       1.126379    -1.439286    -5.071820
 H       1.781173     0.884360    -3.614755
 H       0.016279     0.732389    -3.676399
 H       0.876340     0.468444    -2.150979
 H       1.115127    -2.513574    -5.272292
 H       0.279689    -0.975303    -5.583290
 H       2.045396    -1.026686    -5.505913
 C       2.054770    -1.837338    -2.812433
 N       2.799031    -2.421691    -2.152132
48
  -29709.546291  -29700.623181   84.60   55.36
 C      -0.793067    -0.059774     0.557526
 C      -0.119775     1.168000     0.605863
 C      -0.760146     2.354039     0.227464
 C      -2.078459     2.304019    -0.203863
 C      -2.744792     1.088749    -0.270883
 C      -2.110665    -0.086030     0.110977
 C      -0.135324    -1.338560     0.939272
 C       1.004842    -1.763324     0.295348
 C       1.521938    -3.077320     0.522477
 C       1.018596    -3.788001     1.659145
 C      -0.107637    -3.340259     2.310538
 C      -0.717376    -2.141822     1.931752
 H      -2.574811     3.224432    -0.491421
 H      -3.771337     1.058472    -0.621901
 H      -2.619240    -1.041566     0.038041
 H       1.466715    -1.132918    -0.456286
 H       2.550233    -3.268995     0.223714
 H       1.501523    -4.708322     1.969338
 H      -0.525038    -3.916260     3.130312
 H      -1.621343    -1.806174     2.428260
 C       1.253981     1.229375     1.037217
 N       2.351601     1.291559     1.375284
 C       0.023162     4.456104    -0.753076
 O       0.203398     5.649579    -0.602614
 C      -0.040988     3.866154    -2.138218
 C       0.694735     2.806264    -2.453010
 H       0.726810     2.428683    -3.470765
 H       1.313489     2.299577    -1.719786
 C      -0.860106     4.649033    -3.124584
 H      -1.918531     4.657619    -2.839904
 H      -0.525269     5.689597    -3.140850
 H      -0.773790     4.221933    -4.125792
 N      -0.070638     3.595822     0.320753
 C       0.089914     4.165698     1.659696
 H       0.877715     4.916334     1.630543
 H      -0.836142     4.641273     2.001564
 H       0.369685     3.373552     2.355410
 C       0.815353    -4.134310    -1.117410
 C       1.202934    -5.573278    -0.857758
 C       1.500463    -3.493632    -2.305716
 H       0.973839    -6.193337    -1.733357
 H       2.278482    -5.650956    -0.671047
 H       0.667707    -5.984881    -0.000712
 H       2.587381    -3.529232    -2.185071
 H       1.251811    -4.037066    -3.225614
 H       1.194907    -2.453976    -2.437526
 C      -0.597442    -3.880186    -1.054734
 N      -1.723222    -3.639872    -0.982333
48
  -29709.559401  -29700.622120   76.37   56.02
 C      -0.985809    -0.228678    -1.111531
 C      -1.224578     0.981446    -0.448390
 C      -1.421434     2.169599    -1.164167
 C      -1.431465     2.126681    -2.551833
 C      -1.221347     0.925457    -3.214815
 C      -0.985759    -0.242770    -2.502973
 C      -0.722565    -1.492179    -0.372430
 C       0.306373    -1.570098     0.539440
 C       0.687013    -2.828845     1.101460
 C      -0.230575    -3.916704     0.943221
 C      -1.271504    -3.817881     0.048976
 C      -1.500497    -2.627561    -0.645350
 H      -1.584787     3.046988    -3.105300
 H      -1.222082     0.905334    -4.299812
 H      -0.774466    -1.173633    -3.018137
 H       0.893196    -0.687315     0.767365
 H       1.296093    -2.811157     2.002647
 H      -0.068120    -4.835969     1.495472
 H      -1.926792    -4.667099    -0.116414
 H      -2.305401    -2.562236    -1.369291
 C      -1.315601     1.018217     0.987892
 N      -1.397801     1.073719     2.133573
 C      -0.822716     3.950365     0.452908
 O      -1.218245     4.836508     1.185543
 C       0.610851     3.491409     0.528961
 C       1.330785     3.296497    -0.571250
 H       2.388538     3.058357    -0.507868
 H       0.910609     3.395615    -1.565704
 C       1.182147     3.441847     1.918064
 H       2.240558     3.174456     1.886966
 H       1.066787     4.418095     2.395929
 H       0.647359     2.714652     2.535578
 N      -1.659357     3.400908    -0.498632
 C      -3.009026     3.961871    -0.590135
 H      -3.624938     3.636952     0.254660
 H      -2.952415     5.049979    -0.577757
 H      -3.467967     3.626204    -1.521130
 C       2.336212    -3.356403    -0.040446
 C       2.699048    -4.753988     0.410500
 C       3.370019    -2.296012     0.273828
 H       1.924749    -5.475279     0.144749
 H       3.638430    -5.073459    -0.057592
 H       2.845748    -4.779060     1.494730
 H       3.565168    -2.259573     1.349847
 H       4.317810    -2.529667    -0.226607
 H       3.049826    -1.306948    -0.059439
 C       1.814151    -3.280952    -1.376958
 N       1.363870    -3.192044    -2.435117
48
  -29709.555198  -29700.620515   79.01   57.03
 C       0.712593    -0.266225    -0.258541
 C       1.033306     1.071986    -0.527900
 C       2.290419     1.594894    -0.195892
 C       3.243925     0.758681     0.369369
 C       2.940753    -0.569957     0.627054
 C       1.683402    -1.074240     0.326735
 C      -0.623274    -0.837203    -0.588024
 C      -1.341081    -1.498861     0.389050
 C      -2.583615    -2.138608     0.088666
 C      -3.169314    -1.857233    -1.187453
 C      -2.443472    -1.197727    -2.152515
 C      -1.161000    -0.712905    -1.878863
 H       4.216763     1.166966     0.621515
 H       3.689566    -1.216221     1.073305
 H       1.451337    -2.114062     0.529960
 H      -0.946969    -1.549617     1.398503
 H      -3.259752    -2.328803     0.918069
 H      -4.170319    -2.219422    -1.395823
 H      -2.872922    -1.035001    -3.135775
 H      -0.594730    -0.210129    -2.654331
 C       0.071113     1.947771    -1.144992
 N      -0.674948     2.668689    -1.640944
 C       1.924902     4.043185    -0.017563
 O       2.078624     5.133746    -0.532174
 C       1.019872     3.891280     1.177111
 C       1.389447     3.174768     2.234048
 H       0.773593     3.145947     3.128086
 H       2.321415     2.621985     2.264712
 C      -0.220820     4.738213     1.137414
 H      -0.788381     4.627872     2.063735
 H       0.057174     5.786829     1.003271
 H      -0.857501     4.462058     0.292503
 N       2.627398     2.945270    -0.477598
 C       3.566132     3.177757    -1.577400
 H       4.238675     2.322002    -1.654568
 H       3.034224     3.306753    -2.525810
 H       4.140566     4.081630    -1.377666
 C      -2.111486    -4.160176    -0.003529
 C      -1.532505    -4.487749     1.355178
 C      -1.167086    -4.328034    -1.169312
 H      -1.325533    -5.562345     1.429631
 H      -0.588986    -3.956157     1.502087
 H      -2.215963    -4.222935     2.165819
 H      -0.840249    -5.373054    -1.241494
 H      -1.638889    -4.047719    -2.112044
 H      -0.281429    -3.704034    -1.026735
 C      -3.427303    -4.698686    -0.216371
 N      -4.507315    -5.068829    -0.382157
48
  -29709.575008  -29700.620052   66.58   57.32
 C       0.937934     0.918040    -0.855535
 C       0.876907     0.702944     0.528050
 C       0.779990     1.776136     1.424633
 C       0.724917     3.071723     0.926893
 C       0.751404     3.289186    -0.443644
 C       0.865417     2.224897    -1.327767
 C       1.059192    -0.220024    -1.807306
 C       0.142362    -0.363060    -2.827403
 C       0.188956    -1.493580    -3.703811
 C       1.359676    -2.313314    -3.647011
 C       2.274094    -2.151518    -2.629866
 C       2.121390    -1.131065    -1.688235
 H       0.656266     3.903691     1.617757
 H       0.699168     4.303744    -0.825366
 H       0.910840     2.401656    -2.397013
 H      -0.675748     0.342806    -2.929180
 H      -0.314724    -1.398838    -4.662257
 H       1.506291    -3.084442    -4.395586
 H       3.135678    -2.808775    -2.566520
 H       2.843309    -1.016326    -0.887342
 C       0.821389    -0.637970     1.053595
 N       0.758209    -1.701899     1.486218
 C      -0.184499     2.096488     3.654092
 O       0.037459     2.244439     4.839331
 C      -1.515261     2.459740     3.043757
 C      -2.052844     3.619666     3.403622
 H      -3.020740     3.937611     3.027697
 H      -1.538057     4.280563     4.093289
 C      -2.197368     1.466914     2.134782
 H      -2.066632     0.444910     2.503486
 H      -3.266687     1.683283     2.089441
 H      -1.804074     1.499481     1.115250
 N       0.758361     1.523356     2.821063
 C       2.002750     1.064560     3.442884
 H       1.767385     0.463694     4.320221
 H       2.555642     0.455963     2.726848
 H       2.620507     1.913004     3.754489
 C      -1.335420    -2.716752    -3.002497
 C      -1.043264    -2.987491    -1.547010
 C      -1.306906    -3.929273    -3.907002
 H      -1.080799    -2.077108    -0.947980
 H      -1.779615    -3.693655    -1.143682
 H      -0.051681    -3.431686    -1.436712
 H      -1.380461    -3.654556    -4.962382
 H      -0.383931    -4.492387    -3.751357
 H      -2.148371    -4.593382    -3.674643
 C      -2.453992    -1.845299    -3.239995
 N      -3.305701    -1.098815    -3.460380
48
  -29709.526181  -29700.617440   97.22   58.96
 C      -0.352437     0.351709    -0.320652
 C       0.731597     1.004234     0.282046
 C       0.549137     1.810709     1.411581
 C      -0.725990     1.956225     1.940624
 C      -1.800715     1.298477     1.360545
 C      -1.618549     0.505915     0.234881
 C      -0.175000    -0.516144    -1.517790
 C      -0.866762    -0.236886    -2.675945
 C      -0.834028    -1.141132    -3.784542
 C       0.162500    -2.168294    -3.754232
 C       0.856844    -2.427434    -2.595074
 C       0.671237    -1.633109    -1.461920
 H      -0.867003     2.585365     2.812687
 H      -2.791997     1.408461     1.788509
 H      -2.453858    -0.025388    -0.207869
 H      -1.495091     0.646181    -2.723440
 H      -1.126023    -0.754049    -4.758479
 H       0.332211    -2.771816    -4.639363
 H       1.567201    -3.246913    -2.559693
 H       1.199500    -1.862328    -0.543445
 C       2.061810     0.849881    -0.251182
 N       3.128894     0.735143    -0.664576
 C       1.964175     2.395181     3.322326
 O       2.588964     3.261844     3.903726
 C       1.557277     1.137397     4.045512
 C       1.812384    -0.054449     3.518183
 H       1.608046    -0.966734     4.070786
 H       2.261918    -0.162868     2.536658
 C       1.002703     1.349360     5.425483
 H       1.698923     1.950682     6.016093
 H       0.055172     1.899190     5.390024
 H       0.830619     0.393842     5.925122
 N       1.657132     2.498645     1.981799
 C       2.142301     3.681146     1.267635
 H       1.500238     4.548727     1.456333
 H       3.149522     3.911123     1.610552
 H       2.163197     3.470408     0.197704
 C      -2.648529    -2.145796    -3.639861
 C      -2.565882    -3.271483    -4.646354
 C      -3.686321    -1.088378    -3.950135
 H      -3.533631    -3.782006    -4.727540
 H      -2.315807    -2.879571    -5.637168
 H      -1.814595    -4.009639    -4.361703
 H      -4.690574    -1.529773    -3.953262
 H      -3.678341    -0.281935    -3.214312
 H      -3.511224    -0.660647    -4.941779
 C      -2.642715    -2.570205    -2.268573
 N      -2.610037    -2.870613    -1.155457
48
  -29709.612975  -29700.616841   42.76   59.34
 C       1.571823     0.792178    -0.225458
 C       0.757449     0.592135     0.896420
 C       0.889467     1.387383     2.041847
 C       1.905186     2.332765     2.093011
 C       2.755956     2.497115     1.009110
 C       2.580353     1.747834    -0.146559
 C       1.367133     0.040410    -1.495283
 C       0.152084     0.097557    -2.146444
 C      -0.054020    -0.577783    -3.391742
 C       1.097216    -1.139386    -4.026056
 C       2.298210    -1.212008    -3.353965
 C       2.441976    -0.645457    -2.084826
 H       2.009981     2.947715     2.980350
 H       3.547667     3.237662     1.056655
 H       3.218214     1.912202    -1.008350
 H      -0.675228     0.647958    -1.710470
 H      -0.845790    -0.192665    -4.029050
 H       1.011427    -1.535170    -5.032380
 H       3.153404    -1.686367    -3.825534
 H       3.390473    -0.705714    -1.561766
 C      -0.193727    -0.485811     0.929185
 N      -0.934955    -1.361033     1.006527
 C      -1.354017     1.230188     3.070465
 O      -2.033216     0.768280     3.965747
 C      -2.003993     1.903833     1.889004
 C      -1.564176     3.082423     1.458514
 H      -2.087025     3.617994     0.671620
 H      -0.695590     3.569040     1.888539
 C      -3.245511     1.234995     1.370477
 H      -3.022024     0.249248     0.954895
 H      -3.953133     1.090278     2.190704
 H      -3.710123     1.844011     0.592732
 N       0.027622     1.212436     3.154435
 C       0.606728     0.650427     4.375627
 H       0.082281     1.049887     5.243177
 H       0.514018    -0.440431     4.385884
 H       1.661996     0.923031     4.424529
 C      -1.258400    -2.211472    -2.943124
 C      -0.460250    -3.097005    -2.019525
 C      -1.591521    -2.814707    -4.290543
 H      -1.035147    -4.000962    -1.781574
 H       0.465616    -3.402918    -2.512313
 H      -0.218574    -2.595800    -1.083552
 H      -2.049896    -2.086091    -4.963967
 H      -0.688444    -3.212121    -4.759565
 H      -2.296368    -3.646109    -4.167296
 C      -2.365004    -1.518352    -2.341238
 N      -3.230827    -0.894183    -1.903728
48
  -29709.544703  -29700.606392   85.60   65.89
 C       1.347255     0.011984    -1.413977
 C       0.373847     0.832676    -0.825236
 C       0.354914     2.211738    -1.056020
 C       1.318807     2.789339    -1.864348
 C       2.294945     1.989502    -2.442252
 C       2.304413     0.618551    -2.224484
 C       1.397825    -1.462066    -1.205871
 C       0.291914    -2.260000    -1.425561
 C       0.357236    -3.678728    -1.252257
 C       1.653155    -4.255621    -1.062695
 C       2.742736    -3.449985    -0.821773
 C       2.624077    -2.058347    -0.864988
 H       1.306681     3.861824    -2.017841
 H       3.054546     2.439360    -3.073355
 H       3.058118    -0.001402    -2.698052
 H      -0.644623    -1.808191    -1.734695
 H      -0.382413    -4.273285    -1.781876
 H       1.749036    -5.335856    -1.052894
 H       3.710384    -3.896950    -0.616023
 H       3.485473    -1.430760    -0.663147
 C      -0.615808     0.296475     0.073939
 N      -1.425920    -0.092491     0.792277
 C      -0.347043     3.774661     0.625353
 O       0.808884     3.928984     0.973224
 C      -1.462372     4.409594     1.413174
 C      -2.431164     3.652966     1.916381
 H      -3.187870     4.076827     2.570437
 H      -2.484953     2.586328     1.720837
 C      -1.285970     5.873191     1.702753
 H      -2.070107     6.232870     2.372230
 H      -0.308253     6.042229     2.162321
 H      -1.315652     6.464431     0.780419
 N      -0.678038     2.996956    -0.460095
 C      -1.990350     2.951783    -1.100966
 H      -2.560889     2.064550    -0.809131
 H      -2.561591     3.838130    -0.831312
 H      -1.849348     2.942749    -2.185087
 C      -0.633382    -4.070215     0.529658
 C      -2.048918    -3.589303     0.301342
 C       0.138052    -3.356301     1.612896
 H      -2.501088    -4.060925    -0.574965
 H      -2.669868    -3.837655     1.171011
 H      -2.068525    -2.504584     0.182388
 H       0.140454    -2.281258     1.424457
 H      -0.342312    -3.526679     2.584575
 H       1.168221    -3.711483     1.671258
 C      -0.507774    -5.503616     0.553094
 N      -0.378942    -6.649528     0.514621
48
  -29709.514480  -29700.604215  104.56   67.26
 C       0.475088     0.334442    -1.561905
 C      -0.707645     1.048819    -1.330456
 C      -0.747919     2.442540    -1.464457
 C       0.379520     3.115318    -1.911867
 C       1.543696     2.410937    -2.188920
 C       1.595609     1.037428    -1.998295
 C       0.557664    -1.133021    -1.335870
 C       0.113943    -1.683770    -0.150088
 C       0.280940    -3.075471     0.124687
 C       0.703262    -3.910961    -0.958556
 C       1.140440    -3.349727    -2.136815
 C       1.100332    -1.964891    -2.328201
 H       0.337430     4.193243    -2.024848
 H       2.424437     2.941975    -2.535099
 H       2.519492     0.497599    -2.177309
 H      -0.332844    -1.046072     0.604166
 H      -0.371765    -3.517021     0.872986
 H       0.718441    -4.986189    -0.816389
 H       1.504457    -3.987422    -2.936344
 H       1.439628    -1.533767    -3.264120
 C      -1.934483     0.364735    -1.009217
 N      -2.934360    -0.151548    -0.772608
 C      -2.478971     3.227504     0.087219
 O      -3.609847     3.622715     0.280683
 C      -1.559803     2.861873     1.229600
 C      -1.812204     1.777737     1.952084
 H      -1.188007     1.514519     2.801397
 H      -2.649902     1.127398     1.724679
 C      -0.452125     3.835857     1.532401
 H      -0.868297     4.830698     1.724507
 H       0.103933     3.515476     2.415985
 H       0.248357     3.930615     0.697865
 N      -1.942762     3.161291    -1.183487
 C      -2.782379     3.541863    -2.317939
 H      -3.429863     4.363269    -2.014899
 H      -2.142733     3.859739    -3.144254
 H      -3.407542     2.703920    -2.645668
 C       1.865797    -3.119838     1.464793
 C       1.403455    -2.288796     2.641856
 C       3.068085    -2.583403     0.725752
 H       0.455254    -2.648574     3.049199
 H       2.148820    -2.325321     3.445722
 H       1.286149    -1.244274     2.342957
 H       3.323537    -3.206693    -0.132377
 H       2.865573    -1.569210     0.372404
 H       3.935048    -2.544063     1.397179
 C       1.907680    -4.531905     1.732361
 N       1.889082    -5.672010     1.907306
48
  -29709.519092  -29700.600623  101.67   69.51
 C      -0.679743    -0.066008    -1.119310
 C      -0.994350     1.071132    -0.362317
 C      -0.872000     2.357587    -0.906030
 C      -0.425778     2.504890    -2.212903
 C      -0.102633     1.384370    -2.964717
 C      -0.235981     0.111800    -2.427205
 C      -0.787935    -1.442748    -0.563431
 C      -0.170406    -1.781236     0.623188
 C      -0.186585    -3.126038     1.105313
 C      -1.058936    -4.048942     0.444262
 C      -1.670147    -3.698784    -0.738103
 C      -1.520244    -2.412926    -1.266899
 H      -0.333926     3.499588    -2.633108
 H       0.250552     1.505620    -3.983762
 H       0.023799    -0.760104    -3.018150
 H       0.368460    -1.027137     1.185114
 H      -0.011379    -3.275264     2.167349
 H      -1.188218    -5.040666     0.864016
 H      -2.290922    -4.420484    -1.259864
 H      -2.010978    -2.144305    -2.196384
 C      -1.437339     0.949624     1.003427
 N      -1.787161     0.878367     2.096752
 C      -0.383388     4.575243     0.008859
 O      -0.820290     5.676911     0.276385
 C       1.097342     4.319496    -0.126190
 C       1.808110     5.215653    -0.801390
 H       2.882967     5.115486    -0.919495
 H       1.329987     6.080704    -1.249022
 C       1.702929     3.123042     0.566850
 H       2.769723     3.291906     0.727526
 H       1.230204     2.950846     1.538687
 H       1.592265     2.205906    -0.017806
 N      -1.227209     3.488231    -0.123276
 C      -2.654551     3.723445     0.108439
 H      -2.781444     4.273362     1.039829
 H      -3.092264     4.308793    -0.706827
 H      -3.166746     2.764158     0.184040
 C       1.722726    -3.823374     0.681126
 C       2.651793    -2.905684     1.445476
 C       1.868707    -3.787850    -0.821121
 H       3.688840    -3.247927     1.342395
 H       2.594483    -1.890796     1.044367
 H       2.413809    -2.878893     2.511757
 H       1.138300    -4.432938    -1.311612
 H       1.731462    -2.766063    -1.183739
 H       2.874142    -4.119912    -1.108939
 C       1.621977    -5.143361     1.242080
 N       1.480776    -6.187528     1.711679
48
  -29709.555124  -29700.600106   79.06   69.84
 C       0.293871     0.175749    -0.519903
 C      -0.800406     1.018765    -0.765132
 C      -0.641688     2.408705    -0.827689
 C       0.617840     2.958369    -0.628906
 C       1.699746     2.134976    -0.357241
 C       1.541041     0.756688    -0.309999
 C       0.144441    -1.304630    -0.466659
 C       0.636550    -2.004063     0.617710
 C       0.588489    -3.432004     0.659769
 C      -0.203807    -4.087115    -0.337080
 C      -0.688992    -3.378778    -1.412404
 C      -0.495002    -1.997609    -1.506649
 H       0.739956     4.034378    -0.683941
 H       2.680139     2.571269    -0.194725
 H       2.395751     0.116713    -0.119325
 H       1.082244    -1.461899     1.444875
 H       0.653900    -3.904556     1.636327
 H      -0.367785    -5.156321    -0.256541
 H      -1.243604    -3.891009    -2.192002
 H      -0.868764    -1.454649    -2.367232
 C      -2.130744     0.477965    -0.889978
 N      -3.201133     0.068334    -0.986495
 C      -2.094022     4.321740    -0.342086
 O      -2.734625     5.252911    -0.791038
 C      -1.701613     4.297145     1.111810
 C      -1.936075     3.220460     1.853412
 H      -1.742875     3.224282     2.922120
 H      -2.356700     2.313173     1.432394
 C      -1.189316     5.601214     1.654137
 H      -1.907164     6.398072     1.442281
 H      -1.024818     5.534886     2.731530
 H      -0.245423     5.885413     1.174793
 N      -1.760119     3.234531    -1.123376
 C      -2.253803     3.224561    -2.502070
 H      -1.679070     3.911560    -3.132398
 H      -2.175314     2.212747    -2.901260
 H      -3.297447     3.534904    -2.508974
 C       2.534032    -4.023550     0.231818
 C       3.382489    -3.378851     1.305605
 C       2.819740    -3.571632    -1.179987
 H       4.426082    -3.702330     1.208639
 H       3.360348    -2.291070     1.202468
 H       3.043034    -3.644589     2.309849
 H       3.855102    -3.814437    -1.450454
 H       2.153517    -4.051730    -1.898021
 H       2.692547    -2.489253    -1.259750
 C       2.386254    -5.445009     0.387450
 N       2.204466    -6.575224     0.530513
48
  -29709.522559  -29700.597058   99.49   71.75
 C       0.699064    -1.346292    -0.147262
 C       0.691770    -0.726921     1.109438
 C       0.019969    -1.302312     2.194695
 C      -0.541841    -2.563218     2.054369
 C      -0.474436    -3.219297     0.832500
 C       0.115379    -2.605180    -0.263896
 C       1.254833    -0.662396    -1.344149
 C       0.913357     0.649531    -1.600111
 C       1.317919     1.297706    -2.807973
 C       2.277748     0.619144    -3.622676
 C       2.617451    -0.688772    -3.352036
 C       2.094247    -1.349096    -2.236526
 H      -1.048118    -3.011193     2.902565
 H      -0.917858    -4.203952     0.725757
 H       0.109592    -3.096954    -1.230879
 H       0.265749     1.188369    -0.918134
 H       1.334640     2.384462    -2.802906
 H       2.721845     1.135135    -4.467286
 H       3.318538    -1.209132    -3.997406
 H       2.374263    -2.376759    -2.030400
 C       1.424151     0.492284     1.340522
 N       2.023508     1.446419     1.569588
 C      -0.754594     0.592907     3.539257
 O      -0.633786     1.302463     4.515993
 C      -1.710688     0.929671     2.418464
 C      -1.452735     1.955893     1.616950
 H      -2.130382     2.232490     0.814527
 H      -0.554170     2.551649     1.736715
 C      -2.968851     0.104578     2.345198
 H      -3.525171     0.181407     3.285834
 H      -3.606743     0.461534     1.534104
 H      -2.755773    -0.955277     2.178508
 N      -0.075862    -0.607386     3.430499
 C       0.828560    -1.002163     4.507909
 H       1.817470    -0.548270     4.379768
 H       0.411021    -0.667993     5.456502
 H       0.928649    -2.089831     4.509963
 C      -0.432268     1.319488    -3.922194
 C      -0.825190    -0.123606    -4.130006
 C      -0.080539     2.085639    -5.177876
 H      -1.037701    -0.621571    -3.182379
 H      -1.721735    -0.182659    -4.759830
 H      -0.017984    -0.661337    -4.632700
 H      -0.969323     2.208845    -5.808861
 H       0.309986     3.081097    -4.952821
 H       0.665492     1.536203    -5.756852
 C      -1.281519     2.041245    -3.013688
 N      -1.907374     2.616654    -2.233777
48
  -29709.493691  -29700.590854  117.61   75.64
 C      -1.212222     0.006217     0.374387
 C      -0.628659     1.253039     0.625931
 C      -1.235221     2.435181     0.182744
 C      -2.466786     2.368234    -0.451001
 C      -3.067705     1.136055    -0.676649
 C      -2.438424    -0.037021    -0.284293
 C      -0.546072    -1.264161     0.763664
 C       0.738062    -1.532610     0.343564
 C       1.312128    -2.827330     0.540589
 C       0.647573    -3.701028     1.460358
 C      -0.624492    -3.408462     1.895277
 C      -1.247144    -2.215528     1.519452
 H      -2.937735     3.288071    -0.780844
 H      -4.026109     1.091184    -1.183594
 H      -2.879474    -1.002828    -0.506635
 H       1.285968    -0.787074    -0.221939
 H       2.393100    -2.914585     0.454863
 H       1.134977    -4.618846     1.771061
 H      -1.149843    -4.104286     2.541641
 H      -2.259953    -2.001301     1.843019
 C       0.587152     1.353094     1.392467
 N       1.547531     1.462379     2.015362
 C       0.563828     4.059957    -0.199542
 O       1.202122     5.025283     0.166780
 C       0.982248     3.243220    -1.400442
 C       2.061345     2.474607    -1.326872
 H       2.403000     1.907076    -2.187933
 H       2.639040     2.393832    -0.412469
 C       0.175636     3.444062    -2.655875
 H      -0.866826     3.141069    -2.523436
 H       0.175599     4.502588    -2.937479
 H       0.602279     2.865453    -3.477923
 N      -0.617380     3.696478     0.413375
 C      -1.083500     4.474761     1.559174
 H      -0.635547     4.113666     2.491634
 H      -0.798187     5.515606     1.414373
 H      -2.170768     4.394412     1.627025
 C       1.061558    -3.719005    -1.315589
 C       1.516771    -5.149826    -1.131978
 C       1.917300    -2.892252    -2.251694
 H       2.532845    -5.177862    -0.726360
 H       0.855534    -5.698297    -0.459375
 H       1.531553    -5.671665    -2.096915
 H       1.912999    -3.330794    -3.257164
 H       1.554213    -1.865870    -2.332027
 H       2.954675    -2.873027    -1.904326
 C      -0.350699    -3.568569    -1.533430
 N      -1.484208    -3.412743    -1.679477
48
  -29709.534557  -29700.590718   91.96   75.73
 C       1.378756     0.035774     1.238302
 C       0.357026     0.906001     0.842735
 C       0.288015     2.212936     1.338533
 C       1.225398     2.653253     2.253811
 C       2.232533     1.790509     2.672639
 C       2.310357     0.502279     2.166495
 C       1.508990    -1.347394     0.702146
 C       1.516942    -1.587255    -0.658402
 C       1.669129    -2.912840    -1.174241
 C       2.032117    -3.938780    -0.244631
 C       1.999593    -3.692277     1.109074
 C       1.716323    -2.412683     1.594582
 H       1.168860     3.671230     2.623650
 H       2.971586     2.133624     3.389369
 H       3.115960    -0.155289     2.475231
 H       1.406831    -0.758727    -1.350163
 H       2.040071    -3.005413    -2.191557
 H       2.275005    -4.925820    -0.622825
 H       2.215943    -4.493000     1.809432
 H       1.682354    -2.229884     2.663330
 C      -0.689743     0.487098    -0.052233
 N      -1.563768     0.197001    -0.741075
 C      -0.751976     3.497543    -0.390459
 O       0.177162     3.235715    -1.129799
 C      -1.926522     4.289617    -0.903389
 C      -2.102547     5.553260    -0.538497
 H      -2.901538     6.155027    -0.961398
 H      -1.443566     6.036980     0.176607
 C      -2.762865     3.554899    -1.911570
 H      -3.563170     4.191454    -2.294426
 H      -2.132865     3.225731    -2.743158
 H      -3.200775     2.652985    -1.469786
 N      -0.771629     3.074409     0.919385
 C      -1.936149     3.129228     1.798415
 H      -1.611067     3.368682     2.814589
 H      -2.619986     3.903089     1.458086
 H      -2.463770     2.168320     1.813162
 C      -0.218280    -3.473313    -1.833334
 C      -0.567929    -2.471287    -2.910921
 C      -1.112965    -3.472809    -0.617720
 H      -0.688792    -1.475157    -2.481541
 H       0.190842    -2.440335    -3.697152
 H      -1.521166    -2.747453    -3.378588
 H      -1.158105    -2.471319    -0.186298
 H      -2.131553    -3.761057    -0.906440
 H      -0.758732    -4.173424     0.140221
 C       0.095911    -4.782303    -2.342220
 N       0.409330    -5.820624    -2.735788
48
  -29709.566035  -29700.590364   72.21   75.95
 C       1.400406    -0.770259    -0.935389
 C       1.403456     0.419086    -0.192181
 C       2.554932     0.851001     0.481430
 C       3.729561     0.123914     0.355841
 C       3.747806    -1.035218    -0.406231
 C       2.593628    -1.483904    -1.030958
 C       0.184853    -1.306231    -1.610512
 C      -0.605427    -0.528979    -2.431316
 C      -1.785803    -1.068338    -3.037958
 C      -1.943896    -2.489991    -3.006224
 C      -1.158179    -3.253676    -2.174293
 C      -0.121482    -2.668692    -1.445257
 H       4.618709     0.465829     0.874472
 H       4.668360    -1.601536    -0.502401
 H       2.614106    -2.392686    -1.622283
 H      -0.359568     0.514274    -2.594660
 H      -2.185054    -0.536284    -3.898494
 H      -2.727898    -2.952412    -3.595790
 H      -1.333369    -4.321507    -2.090679
 H       0.470109    -3.270811    -0.764551
 C       0.233206     1.249309    -0.097585
 N      -0.663240     1.963822    -0.012748
 C       1.688485     2.285929     2.305197
 O       1.520253     3.414855     2.722973
 C       1.014109     1.118579     2.978225
 C       1.694103     0.015200     3.273588
 H       1.232172    -0.787321     3.840986
 H       2.733207    -0.118289     2.994334
 C      -0.398943     1.371218     3.422395
 H      -0.791356     0.504340     3.957213
 H      -0.426042     2.247169     4.075962
 H      -1.047210     1.584565     2.568828
 N       2.549277     2.045256     1.250409
 C       3.245321     3.202605     0.685770
 H       4.084647     2.851209     0.083314
 H       2.572290     3.796155     0.057983
 H       3.610704     3.833884     1.494893
 C      -3.360936    -0.358481    -1.884515
 C      -4.590363    -1.048785    -2.435528
 C      -3.335410     1.140028    -2.086301
 H      -4.575280    -2.121698    -2.237839
 H      -5.494724    -0.630128    -1.976727
 H      -4.665919    -0.889427    -3.515782
 H      -2.420184     1.591348    -1.704362
 H      -3.441943     1.377831    -3.149168
 H      -4.179260     1.602637    -1.559186
 C      -2.987083    -0.803677    -0.570363
 N      -2.668037    -1.195363     0.466426
48
  -29709.552163  -29700.589358   80.92   76.58
 C       0.695159    -1.236050     0.098185
 C       0.944878     0.130715     0.294172
 C       1.701338     0.579596     1.384699
 C       2.212897    -0.340091     2.287882
 C       1.966158    -1.693158     2.108696
 C       1.222268    -2.134567     1.024425
 C      -0.125413    -1.760289    -1.029011
 C       0.070346    -1.351093    -2.331497
 C      -0.755158    -1.851192    -3.390010
 C      -1.567967    -2.992188    -3.098624
 C      -1.768060    -3.381915    -1.794494
 C      -1.086540    -2.749315    -0.753683
 H       2.801303     0.012858     3.127494
 H       2.366414    -2.411815     2.816597
 H       1.052933    -3.195728     0.879293
 H       0.831461    -0.613700    -2.561119
 H      -0.372414    -1.750540    -4.403184
 H      -2.074636    -3.506545    -3.907813
 H      -2.450925    -4.194866    -1.569266
 H      -1.279991    -3.036113     0.273908
 C       0.395259     1.133171    -0.580923
 N      -0.006997     1.971198    -1.257590
 C       1.662418     2.641132     2.706331
 O       2.238907     3.665812     3.017318
 C       0.551209     2.100949     3.568386
 C      -0.618664     1.769721     3.033622
 H      -1.452909     1.467234     3.659833
 H      -0.799576     1.818523     1.964897
 C       0.828963     2.119156     5.044928
 H       1.655063     1.445297     5.299815
 H       1.130052     3.124006     5.352867
 H      -0.054426     1.813683     5.609366
 N       1.959638     1.970447     1.537985
 C       2.971388     2.558309     0.659005
 H       3.983354     2.343960     1.020268
 H       2.850489     2.152523    -0.346253
 H       2.831479     3.637538     0.632005
 C      -2.129565    -0.341038    -3.768024
 C      -3.082546    -0.926978    -4.788077
 C      -1.297359     0.815330    -4.274635
 H      -2.529761    -1.309251    -5.652000
 H      -3.680636    -1.736087    -4.366057
 H      -3.767459    -0.151128    -5.152199
 H      -1.951139     1.648580    -4.561330
 H      -0.603573     1.185172    -3.520286
 H      -0.738948     0.514106    -5.166328
 C      -2.716414    -0.150677    -2.470238
 N      -3.181182    -0.043877    -1.420265
48
  -29709.542899  -29700.588460   86.73   77.15
 C      -0.004368     0.289175    -0.521063
 C      -0.676209     1.022478     0.467202
 C      -0.207848     2.277992     0.880276
 C       0.950512     2.792136     0.312961
 C       1.639300     2.055929    -0.640569
 C       1.164475     0.821621    -1.060699
 C      -0.493586    -1.036438    -0.990254
 C       0.392572    -2.088903    -1.086728
 C      -0.005011    -3.341747    -1.652188
 C      -1.406299    -3.547353    -1.853946
 C      -2.283902    -2.491423    -1.744096
 C      -1.837598    -1.226755    -1.351468
 H       1.309435     3.765061     0.627348
 H       2.549903     2.458249    -1.072870
 H       1.699867     0.260965    -1.819597
 H       1.425868    -1.959476    -0.783854
 H       0.604194    -4.208306    -1.408465
 H      -1.768054    -4.533303    -2.125939
 H      -3.339736    -2.641062    -1.946325
 H      -2.536050    -0.399965    -1.294700
 C      -1.818975     0.468691     1.148318
 N      -2.727250     0.045443     1.712988
 C      -0.315917     3.569547     2.958875
 O      -0.806512     4.520486     3.534566
 C       0.946379     2.907220     3.452844
 C       1.943838     3.701626     3.824213
 H       2.873786     3.299930     4.215460
 H       1.851259     4.780394     3.752605
 C       0.982685     1.403745     3.576770
 H       0.027019     1.018227     3.944963
 H       1.186413     0.913483     2.621094
 H       1.766483     1.111046     4.278432
 N      -0.933371     3.010743     1.856211
 C      -2.217460     3.586648     1.450425
 H      -2.080237     4.583173     1.018259
 H      -2.684310     2.931898     0.714180
 H      -2.866646     3.670280     2.320891
 C       0.792770    -3.287668    -3.568159
 C       0.073469    -2.183710    -4.306215
 C       0.575847    -4.682059    -4.113376
 H       0.199353    -1.218954    -3.811684
 H       0.462551    -2.099984    -5.328707
 H      -0.994106    -2.406126    -4.363239
 H       1.002686    -4.767319    -5.120327
 H       1.045923    -5.442981    -3.485761
 H      -0.493176    -4.895823    -4.187096
 C       2.163022    -2.988585    -3.254786
 N       3.242677    -2.734427    -2.936878
48
  -29709.490006  -29700.583888  119.92   80.02
 C       1.417051     0.574731    -0.967217
 C       0.965970     0.455738     0.355316
 C       1.251410     1.440294     1.306420
 C       1.968425     2.565857     0.933423
 C       2.397544     2.703049    -0.379396
 C       2.131633     1.714815    -1.318950
 C       1.132141    -0.481037    -1.976845
 C       0.497584    -0.152797    -3.156151
 C       0.134828    -1.164136    -4.101798
 C       0.685503    -2.469140    -3.903074
 C       1.328893    -2.780569    -2.725797
 C       1.531234    -1.807599    -1.744301
 H       2.165470     3.334634     1.670631
 H       2.951652     3.588854    -0.672436
 H       2.486140     1.818984    -2.338993
 H       0.193851     0.872060    -3.343814
 H      -0.048058    -0.843983    -5.124264
 H       0.565057    -3.221162    -4.675366
 H       1.702099    -3.786679    -2.562011
 H       2.031918    -2.064225    -0.817370
 C       0.137070    -0.655712     0.751552
 N      -0.531645    -1.526909     1.094412
 C      -0.189574     2.068486     3.126746
 O      -0.588080     3.032136     2.499965
 C      -0.826043     1.712857     4.444919
 C      -1.349181     0.504897     4.622384
 H      -1.900594     0.262370     5.526353
 H      -1.272404    -0.269239     3.864895
 C      -0.957705     2.850069     5.417769
 H       0.026033     3.203867     5.746783
 H      -1.457505     3.693235     4.933059
 H      -1.529339     2.543915     6.296356
 N       0.810863     1.252167     2.650331
 C       1.529120     0.256637     3.445776
 H       2.589105     0.300845     3.182633
 H       1.424023     0.488319     4.504182
 H       1.161353    -0.758523     3.270783
 C      -1.901961    -1.409878    -3.790348
 C      -2.082458    -1.758378    -2.333090
 C      -2.318017    -2.484391    -4.771042
 H      -3.138703    -1.973718    -2.129343
 H      -1.500471    -2.647893    -2.082607
 H      -1.767781    -0.945708    -1.677940
 H      -3.406975    -2.614008    -4.749484
 H      -2.031907    -2.235785    -5.796242
 H      -1.862304    -3.438834    -4.498023
 C      -2.349959    -0.092837    -4.153880
 N      -2.642292     0.979618    -4.462858
48
  -29709.522765  -29700.583153   99.36   80.48
 C      -0.673859     0.044343     0.138082
 C       0.600566     0.476380     0.531314
 C       0.759034     1.567028     1.397945
 C      -0.367422     2.215552     1.887903
 C      -1.632246     1.774073     1.526634
 C      -1.785181     0.705602     0.653992
 C      -0.862961    -1.100567    -0.793661
 C      -0.207007    -1.144631    -2.006840
 C      -0.458943    -2.193790    -2.943436
 C      -1.224052    -3.313112    -2.483234
 C      -1.871738    -3.257776    -1.270140
 C      -1.724109    -2.149029    -0.430864
 H      -0.245402     3.061858     2.553522
 H      -2.508620     2.280760     1.917967
 H      -2.776872     0.382914     0.355112
 H       0.484827    -0.353705    -2.273817
 H       0.303392    -2.383056    -3.694374
 H      -1.324303    -4.179890    -3.127501
 H      -2.490501    -4.090156    -0.949563
 H      -2.232401    -2.118531     0.526933
 C       1.779547    -0.240713     0.116168
 N       2.732914    -0.802535    -0.197289
 C       2.432650     2.237571     3.056343
 O       3.342830     2.996834     3.322942
 C       1.707023     1.460322     4.126189
 C       1.363800     2.117732     5.228018
 H       0.863125     1.620052     6.053168
 H       1.583331     3.174951     5.335389
 C       1.485015    -0.019390     3.930212
 H       0.618105    -0.228901     3.297933
 H       2.354677    -0.486486     3.457942
 H       1.318794    -0.497967     4.897500
 N       2.064538     2.002707     1.744654
 C       2.851275     2.669997     0.704642
 H       3.911427     2.509796     0.895913
 H       2.592078     2.245367    -0.265481
 H       2.655188     3.747048     0.696381
 C      -1.666203    -1.299353    -4.376254
 C      -0.837802    -0.160524    -4.929645
 C      -2.938105    -0.892445    -3.671932
 H      -0.667231     0.593053    -4.157030
 H       0.128017    -0.504082    -5.308501
 H      -1.368967     0.324071    -5.758063
 H      -2.706953    -0.204432    -2.854852
 H      -3.607338    -0.377457    -4.372570
 H      -3.464823    -1.755511    -3.262244
 C      -1.811840    -2.404120    -5.284838
 N      -1.888839    -3.325078    -5.975246
48
  -29709.486385  -29700.581847  122.19   81.30
 C      -0.086428     0.380720    -0.469850
 C       0.949270     0.758314     0.393798
 C       0.894082     1.966367     1.102259
 C      -0.212325     2.791535     0.949717
 C      -1.251743     2.411672     0.112006
 C      -1.188684     1.220658    -0.598695
 C      -0.047438    -0.902169    -1.225297
 C      -0.121630    -0.889891    -2.600754
 C      -0.245381    -2.110012    -3.338082
 C       0.010845    -3.325815    -2.627312
 C       0.097970    -3.321894    -1.254285
 C       0.034398    -2.123377    -0.540768
 H      -0.254553     3.727710     1.494213
 H      -2.118374     3.056576     0.007812
 H      -2.008517     0.915197    -1.239474
 H      -0.152614     0.058883    -3.125879
 H       0.003905    -2.085812    -4.396793
 H       0.089139    -4.257551    -3.177082
 H       0.231539    -4.254723    -0.716331
 H       0.074340    -2.131813     0.542508
 C       2.088007    -0.102986     0.588336
 N       3.002700    -0.778312     0.761111
 C       1.775059     2.746100     3.249795
 O       2.583542     3.455658     3.815284
 C       0.550660     2.219053     3.957088
 C      -0.120490     3.071299     4.723351
 H      -0.996593     2.760945     5.284971
 H       0.196498     4.105036     4.813758
 C       0.198763     0.757054     3.826545
 H      -0.361622     0.546720     2.911826
 H       1.099700     0.136121     3.808513
 H      -0.415513     0.449185     4.675220
 N       1.975442     2.339235     1.945145
 C       3.216017     2.771028     1.297019
 H       3.346474     2.213348     0.369471
 H       3.190836     3.843635     1.078377
 H       4.056858     2.569827     1.959293
 C      -2.267802    -2.179886    -3.815638
 C      -2.497421    -3.559630    -4.390612
 C      -2.459397    -1.041393    -4.794704
 H      -2.361583    -4.336155    -3.636358
 H      -3.517046    -3.642434    -4.787184
 H      -1.805785    -3.748114    -5.217628
 H      -1.809099    -1.172228    -5.664732
 H      -3.494855    -1.020285    -5.156271
 H      -2.244916    -0.072547    -4.339498
 C      -2.881158    -1.956712    -2.537175
 N      -3.333302    -1.749509    -1.496489
48
  -29709.504971  -29700.575126  110.53   85.51
 C      -0.468380    -0.200901     0.119788
 C       0.572254     0.700281     0.376050
 C       0.393217     1.777389     1.255044
 C      -0.832952     1.940045     1.886361
 C      -1.861212     1.037874     1.649364
 C      -1.687265    -0.019739     0.766888
 C      -0.307347    -1.343803    -0.818501
 C       0.056374    -1.132967    -2.129305
 C       0.025701    -2.206507    -3.073995
 C      -0.068172    -3.534877    -2.547435
 C      -0.407423    -3.733142    -1.228847
 C      -0.571951    -2.645896    -0.367313
 H      -0.975105     2.775606     2.561725
 H      -2.816073     1.173219     2.147174
 H      -2.502145    -0.702158     0.549938
 H       0.284056    -0.129209    -2.471021
 H       0.574794    -2.071192    -4.003264
 H       0.079399    -4.381981    -3.208540
 H      -0.542139    -4.740951    -0.849085
 H      -0.865683    -2.804653     0.664521
 C       1.872940     0.496112    -0.209344
 N       2.918380     0.345474    -0.664440
 C       1.859332     3.063469     2.737565
 O       2.431539     4.118314     2.929141
 C       1.620714     2.075973     3.853080
 C       1.184566     2.560574     5.010125
 H       1.014847     1.916134     5.867528
 H       0.992445     3.621644     5.130988
 C       1.961281     0.622991     3.629043
 H       1.171317     0.090049     3.093324
 H       2.879618     0.522030     3.042480
 H       2.109400     0.127007     4.590492
 N       1.457014     2.693528     1.469013
 C       1.791459     3.605843     0.373104
 H       1.601838     3.105403    -0.576772
 H       1.193483     4.521201     0.429547
 H       2.845443     3.873339     0.434930
 C      -1.776162    -1.901103    -4.056945
 C      -1.939534    -3.098893    -4.966283
 C      -1.599672    -0.577923    -4.770906
 H      -2.077585    -4.019432    -4.397114
 H      -2.812275    -2.966083    -5.617689
 H      -1.061773    -3.211743    -5.610110
 H      -0.729641    -0.614260    -5.433432
 H      -2.478414    -0.360982    -5.390684
 H      -1.472889     0.247903    -4.068531
 C      -2.709508    -1.853055    -2.965709
 N      -3.425008    -1.802615    -2.062428
48
  -29709.517778  -29700.574691  102.49   85.79
 C       0.054899     0.147862    -0.669519
 C      -0.936089     1.082296    -0.337074
 C      -0.841687     2.417215    -0.755168
 C       0.262389     2.821948    -1.494534
 C       1.262355     1.910168    -1.800309
 C       1.156295     0.585479    -1.400355
 C      -0.039392    -1.276578    -0.247067
 C       1.026365    -1.870948     0.399499
 C       1.003240    -3.258920     0.740162
 C      -0.249711    -3.940398     0.612409
 C      -1.304368    -3.336730    -0.033083
 C      -1.202973    -2.021405    -0.495521
 H       0.333066     3.852264    -1.822597
 H       2.126509     2.233532    -2.371730
 H       1.930385    -0.126623    -1.665176
 H       1.903879    -1.279531     0.638054
 H       1.674316    -3.590198     1.528305
 H      -0.334060    -4.955708     0.984715
 H      -2.234274    -3.878255    -0.173604
 H      -2.036083    -1.563648    -1.016615
 C      -2.037956     0.712974     0.515197
 N      -2.920737     0.444266     1.201659
 C      -1.623451     4.569044     0.116216
 O      -2.410806     5.485304    -0.012338
 C      -0.365574     4.711352     0.936438
 C       0.345396     5.821023     0.771688
 H       1.248051     6.007248     1.345936
 H       0.035891     6.578645     0.059185
 C      -0.028029     3.642357     1.946598
 H       0.457324     2.776637     1.488173
 H       0.650596     4.048368     2.699554
 H      -0.929706     3.282314     2.451443
 N      -1.882098     3.327651    -0.434212
 C      -3.161106     3.162567    -1.128900
 H      -3.168535     3.718333    -2.072107
 H      -3.323287     2.103233    -1.329264
 H      -3.965551     3.536623    -0.497158
 C       2.218391    -4.157568    -0.686123
 C       3.563724    -3.482999    -0.532592
 C       1.538743    -3.955054    -2.018833
 H       3.491527    -2.428165    -0.809288
 H       3.942773    -3.553997     0.489977
 H       4.300513    -3.952407    -1.195853
 H       1.401099    -2.888141    -2.210889
 H       2.158507    -4.369456    -2.823959
 H       0.562415    -4.440601    -2.049788
 C       2.190642    -5.509735    -0.198842
 N       2.131508    -6.573577     0.243482
48
  -29709.514970  -29700.560051  104.26   94.97
 C      -0.176843     1.130131    -0.855994
 C      -0.540642     1.225276     0.494035
 C       0.193799     2.019863     1.384942
 C       1.298247     2.721719     0.920113
 C       1.666231     2.629650    -0.414615
 C       0.932392     1.847574    -1.295689
 C      -0.918126     0.266442    -1.814767
 C      -1.132934    -1.066713    -1.538555
 C      -1.735100    -1.931791    -2.505210
 C      -2.320682    -1.318124    -3.656591
 C      -2.103013     0.016819    -3.918790
 C      -1.380326     0.811358    -3.024479
 H       1.864051     3.337060     1.609893
 H       2.532579     3.177289    -0.771538
 H       1.230385     1.770758    -2.335999
 H      -0.785564    -1.496843    -0.605824
 H      -2.189228    -2.846220    -2.132908
 H      -2.917624    -1.918033    -4.335047
 H      -2.515858     0.466007    -4.816914
 H      -1.216733     1.862667    -3.236381
 C      -1.670506     0.492971     1.007600
 N      -2.565933    -0.082515     1.443160
 C       0.677298     1.901527     3.779948
 O       0.493174     2.393099     4.875595
 C       1.842705     0.982815     3.506866
 C       3.029411     1.351393     3.975697
 H       3.910332     0.730516     3.842330
 H       3.148333     2.285795     4.514361
 C       1.592810    -0.326687     2.798602
 H       1.551490    -0.212215     1.712043
 H       2.395814    -1.029275     3.031029
 H       0.643802    -0.769259     3.116638
 N      -0.212024     2.113957     2.743342
 C      -1.395947     2.925864     3.033068
 H      -2.123295     2.796193     2.231250
 H      -1.833765     2.595298     3.973663
 H      -1.133845     3.985563     3.121715
 C      -0.121063    -3.010316    -3.239210
 C       0.851346    -2.000064    -3.799165
 C      -0.718908    -3.965498    -4.248257
 H       1.702754    -2.514488    -4.262282
 H       0.360911    -1.393607    -4.564171
 H       1.232603    -1.337073    -3.020592
 H      -1.511329    -4.578047    -3.811086
 H      -1.128176    -3.410066    -5.095269
 H       0.053873    -4.642319    -4.632872
 C       0.311579    -3.642820    -2.023013
 N       0.608212    -4.114431    -1.012784
48
  -29709.479331  -29700.559425  126.62   95.37
 C       1.473618     0.532047    -0.551999
 C       0.462379     0.823445     0.369245
 C       0.413272     2.062606     1.016934
 C       1.362084     3.026040     0.726819
 C       2.355364     2.755600    -0.208449
 C       2.413067     1.520549    -0.837428
 C       1.547351    -0.799447    -1.212441
 C       1.574253    -0.890692    -2.587720
 C       1.548603    -2.165015    -3.239036
 C       1.765337    -3.318723    -2.421665
 C       1.751728    -3.211277    -1.048602
 C       1.612427    -1.965775    -0.431887
 H       1.323648     3.979759     1.241987
 H       3.098868     3.512240    -0.436956
 H       3.202748     1.304513    -1.549320
 H       1.531642     0.008045    -3.194701
 H       1.896032    -2.203364    -4.268204
 H       1.909880    -4.285082    -2.892590
 H       1.869109    -4.098674    -0.434496
 H       1.593412    -1.889937     0.649722
 C      -0.592592    -0.120375     0.640180
 N      -1.470503    -0.830132     0.859673
 C      -0.624581     1.633459     3.129860
 O       0.294411     0.893695     3.422781
 C      -1.801653     1.784808     4.058786
 C      -1.945899     2.877703     4.797284
 H      -2.749526     2.964837     5.522507
 H      -1.256003     3.712916     4.719672
 C      -2.682422     0.570052     4.127425
 H      -3.109883     0.343066     3.144522
 H      -2.088046    -0.299953     4.421682
 H      -3.491833     0.713636     4.846059
 N      -0.635260     2.337434     1.946778
 C      -1.785977     3.063959     1.417966
 H      -1.441308     3.976961     0.924735
 H      -2.336079     2.455821     0.690174
 H      -2.455709     3.336801     2.230143
 C      -0.420566    -2.342311    -3.870628
 C      -1.288384    -2.188118    -2.645484
 C      -0.491060    -3.692444    -4.550060
 H      -1.198358    -1.194825    -2.204943
 H      -2.340222    -2.351678    -2.910798
 H      -1.010527    -2.925738    -1.889608
 H      -0.345559    -4.489469    -3.817427
 H      -1.477583    -3.833549    -5.008289
 H       0.260136    -3.793994    -5.337525
 C      -0.468344    -1.233528    -4.784823
 N      -0.437411    -0.333036    -5.505447
48
  -29709.479332  -29700.559316  126.62   95.43
 C       1.245526     0.813547    -1.101373
 C       0.594550     1.042511     0.115188
 C       0.627250     2.301878     0.723762
 C       1.290851     3.345510     0.104822
 C       1.917709     3.134657    -1.118721
 C       1.899071     1.881299    -1.712892
 C       1.242315    -0.535487    -1.729540
 C       0.795849    -0.696568    -3.023821
 C       0.696656    -1.999120    -3.608875
 C       1.323261    -3.077299    -2.908158
 C       1.779356    -2.898814    -1.620854
 C       1.716679    -1.644577    -1.009318
 H       1.321265     4.315603     0.589020
 H       2.437107     3.954069    -1.604837
 H       2.408675     1.714333    -2.656016
 H       0.435381     0.158582    -3.586626
 H       0.662917    -2.054519    -4.693844
 H       1.408407    -4.046086    -3.388487
 H       2.210398    -3.734234    -1.078033
 H       2.069325    -1.513615     0.007776
 C      -0.176773     0.005834     0.753564
 N      -0.829830    -0.782071     1.278331
 C       0.456224     1.876414     3.072273
 O       1.501423     1.257321     3.028819
 C      -0.329288     1.948682     4.356430
 C      -0.335969     3.057503     5.085184
 H      -0.838380     3.095642     6.047206
 H       0.176794     3.957324     4.758138
 C      -0.976684     0.650913     4.747285
 H      -1.691094     0.326424     3.982650
 H      -0.216593    -0.132342     4.821790
 H      -1.493546     0.744128     5.704552
 N      -0.053346     2.510857     1.961780
 C      -1.394875     3.079164     1.867053
 H      -1.764530     3.321414     2.860675
 H      -1.357630     3.996131     1.272560
 H      -2.088100     2.376788     1.389316
 C      -1.332399    -2.422004    -3.498995
 C      -1.727119    -2.297539    -2.047593
 C      -1.473992    -3.806143    -4.093612
 H      -2.777395    -2.587942    -1.920738
 H      -1.115296    -2.959357    -1.430903
 H      -1.608317    -1.278259    -1.679130
 H      -2.533981    -4.077447    -4.170604
 H      -1.040319    -3.867640    -5.095038
 H      -0.986161    -4.542513    -3.450999
 C      -1.830671    -1.375268    -4.349585
 N      -2.162917    -0.516453    -5.044705
48
  -29709.500350  -29700.559071  113.43   95.59
 C       0.111618     1.012697    -1.485486
 C      -0.263724     1.159524    -0.145493
 C      -1.012739     2.262682     0.276685
 C      -1.417551     3.209165    -0.648857
 C      -1.077232     3.054610    -1.987663
 C      -0.314764     1.971330    -2.401137
 C       0.943816    -0.140349    -1.924096
 C       0.501085    -0.973371    -2.930715
 C       1.249190    -2.131999    -3.307296
 C       2.582775    -2.241599    -2.796936
 C       3.015839    -1.396275    -1.801078
 C       2.197699    -0.364318    -1.333141
 H      -1.985225     4.070820    -0.314441
 H      -1.396037     3.797080    -2.712021
 H      -0.028391     1.868018    -3.442497
 H      -0.454698    -0.777551    -3.405348
 H       1.052948    -2.557722    -4.287926
 H       3.221352    -3.036367    -3.167124
 H       4.008035    -1.521153    -1.379204
 H       2.541934     0.291180    -0.540635
 C       0.055417     0.144098     0.826148
 N       0.261148    -0.666243     1.616053
 C      -0.362397     2.678848     2.541743
 O       0.742403     3.017211     2.160437
 C      -0.649621     2.560261     4.014931
 C      -1.002132     1.388062     4.529063
 H      -1.117580     1.259780     5.601428
 H      -1.147973     0.511736     3.905336
 C      -0.350259     3.792569     4.820827
 H      -0.472281     3.597126     5.888203
 H       0.675176     4.119264     4.625901
 H      -1.012154     4.619394     4.538854
 N      -1.369906     2.384537     1.651409
 C      -2.760939     2.127532     2.004963
 H      -2.972976     1.054255     2.064335
 H      -2.991637     2.584615     2.965645
 H      -3.407247     2.569882     1.242813
 C       0.231853    -3.698882    -2.401136
 C      -1.164771    -3.641568    -2.981201
 C       0.321675    -3.478774    -0.910683
 H      -1.756755    -4.493139    -2.623978
 H      -1.668696    -2.727177    -2.659022
 H      -1.156348    -3.676356    -4.073654
 H       1.355902    -3.467780    -0.564761
 H      -0.145021    -2.530440    -0.637302
 H      -0.209505    -4.280856    -0.383346
 C       1.015877    -4.798894    -2.894928
 N       1.679684    -5.637327    -3.327773
48
  -29709.473568  -29700.558745  130.24   95.79
 C       0.454778     0.490468    -0.812722
 C       0.434590     0.836247     0.546014
 C       1.353906     1.756860     1.068186
 C       2.325502     2.294507     0.234998
 C       2.360566     1.948339    -1.107724
 C       1.425152     1.064683    -1.628850
 C      -0.517416    -0.473498    -1.397896
 C      -0.677170    -1.734477    -0.864336
 C      -1.532088    -2.695695    -1.490633
 C      -2.388761    -2.227035    -2.535237
 C      -2.219410    -0.964187    -3.058997
 C      -1.270301    -0.090785    -2.521021
 H       3.034445     3.003549     0.648586
 H       3.118466     2.377280    -1.755119
 H       1.456196     0.793782    -2.678960
 H      -0.106689    -2.037964     0.006599
 H      -1.890833    -3.512992    -0.870813
 H      -3.156672    -2.883759    -2.929510
 H      -2.844923    -0.630780    -3.881456
 H      -1.147402     0.904415    -2.934892
 C      -0.527278     0.242365     1.439940
 N      -1.273526    -0.230324     2.175806
 C       0.244238     2.687949     3.063494
 O       0.125618     2.659792     4.271178
 C      -0.746017     3.412218     2.185902
 C      -2.035084     3.160009     2.377256
 H      -2.801686     3.670701     1.801922
 H      -2.357320     2.426520     3.107851
 C      -0.235727     4.445356     1.211325
 H       0.563456     5.044404     1.659824
 H       0.165272     3.995908     0.299051
 H      -1.049315     5.116642     0.928553
 N       1.338039     2.107922     2.445203
 C       2.333746     1.460587     3.299709
 H       1.996494     0.467738     3.617229
 H       3.268850     1.364055     2.744239
 H       2.492655     2.072507     4.186431
 C      -0.200486    -3.976138    -2.438517
 C       0.634394    -3.120077    -3.360114
 C      -1.070607    -5.007935    -3.121755
 H       1.227929    -2.392931    -2.803460
 H       1.317603    -3.750535    -3.943025
 H      -0.012195    -2.581521    -4.056936
 H      -1.654957    -4.539952    -3.917237
 H      -0.446683    -5.786806    -3.577018
 H      -1.753384    -5.494950    -2.421053
 C       0.500829    -4.479609    -1.289247
 N       1.022301    -4.846725    -0.327932
48
  -29709.472016  -29700.555806  131.21   97.64
 C      -0.616475     0.201709    -0.521165
 C      -1.164584    -0.148491     0.721427
 C      -2.235324     0.574196     1.266295
 C      -2.789678     1.619479     0.540434
 C      -2.262706     1.965215    -0.695029
 C      -1.178283     1.271189    -1.213323
 C       0.531693    -0.539448    -1.114230
 C       1.649838     0.156791    -1.529539
 C       2.732839    -0.506520    -2.185684
 C       2.723865    -1.938376    -2.171734
 C       1.603164    -2.620106    -1.756534
 C       0.490801    -1.935192    -1.258243
 H      -3.619911     2.170517     0.968733
 H      -2.695306     2.788018    -1.254781
 H      -0.769452     1.544818    -2.180049
 H       1.700288     1.228910    -1.371683
 H       3.700791    -0.012399    -2.173775
 H       3.592352    -2.471401    -2.543511
 H       1.582567    -3.704286    -1.799058
 H      -0.390888    -2.485060    -0.950138
 C      -0.643671    -1.267400     1.465557
 N      -0.257359    -2.166435     2.069170
 C      -2.061609     0.218383     3.700045
 O      -2.449598    -0.397745     4.671220
 C      -0.813043     1.063605     3.743432
 C       0.288984     0.506527     4.230376
 H       1.213740     1.068968     4.319674
 H       0.297889    -0.531812     4.542444
 C      -0.899378     2.511388     3.326275
 H      -0.882642     2.634089     2.240135
 H      -1.823630     2.969301     3.693407
 H      -0.054575     3.064272     3.742383
 N      -2.792745     0.221867     2.525106
 C      -4.039237    -0.543872     2.502063
 H      -4.658079    -0.188912     1.675458
 H      -3.843310    -1.614207     2.374970
 H      -4.563930    -0.397491     3.445122
 C       2.496614    -0.016604    -4.191687
 C       2.548466     1.494757    -4.232565
 C       1.191883    -0.633886    -4.634088
 H       3.463118     1.885166    -3.779380
 H       2.512734     1.847015    -5.270724
 H       1.687513     1.916900    -3.708165
 H       0.371327    -0.257074    -4.018610
 H       0.984848    -0.368208    -5.678430
 H       1.213837    -1.721412    -4.552153
 C       3.670788    -0.650089    -4.727063
 N       4.629903    -1.175521    -5.094412
48
  -29709.505585  -29700.553466  110.14   99.11
 C       0.948631     0.349470    -0.701060
 C      -0.127272     1.174989    -1.049061
 C      -0.114936     2.542379    -0.740771
 C       0.978032     3.076176    -0.071123
 C       2.036792     2.256429     0.295876
 C       2.028954     0.904966    -0.021330
 C       0.961970    -1.106679    -1.007010
 C      -0.018420    -1.938938    -0.516162
 C       0.103114    -3.358517    -0.641965
 C       1.082460    -3.849288    -1.564182
 C       2.042517    -3.002334    -2.068130
 C       2.018072    -1.639627    -1.761573
 H       0.990279     4.134021     0.164561
 H       2.880933     2.680035     0.830499
 H       2.845079     0.257241     0.281169
 H      -0.846599    -1.524270     0.047681
 H      -0.797300    -3.952327    -0.500572
 H       1.092201    -4.903086    -1.820785
 H       2.822928    -3.390614    -2.714810
 H       2.792806    -0.979546    -2.136329
 C      -1.284047     0.626205    -1.709796
 N      -2.218381     0.202992    -2.230071
 C      -1.833296     4.214438    -0.246186
 O      -2.426168     5.201596    -0.634498
 C      -1.807009     3.828163     1.212361
 C      -1.605602     4.801451     2.093336
 H      -1.598869     4.607456     3.161802
 H      -1.448789     5.823724     1.765268
 C      -2.084265     2.395739     1.598826
 H      -1.195429     1.765141     1.513285
 H      -2.427723     2.353703     2.634504
 H      -2.857980     1.959096     0.959876
 N      -1.204981     3.364224    -1.135868
 C      -1.315129     3.689888    -2.559573
 H      -0.687052     4.549838    -2.815393
 H      -1.006696     2.825922    -3.148726
 H      -2.350710     3.933612    -2.791693
 C       0.807891    -3.922963     1.226490
 C       1.107906    -5.400789     1.107132
 C      -0.317909    -3.575566     2.177097
 H       1.375044    -5.815524     2.087062
 H       0.226092    -5.941417     0.749600
 H       1.935856    -5.588345     0.421771
 H      -1.241124    -4.080182     1.876758
 H      -0.073756    -3.909613     3.193039
 H      -0.500457    -2.499938     2.212829
 C       1.970491    -3.091768     1.374402
 N       2.886126    -2.396184     1.464880
48
  -29709.444851  -29700.553058  148.26   99.36
 C       1.105749    -0.044588     0.139402
 C      -0.144381     0.032592     0.771078
 C      -0.357575    -0.557719     2.020785
 C       0.683192    -1.210791     2.660602
 C       1.928392    -1.277081     2.051697
 C       2.135142    -0.706562     0.802503
 C       1.354630     0.562209    -1.196163
 C       0.522810     0.295855    -2.264727
 C       0.813193     0.799416    -3.570027
 C       1.851855     1.778721    -3.678314
 C       2.673764     2.037476    -2.605065
 C       2.455500     1.416818    -1.371314
 H       0.512436    -1.643978     3.638759
 H       2.746038    -1.783555     2.554311
 H       3.106707    -0.780431     0.325099
 H      -0.346347    -0.336694    -2.124488
 H      -0.013931     0.866854    -4.271651
 H       2.010130     2.272142    -4.631152
 H       3.490871     2.744694    -2.708430
 H       3.103440     1.633676    -0.528788
 C      -1.235746     0.764200     0.177421
 N      -2.132978     1.331160    -0.266309
 C      -1.837357     0.345542     3.684650
 O      -0.899581     0.876854     4.249310
 C      -3.246399     0.627556     4.135990
 C      -4.133044     1.108221     3.271562
 H      -5.123107     1.413022     3.598509
 H      -3.893820     1.242470     2.220946
 C      -3.484942     0.485268     5.612421
 H      -2.749153     1.077962     6.162919
 H      -4.491167     0.817635     5.875987
 H      -3.365678    -0.555957     5.933033
 N      -1.657858    -0.487520     2.604349
 C      -2.681291    -1.366751     2.041109
 H      -3.463702    -1.537520     2.778393
 H      -3.135337    -0.948321     1.138022
 H      -2.218371    -2.325858     1.794542
 C       1.555876    -0.852380    -4.582846
 C       0.437003    -1.870357    -4.545182
 C       2.824008    -1.257765    -3.870789
 H      -0.492650    -1.471471    -4.958723
 H       0.712244    -2.754810    -5.132737
 H       0.256550    -2.195733    -3.517843
 H       3.246753    -2.155972    -4.338206
 H       3.573787    -0.465989    -3.902762
 H       2.605413    -1.489158    -2.825307
 C       1.758903    -0.263260    -5.878666
 N       1.896752     0.264978    -6.894881
48
  -29709.433227  -29700.538744  155.55  108.34
 C      -0.867952     0.631089    -1.014976
 C      -0.224572     1.158440     0.110985
 C       0.312717     2.449973     0.092158
 C       0.190706     3.230889    -1.043071
 C      -0.465158     2.724727    -2.159151
 C      -0.983618     1.438424    -2.145562
 C      -1.418933    -0.750810    -1.031489
 C      -0.641950    -1.825358    -0.648222
 C      -1.131243    -3.163760    -0.752661
 C      -2.524594    -3.331794    -1.036026
 C      -3.289213    -2.252127    -1.415475
 C      -2.743570    -0.964956    -1.445991
 H       0.621513     4.226196    -1.049794
 H      -0.559970     3.335318    -3.051255
 H      -1.472984     1.039939    -3.028180
 H       0.370153    -1.657291    -0.297485
 H      -0.651197    -3.917975    -0.134885
 H      -2.951366    -4.328138    -0.996001
 H      -4.333094    -2.394632    -1.677258
 H      -3.356638    -0.119131    -1.738493
 C      -0.132581     0.412272     1.340567
 N      -0.057178    -0.141567     2.345704
 C       2.212591     2.475716     1.553824
 O       2.801012     1.724782     0.801195
 C       2.811051     2.881896     2.877685
 C       3.605367     3.941517     2.955372
 H       4.081549     4.220682     3.890634
 H       3.822021     4.554767     2.085942
 C       2.490398     1.954842     4.016366
 H       1.408528     1.867971     4.163578
 H       2.854005     0.947880     3.789333
 H       2.950991     2.300966     4.943755
 N       0.961314     2.963954     1.255217
 C       0.154865     3.786091     2.150163
 H       0.799501     4.283591     2.872725
 H      -0.367082     4.549317     1.566286
 H      -0.588441     3.183838     2.685754
 C      -0.170767    -3.910018    -2.434134
 C       1.305535    -3.813431    -2.116637
 C      -0.637758    -3.074233    -3.601586
 H       1.558981    -4.333309    -1.189353
 H       1.895068    -4.263703    -2.924713
 H       1.605295    -2.766427    -2.028622
 H      -0.132859    -3.397137    -4.520730
 H      -1.715094    -3.158680    -3.751121
 H      -0.390815    -2.023729    -3.428863
 C      -0.679121    -5.254964    -2.419499
 N      -1.118516    -6.319492    -2.352663
48
  -29709.445687  -29700.538690  147.73  108.38
 C      -0.628798     0.132360    -0.095936
 C      -0.204453     1.420692     0.254884
 C      -0.955507     2.548399    -0.103686
 C      -2.161162     2.374808    -0.769180
 C      -2.598806     1.100279    -1.099622
 C      -1.833542    -0.012607    -0.776980
 C       0.161613    -1.077792     0.263420
 C       0.600316    -1.927694    -0.728214
 C       1.221388    -3.175020    -0.402001
 C       1.631863    -3.358521     0.957078
 C       1.199639    -2.493288     1.935444
 C       0.435651    -1.371466     1.607024
 H      -2.739020     3.251568    -1.041184
 H      -3.542755     0.973963    -1.619686
 H      -2.181067    -1.010842    -1.019618
 H       0.412787    -1.678847    -1.767330
 H       1.814691    -3.659172    -1.174812
 H       2.248516    -4.212346     1.216413
 H       1.464094    -2.671286     2.972619
 H       0.074914    -0.710263     2.386683
 C       1.008826     1.605472     1.009994
 N       1.964028     1.771513     1.627821
 C       0.682638     4.389884    -0.159431
 O       1.169805     5.339454     0.419424
 C       1.329856     3.790702    -1.383436
 C       2.628363     3.522961    -1.318680
 H       3.165058     3.119498    -2.172293
 H       3.186699     3.690097    -0.404405
 C       0.505698     3.611858    -2.635186
 H       1.166623     3.533561    -3.500985
 H      -0.115300     2.712905    -2.600578
 H      -0.162373     4.465355    -2.789546
 N      -0.527484     3.857565     0.247370
 C      -1.186039     4.478818     1.396590
 H      -2.241115     4.197901     1.394812
 H      -0.726474     4.155798     2.337201
 H      -1.091948     5.561041     1.318944
 C      -0.298279    -4.562091    -0.700027
 C       0.229108    -5.863784    -0.139253
 C      -0.519526    -4.556571    -2.197563
 H       1.194885    -6.110246    -0.591349
 H       0.351961    -5.813368     0.943659
 H      -0.461780    -6.684973    -0.367493
 H      -1.276857    -5.300669    -2.473470
 H      -0.861967    -3.583474    -2.554963
 H       0.404983    -4.817445    -2.721196
 C      -1.377727    -3.983701     0.048835
 N      -2.225886    -3.472375     0.640082
48
  -29709.507340  -29700.530336  109.04  113.62
 C       0.504102    -1.228786     0.182343
 C      -0.507889    -0.368953     0.632581
 C      -1.033388    -0.483007     1.928563
 C      -0.529188    -1.447892     2.789188
 C       0.492641    -2.283805     2.361948
 C       0.995104    -2.182153     1.073176
 C       1.072218    -1.171116    -1.193674
 C       1.509139     0.008946    -1.757722
 C       2.025342     0.036447    -3.093557
 C       2.344962    -1.222240    -3.694377
 C       1.893426    -2.392284    -3.128822
 C       1.224796    -2.374948    -1.903702
 H      -0.939490    -1.536312     3.788088
 H       0.893022    -3.031271     3.039234
 H       1.795346    -2.838057     0.748528
 H       1.428885     0.938504    -1.205456
 H       2.632608     0.895461    -3.370015
 H       2.892267    -1.242320    -4.630408
 H       2.067417    -3.339652    -3.628949
 H       0.840691    -3.297045    -1.481636
 C      -1.033496     0.681725    -0.199174
 N      -1.472365     1.549570    -0.812503
 C      -2.058761     1.079249     3.515158
 O      -3.085002     1.457041     4.044782
 C      -0.701815     1.416481     4.081460
 C      -0.538210     1.277877     5.392098
 H       0.401309     1.526874     5.876415
 H      -1.347726     0.916759     6.017967
 C       0.358906     1.964759     3.158544
 H      -0.077572     2.647985     2.423405
 H       1.104890     2.512256     3.738316
 H       0.875446     1.175914     2.605397
 N      -2.092653     0.373295     2.328429
 C      -3.410546     0.149621     1.727958
 H      -3.280878    -0.307381     0.746817
 H      -4.018014    -0.505974     2.359335
 H      -3.926045     1.102623     1.613128
 C       0.472202     0.772863    -4.259060
 C       0.967621     0.662932    -5.685249
 C       0.266025     2.188813    -3.770097
 H       1.935037     1.163451    -5.793289
 H       1.071765    -0.376892    -5.998957
 H       0.263691     1.155849    -6.367275
 H       1.191776     2.762392    -3.878106
 H      -0.501534     2.685352    -4.376910
 H      -0.061841     2.222489    -2.731490
 C      -0.587012    -0.143867    -3.940256
 N      -1.404754    -0.912420    -3.674862
48
  -29709.419600  -29700.528132  164.10  115.00
 C       0.863253    -0.371886    -0.413755
 C       0.501534     0.943066    -0.092406
 C       1.245447     1.688484     0.827240
 C       2.364449     1.128163     1.419995
 C       2.732866    -0.172165     1.101543
 C       1.986666    -0.919160     0.198837
 C       0.084691    -1.192977    -1.378809
 C      -1.261779    -1.413574    -1.193070
 C      -1.968105    -2.346500    -2.015664
 C      -1.317657    -2.779847    -3.215218
 C       0.023422    -2.534171    -3.400865
 C       0.742607    -1.780355    -2.470543
 H       2.946532     1.722035     2.114726
 H       3.609673    -0.610271     1.567353
 H       2.256398    -1.945856    -0.025078
 H      -1.774950    -0.941810    -0.362434
 H      -3.053910    -2.280763    -2.027075
 H      -1.877777    -3.347102    -3.950674
 H       0.528869    -2.920490    -4.280258
 H       1.804571    -1.608703    -2.608234
 C      -0.626904     1.577669    -0.726788
 N      -1.526766     2.112624    -1.203655
 C       1.523976     4.065310     0.618695
 O       2.583667     3.903434     0.042753
 C       0.930383     5.445782     0.727710
 C      -0.286943     5.680915     0.251349
 H      -0.692765     6.688293     0.228285
 H      -0.904777     4.887210    -0.157814
 C       1.865603     6.504230     1.239575
 H       2.145912     6.312612     2.281631
 H       2.787451     6.496079     0.651445
 H       1.403603     7.491825     1.179139
 N       0.818383     3.012061     1.150748
 C      -0.318611     3.131118     2.060899
 H      -0.311678     4.112883     2.530943
 H      -1.275151     2.994774     1.547031
 H      -0.222374     2.369668     2.839391
 C      -2.055306    -4.041274    -0.822310
 C      -2.670453    -5.110290    -1.698162
 C      -2.897799    -3.627307     0.365281
 H      -2.867024    -6.016316    -1.111562
 H      -3.626699    -4.766888    -2.104829
 H      -2.013037    -5.378293    -2.526634
 H      -2.412251    -2.847150     0.954279
 H      -3.874096    -3.262062     0.032555
 H      -3.073215    -4.486809     1.023979
 C      -0.670658    -4.258448    -0.505919
 N       0.448260    -4.391556    -0.259820
48
  -29709.427220  -29700.527288  159.32  115.53
 C       0.261075     0.185090    -0.772560
 C      -0.152868     0.786290     0.426559
 C       0.453960     1.959206     0.888706
 C       1.502505     2.517187     0.174426
 C       1.938344     1.911670    -0.994483
 C       1.318230     0.763435    -1.469258
 C      -0.384798    -1.046446    -1.304089
 C       0.402994    -2.095285    -1.730636
 C      -0.170684    -3.242459    -2.364883
 C      -1.592427    -3.382452    -2.291651
 C      -2.369316    -2.332415    -1.854452
 C      -1.782859    -1.150089    -1.395570
 H       1.979740     3.413938     0.551805
 H       2.765507     2.344776    -1.547581
 H       1.655178     0.305006    -2.393106
 H       1.481937    -2.035936    -1.638367
 H       0.427615    -4.149876    -2.377211
 H      -2.055674    -4.309099    -2.613551
 H      -3.450783    -2.424580    -1.846988
 H      -2.407914    -0.323127    -1.079447
 C      -1.168565     0.176449     1.247856
 N      -1.979764    -0.280885     1.923284
 C       0.820409     2.546004     3.185010
 O       1.884468     1.957742     3.177934
 C       0.369906     3.275296     4.425634
 C       0.225344     4.594636     4.419067
 H      -0.015010     5.138976     5.327506
 H       0.368909     5.180614     3.516541
 C       0.246207     2.409435     5.647147
 H       1.186045     1.876067     5.816478
 H       0.005392     3.008777     6.527508
 H      -0.535030     1.652948     5.511747
 N      -0.009890     2.572595     2.089994
 C      -1.362553     3.129502     2.105974
 H      -1.357607     4.211930     1.946354
 H      -1.939752     2.665973     1.305827
 H      -1.858174     2.909765     3.051564
 C       0.215760    -2.929621    -4.380069
 C      -0.569204    -1.705241    -4.786839
 C      -0.196481    -4.219198    -5.055103
 H      -0.396185    -1.483203    -5.847345
 H      -1.637294    -1.881674    -4.643657
 H      -0.282344    -0.829664    -4.201940
 H       0.010778    -4.168289    -6.131139
 H       0.341328    -5.080553    -4.651710
 H      -1.269651    -4.382970    -4.931208
 C       1.637475    -2.725759    -4.328365
 N       2.773711    -2.558657    -4.217843
48
  -29709.425009  -29700.524050  160.71  117.56
 C      -0.639269     0.919871    -1.005322
 C      -0.362217     1.108263     0.353748
 C       0.086918     2.344453     0.830354
 C       0.241633     3.405414    -0.043728
 C      -0.050124     3.234440    -1.391894
 C      -0.481327     2.004441    -1.866450
 C      -1.090434    -0.392662    -1.541114
 C      -0.388042    -1.546387    -1.262859
 C      -0.755990    -2.794449    -1.857501
 C      -2.008055    -2.846372    -2.546487
 C      -2.701402    -1.686929    -2.816349
 C      -2.239904    -0.454230    -2.346803
 H       0.601759     4.355528     0.335583
 H       0.072797     4.065139    -2.079264
 H      -0.684898     1.869986    -2.923702
 H       0.496204    -1.509108    -0.635665
 H      -0.415996    -3.697432    -1.357469
 H      -2.394892    -3.804063    -2.877553
 H      -3.629931    -1.729733    -3.377528
 H      -2.796364     0.453076    -2.556394
 C      -0.572344     0.055184     1.315058
 N      -0.747464    -0.748978     2.118372
 C       1.504023     1.937476     2.720629
 O       2.322177     1.410017     1.993393
 C       1.687731     1.956129     4.217914
 C       2.359146     2.942749     4.797166
 H       2.540936     2.947268     5.867835
 H       2.765673     3.768731     4.221472
 C       1.127889     0.755820     4.928277
 H       0.055347     0.646171     4.735162
 H       1.605110    -0.154407     4.552160
 H       1.292153     0.827132     6.005274
 N       0.357018     2.511016     2.222266
 C      -0.715676     3.067725     3.038805
 H      -1.103688     3.969890     2.557751
 H      -1.537952     2.352842     3.160785
 H      -0.328373     3.337540     4.019794
 C       0.669596    -3.057264    -3.342493
 C       0.592293    -1.838851    -4.230714
 C       0.306560    -4.367797    -4.005403
 H       1.282117    -1.946172    -5.077274
 H      -0.420177    -1.729315    -4.626367
 H       0.853380    -0.929387    -3.687055
 H       0.241452    -5.186082    -3.283918
 H      -0.651206    -4.275300    -4.522463
 H       1.065601    -4.637679    -4.749851
 C       1.851187    -3.129825    -2.526900
 N       2.760736    -3.183831    -1.819392
48
  -29709.469629  -29700.523043  132.71  118.20
 C      -0.543080     0.316480    -0.725514
 C       0.575564     0.955169    -0.176771
 C       0.567039     2.331875     0.074180
 C      -0.548785     3.083286    -0.248909
 C      -1.652806     2.463527    -0.821999
 C      -1.652481     1.095965    -1.051822
 C      -0.574888    -1.151921    -0.966415
 C      -1.034553    -1.634920    -2.173803
 C      -1.199859    -3.038967    -2.394671
 C      -0.617909    -3.921356    -1.430659
 C      -0.152523    -3.427053    -0.232178
 C      -0.160294    -2.054145     0.027738
 H      -0.552303     4.147120    -0.037445
 H      -2.528081     3.052080    -1.077392
 H      -2.525280     0.616612    -1.482839
 H      -1.331017    -0.946079    -2.957300
 H      -1.241596    -3.374165    -3.427836
 H      -0.576153    -4.985630    -1.636836
 H       0.242542    -4.105480     0.517319
 H       0.182378    -1.681159     0.986007
 C       1.794943     0.238076     0.097598
 N       2.797014    -0.284232     0.312054
 C       1.984998     2.703128     1.966132
 O       1.172962     2.146598     2.681299
 C       3.316622     3.129342     2.525964
 C       4.438379     2.620345     2.030922
 H       5.400185     2.840029     2.485230
 H       4.431745     1.939795     1.185254
 C       3.240221     4.009742     3.741256
 H       4.234789     4.184295     4.156888
 H       2.787299     4.978120     3.499656
 H       2.607505     3.537499     4.498155
 N       1.722196     2.949824     0.638744
 C       2.560922     3.736208    -0.257818
 H       3.175853     4.426238     0.317292
 H       3.215868     3.100324    -0.863729
 H       1.918066     4.314108    -0.926578
 C      -3.245481    -3.326075    -2.191390
 C      -3.585538    -3.015794    -0.753028
 C      -3.477041    -4.758582    -2.619107
 H      -4.662693    -3.141398    -0.586066
 H      -3.053775    -3.699145    -0.087681
 H      -3.314002    -1.992992    -0.486141
 H      -2.963393    -5.442466    -1.939155
 H      -4.547277    -4.997135    -2.586011
 H      -3.125203    -4.942020    -3.637176
 C      -3.724535    -2.350666    -3.131954
 N      -4.044247    -1.542535    -3.890840
48
  -29709.508917  -29700.522771  108.05  118.37
 C       0.869740     0.473586    -1.309447
 C      -0.275230     1.008564    -0.701749
 C      -0.528080     2.388149    -0.721175
 C       0.369451     3.240430    -1.347892
 C       1.509197     2.721020    -1.945530
 C       1.751598     1.355777    -1.932582
 C       1.197941    -0.978648    -1.279270
 C       0.267063    -1.947261    -1.589362
 C       0.595581    -3.337996    -1.489849
 C       1.981818    -3.672378    -1.367511
 C       2.901573    -2.698800    -1.053233
 C       2.514506    -1.360518    -0.966213
 H       0.169689     4.305419    -1.362649
 H       2.210382     3.388651    -2.435700
 H       2.633515     0.956734    -2.421350
 H      -0.742325    -1.663025    -1.865017
 H      -0.045262    -4.036849    -2.022774
 H       2.290861    -4.707536    -1.463063
 H       3.939065    -2.967042    -0.880907
 H       3.236163    -0.605679    -0.674684
 C      -1.203629     0.178943     0.021180
 N      -1.983827    -0.442038     0.593148
 C      -1.667736     3.928593     0.801980
 O      -2.636271     4.638405     0.987333
 C      -0.396447     4.095784     1.597259
 C       0.054067     5.333709     1.766553
 H       0.948095     5.537799     2.348226
 H      -0.467750     6.179616     1.331100
 C       0.245620     2.879969     2.219747
 H       0.856186     2.319232     1.507353
 H       0.891624     3.188120     3.044493
 H      -0.510216     2.192638     2.611384
 N      -1.708325     2.891905    -0.110899
 C      -2.972676     2.668550    -0.814172
 H      -2.943480     1.691448    -1.297275
 H      -3.790851     2.691112    -0.096030
 H      -3.145785     3.444352    -1.567618
 C      -0.235527    -3.946439     0.311950
 C       0.281806    -5.351469     0.534264
 C      -1.729066    -3.851945     0.092486
 H      -0.216714    -5.803874     1.400620
 H       0.065004    -5.980168    -0.335137
 H       1.357388    -5.362174     0.717289
 H      -2.028695    -4.500239    -0.736619
 H      -2.261041    -4.194693     0.988729
 H      -2.050945    -2.830516    -0.108909
 C       0.307293    -2.975253     1.221192
 N       0.773513    -2.180996     1.915015
48
  -29709.491876  -29700.519805  118.75  120.23
 C       0.999370     1.374225    -0.046329
 C       0.513449     0.473004     0.909847
 C       0.555853     0.774177     2.278172
 C       1.153155     1.951453     2.699699
 C       1.670989     2.837092     1.763533
 C       1.578995     2.558287     0.408340
 C       0.911948     1.122476    -1.510747
 C      -0.271897     0.730932    -2.101722
 C      -0.345604     0.494410    -3.512046
 C       0.753985     0.950129    -4.306116
 C       1.935790     1.317778    -3.705255
 C       2.037653     1.371772    -2.314030
 H       1.193275     2.169939     3.761262
 H       2.132601     3.761633     2.094473
 H       1.949516     3.272164    -0.319175
 H      -1.154543     0.573201    -1.490970
 H      -1.335217     0.510357    -3.963363
 H       0.669493     0.943480    -5.387271
 H       2.794099     1.583633    -4.313858
 H       2.981261     1.633333    -1.847884
 C       0.003569    -0.819844     0.535795
 N      -0.403185    -1.867810     0.295903
 C      -1.315323    -0.422839     3.324080
 O      -1.726580    -1.368960     3.963380
 C      -2.255939     0.550599     2.653009
 C      -2.957852     0.159236     1.597134
 H      -3.666762     0.827407     1.116665
 H      -2.852295    -0.839105     1.186495
 C      -2.401912     1.897511     3.309785
 H      -1.461560     2.455913     3.310608
 H      -3.157004     2.492738     2.792104
 H      -2.710257     1.775113     4.353682
 N       0.032723    -0.141098     3.234520
 C       0.979910    -1.042453     3.888138
 H       1.901704    -0.496696     4.101089
 H       0.539287    -1.400748     4.817296
 H       1.207648    -1.904725     3.251663
 C      -0.299377    -1.571201    -3.733773
 C      -0.315233    -1.798049    -5.230414
 C      -1.530729    -2.062667    -3.007714
 H      -0.427233    -2.867539    -5.447740
 H      -1.164113    -1.279299    -5.686877
 H       0.605259    -1.451799    -5.702964
 H      -1.631943    -3.147734    -3.135331
 H      -1.485631    -1.858889    -1.938333
 H      -2.427186    -1.597285    -3.429192
 C       0.953127    -1.899297    -3.111647
 N       1.978397    -2.119566    -2.632301
48
  -29709.401489  -29700.519016  175.47  120.72
 C       0.460259     0.182056    -0.487052
 C      -0.451266     0.770865     0.399932
 C      -0.037599     1.739943     1.318792
 C       1.294258     2.116113     1.367505
 C       2.205370     1.532293     0.497989
 C       1.792314     0.579920    -0.425011
 C       0.037024    -0.843054    -1.479377
 C       0.664606    -2.069507    -1.509625
 C       0.378230    -3.014584    -2.545007
 C      -0.777003    -2.762860    -3.351792
 C      -1.403470    -1.538936    -3.302584
 C      -0.984249    -0.560871    -2.398762
 H       1.608216     2.851961     2.098312
 H       3.248996     1.827274     0.536520
 H       2.500742     0.148354    -1.123717
 H       1.429082    -2.296054    -0.774142
 H       0.649436    -4.053063    -2.366777
 H      -1.125387    -3.528111    -4.036989
 H      -2.240666    -1.330933    -3.960754
 H      -1.463268     0.411580    -2.387181
 C      -1.834882     0.365618     0.418873
 N      -2.947439     0.076227     0.459465
 C      -1.027712     1.949262     3.497273
 O      -0.144499     1.264225     3.978472
 C      -2.205178     2.360850     4.342253
 C      -3.436454     2.042956     3.958883
 H      -4.289926     2.240379     4.601249
 H      -3.631657     1.550230     3.011132
 C      -1.855934     2.975312     5.667914
 H      -1.345776     3.936200     5.535236
 H      -2.753439     3.137475     6.268432
 H      -1.169154     2.318050     6.208379
 N      -1.008685     2.337263     2.178390
 C      -1.878711     3.349248     1.583168
 H      -2.287504     3.987444     2.364431
 H      -1.282650     3.965065     0.904453
 H      -2.707470     2.904209     1.023994
 C       1.991340    -2.816297    -3.840510
 C       1.636118    -3.649869    -5.051393
 C       3.175579    -3.321382    -3.044598
 H       0.788352    -3.228691    -5.593813
 H       2.488871    -3.705108    -5.739496
 H       1.388166    -4.672681    -4.750986
 H       4.080678    -3.316933    -3.664403
 H       3.369032    -2.702723    -2.166209
 H       3.005007    -4.351516    -2.717804
 C       2.008328    -1.400255    -4.076059
 N       2.001499    -0.256328    -4.222843
48
  -29709.451144  -29700.518390  144.31  121.12
 C       1.645974    -0.602662    -0.144472
 C       0.733427     0.126987     0.630749
 C       1.030012     0.483115     1.950451
 C       2.231889     0.092085     2.516755
 C       3.133860    -0.647102     1.764672
 C       2.847345    -0.982968     0.448202
 C       1.382268    -0.983839    -1.560237
 C       1.068101    -0.035005    -2.511499
 C       0.859098    -0.401208    -3.880433
 C       1.191484    -1.739058    -4.257081
 C       1.474916    -2.683325    -3.294608
 C       1.550643    -2.325107    -1.946876
 H       2.440359     0.353521     3.547116
 H       4.073879    -0.959530     2.207712
 H       3.567654    -1.540997    -0.140526
 H       0.959782     1.007306    -2.229401
 H       1.000835     0.382169    -4.620290
 H       1.186896    -2.013614    -5.306313
 H       1.671880    -3.710703    -3.585394
 H       1.771025    -3.073754    -1.193497
 C      -0.565086     0.485072     0.120128
 N      -1.615809     0.783845    -0.239562
 C      -0.606379     0.650678     3.703272
 O      -0.319572    -0.464292     4.097051
 C      -1.775656     1.384480     4.305761
 C      -2.762615     1.809340     3.524974
 H      -3.660195     2.249902     3.949555
 H      -2.723606     1.705107     2.444899
 C      -1.796085     1.430133     5.807236
 H      -2.726495     1.873002     6.168660
 H      -1.694356     0.417741     6.207749
 H      -0.955823     2.016784     6.195793
 N       0.085328     1.262385     2.683161
 C      -0.012669     2.679027     2.334450
 H      -0.403405     3.238945     3.182345
 H       0.989327     3.049645     2.103197
 H      -0.662935     2.849359     1.471492
 C      -1.192989    -0.280666    -4.182553
 C      -1.833444    -1.228505    -3.200080
 C      -1.386055    -0.633300    -5.641718
 H      -2.919130    -1.250342    -3.358467
 H      -1.447022    -2.238632    -3.355970
 H      -1.648130    -0.929868    -2.169203
 H      -0.773836    -0.010226    -6.298852
 H      -1.135175    -1.682605    -5.812409
 H      -2.435290    -0.489102    -5.927193
 C      -1.376955     1.119019    -3.910598
 N      -1.448283     2.254286    -3.720228
48
  -29709.408035  -29700.517030  171.36  121.97
 C       0.956203     0.680273    -0.656628
 C       0.040216     1.196906     0.265334
 C       0.477836     1.888752     1.399563
 C       1.831701     2.081916     1.606377
 C       2.748276     1.581217     0.688276
 C       2.316229     0.882135    -0.429505
 C       0.521525    -0.086287    -1.854384
 C      -0.276198    -1.200972    -1.721158
 C      -0.543890    -2.043359    -2.845695
 C      -0.236112    -1.517436    -4.141463
 C       0.542733    -0.389556    -4.261985
 C       0.962565     0.307991    -3.126809
 H       2.161347     2.609400     2.494950
 H       3.810562     1.726192     0.856199
 H       3.031038     0.457895    -1.126681
 H      -0.634365    -1.491035    -0.739405
 H      -1.383923    -2.730129    -2.767438
 H      -0.578095    -2.044143    -5.025807
 H       0.829022    -0.030763    -5.245543
 H       1.596541     1.182495    -3.224858
 C      -1.379729     1.064559     0.058142
 N      -2.518859     0.994195    -0.083783
 C      -1.117717     1.520568     3.151523
 O      -0.805791     0.346845     3.191571
 C      -2.257255     2.053722     3.984558
 C      -2.040748     2.471313     5.224868
 H      -2.856810     2.814568     5.853838
 H      -1.046209     2.467614     5.660498
 C      -3.602019     1.983879     3.316951
 H      -3.604544     2.538235     2.372354
 H      -3.839168     0.945153     3.066928
 H      -4.382805     2.382573     3.967642
 N      -0.477558     2.412162     2.322725
 C      -0.856442     3.810531     2.156342
 H      -1.417205     4.145897     3.027174
 H       0.046782     4.420744     2.068284
 H      -1.467067     3.955770     1.257339
 C       0.795281    -3.605274    -2.580167
 C       0.657099    -4.460001    -3.820639
 C       0.352875    -4.271117    -1.294647
 H       1.244626    -5.380602    -3.715951
 H      -0.387473    -4.750635    -3.969365
 H       1.005088    -3.934624    -4.711311
 H       0.955429    -5.168010    -1.105077
 H       0.461566    -3.606222    -0.435929
 H      -0.692705    -4.585350    -1.367284
 C       2.049755    -2.912592    -2.474483
 N       3.035496    -2.321639    -2.377535
48
  -29709.406967  -29700.516703  172.03  122.17
 C       0.034272     0.074010    -0.792541
 C       0.035198     1.033178     0.232555
 C       0.761261     2.221983     0.103499
 C       1.520458     2.442507    -1.035660
 C       1.548233     1.487717    -2.040399
 C       0.804500     0.320470    -1.924436
 C      -0.751088    -1.186056    -0.685995
 C      -0.134837    -2.400220    -0.916641
 C      -0.879183    -3.620448    -0.910683
 C      -2.221566    -3.562976    -0.415529
 C      -2.824454    -2.347062    -0.188454
 C      -2.114078    -1.154233    -0.350763
 H       2.096319     3.356847    -1.116520
 H       2.148173     1.658819    -2.928316
 H       0.813296    -0.411354    -2.725123
 H       0.929737    -2.426656    -1.123188
 H      -0.325494    -4.541451    -0.747895
 H      -2.768389    -4.489172    -0.275176
 H      -3.859398    -2.308243     0.135809
 H      -2.605821    -0.202581    -0.184710
 C      -0.660815     0.787004     1.470879
 N      -1.210060     0.621469     2.467937
 C       1.865215     3.417515     1.865321
 O       2.873317     2.759092     1.696883
 C       1.842815     4.513599     2.900466
 C       1.699335     5.782366     2.538198
 H       1.766587     6.586271     3.265223
 H       1.538643     6.066212     1.502734
 C       2.127327     4.052979     4.301910
 H       2.184684     4.901021     4.987307
 H       1.347326     3.368221     4.653598
 H       3.072989     3.503643     4.323768
 N       0.716814     3.197908     1.141902
 C      -0.557857     3.860940     1.418535
 H      -0.608274     4.851016     0.955874
 H      -1.363924     3.249777     1.012631
 H      -0.716050     3.959364     2.492595
 C      -1.099136    -4.094768    -2.921130
 C       0.312977    -4.208298    -3.451805
 C      -1.935828    -2.996928    -3.532512
 H       0.298967    -4.538374    -4.497739
 H       0.809217    -3.235267    -3.416477
 H       0.907215    -4.927817    -2.883019
 H      -1.447859    -2.029961    -3.388001
 H      -2.047495    -3.165308    -4.611054
 H      -2.929620    -2.952805    -3.084933
 C      -1.771472    -5.358804    -2.791762
 N      -2.305144    -6.367409    -2.622028
48
  -29709.426601  -29700.513057  159.71  124.46
 C       0.443822    -0.478900    -0.210200
 C      -0.483244    -0.144498     0.783213
 C      -0.364027    -0.655788     2.080464
 C       0.669234    -1.521480     2.388179
 C       1.583490    -1.878169     1.403339
 C       1.473097    -1.359190     0.122419
 C       0.352983     0.078864    -1.587063
 C       0.417682    -0.764605    -2.678629
 C       0.422921    -0.249174    -4.011837
 C       0.109305     1.138451    -4.175646
 C       0.046953     1.968562    -3.080008
 C       0.199595     1.460329    -1.786790
 H       0.757435    -1.902354     3.399843
 H       2.395917    -2.556768     1.642262
 H       2.203314    -1.624094    -0.634873
 H       0.483244    -1.836080    -2.522214
 H       0.127167    -0.925869    -4.809289
 H      -0.023783     1.530723    -5.178139
 H      -0.137610     3.029494    -3.214522
 H       0.167781     2.127310    -0.932786
 C      -1.618608     0.698090     0.504884
 N      -2.553287     1.346493     0.336452
 C      -1.315880     0.993619     3.527389
 O      -0.451125     1.777480     3.188092
 C      -2.419594     1.435302     4.453834
 C      -2.425317     1.060505     5.726716
 H      -3.174732     1.431890     6.419399
 H      -1.671374     0.388434     6.126048
 C      -3.397107     2.387170     3.825985
 H      -3.900108     1.920536     2.971783
 H      -4.146685     2.712759     4.550023
 H      -2.864178     3.260872     3.439430
 N      -1.330385    -0.305702     3.072476
 C      -2.446921    -1.232830     3.232974
 H      -2.057366    -2.241868     3.393248
 H      -3.042990    -0.946651     4.096381
 H      -3.087148    -1.237999     2.343020
 C       2.407720    -0.395752    -4.608423
 C       2.742564    -1.866408    -4.491356
 C       3.196035     0.523102    -3.706536
 H       2.710750    -2.179003    -3.444651
 H       2.053512    -2.489975    -5.066447
 H       3.756254    -2.054961    -4.865523
 H       3.056424     0.232743    -2.662355
 H       4.265844     0.453178    -3.940434
 H       2.884505     1.562247    -3.820683
 C       2.279510     0.061496    -5.965266
 N       2.111033     0.432649    -7.044515
48
  -29709.408615  -29700.512431  170.99  124.86
 C      -0.336272    -0.843367     0.265382
 C       0.459503     0.304077     0.407379
 C       0.590473     0.937692     1.647717
 C      -0.043357     0.405331     2.760435
 C      -0.808215    -0.744014     2.633748
 C      -0.962151    -1.356576     1.396292
 C      -0.510935    -1.520170    -1.048109
 C      -0.914172    -0.813282    -2.161085
 C      -1.182610    -1.477591    -3.399307
 C      -0.786573    -2.847569    -3.505360
 C      -0.382668    -3.542553    -2.386500
 C      -0.269349    -2.900664    -1.150488
 H       0.081744     0.890905     3.721004
 H      -1.298360    -1.161909     3.507109
 H      -1.582244    -2.241583     1.299286
 H      -1.095607     0.253960    -2.094865
 H      -1.151223    -0.870943    -4.300455
 H      -0.831076    -3.342232    -4.469583
 H      -0.124329    -4.594099    -2.466638
 H       0.057652    -3.452542    -0.275764
 C       1.209870     0.819973    -0.710275
 N       1.816812     1.257485    -1.584005
 C       2.536600     2.061036     2.488333
 O       2.948413     1.020966     2.964502
 C       3.313344     3.339281     2.679785
 C       2.805788     4.338512     3.390715
 H       3.388796     5.229106     3.605911
 H       1.804014     4.292623     3.806614
 C       4.709688     3.308572     2.126140
 H       4.695138     3.191447     1.036615
 H       5.247684     4.226077     2.373091
 H       5.249213     2.449789     2.535998
 N       1.372313     2.124552     1.759917
 C       0.924205     3.322423     1.048839
 H       0.408554     4.019809     1.715537
 H       1.767019     3.831502     0.580841
 H       0.231676     3.022155     0.262613
 C      -3.255625    -1.523492    -3.479348
 C      -3.716781    -2.229082    -2.226797
 C      -3.581300    -2.227299    -4.778242
 H      -3.438024    -1.674916    -1.328997
 H      -4.808153    -2.342034    -2.238876
 H      -3.270432    -3.224856    -2.173809
 H      -4.664253    -2.217308    -4.952254
 H      -3.101579    -1.746709    -5.634538
 H      -3.259504    -3.270152    -4.732027
 C      -3.522219    -0.111171    -3.503624
 N      -3.669608     1.032813    -3.523385
48
  -29709.409749  -29700.493574  170.28  136.69
 C       0.074402    -0.639600    -0.038569
 C      -0.230772     0.298495     0.953580
 C       0.164493     0.096607     2.280095
 C       0.847187    -1.056646     2.624594
 C       1.139704    -2.002061     1.648674
 C       0.763816    -1.792947     0.329497
 C      -0.309446    -0.423990    -1.459848
 C      -1.035866    -1.382168    -2.132724
 C      -1.287917    -1.259443    -3.535866
 C      -1.022376     0.013656    -4.133926
 C      -0.307331     0.967217    -3.446526
 C       0.085166     0.746688    -2.124989
 H       1.163263    -1.199185     3.652363
 H       1.681762    -2.902720     1.918168
 H       1.026832    -2.513083    -0.437605
 H      -1.368682    -2.269359    -1.604601
 H      -2.099244    -1.851186    -3.954611
 H      -1.348279     0.202655    -5.151067
 H      -0.055103     1.907141    -3.926398
 H       0.674298     1.489244    -1.598615
 C      -0.998978     1.480097     0.653262
 N      -1.626685     2.425185     0.465066
 C       0.539825     2.256303     3.240340
 O       1.527318     2.393499     2.542770
 C       0.053750     3.399312     4.092397
 C      -1.151994     3.914748     3.885246
 H      -1.481293     4.800082     4.421427
 H      -1.832459     3.497081     3.149763
 C       1.078414     3.970280     5.031461
 H       1.984124     4.227548     4.474888
 H       0.693255     4.862003     5.530343
 H       1.365267     3.238562     5.795383
 N      -0.162064     1.074082     3.266895
 C      -1.263994     0.764672     4.169977
 H      -2.237572     0.933823     3.696615
 H      -1.195299    -0.285920     4.463360
 H      -1.196854     1.381702     5.064344
 C       0.095902    -2.553440    -4.391217
 C       0.007633    -2.305818    -5.880563
 C      -0.352820    -3.928951    -3.946613
 H       0.359693    -1.307025    -6.142819
 H       0.617474    -3.037300    -6.425329
 H      -1.025358    -2.416078    -6.225015
 H      -0.299321    -4.043653    -2.862301
 H      -1.380948    -4.118366    -4.269311
 H       0.282619    -4.701082    -4.397630
 C       1.322052    -2.116140    -3.786002
 N       2.281972    -1.749324    -3.262405
48
  -29709.432364  -29700.484621  156.09  142.31
 C       0.432868     1.848406    -0.496639
 C      -0.420119     1.053001     0.283020
 C      -0.998951     1.549762     1.456009
 C      -0.725362     2.841144     1.870294
 C       0.121373     3.636356     1.110370
 C       0.687085     3.146966    -0.058330
 C       1.079625     1.365664    -1.748138
 C       0.363401     0.730865    -2.741511
 C       1.011617     0.257841    -3.927790
 C       2.343571     0.720178    -4.170513
 C       3.054119     1.336994    -3.166621
 C       2.446825     1.628279    -1.944239
 H      -1.163578     3.204814     2.792165
 H       0.341158     4.649297     1.431532
 H       1.331430     3.783051    -0.655467
 H      -0.698913     0.553816    -2.614824
 H       0.379333     0.065066    -4.791636
 H       2.809070     0.525400    -5.130430
 H       4.091460     1.613176    -3.326522
 H       3.023072     2.082964    -1.146133
 C      -0.719119    -0.312335    -0.065521
 N      -1.014634    -1.397796    -0.304228
 C      -1.386118     0.105326     3.332328
 O      -0.302238     0.407495     3.796097
 C      -2.206084    -0.980665     3.977709
 C      -2.577417    -2.039184     3.266533
 H      -3.081212    -2.878801     3.736898
 H      -2.364891    -2.118894     2.204748
 C      -2.400483    -0.837632     5.460536
 H      -1.430237    -0.708144     5.948011
 H      -3.000945     0.048386     5.696304
 H      -2.900464    -1.716738     5.872405
 N      -1.881256     0.708277     2.200001
 C      -3.250077     0.588586     1.704986
 H      -3.581441     1.570264     1.356060
 H      -3.328317    -0.127133     0.880575
 H      -3.905703     0.265583     2.511673
 C       1.230976    -1.788489    -3.651145
 C       2.014418    -2.261157    -4.857061
 C      -0.182754    -2.318311    -3.569344
 H       3.034862    -1.874938    -4.854234
 H       2.065195    -3.357025    -4.866934
 H       1.519775    -1.946659    -5.781438
 H      -0.167363    -3.413087    -3.497362
 H      -0.715020    -1.937498    -2.698214
 H      -0.735854    -2.056707    -4.476767
 C       1.973362    -1.835954    -2.422159
 N       2.589193    -1.833719    -1.447342
48
  -29709.401057  -29700.457165  175.74  159.54
 C       1.256562     1.184270    -0.040992
 C       0.230343     0.514042     0.643193
 C       0.021431     0.721985     2.011345
 C       0.811073     1.626424     2.701259
 C       1.811748     2.313072     2.029810
 C       2.036810     2.086182     0.679312
 C       1.549199     0.970822    -1.485851
 C       0.561569     1.005100    -2.447872
 C       0.870049     0.764810    -3.825952
 C       2.251324     0.788885    -4.198465
 C       3.228040     0.742098    -3.230591
 C       2.887775     0.792210    -1.877962
 H       0.625329     1.793798     3.755753
 H       2.425902     3.029500     2.565578
 H       2.817598     2.631841     0.160788
 H      -0.469699     1.178020    -2.161171
 H       0.144030     1.106118    -4.560484
 H       2.520530     0.781792    -5.248973
 H       4.273152     0.678273    -3.516363
 H       3.660382     0.717942    -1.120780
 C      -0.650273    -0.407752    -0.026375
 N      -1.386280    -1.146772    -0.510700
 C      -2.132165     0.673431     3.058956
 O      -2.310898     1.837377     2.754220
 C      -3.168491    -0.060415     3.871517
 C      -2.867793    -0.546726     5.069554
 H      -3.627911    -0.998191     5.700186
 H      -1.862678    -0.486887     5.475061
 C      -4.548347    -0.054023     3.277248
 H      -4.854397     0.975282     3.069915
 H      -4.565256    -0.594386     2.324122
 H      -5.267118    -0.517496     3.956091
 N      -0.998763    -0.010339     2.689959
 C      -0.810572    -1.450440     2.862721
 H      -0.393072    -1.691267     3.845298
 H      -1.756240    -1.976817     2.736699
 H      -0.121021    -1.807612     2.097183
 C       0.287440    -1.196671    -4.176096
 C       0.749201    -1.496168    -5.586318
 C      -1.213509    -1.188369    -3.992472
 H       0.363990    -2.471317    -5.909344
 H       0.364494    -0.743829    -6.282062
 H       1.837548    -1.520312    -5.659697
 H      -1.502127    -0.940493    -2.971482
 H      -1.672757    -0.475070    -4.683784
 H      -1.623186    -2.179993    -4.222178
 C       1.022528    -1.902542    -3.163147
 N       1.644282    -2.436296    -2.351819
