48
  -29710.060312  -29700.883730    0.00    0.00
 C      -0.549910     0.120043    -2.653785
 C      -0.187768     0.658512    -1.409947
 C      -1.073299     1.477537    -0.687988
 C      -2.334498     1.735134    -1.224860
 C      -2.692464     1.210853    -2.456415
 C      -1.807985     0.412109    -3.169303
 C       0.381557    -0.753598    -3.416768
 C      -0.073585    -1.964395    -3.939543
 C       0.775822    -2.781535    -4.674016
 C       2.092400    -2.396463    -4.896895
 C       2.553528    -1.190762    -4.380656
 C       1.704704    -0.374407    -3.645832
 H      -3.035390     2.343866    -0.664956
 H      -3.674545     1.427613    -2.864288
 H      -2.087768     0.016698    -4.139426
 H      -1.097297    -2.274536    -3.754171
 H       0.408455    -3.722730    -5.070829
 H       2.757698    -3.033646    -5.470712
 H       3.579685    -0.881883    -4.552915
 H       2.067318     0.571568    -3.257958
 C       1.049970     0.304910    -0.759978
 N       1.550332     0.064044     0.287132
 C      -0.057830     1.566809     1.628385
 O       0.292209     2.323817     2.521896
 C       0.243248     0.102213     1.715116
 C       1.122142    -0.273942     2.886989
 H       1.796674     0.559358     3.086217
 H       1.734210    -1.125883     2.575733
 C      -0.795241    -0.911913     1.320102
 H      -1.241055    -0.723944     0.346225
 H      -0.356971    -1.911768     1.311239
 H      -1.610047    -0.923813     2.052803
 N      -0.714497     2.103532     0.529508
 C      -0.967673     3.548893     0.623176
 H      -0.044066     4.062812     0.890661
 H      -1.315362     3.909131    -0.344162
 H      -1.713631     3.770476     1.391463
 C       0.440575    -0.648939     4.234773
 C      -0.625002     0.358846     4.696005
 C       1.544861    -0.759028     5.305028
 H      -1.037082     0.046893     5.659620
 H      -0.175855     1.347425     4.793663
 H      -1.448752     0.435739     3.982945
 H       2.003436     0.222099     5.453994
 H       1.128864    -1.097605     6.257355
 H       2.321154    -1.464118     4.996077
 C      -0.188617    -1.981780     4.129912
 N      -0.667308    -3.025538     4.078052
48
  -29710.053028  -29700.874424    4.57    5.84
 C      -0.729096     0.472027    -2.596615
 C       0.116231     0.582288    -1.482401
 C       0.286062     1.809865    -0.818818
 C      -0.417892     2.922250    -1.279544
 C      -1.247873     2.818312    -2.384112
 C      -1.401605     1.604889    -3.041764
 C      -0.917097    -0.827187    -3.296340
 C      -2.204288    -1.276425    -3.592603
 C      -2.397344    -2.475685    -4.265788
 C      -1.303845    -3.240748    -4.653437
 C      -0.017735    -2.799559    -4.363343
 C       0.175171    -1.601255    -3.689743
 H      -0.315069     3.868031    -0.759702
 H      -1.782190     3.695243    -2.735294
 H      -2.040769     1.532680    -3.914705
 H      -3.060551    -0.688062    -3.277672
 H      -3.404989    -2.814253    -4.485543
 H      -1.452694    -4.178184    -5.179697
 H       0.841348    -3.390189    -4.665353
 H       1.181847    -1.256217    -3.479070
 C       0.752072    -0.570413    -0.893712
 N       1.068047    -1.074034     0.131627
 C       1.392180     1.166783     1.364632
 O       2.333637     1.416503     2.103048
 C       0.501056    -0.004360     1.643109
 C       0.978596    -0.880645     2.779455
 H       2.068575    -0.852416     2.794535
 H       0.678979    -1.907286     2.548061
 C      -0.990325     0.122786     1.493001
 H      -1.298536     0.553556     0.543279
 H      -1.461293    -0.856719     1.596134
 H      -1.397102     0.760875     2.285642
 N       1.190517     1.978138     0.256598
 C       2.128153     3.106145     0.154620
 H       1.946504     3.843485     0.941496
 H       3.149490     2.740434     0.263412
 H       2.012929     3.572856    -0.822767
 C       0.488174    -0.558615     4.220802
 C       0.639493     0.919732     4.615039
 C       1.292461    -1.438712     5.198331
 H       0.050237     1.575648     3.970470
 H       0.303786     1.064261     5.645618
 H       1.684607     1.217077     4.526265
 H       2.346602    -1.151618     5.160127
 H       0.932669    -1.308787     6.222189
 H       1.208626    -2.496084     4.933434
 C      -0.931434    -0.940706     4.369322
 N      -2.029075    -1.249660     4.514230
48
  -29710.053028  -29700.874397    4.57    5.86
 C      -0.728857     0.814471    -2.574902
 C      -0.181659     1.038419    -1.302662
 C      -0.809089     1.894784    -0.381073
 C      -1.997599     2.521824    -0.755680
 C      -2.527444     2.321994    -2.020152
 C      -1.899424     1.477070    -2.925983
 C      -0.079949    -0.112788    -3.540745
 C       0.138651     0.296232    -4.856395
 C       0.721452    -0.564390    -5.777215
 C       1.092167    -1.847818    -5.393969
 C       0.876596    -2.264006    -4.085393
 C       0.294419    -1.403395    -3.164740
 H      -2.506477     3.164083    -0.046079
 H      -3.449136     2.823141    -2.297923
 H      -2.332928     1.304472    -3.904752
 H      -0.135928     1.303379    -5.154293
 H       0.888877    -0.230063    -6.796203
 H       1.547851    -2.521646    -6.112409
 H       1.160625    -3.265655    -3.778645
 H       0.117550    -1.743927    -2.150247
 C       1.009610     0.363260    -0.854110
 N       1.526414    -0.149172     0.081505
 C       0.342481     1.354154     1.809090
 O       0.888271     1.850809     2.783201
 C       0.345816    -0.131880     1.618487
 C       1.205041    -0.875670     2.616863
 H       2.044278    -0.233598     2.886080
 H       1.613401    -1.753245     2.106354
 C      -0.900408    -0.842854     1.166815
 H      -0.671003    -1.881971     0.920992
 H      -1.638188    -0.862658     1.976614
 H      -1.381007    -0.381381     0.307367
 N      -0.248525     2.202388     0.880989
 C      -0.187860     3.626797     1.240693
 H       0.828299     3.879727     1.542564
 H      -0.466043     4.221639     0.371728
 H      -0.856623     3.854596     2.075714
 C       0.551276    -1.362691     3.942406
 C      -0.260050    -0.279814     4.672433
 C       1.678547    -1.871645     4.862963
 H       0.382658     0.572846     4.892517
 H      -1.096014     0.080023     4.068582
 H      -0.663243    -0.684881     5.604640
 H       2.277180    -2.637806     4.363069
 H       2.332044    -1.037040     5.130304
 H       1.265890    -2.298952     5.780432
 C      -0.335717    -2.513851     3.674855
 N      -1.014696    -3.423176     3.491965
48
  -29710.014967  -29700.837934   28.45   28.74
 C      -0.456674     0.251334    -2.638478
 C      -0.049019     0.733473    -1.385672
 C      -0.795997     1.709611    -0.703365
 C      -1.961833     2.193162    -1.297559
 C      -2.353873     1.737020    -2.545679
 C      -1.608294     0.775053    -3.214679
 C       0.318641    -0.801354    -3.348737
 C       0.697992    -1.979420    -2.704182
 C       1.400054    -2.961974    -3.388930
 C       1.732172    -2.781782    -4.726572
 C       1.357443    -1.611891    -5.376515
 C       0.654742    -0.629327    -4.691665
 H      -2.562034     2.926558    -0.771371
 H      -3.259792     2.128955    -2.996807
 H      -1.934351     0.403149    -4.179604
 H       0.431464    -2.137165    -1.664700
 H       1.686481    -3.873891    -2.874699
 H       2.281480    -3.550655    -5.260373
 H       1.615272    -1.461547    -6.420098
 H       0.376623     0.290113    -5.197392
 C       1.113716     0.216309    -0.709891
 N       1.551014    -0.087643     0.349086
 C       0.146571     1.641577     1.646563
 O       0.573292     2.336711     2.556592
 C       0.221339     0.148107     1.739296
 C       1.000795    -0.353204     2.934862
 H       1.785486     0.371112     3.155495
 H       1.489192    -1.286482     2.638252
 C      -0.947146    -0.698972     1.315407
 H      -1.354090    -0.429328     0.343668
 H      -0.657848    -1.751852     1.291585
 H      -1.761982    -0.609018     2.042345
 N      -0.376911     2.272689     0.525037
 C      -0.402899     3.740063     0.615295
 H       0.568089     4.097787     0.957198
 H      -0.612653     4.149965    -0.371774
 H      -1.160104     4.081033     1.327178
 C       0.233871    -0.623070     4.261763
 C      -0.684671     0.530452     4.697057
 C       1.279470    -0.893732     5.362066
 H      -1.165704     0.282170     5.647119
 H      -0.097851     1.442022     4.812049
 H      -1.467315     0.728467     3.961388
 H       0.791430    -1.166921     6.301114
 H       1.952111    -1.705547     5.072638
 H       1.872875     0.009382     5.527447
 C      -0.580515    -1.849409     4.133895
 N      -1.205147    -2.811751     4.062717
48
  -29710.014968  -29700.837879   28.45   28.77
 C      -0.583432     0.270900    -2.524416
 C      -0.458384     0.885320    -1.269669
 C      -1.523757     1.604921    -0.701461
 C      -2.722012     1.693857    -1.410391
 C      -2.846515     1.095624    -2.653852
 C      -1.787605     0.389469    -3.209566
 C       0.539972    -0.499323    -3.122215
 C       1.825096     0.038612    -3.200453
 C       2.856220    -0.684433    -3.784334
 C       2.617809    -1.954064    -4.298288
 C       1.340635    -2.497156    -4.225060
 C       0.308914    -1.773487    -3.641671
 H      -3.558777     2.227172    -0.974048
 H      -3.783343     1.179790    -3.195310
 H      -1.886930    -0.065333    -4.188867
 H       2.015009     1.034432    -2.814039
 H       3.850395    -0.252472    -3.840498
 H       3.425393    -2.518026    -4.753969
 H       1.146524    -3.489003    -4.621120
 H      -0.684512    -2.205791    -3.572434
 C       0.720267     0.730370    -0.455992
 N       1.116007     0.592772     0.649688
 C      -0.885366     1.843865     1.737884
 O      -0.821931     2.629393     2.670763
 C      -0.396216     0.436430     1.903435
 C       0.276461     0.265475     3.246835
 H      -0.465683     0.521869     4.012752
 H       1.057373     1.025020     3.329928
 C      -1.276436    -0.683047     1.418537
 H      -2.015771    -0.917016     2.193509
 H      -1.820228    -0.436929     0.509149
 H      -0.708274    -1.597054     1.236590
 N      -1.409016     2.291338     0.529666
 C      -1.890001     3.679436     0.553287
 H      -2.068184     4.006811    -0.470515
 H      -2.809267     3.774336     1.138943
 H      -1.131924     4.314348     1.011124
 C       0.910224    -1.093926     3.632510
 C       1.600489    -0.903298     4.999868
 C       1.939096    -1.617259     2.616045
 H       0.894639    -0.530894     5.746766
 H       2.017484    -1.847933     5.357749
 H       2.413353    -0.179444     4.896753
 H       1.492001    -1.825974     1.644071
 H       2.720147    -0.867874     2.469672
 H       2.396690    -2.536563     2.991932
 C      -0.133679    -2.121293     3.829918
 N      -0.927453    -2.931023     4.018168
48
  -29710.014966  -29700.837852   28.46   28.79
 C      -0.355364     0.381038    -2.492873
 C      -0.103108     0.933532    -1.228496
 C      -0.874556     1.998289    -0.731648
 C      -1.909819     2.497858    -1.522196
 C      -2.156500     1.960508    -2.775186
 C      -1.387125     0.910808    -3.259909
 C       0.453856    -0.752396    -3.015505
 C      -0.183997    -1.868415    -3.558061
 C       0.555624    -2.925231    -4.072439
 C       1.944468    -2.878285    -4.052574
 C       2.587908    -1.769243    -3.515025
 C       1.848583    -0.713212    -3.000119
 H      -2.526466     3.304248    -1.142088
 H      -2.961507     2.364967    -3.380401
 H      -1.576728     0.503310    -4.246689
 H      -1.268661    -1.913907    -3.561332
 H       0.045275    -3.788697    -4.487498
 H       2.524241    -3.703168    -4.454223
 H       3.672260    -1.724088    -3.498669
 H       2.357110     0.155283    -2.594961
 C       0.883186     0.381569    -0.335261
 N       1.127274     0.132300     0.794496
 C      -0.359977     2.038696     1.747999
 O      -0.082301     2.766830     2.688243
 C      -0.421365     0.552891     1.938200
 C       0.052348     0.177681     3.324294
 H      -0.598173     0.697888     4.037979
 H       1.046454     0.607886     3.466837
 C      -1.609926    -0.185338     1.385491
 H      -1.966134     0.222156     0.441914
 H      -1.397024    -1.245601     1.237719
 H      -2.434610    -0.123771     2.105245
 N      -0.604467     2.621135     0.508955
 C      -0.555329     4.089573     0.508012
 H      -1.416717     4.519037     1.028255
 H       0.347181     4.418943     1.022188
 H      -0.534040     4.439492    -0.523584
 C       0.127731    -1.310958     3.744581
 C       0.746171    -1.354599     5.158122
 C       0.966123    -2.187985     2.799291
 H       1.769819    -0.972780     5.116865
 H       0.172461    -0.739476     5.856152
 H       0.770658    -2.378920     5.538208
 H       0.540743    -2.240956     1.797076
 H       1.972242    -1.771708     2.712789
 H       1.036337    -3.202882     3.200361
 C      -1.226391    -1.891316     3.861754
 N      -2.268888    -2.358499     3.988716
48
  -29710.014969  -29700.837825   28.45   28.81
 C      -0.653383     0.573260    -2.382107
 C      -0.693230     0.992009    -1.043974
 C      -1.909384     1.315109    -0.417655
 C      -3.089021     1.205545    -1.154377
 C      -3.052859     0.800572    -2.478865
 C      -1.846450     0.486635    -3.091061
 C       0.631954     0.221412    -3.043001
 C       0.740002    -0.970429    -3.760331
 C       1.924672    -1.303700    -4.403737
 C       3.017133    -0.447025    -4.339522
 C       2.917368     0.743252    -3.628020
 C       1.733430     1.076002    -2.984201
 H      -4.035916     1.430529    -0.677120
 H      -3.978934     0.726820    -3.039984
 H      -1.823440     0.182940    -4.131725
 H      -0.107198    -1.648131    -3.799672
 H       1.995008    -2.236430    -4.954527
 H       3.943794    -0.705669    -4.841810
 H       3.765363     1.418755    -3.575805
 H       1.658019     2.012989    -2.442531
 C       0.484493     1.017107    -0.214736
 N       0.901421     0.811901     0.872519
 C      -1.357310     1.319223     2.054252
 O      -1.501246     1.936233     3.098245
 C      -0.519485     0.076398     2.022963
 C       0.173246    -0.127345     3.351515
 H      -0.610728    -0.194456     4.115726
 H       0.730116     0.783786     3.582556
 C      -1.078285    -1.139653     1.335866
 H      -1.732200    -1.675217     2.034083
 H      -1.666491    -0.900027     0.452764
 H      -0.292062    -1.836649     1.040284
 N      -1.977870     1.803607     0.907732
 C      -2.803145     2.999914     1.123383
 H      -3.059317     3.428920     0.155183
 H      -3.716040     2.761663     1.677406
 H      -2.236565     3.726957     1.704575
 C       1.137842    -1.322372     3.551108
 C       1.753636    -1.180617     4.959360
 C       2.268277    -1.396596     2.510791
 H       2.401227    -2.031287     5.185823
 H       2.350808    -0.265809     5.002442
 H       0.974589    -1.124790     5.724041
 H       2.948567    -2.215473     2.760687
 H       1.891641    -1.556142     1.500406
 H       2.828044    -0.458673     2.513635
 C       0.396267    -2.600741     3.544992
 N      -0.160246    -3.606052     3.573638
48
  -29709.990703  -29700.826342   43.68   36.01
 C      -0.787333     0.324361    -2.430748
 C      -0.679374     0.918532    -1.164718
 C      -1.802512     1.460302    -0.516067
 C      -3.040294     1.391376    -1.155945
 C      -3.149389     0.813027    -2.410215
 C      -2.033865     0.283216    -3.045565
 C       0.398680    -0.258325    -3.113760
 C       1.585948     0.463226    -3.243349
 C       2.674795    -0.086645    -3.905909
 C       2.592536    -1.364137    -4.448307
 C       1.413570    -2.089502    -4.324325
 C       0.324018    -1.539089    -3.662203
 H      -3.918379     1.785713    -0.657482
 H      -4.118480     0.773267    -2.897236
 H      -2.123406    -0.156313    -4.032751
 H       1.652381     1.466061    -2.834760
 H       3.591241     0.487080    -4.001278
 H       3.445086    -1.792533    -4.965535
 H       1.341857    -3.088774    -4.742195
 H      -0.590880    -2.113368    -3.553848
 C       0.554682     0.916928    -0.421473
 N       1.029925     0.810709     0.655987
 C      -1.064602     1.727790     1.892026
 O      -1.061570     2.489998     2.846161
 C      -0.368287     0.403282     1.983590
 C       0.399038     0.298462     3.282307
 H      -0.326535     0.424112     4.095263
 H       1.065495     1.161640     3.348664
 C      -1.104162    -0.820180     1.509478
 H      -0.421408    -1.636290     1.266300
 H      -1.755337    -1.179508     2.314954
 H      -1.730021    -0.633109     0.639662
 N      -1.716470     2.124706     0.729374
 C      -2.391042     3.426391     0.825686
 H      -2.673481     3.750382    -0.175487
 H      -3.279022     3.370724     1.462459
 H      -1.707618     4.153381     1.263638
 C       1.243940    -0.963047     3.587450
 C       1.977810    -0.708292     4.921244
 C       2.276715    -1.304473     2.500043
 H       2.670198     0.128935     4.798791
 H       1.270239    -0.462045     5.717152
 H       2.546994    -1.590619     5.224277
 H       2.931386    -0.445493     2.336939
 H       2.883481    -2.156201     2.819726
 H       1.808668    -1.551682     1.547149
 C       0.372707    -2.136616     3.806265
 N      -0.283430    -3.058166     4.009757
48
  -29709.917606  -29700.727972   89.55   97.74
 C      -0.600010     0.275757    -2.635704
 C      -0.378423     0.738766    -1.329792
 C      -1.442537     1.193716    -0.529649
 C      -2.733614     1.163579    -1.057892
 C      -2.953796     0.714336    -2.349702
 C      -1.897011     0.275537    -3.136583
 C       0.522119    -0.214054    -3.480751
 C       1.687417     0.536289    -3.642159
 C       2.714547     0.075184    -4.454079
 C       2.591723    -1.141167    -5.116088
 C       1.434188    -1.894542    -4.961594
 C       0.406265    -1.432740    -4.149963
 H      -3.565900     1.487084    -0.443427
 H      -3.963801     0.705257    -2.746824
 H      -2.073129    -0.061537    -4.151979
 H       1.784239     1.492990    -3.140023
 H       3.614306     0.670649    -4.572108
 H       3.396100    -1.500307    -5.750031
 H       1.331196    -2.846726    -5.472487
 H      -0.490840    -2.029940    -4.019314
 C       0.921482     0.659704    -0.710597
 N       1.496746     0.435898     0.300134
 C      -0.456420     1.262404     1.793955
 O      -0.312095     1.951969     2.791693
 C       0.239577    -0.058831     1.700598
 C       1.175579    -0.290003     2.860036
 H       1.691356     0.647584     3.059843
 H       1.927904    -1.019129     2.545555
 C      -0.473571    -1.274642     1.175363
 H       0.237789    -2.095620     1.054822
 H      -1.245375    -1.591667     1.885778
 H      -0.966883    -1.111244     0.219174
 N      -1.250589     1.738095     0.760381
 C      -1.932920     3.006034     1.054520
 H      -2.344864     3.407971     0.129569
 H      -2.732043     2.864108     1.787756
 H      -1.214162     3.711954     1.469696
 C       0.542669    -0.804468     4.196872
 C       1.186842    -0.062919     5.381815
 C       0.749937    -2.324508     4.351400
 H       0.995343     1.009278     5.304645
 H       0.787497    -0.427398     6.332090
 H       2.268158    -0.229975     5.369678
 H       0.309421    -2.874681     3.516842
 H       1.821009    -2.543456     4.383845
 H       0.292964    -2.683129     5.277517
 C      -0.911921    -0.562523     4.255279
 N      -2.052486    -0.440769     4.324321
48
  -29709.917608  -29700.727918   89.55   97.77
 C      -0.723228     0.369483    -2.562100
 C      -0.330276     0.813394    -1.290390
 C      -1.203651     1.559873    -0.480179
 C      -2.484963     1.836789    -0.956185
 C      -2.873822     1.405448    -2.214106
 C      -2.000451     0.681322    -3.015007
 C       0.196128    -0.425780    -3.419641
 C      -0.259220    -1.596244    -4.027255
 C       0.578581    -2.338353    -4.849486
 C       1.883455    -1.917502    -5.076360
 C       2.344620    -0.751418    -4.475998
 C       1.507465    -0.010120    -3.653485
 H      -3.176538     2.387674    -0.328850
 H      -3.871303     1.637029    -2.573605
 H      -2.304661     0.360055    -4.004972
 H      -1.273383    -1.935331    -3.840111
 H       0.211318    -3.249161    -5.311878
 H       2.539611    -2.496078    -5.718694
 H       3.361551    -0.414698    -4.650782
 H       1.869678     0.906278    -3.199784
 C       0.928402     0.422478    -0.704401
 N       1.461301     0.106197     0.306454
 C      -0.104531     1.495301     1.800132
 O       0.276511     2.193691     2.726466
 C       0.210301     0.030250     1.774518
 C       1.145377    -0.416456     2.877797
 H       1.832496     0.405479     3.076914
 H       1.739860    -1.246450     2.484479
 C      -0.841083    -0.952152     1.330878
 H      -0.428485    -1.962761     1.327318
 H      -1.696782    -0.933837     2.016037
 H      -1.229924    -0.748667     0.335586
 N      -0.815240     2.097181     0.770393
 C      -1.075036     3.530178     0.976363
 H      -0.142062     4.037432     1.224027
 H      -1.482425     3.950295     0.057834
 H      -1.776328     3.688732     1.799997
 C       0.539399    -0.882147     4.240474
 C      -0.045913    -2.308364     4.189638
 C      -0.495618     0.094102     4.824521
 H       0.655737    -3.004672     3.722779
 H      -0.254005    -2.661273     5.203153
 H      -0.981962    -2.326712     3.630948
 H      -0.830905    -0.264147     5.801757
 H      -0.080125     1.095431     4.928241
 H      -1.367331     0.158245     4.167567
 C       1.684915    -0.936010     5.176083
 N       2.569943    -0.994810     5.906819
48
  -29709.936604  -29700.717115   77.63  104.55
 C      -0.635515     0.662535    -2.648302
 C       0.009455     0.826870    -1.413098
 C      -0.256040     1.941237    -0.598140
 C      -1.194035     2.878076    -1.031189
 C      -1.827854     2.722064    -2.253303
 C      -1.549415     1.626405    -3.059889
 C      -0.361541    -0.518428    -3.510449
 C       0.944504    -0.903599    -3.815330
 C       1.182113    -1.993663    -4.641273
 C       0.118764    -2.713496    -5.174180
 C      -1.185186    -2.336303    -4.876318
 C      -1.422899    -1.245209    -4.050662
 H      -1.427394     3.726870    -0.398426
 H      -2.548558     3.464813    -2.580023
 H      -2.036627     1.517745    -4.022491
 H       1.778957    -0.337973    -3.414601
 H       2.203280    -2.280335    -4.871739
 H       0.306491    -3.565819    -5.819306
 H      -2.021234    -2.894565    -5.285740
 H      -2.442373    -0.961912    -3.807875
 C       0.871702    -0.191090    -0.864683
 N       1.196894    -0.739317     0.135088
 C       0.751569     1.301302     1.635097
 O       1.508142     1.680225     2.515468
 C       0.199848    -0.091997     1.655970
 C       0.792095    -0.971050     2.736545
 H       1.829566    -0.667188     2.873226
 H       0.803386    -1.995583     2.352875
 C      -1.243032    -0.329601     1.296836
 H      -1.904340     0.168324     2.015683
 H      -1.510160     0.044853     0.311118
 H      -1.460528    -1.399113     1.317274
 N       0.435684     2.185575     0.612367
 C       1.025897     3.523496     0.770546
 H       2.096164     3.429618     0.957154
 H       0.866832     4.089729    -0.146096
 H       0.579321     4.053233     1.616269
 C       0.108849    -1.007071     4.141123
 C      -1.170426    -1.868301     4.172812
 C      -0.176309     0.385827     4.727597
 H      -1.480749    -2.035293     5.207642
 H      -1.989950    -1.369556     3.654841
 H      -1.000292    -2.842004     3.705831
 H      -0.902334     0.916358     4.105493
 H      -0.597291     0.284668     5.731734
 H       0.729528     0.988692     4.773055
 C       1.083907    -1.678181     5.029574
 N       1.828169    -2.210889     5.724559
48
  -29709.873336  -29700.693223  117.33  119.54
 C       0.763376    -1.871801    -1.567292
 C      -0.102954    -1.516826    -0.523733
 C      -0.281198    -2.340628     0.599939
 C       0.390701    -3.563240     0.636033
 C       1.207377    -3.943199    -0.417372
 C       1.402884    -3.104005    -1.507603
 C       1.008856    -0.940624    -2.700588
 C       1.303467     0.405044    -2.469968
 C       1.544675     1.263645    -3.533115
 C       1.501224     0.790114    -4.839245
 C       1.213833    -0.549038    -5.077123
 C       0.969413    -1.408497    -4.013942
 H       0.279820    -4.208729     1.499447
 H       1.717931    -4.900042    -0.375793
 H       2.078741    -3.391413    -2.305284
 H       1.357303     0.793697    -1.459282
 H       1.767453     2.306525    -3.333024
 H       1.690228     1.462580    -5.670057
 H       1.175445    -0.925879    -6.094334
 H       0.727465    -2.449820    -4.203417
 C      -0.813941    -0.268643    -0.514820
 N      -1.162918     0.635044     0.159900
 C      -1.283811    -0.781714     2.332233
 O      -2.121803    -0.700339     3.216630
 C      -0.433881     0.401084     1.973610
 C      -0.817106     1.660703     2.724233
 H      -0.126609     1.732263     3.574122
 H      -1.812844     1.531312     3.148159
 C       1.055256     0.191171     1.846397
 H       1.520157     0.983929     1.258660
 H       1.493175     0.232187     2.851967
 H       1.333424    -0.766398     1.412772
 N      -1.148753    -1.998136     1.662680
 C      -2.026661    -3.065317     2.160401
 H      -2.049446    -3.871326     1.427539
 H      -1.685041    -3.450958     3.125964
 H      -3.031790    -2.667600     2.293286
 C      -0.809732     3.040840     1.994212
 C      -0.470194     4.132878     3.029586
 C      -2.184727     3.354264     1.372155
 H      -1.187960     4.086808     3.853873
 H       0.535236     3.993022     3.435234
 H      -0.524761     5.125911     2.576172
 H      -2.931636     3.401366     2.170054
 H      -2.157915     4.323313     0.865986
 H      -2.482497     2.591550     0.654734
 C       0.213279     3.123626     0.934405
 N       1.016452     3.238000     0.120126
48
  -29709.865613  -29700.678938  122.18  128.51
 C      -0.275668     0.887400    -2.419328
 C      -0.203437     1.192465    -1.052088
 C      -1.158648     2.020801    -0.438382
 C      -2.193886     2.536803    -1.218896
 C      -2.263861     2.244637    -2.571299
 C      -1.314206     1.426869    -3.170060
 C       0.729738     0.002965    -3.067152
 C       2.098069     0.218887    -2.899431
 C       3.022560    -0.601393    -3.531383
 C       2.593132    -1.647903    -4.339689
 C       1.232128    -1.869450    -4.512961
 C       0.307244    -1.048338    -3.881400
 H      -2.949433     3.160394    -0.754883
 H      -3.071953     2.658991    -3.165621
 H      -1.367427     1.212879    -4.231727
 H       2.440359     1.042423    -2.281623
 H       4.083864    -0.420209    -3.393797
 H       3.317458    -2.288478    -4.832529
 H       0.888269    -2.686014    -5.140084
 H      -0.755259    -1.232391    -4.007073
 C       0.786023     0.604288    -0.186231
 N       0.980807     0.162135     0.892842
 C      -0.845952     1.604436     2.041925
 O      -0.762417     2.147908     3.131366
 C      -0.690638     0.115881     1.924350
 C      -0.269167    -0.475323     3.252124
 H      -1.057974    -0.235582     3.976086
 H       0.607953     0.079667     3.589940
 C      -1.709841    -0.626528     1.099464
 H      -1.288241    -1.524006     0.641122
 H      -2.537561    -0.937582     1.746906
 H      -2.135521    -0.017193     0.304715
 N      -1.078990     2.397714     0.922413
 C      -1.258730     3.825810     1.217818
 H      -0.465254     4.155884     1.887610
 H      -1.203772     4.386868     0.285446
 H      -2.217457     4.015736     1.709690
 C       0.043066    -1.994039     3.380536
 C       1.106847    -2.498281     2.389508
 C      -1.204032    -2.901615     3.334956
 H       2.015880    -1.897614     2.447474
 H       1.357549    -3.538813     2.614043
 H       0.734018    -2.444129     1.365236
 H      -1.997205    -2.512654     3.979221
 H      -1.588074    -2.992557     2.319186
 H      -0.943307    -3.904222     3.684068
 C       0.608255    -2.141228     4.742399
 N       1.039306    -2.264455     5.800493
48
  -29709.871717  -29700.677441  118.35  129.45
 C      -0.837160    -1.712882    -1.884139
 C      -0.839521    -1.072574    -0.636787
 C      -1.114601    -1.778067     0.546076
 C      -1.380164    -3.144581     0.460783
 C      -1.387865    -3.780424    -0.770490
 C      -1.120473    -3.073409    -1.935257
 C      -0.535643    -0.967210    -3.135439
 C       0.390139    -1.481363    -4.043792
 C       0.666039    -0.810645    -5.228080
 C       0.017168     0.383155    -5.520101
 C      -0.907807     0.901555    -4.620935
 C      -1.182949     0.231504    -3.436736
 H      -1.573546    -3.707114     1.366742
 H      -1.603975    -4.842819    -0.820924
 H      -1.141467    -3.574239    -2.896732
 H       0.909042    -2.406158    -3.811358
 H       1.391845    -1.220729    -5.923294
 H       0.231389     0.908599    -6.445241
 H      -1.420886     1.831765    -4.843606
 H      -1.916641     0.634343    -2.746333
 C      -0.456717     0.306803    -0.481435
 N       0.105278     1.090602     0.198788
 C      -0.292744    -0.290225     2.432128
 O      -0.535529     0.070360     3.573080
 C       0.947887     0.190208     1.740277
 C       1.738174     1.211208     2.539273
 H       2.778976     1.160185     2.206367
 H       1.718745     0.851218     3.573220
 C       1.845860    -0.845813     1.110597
 H       2.520655    -0.375516     0.390209
 H       2.466668    -1.297484     1.895831
 H       1.312447    -1.652540     0.611945
 N      -1.196292    -1.146020     1.810272
 C      -2.350452    -1.512569     2.642688
 H      -2.758538    -0.613497     3.102662
 H      -3.107621    -1.971229     2.007141
 H      -2.068823    -2.203395     3.443272
 C       1.358009     2.724919     2.564669
 C      -0.133519     3.014693     2.805167
 C       1.863809     3.466765     1.310910
 H      -0.282195     4.095424     2.884362
 H      -0.728847     2.646311     1.968045
 H      -0.486617     2.538026     3.719120
 H       2.938109     3.310830     1.175508
 H       1.340651     3.111730     0.423676
 H       1.687762     4.540758     1.417272
 C       2.106382     3.284972     3.713995
 N       2.695030     3.726269     4.597282
48
  -29709.871716  -29700.677441  118.35  129.45
 C      -0.620399     0.390779    -2.468378
 C      -0.030182     0.859812    -1.285352
 C      -0.282428     2.157530    -0.807462
 C      -1.136536     2.981936    -1.541374
 C      -1.702171     2.530618    -2.722701
 C      -1.449046     1.245721    -3.185604
 C      -0.370278    -0.990983    -2.959677
 C      -0.013717    -1.201570    -4.291843
 C       0.200526    -2.486754    -4.772146
 C       0.059163    -3.580128    -3.925922
 C      -0.297170    -3.379605    -2.597387
 C      -0.510404    -2.094762    -2.117793
 H      -1.359586     3.977553    -1.175740
 H      -2.359788     3.186956    -3.283665
 H      -1.916298     0.890370    -4.097234
 H       0.112525    -0.348590    -4.951343
 H       0.481521    -2.633917    -5.810178
 H       0.226195    -4.585092    -4.300052
 H      -0.413066    -4.228321    -1.930697
 H      -0.803417    -1.950250    -1.083633
 C       0.833355     0.038278    -0.478139
 N       1.136711    -0.238159     0.630998
 C       0.527238     2.093106     1.595060
 O       1.148630     2.712289     2.443099
 C      -0.013006     0.726292     1.902631
 C       0.484287     0.254737     3.252001
 H       0.127650     0.976190     3.997691
 H       1.570997     0.357603     3.250235
 C      -1.445695     0.446971     1.529384
 H      -1.780965     1.025413     0.670795
 H      -1.611320    -0.609584     1.305839
 H      -2.093971     0.713288     2.372018
 N       0.345065     2.681633     0.346089
 C       0.901713     4.036601     0.229124
 H       0.298758     4.767243     0.776799
 H       1.907025     4.047007     0.648410
 H       0.945341     4.308592    -0.824959
 C       0.136263    -1.170407     3.770172
 C       0.531971    -2.299622     2.802572
 C      -1.330391    -1.338674     4.219495
 H       0.362279    -3.270111     3.277136
 H      -0.065258    -2.250024     1.890274
 H       1.582916    -2.225787     2.519008
 H      -2.000441    -1.407739     3.362796
 H      -1.434973    -2.259279     4.799659
 H      -1.646880    -0.502286     4.848539
 C       0.960249    -1.331648     4.991158
 N       1.589708    -1.460755     5.943849
48
  -29709.871715  -29700.677332  118.35  129.52
 C      -0.193265     1.078509    -2.484740
 C      -0.112019     1.089952    -1.085004
 C      -0.804267     2.042204    -0.318882
 C      -1.581187     2.991617    -0.983095
 C      -1.643516     3.001033    -2.367391
 C      -0.956703     2.054042    -3.115651
 C       0.517728     0.049673    -3.290316
 C       1.292617     0.435985    -4.384075
 C       1.943069    -0.513971    -5.160437
 C       1.825421    -1.864406    -4.853661
 C       1.054148    -2.258081    -3.766331
 C       0.404539    -1.308227    -2.989963
 H      -2.139757     3.720807    -0.408146
 H      -2.247241     3.750949    -2.868460
 H      -1.032147     2.050849    -4.197285
 H       1.398592     1.491016    -4.616812
 H       2.545841    -0.197782    -6.005925
 H       2.333206    -2.607864    -5.459678
 H       0.954513    -3.310948    -3.521975
 H      -0.207534    -1.627252    -2.153055
 C       0.641212     0.108732    -0.349867
 N       0.679215    -0.561220     0.621227
 C      -0.802807     1.118589     2.048231
 O      -0.754290     1.441821     3.224387
 C      -0.975910    -0.323850     1.674539
 C      -0.948280    -1.271252     2.860801
 H      -1.505806    -2.170162     2.581602
 H      -1.524743    -0.772679     3.646985
 C      -2.080702    -0.669766     0.707269
 H      -1.915570    -1.664109     0.282813
 H      -3.031343    -0.703919     1.255893
 H      -2.199831     0.042293    -0.106825
 N      -0.687592     2.121572     1.089397
 C      -0.511297     3.469344     1.647993
 H      -1.440715     3.854515     2.078568
 H       0.235678     3.431402     2.439491
 H      -0.167002     4.133400     0.855568
 C       0.387320    -1.763077     3.501686
 C       1.418594    -0.656007     3.779995
 C       1.023846    -2.913218     2.695360
 H       1.766907    -0.220530     2.841928
 H       0.991860     0.136636     4.393888
 H       2.278840    -1.087595     4.299632
 H       0.307995    -3.727724     2.550787
 H       1.353646    -2.555401     1.720569
 H       1.887512    -3.312383     3.234318
 C      -0.007820    -2.336009     4.809553
 N      -0.311628    -2.792933     5.819688
48
  -29709.822186  -29700.649576  149.43  146.93
 C       0.130122    -2.041193    -1.726213
 C      -0.174252    -1.407473    -0.513062
 C      -0.002195    -2.061198     0.718171
 C       0.479238    -3.370548     0.713470
 C       0.756238    -4.010457    -0.484038
 C       0.584422    -3.354676    -1.695993
 C      -0.025378    -1.334424    -3.025920
 C      -0.700388    -1.953725    -4.077974
 C      -0.833178    -1.317129    -5.304904
 C      -0.290416    -0.052067    -5.496356
 C       0.384937     0.571621    -4.453742
 C       0.516984    -0.064666    -3.227096
 H       0.639100    -3.883661     1.654448
 H       1.123556    -5.031635    -0.469929
 H       0.829229    -3.852467    -2.627608
 H      -1.138452    -2.935373    -3.926471
 H      -1.364730    -1.809953    -6.112823
 H      -0.393424     0.446522    -6.454808
 H       0.814539     1.558202    -4.596097
 H       1.059461     0.424391    -2.424993
 C      -0.633823    -0.045341    -0.450622
 N      -0.585121     0.971382     0.147062
 C      -0.054558    -0.214895     2.463135
 O      -0.405180     0.043710     3.603476
 C       0.681869     0.812121     1.654947
 C       0.804831     2.159910     2.343372
 H       1.685148     2.663738     1.933459
 H       1.028645     1.933967     3.391138
 C       1.977625     0.395284     1.004474
 H       1.963409    -0.608711     0.585238
 H       2.250163     1.101643     0.215213
 H       2.775765     0.425580     1.758076
 N      -0.364749    -1.472866     1.953308
 C      -1.100185    -2.335483     2.888527
 H      -1.526473    -3.169932     2.332274
 H      -0.453268    -2.712216     3.686725
 H      -1.901487    -1.759307     3.348778
 C      -0.349946     3.209994     2.328617
 C      -1.740088     2.648885     2.673945
 C      -0.392634     4.000819     1.005397
 H      -2.460077     3.471173     2.716040
 H      -2.065185     1.946651     1.904462
 H      -1.731051     2.133140     3.633728
 H      -1.129860     4.805327     1.076028
 H       0.581219     4.450823     0.791215
 H      -0.667814     3.344565     0.180401
 C       0.008124     4.182488     3.387339
 N       0.288592     4.946310     4.199350
48
  -29709.806150  -29700.634202  159.49  156.58
 C       0.304508    -0.985530    -2.486263
 C      -0.337944    -0.733128    -1.265792
 C      -1.143541    -1.703598    -0.647640
 C      -1.299138    -2.937902    -1.278895
 C      -0.687942    -3.182788    -2.498202
 C       0.108095    -2.217217    -3.100194
 C       1.180773     0.034622    -3.122199
 C       2.189327     0.672482    -2.399104
 C       3.015116     1.604132    -3.013160
 C       2.844919     1.911019    -4.358144
 C       1.843265     1.279883    -5.086143
 C       1.017748     0.347465    -4.471848
 H      -1.899172    -3.706841    -0.806698
 H      -0.825075    -4.146100    -2.978984
 H       0.605246    -2.425891    -4.040901
 H       2.340832     0.428793    -1.352928
 H       3.797123     2.090176    -2.438363
 H       3.490840     2.639884    -4.837074
 H       1.701575     1.515952    -6.136074
 H       0.226404    -0.132736    -5.039006
 C      -0.177625     0.507025    -0.553860
 N      -0.071426     1.012973     0.507287
 C      -1.416410    -0.910347     1.750875
 O      -2.199786    -0.875281     2.686438
 C      -0.026656    -0.370789     1.917266
 C       0.214222     0.297116     3.259447
 H       1.286729     0.245418     3.468940
 H      -0.283484    -0.340765     3.997259
 C       1.123726    -1.262757     1.521201
 H       1.310646    -1.978023     2.333188
 H       0.950193    -1.837909     0.613973
 H       2.035192    -0.671928     1.393531
 N      -1.858689    -1.454779     0.548102
 C      -3.253048    -1.918066     0.575135
 H      -3.589671    -2.072162    -0.449748
 H      -3.361068    -2.845646     1.145658
 H      -3.871423    -1.157492     1.049493
 C      -0.219703     1.768844     3.546113
 C      -1.655449     2.116328     3.116591
 C       0.784862     2.787876     2.971158
 H      -2.377689     1.432195     3.561092
 H      -1.888458     3.137439     3.431793
 H      -1.747698     2.062546     2.030530
 H       0.778416     2.753292     1.882221
 H       0.516056     3.797857     3.292731
 H       1.797606     2.576762     3.326887
 C      -0.156174     1.902852     5.020184
 N      -0.096113     2.014894     6.162677
48
  -29709.797212  -29700.624324  165.10  162.78
 C       0.315174    -1.024082    -2.515884
 C      -0.290381    -0.620330    -1.316921
 C      -1.220130    -1.442649    -0.657590
 C      -1.524242    -2.684583    -1.215751
 C      -0.934008    -3.083515    -2.404146
 C      -0.022909    -2.261275    -3.053194
 C       1.305828    -0.158216    -3.210024
 C       2.520357    -0.696748    -3.635962
 C       3.446722     0.090965    -4.306775
 C       3.168796     1.428451    -4.562311
 C       1.960141     1.972457    -4.142661
 C       1.034576     1.185231    -3.471481
 H      -2.223122    -3.339162    -0.708150
 H      -1.188452    -4.049562    -2.828305
 H       0.425138    -2.572242    -3.990327
 H       2.746055    -1.737398    -3.424710
 H       4.389211    -0.341017    -4.628319
 H       3.891457     2.045579    -5.086513
 H       1.734600     3.015428    -4.341274
 H       0.087413     1.612617    -3.159585
 C       0.093017     0.595607    -0.645241
 N       0.290827     1.105625     0.401341
 C      -1.415824    -0.497483     1.691577
 O      -2.198883    -0.271307     2.599228
 C       0.028149    -0.185639     1.867867
 C       0.436049     0.590385     3.103454
 H       1.435067     0.975672     2.872909
 H       0.579648    -0.140070     3.911429
 C       1.029531    -1.273019     1.566732
 H       0.827279    -1.812870     0.643595
 H       2.038199    -0.855436     1.507991
 H       1.020524    -2.005272     2.384805
 N      -1.912626    -1.037583     0.508334
 C      -3.358495    -1.298662     0.527517
 H      -3.603853    -2.173654     1.137695
 H      -3.870077    -0.437482     0.954799
 H      -3.699711    -1.454905    -0.495665
 C      -0.367213     1.783751     3.697264
 C      -1.053857     2.692379     2.666420
 C       0.632709     2.630444     4.518599
 H      -1.813841     2.158311     2.097956
 H      -1.538183     3.524654     3.184773
 H      -0.312946     3.093030     1.972808
 H       1.369068     3.082316     3.848183
 H       0.109813     3.427939     5.052207
 H       1.158513     2.014259     5.253472
 C      -1.369543     1.307877     4.676852
 N      -2.091350     1.019548     5.523048
48
  -29709.797213  -29700.624243  165.10  162.83
 C      -0.633359    -2.303607    -1.300599
 C      -0.823616    -1.069184    -0.662912
 C      -1.914750    -0.852909     0.194964
 C      -2.807508    -1.901807     0.415188
 C      -2.627792    -3.120610    -0.219185
 C      -1.552199    -3.322436    -1.073380
 C       0.527137    -2.535557    -2.201838
 C       0.839340    -1.638862    -3.224202
 C       1.911364    -1.883120    -4.071515
 C       2.685604    -3.026450    -3.909505
 C       2.381195    -3.925212    -2.894137
 C       1.308227    -3.681124    -2.046910
 H      -3.641291    -1.758164     1.092403
 H      -3.336786    -3.923278    -0.043232
 H      -1.424454    -4.273420    -1.578357
 H       0.230833    -0.751763    -3.365285
 H       2.141146    -1.177998    -4.864041
 H       3.523680    -3.215574    -4.572626
 H       2.982472    -4.818752    -2.758746
 H       1.081661    -4.377172    -1.245218
 C       0.145170    -0.007304    -0.758337
 N       0.691700     0.864613    -0.180393
 C      -1.349180     1.235669     1.526494
 O      -1.833299     2.236548     2.034187
 C       0.100298     0.939065     1.697621
 C       0.982649     2.002263     2.322256
 H       2.001127     1.636948     2.160857
 H       0.821377     1.947516     3.406935
 C       0.467874    -0.425779     2.229344
 H      -0.136661    -1.232587     1.819457
 H       1.519610    -0.644495     2.027551
 H       0.330369    -0.433341     3.318535
 N      -2.186454     0.403223     0.792764
 C      -3.584201     0.854674     0.734139
 H      -3.607297     1.917209     0.496361
 H      -4.098798     0.297013    -0.047871
 H      -4.096183     0.711405     1.690595
 C       0.957013     3.522268     1.933540
 C       0.172165     4.362389     2.962068
 C       0.474087     3.846857     0.508460
 H       0.572484     4.215639     3.969604
 H       0.257504     5.424516     2.716315
 H      -0.876227     4.071192     2.949100
 H      -0.578492     3.585230     0.399309
 H       0.579215     4.921515     0.335020
 H       1.053331     3.315513    -0.245367
 C       2.366375     3.972849     2.022495
 N       3.456812     4.328597     2.101176
48
      0.000000      0.000000  18643344.32  18637585.92
 C      -0.324991     0.865764    -2.621677
 C      -0.131271     0.940086    -1.234668
 C      -0.692314     1.979468    -0.473984
 C      -1.456525     2.945078    -1.129872
 C      -1.629873     2.889003    -2.503495
 C      -1.068322     1.860065    -3.247366
 C       0.249197    -0.249224    -3.422107
 C       0.965277     0.028757    -4.586586
 C       1.487453    -1.000800    -5.358385
 C       1.298576    -2.323509    -4.975857
 C       0.585069    -2.609288    -3.817670
 C       0.063414    -1.579948    -3.046148
 H      -1.917349     3.740666    -0.556467
 H      -2.221072     3.653277    -2.997725
 H      -1.228534     1.807298    -4.318429
 H       1.127321     1.061492    -4.879317
 H       2.045946    -0.768596    -6.259678
 H       1.706189    -3.129208    -5.577964
 H       0.430561    -3.639637    -3.513367
 H      -0.504605    -1.814637    -2.152317
 C       0.600583    -0.067264    -0.511773
 N       0.661079    -0.697153     0.484614
 C      -0.559973     1.204729     1.944012
 O      -0.410943     1.598140     3.091381
 C      -0.837229    -0.235629     1.683410
 C      -0.704417    -1.210199     2.837283
 H      -0.765779    -2.196264     2.367396
 H      -1.619141    -1.115058     3.437088
 C      -2.056889    -0.564168     0.856204
 H      -2.001870    -1.591032     0.484941
 H      -2.949555    -0.490883     1.491048
 H      -2.204952     0.102796     0.009023
 N      -0.454318     2.134054     0.914463
 C      -0.159422     3.501007     1.367885
 H       0.635120     3.466476     2.111531
 H       0.170862     4.089108     0.512163
 H      -1.032897     3.972873     1.828221
 C       0.500158    -1.238425     3.842852
 C       0.137976    -0.573225     5.186802
 C       1.832712    -0.674331     3.317615
 H       0.960850    -0.697627     5.896158
 H      -0.048764     0.487570     5.031844
 H      -0.754302    -1.034523     5.620332
 H       2.149149    -1.170905     2.401485
 H       1.740655     0.395474     3.129610
 H       2.604190    -0.822451     4.078444
 C       0.728445    -2.672463     4.140849
 N       0.900939    -3.783083     4.382877
48
      0.000000      0.000000  18643344.32  18637585.92
 C       0.076380     0.797240    -2.660510
 C       0.188535     0.890539    -1.265678
 C      -0.147073     2.072156    -0.583851
 C      -0.601754     3.161869    -1.327084
 C      -0.690556     3.081919    -2.707579
 C      -0.353051     1.911112    -3.372930
 C       0.408544    -0.462792    -3.378540
 C      -0.126774    -1.686971    -2.976666
 C       0.173929    -2.849762    -3.672661
 C       1.012662    -2.805496    -4.780237
 C       1.549417    -1.590159    -5.188171
 C       1.248244    -0.427017    -4.491948
 H      -0.888338     4.073593    -0.816461
 H      -1.038904     3.942311    -3.269961
 H      -0.448746     1.846146    -4.451008
 H      -0.794372    -1.730551    -2.122808
 H      -0.251749    -3.794349    -3.349170
 H       1.247233    -3.715391    -5.323285
 H       2.207682    -1.547009    -6.050138
 H       1.680998     0.518610    -4.803407
 C       0.597300    -0.228269    -0.456916
 N       0.432362    -0.803766     0.560330
 C      -0.374581     1.409452     1.860190
 O      -0.210734     1.810800     3.002785
 C      -0.981932     0.069720     1.624230
 C      -1.173071    -0.848792     2.815282
 H      -1.446224    -1.811771     2.373772
 H      -2.073341    -0.501889     3.339402
 C      -2.186318     0.009206     0.715614
 H      -3.073757     0.329833     1.276773
 H      -2.107123     0.649573    -0.160827
 H      -2.362365    -1.016915     0.381852
 N       0.027618     2.232336     0.813343
 C       0.620768     3.506215     1.245186
 H      -0.137624     4.200120     1.620518
 H       1.329273     3.315177     2.049555
 H       1.144184     3.951988     0.399881
 C      -0.083315    -1.121676     3.911214
 C      -0.359063    -0.322830     5.201832
 C       1.379685    -0.927221     3.473465
 H       0.357920    -0.609486     5.976135
 H      -0.266722     0.742480     4.999879
 H      -1.364759    -0.530080     5.579357
 H       2.037357    -1.221933     4.296018
 H       1.624384    -1.530583     2.600499
 H       1.568249     0.122017     3.245771
 C      -0.237779    -2.551557     4.270282
 N      -0.362323    -3.657359     4.559252
48
      0.000000      0.000000  18643344.32  18637585.92
 C      -0.211814    -1.048770    -2.502103
 C      -0.615519    -0.450551    -1.299605
 C      -1.813790    -0.820728    -0.666473
 C      -2.601884    -1.807049    -1.260341
 C      -2.218886    -2.382997    -2.461024
 C      -1.034793    -2.007937    -3.081218
 C       1.069558    -0.673321    -3.158381
 C       2.268481    -0.651946    -2.445067
 C       3.459161    -0.323195    -3.078403
 C       3.468715    -0.012286    -4.433172
 C       2.279190    -0.032194    -5.151639
 C       1.088227    -0.361372    -4.517938
 H      -3.517325    -2.122915    -0.774229
 H      -2.848499    -3.143144    -2.912308
 H      -0.727659    -2.480281    -4.007603
 H       2.274638    -0.907525    -1.390886
 H       4.384158    -0.312800    -2.510630
 H       4.400264     0.244909    -4.927035
 H       2.277136     0.212215    -6.209194
 H       0.158218    -0.361258    -5.077918
 C       0.196550     0.527928    -0.624302
 N       0.568897     0.926311     0.422525
 C      -1.642252     0.084030     1.703399
 O      -2.298522     0.546653     2.624665
 C      -0.184713    -0.166434     1.883086
 C       0.484693     0.370269     3.133150
 H       1.554137     0.232662     2.948143
 H       0.237140    -0.324716     3.946321
 C       0.319483    -1.555312     1.572319
 H       0.085186    -2.217607     2.415957
 H      -0.125360    -1.994241     0.681285
 H       1.406106    -1.549571     1.451791
 N      -2.295217    -0.185054     0.505057
 C      -3.727688     0.145135     0.514897
 H      -4.306374    -0.577214     1.098727
 H      -3.864182     1.127321     0.964537
 H      -4.088706     0.164125    -0.512976
 C       0.283753     1.821526     3.695739
 C      -0.689086     1.840236     4.892866
 C      -0.122766     2.894425     2.669369
 H      -1.683450     1.547847     4.561300
 H      -0.355438     1.151992     5.675108
 H      -0.729953     2.845090     5.322262
 H       0.582886     2.950570     1.841780
 H      -1.117007     2.681783     2.276216
 H      -0.153269     3.867411     3.167713
 C       1.606497     2.220355     4.232984
 N       2.628179     2.528542     4.660769
