48
     -1091.853743     -1091.519481   0.00   0.00
C      -1.401645    -0.965143     2.637777
C      -0.635265    -0.257451     1.703478
C       0.765161    -0.406839     1.637213
C       1.386383    -1.240317     2.562193
C       0.629220    -1.934241     3.496350
C      -0.750374    -1.814057     3.529670
C      -2.882273    -0.827317     2.705339
C      -3.489775     0.422024     2.825953
C      -4.871352     0.526678     2.909998
C      -5.662759    -0.615251     2.877717
C      -5.064888    -1.864769     2.762609
C      -3.682878    -1.969530     2.678946
H       2.460370    -1.371545     2.542329
H       1.130115    -2.586216     4.205155
H      -1.333116    -2.355853     4.266038
H      -2.878290     1.316970     2.859801
H      -5.330503     1.505719     3.000706
H      -6.742975    -0.531836     2.942496
H      -5.676327    -2.761238     2.735839
H      -3.216872    -2.944848     2.577427
C      -1.267222     0.662163     0.797853
N      -1.726571     1.426647     0.070998
C       1.079984     0.146037    -0.689177
O       0.549655    -0.889219    -1.054484
C       1.274633     1.283126    -1.578584
C       1.063264     1.053705    -3.041690
H       0.610998     1.945410    -3.486550
H       0.373710     0.217028    -3.173284
C       1.404691     2.673338    -1.038882
H       1.365457     3.403921    -1.848839
H       0.581802     2.884562    -0.346621
H       2.334056     2.840894    -0.484108
N       1.488313     0.318410     0.671053
C       2.927000     0.468991     0.876260
H       3.460324    -0.487303     0.794325
H       3.330051     1.140153     0.119549
H       3.119703     0.900399     1.861236
C       2.370275     0.729929    -3.829089
C       3.009498    -0.579109    -3.339233
C       3.378402     1.887302    -3.747793
H       3.364410    -0.453738    -2.312536
H       2.287681    -1.397899    -3.351952
H       3.863282    -0.846043    -3.967350
H       2.936243     2.822643    -4.101096
H       3.701112     2.023898    -2.711981
H       4.260120     1.672974    -4.357088
C       1.980711     0.556653    -5.244235
N       1.678076     0.428252    -6.345328
48
     -1091.853744     -1091.519480  -0.00   0.00
C      -1.350020    -2.249933     1.656876
C      -0.458413    -1.329883     1.091510
C       0.433124    -1.705276     0.065761
C       0.448430    -3.034963    -0.344000
C      -0.427223    -3.950950     0.223155
C      -1.328680    -3.566354     1.202073
C      -2.306628    -1.860093     2.728676
C      -3.662501    -2.154619     2.583121
C      -4.568580    -1.819191     3.580333
C      -4.128105    -1.188087     4.737781
C      -2.778139    -0.896311     4.892121
C      -1.872356    -1.231261     3.895056
H       1.125432    -3.356853    -1.124454
H      -0.406705    -4.982403    -0.114564
H      -2.005281    -4.289656     1.642996
H      -4.008559    -2.637121     1.674195
H      -5.621525    -2.049592     3.452061
H      -4.835373    -0.924682     5.517788
H      -2.426259    -0.404688     5.793264
H      -0.819348    -1.007623     4.026046
C      -0.419750     0.025575     1.567371
N      -0.336558     1.113962     1.931046
C       0.687869     0.443426    -0.999610
O      -0.452338     0.416201    -1.430449
C       1.469601     1.670554    -0.928341
C       0.943298     2.862784    -1.662903
H       1.160362     3.767822    -1.087249
H      -0.140533     2.769302    -1.759843
C       2.590950     1.816926     0.052520
H       3.453984     1.181476    -0.173202
H       2.939470     2.850772     0.084385
H       2.248977     1.539404     1.056022
N       1.301106    -0.739010    -0.477782
C       2.465238    -1.217591    -1.219657
H       3.044790    -1.905820    -0.600069
H       2.183522    -1.726050    -2.151177
H       3.097939    -0.371041    -1.481464
C       1.541549     3.043231    -3.092107
C       1.180461     1.859812    -4.003854
C       3.064697     3.243639    -3.044200
H       0.103390     1.682365    -4.009632
H       1.516646     2.048724    -5.026606
H       1.673207     0.952983    -3.642395
H       3.543540     2.342735    -2.650779
H       3.459437     3.433340    -4.045599
H       3.332626     4.088377    -2.404025
C       0.933203     4.266993    -3.654907
N       0.464579     5.221997    -4.089464
48
     -1091.824320     -1091.487013  18.46  20.37
C      -2.554682     0.886791    -0.236054
C      -1.222923     0.979493     0.195210
C      -0.336830     1.910739    -0.373985
C      -0.808014     2.746987    -1.386281
C      -2.129160     2.674729    -1.797274
C      -2.999043     1.754274    -1.227281
C      -3.485475    -0.116957     0.346899
C      -3.128291    -1.462132     0.447524
C      -4.018350    -2.389637     0.971650
C      -5.277202    -1.986635     1.401696
C      -5.641494    -0.648993     1.304225
C      -4.751333     0.278634     0.779471
H      -0.129237     3.451725    -1.852746
H      -2.481246     3.337574    -2.581169
H      -4.024952     1.684846    -1.571368
H      -2.154148    -1.790414     0.101512
H      -3.727007    -3.432844     1.041692
H      -5.971721    -2.712871     1.811661
H      -6.621361    -0.325025     1.640450
H      -5.032633     1.325368     0.718641
C      -0.680151     0.093550     1.193500
N       0.281926    -0.524588     1.505512
C       1.937751     1.122021     0.413089
O       2.985162     1.490595     0.923515
C       1.684037    -0.336142     0.180668
C       2.734844    -1.244034     0.780479
H       2.232976    -2.167387     1.085548
H       3.119505    -0.767161     1.682521
C       1.071828    -0.804457    -1.111020
H       1.796799    -0.712817    -1.927418
H       0.807057    -1.861578    -1.038840
H       0.186867    -0.244818    -1.404680
N       0.989874     2.083657     0.086028
C       1.415829     3.465763     0.351273
H       0.548953     4.121310     0.279804
H       1.835031     3.527732     1.355313
H       2.183959     3.787843    -0.357701
C       3.960854    -1.639695    -0.092461
C       4.973146    -2.361919     0.819053
C       4.646790    -0.448436    -0.781087
H       5.822053    -2.731564     0.238237
H       5.344525    -1.662645     1.572835
H       4.506971    -3.209541     1.328443
H       4.971102     0.271557    -0.029442
H       5.512155    -0.798307    -1.350639
H       3.973562     0.068074    -1.468789
C       3.550627    -2.609184    -1.129422
N       3.257146    -3.379524    -1.930533
48
     -1091.824319     -1091.487009  18.46  20.38
C      -1.331836    -2.359980    -0.341422
C      -0.443799    -1.331530    -0.690469
C       0.943492    -1.553587    -0.740053
C       1.426791    -2.825116    -0.430735
C       0.550636    -3.849235    -0.109635
C      -0.818854    -3.622404    -0.066346
C      -2.797856    -2.118638    -0.262280
C      -3.680887    -2.993268    -0.895756
C      -5.052978    -2.796594    -0.812524
C      -5.560511    -1.721936    -0.092098
C      -4.687758    -0.846433     0.543396
C      -3.316038    -1.042813     0.459722
H       2.495849    -3.004109    -0.439077
H       0.942895    -4.834398     0.121466
H      -1.497496    -4.421304     0.210979
H      -3.286566    -3.824602    -1.471843
H      -5.727138    -3.483442    -1.314411
H      -6.632622    -1.566773    -0.026139
H      -5.075990    -0.006268     1.110376
H      -2.644976    -0.361733     0.971826
C      -0.896044     0.010407    -0.956497
N      -0.635635     1.157102    -0.807119
C       1.915359     0.783931    -0.821320
O       2.715935     1.497411    -1.407400
C       1.000014     1.367303     0.211379
C       1.060454     2.876105     0.301409
H       0.060861     3.227150     0.575455
H       1.283300     3.266020    -0.692249
C       0.754500     0.641806     1.505968
H      -0.057421     1.121815     2.056599
H       0.512430    -0.410775     1.379235
H       1.644916     0.693440     2.142348
N       1.861795    -0.562476    -1.159638
C       2.851201    -0.971340    -2.167558
H       2.594872    -1.966207    -2.529287
H       2.831223    -0.267260    -2.999148
H       3.862937    -0.976976    -1.751890
C       2.074522     3.521434     1.289788
C       2.095561     5.038818     1.017200
C       3.500639     2.958253     1.176507
H       1.090084     5.463018     1.083000
H       2.735873     5.552891     1.738557
H       2.486329     5.220654     0.012545
H       3.868567     3.095616     0.159502
H       4.160119     3.476820     1.877814
H       3.536554     1.890276     1.402532
C       1.607922     3.342570     2.680389
N       1.253071     3.232536     3.768188
48
     -1091.824319     -1091.487009  18.46  20.38
C      -1.141773    -0.412716     2.521843
C      -0.154815    -0.594696     1.541557
C       1.144050    -0.084930     1.713188
C       1.436746     0.613884     2.884534
C       0.471314     0.774025     3.865280
C      -0.808510     0.264166     3.689442
C      -2.524024    -0.928357     2.328913
C      -3.137135    -1.667410     3.340794
C      -4.435162    -2.136204     3.187174
C      -5.138492    -1.870024     2.018427
C      -4.535641    -1.133096     1.005725
C      -3.237786    -0.664895     1.159155
H       2.426298     1.035426     3.018973
H       0.717823     1.314256     4.773687
H      -1.567097     0.415282     4.449320
H      -2.584506    -1.889780     4.248337
H      -4.897104    -2.713470     3.981854
H      -6.153026    -2.235765     1.896760
H      -5.078951    -0.918417     0.090961
H      -2.782695    -0.078391     0.368364
C      -0.432663    -1.255712     0.291769
N      -0.209131    -1.238522    -0.872184
C       2.151872    -0.238471    -0.605408
O       3.135052    -0.610261    -1.228775
C       0.938539     0.253465    -1.333715
C       1.010214     0.074688    -2.834090
H      -0.007862    -0.111092    -3.189793
H       1.597625    -0.820446    -3.040813
C       0.207575     1.476920    -0.852634
H      -0.734336     1.588035    -1.394177
H      -0.004699     1.469354     0.213890
H       0.800286     2.375490    -1.056972
N       2.184093    -0.312897     0.781530
C       3.462775    -0.787495     1.330842
H       3.774891    -1.684035     0.795600
H       4.247788    -0.034236     1.217920
H       3.326878    -1.024258     2.385257
C       1.606654     1.227857    -3.692071
C       1.776349     0.702927    -5.131810
C       2.954277     1.757366    -3.175019
H       2.120471     1.499589    -5.796292
H       2.516934    -0.101173    -5.138911
H       0.832282     0.311778    -5.520395
H       2.869320     2.176417    -2.169967
H       3.676930     0.942041    -3.135523
H       3.323561     2.542234    -3.840801
C       0.652828     2.354590    -3.756679
N      -0.082906     3.234126    -3.836956
48
     -1091.822752     -1091.485537  19.45  21.30
C      -0.870332    -1.775400     1.716954
C      -0.324691    -1.506076     0.453104
C       0.810095    -2.191909    -0.013862
C       1.384121    -3.163450     0.806978
C       0.830505    -3.452655     2.043668
C      -0.287083    -2.765184     2.499338
C      -2.048795    -1.021570     2.222556
C      -3.134867    -1.707983     2.765751
C      -4.231381    -1.016230     3.263249
C      -4.255240     0.372887     3.225778
C      -3.176350     1.064879     2.687799
C      -2.080907     0.373080     2.190002
H       2.272538    -3.685854     0.471659
H       1.286414    -4.215603     2.666537
H      -0.697517    -2.976272     3.480495
H      -3.125427    -2.793402     2.782460
H      -5.070839    -1.564535     3.678938
H      -5.111582     0.914680     3.614342
H      -3.185548     2.149887     2.658048
H      -1.236880     0.922183     1.786739
C      -0.865824    -0.494398    -0.416331
N      -0.589824     0.357730    -1.188658
C       1.609087    -0.787061    -1.965679
O       2.029249    -0.835611    -3.111014
C       1.370931     0.539734    -1.308821
C       1.558591     1.664105    -2.302506
H       0.914991     1.462663    -3.162039
H       2.585797     1.592061    -2.680437
C       1.902599     0.747618     0.083152
H       1.377356     1.550598     0.604303
H       1.853240    -0.147023     0.699999
H       2.954867     1.048636     0.021389
N       1.349569    -1.983983    -1.303807
C       1.678332    -3.188479    -2.078272
H       1.212816    -4.050441    -1.601484
H       1.290013    -3.079560    -3.090172
H       2.759971    -3.340032    -2.145118
C       1.310058     3.131017    -1.872153
C      -0.081345     3.379480    -1.265936
C       1.478345     4.010068    -3.129605
H      -0.849723     3.062994    -1.974688
H      -0.234066     2.824018    -0.340378
H      -0.209861     4.445023    -1.056565
H       0.709138     3.746764    -3.860592
H       1.373734     5.068521    -2.878506
H       2.459781     3.857434    -3.585869
C       2.338616     3.576256    -0.908752
N       3.142945     3.956276    -0.180838
48
     -1091.822752     -1091.485536  19.45  21.30
C      -2.424796     0.740798    -0.057362
C      -1.092346     1.120761     0.161224
C      -0.526918     2.219859    -0.508440
C      -1.326627     2.940431    -1.396371
C      -2.651475     2.585811    -1.592718
C      -3.199600     1.494266    -0.931399
C      -3.008418    -0.445017     0.625207
C      -2.355316    -1.678081     0.613079
C      -2.922950    -2.782669     1.232808
C      -4.151690    -2.671001     1.873123
C      -4.809801    -1.446971     1.889276
C      -4.241873    -0.342234     1.268484
H      -0.900093     3.776907    -1.937668
H      -3.260693     3.161110    -2.282495
H      -4.228795     1.204768    -1.112040
H      -1.403763    -1.778785     0.102273
H      -2.404147    -3.735898     1.212541
H      -4.594531    -3.535158     2.357859
H      -5.768227    -1.350259     2.389467
H      -4.750914     0.616224     1.295646
C      -0.222116     0.391858     1.046448
N       0.882669    -0.001278     1.200340
C       1.966860     1.918115    -0.174307
O       3.004609     2.500916     0.097913
C       1.972531     0.433547    -0.385487
C       3.328667    -0.144365    -0.048211
H       3.583610     0.169258     0.966797
H       4.060049     0.347740    -0.700963
C       1.266651    -0.113238    -1.596371
H       0.365386     0.438711    -1.854044
H       1.943421    -0.061049    -2.457157
H       0.998907    -1.164466    -1.471932
N       0.793968     2.662169    -0.267951
C       0.975733     4.107182    -0.074076
H       1.460375     4.570515    -0.938853
H       0.001002     4.564455     0.092702
H       1.608759     4.273903     0.796591
C       3.565062    -1.672656    -0.133330
C       2.572864    -2.507643     0.693457
C       4.997887    -1.941549     0.373568
H       2.846721    -3.565141     0.644122
H       2.602718    -2.182701     1.735771
H       1.547010    -2.398975     0.340843
H       5.068646    -1.655782     1.426507
H       5.248172    -3.001387     0.281805
H       5.729805    -1.362076    -0.194936
C       3.524040    -2.132174    -1.537423
N       3.525864    -2.510361    -2.622867
48
     -1091.822029     -1091.485249  19.90  21.48
C      -1.089030    -0.556466     2.494612
C      -0.117857    -0.580815     1.482135
C       1.078981     0.148508     1.605438
C       1.278275     0.912436     2.755876
C       0.324424     0.931727     3.760299
C      -0.850394     0.201867     3.635262
C      -2.359252    -1.319620     2.362955
C      -3.576835    -0.691195     2.625701
C      -4.770719    -1.394201     2.530539
C      -4.761705    -2.737111     2.172987
C      -3.552570    -3.371351     1.911109
C      -2.359353    -2.668376     2.005406
H       2.184452     1.499312     2.852584
H       0.499821     1.525496     4.651687
H      -1.587160     0.209169     4.430742
H      -3.587602     0.361449     2.890916
H      -5.710496    -0.890471     2.733878
H      -5.693659    -3.288249     2.098197
H      -3.537184    -4.420708     1.634184
H      -1.418636    -3.173396     1.813583
C      -0.350551    -1.253459     0.228020
N      -0.186892    -1.194301    -0.943431
C       2.017560     0.158452    -0.738702
O       3.016193    -0.052049    -1.409707
C       0.719525     0.461204    -1.418591
C       0.816755     0.317313    -2.916481
H      -0.190412     0.138262    -3.303864
H       1.410659    -0.570874    -3.124857
C      -0.179962     1.557908    -0.917760
H      -0.390971     1.495695     0.148058
H       0.284471     2.534047    -1.097542
H      -1.131394     1.528137    -1.454834
N       2.112935     0.089118     0.643795
C       3.476889    -0.124715     1.147421
H       3.939328    -0.941532     0.594021
H       4.092969     0.768892     1.012116
H       3.426186    -0.384145     2.204267
C       1.426256     1.521167    -3.711270
C       0.312852     2.375087    -4.350419
C       2.368691     0.983600    -4.802966
H       0.740771     3.223572    -4.890866
H      -0.254401     1.762345    -5.056789
H      -0.376565     2.761846    -3.596524
H       2.782886     1.802707    -5.396976
H       3.189461     0.423644    -4.350168
H       1.810964     0.316782    -5.467492
C       2.212351     2.421128    -2.845303
N       2.791636     3.176850    -2.202033
48
     -1091.822029     -1091.485248  19.90  21.48
C      -0.498582    -1.729217     2.126062
C      -0.260076    -1.349733     0.796404
C       0.968753    -1.628336     0.170388
C       1.957984    -2.282280     0.905633
C       1.721961    -2.664971     2.215943
C       0.503075    -2.394562     2.823988
C      -1.793718    -1.428058     2.793240
C      -3.010388    -1.744494     2.187790
C      -4.208966    -1.478633     2.835522
C      -4.208768    -0.893617     4.096714
C      -3.001503    -0.575937     4.707387
C      -1.802385    -0.842749     4.059652
H       2.918429    -2.480423     0.443878
H       2.500284    -3.179705     2.770164
H       0.318540    -2.709060     3.845117
H      -3.017778    -2.214208     1.209984
H      -5.147719    -1.732342     2.353391
H      -5.146916    -0.685991     4.601349
H      -2.992280    -0.116300     5.690708
H      -0.861094    -0.580276     4.532510
C      -1.210589    -0.559024     0.054299
N      -1.330773     0.324075    -0.725618
C       0.935557    -0.167514    -1.888968
O       1.102772    -0.152337    -3.098774
C       0.411031     1.052205    -1.199083
C       0.016929     2.131099    -2.176067
H      -0.710212     2.782827    -1.683087
H      -0.487773     1.650688    -3.012426
C       1.005081     1.523039     0.100177
H       0.399902     2.336335     0.508672
H       1.076324     0.742271     0.854956
H       2.019519     1.901932    -0.067830
N       1.219251    -1.331074    -1.188378
C       1.813254    -2.399897    -2.003559
H       1.796131    -3.328672    -1.434453
H       1.229768    -2.521314    -2.915767
H       2.840891    -2.155689    -2.287616
C       1.163247     3.036649    -2.740308
C       1.203772     4.390827    -2.004163
C       0.936741     3.263197    -4.245739
H       2.015171     5.014139    -2.389184
H       0.257218     4.916529    -2.158632
H       1.354338     4.257543    -0.930477
H      -0.042001     3.727678    -4.399431
H       1.705037     3.921693    -4.659801
H       0.961806     2.310331    -4.778332
C       2.493861     2.419990    -2.576068
N       3.553717     2.002549    -2.424642
48
     -1091.820752     -1091.483402  20.70  22.64
C      -1.409641    -0.064507     2.116959
C      -0.101978    -0.151506     1.616054
C       0.949493     0.593805     2.176023
C       0.673449     1.411931     3.272043
C      -0.609202     1.475248     3.791827
C      -1.645903     0.748990     3.218420
C      -2.526003    -0.819260     1.486242
C      -3.404430    -1.552622     2.284556
C      -4.465397    -2.245923     1.717320
C      -4.662254    -2.213370     0.341700
C      -3.792278    -1.484235    -0.460215
C      -2.731413    -0.790296     0.105230
H       1.469050     2.004567     3.708780
H      -0.806698     2.113676     4.647003
H      -2.653322     0.831102     3.610867
H      -3.243228    -1.592985     3.357435
H      -5.137716    -2.815289     2.351350
H      -5.490746    -2.755059    -0.103638
H      -3.937116    -1.449988    -1.535072
H      -2.076520    -0.218191    -0.542127
C       0.230392    -0.973795     0.482658
N       0.878864    -1.013117    -0.505585
C       2.741340     0.507721     0.400047
O       3.933120     0.349731     0.190664
C       1.776874     0.715804    -0.726822
C       2.433523     0.626008    -2.084483
H       3.322881     0.000656    -2.008974
H       2.788469     1.637747    -2.318936
C       0.747021     1.815649    -0.563329
H       0.751500     2.457393    -1.448061
H      -0.271061     1.435483    -0.458908
H       0.960528     2.443197     0.306230
N       2.282341     0.493810     1.713468
C       3.329167     0.346568     2.731668
H       2.863365     0.074479     3.678493
H       4.016483    -0.441102     2.425262
H       3.904479     1.269639     2.853676
C       1.595380     0.112584    -3.297959
C       1.836792    -1.391054    -3.539582
C       2.007989     0.897895    -4.558888
H       2.893925    -1.547822    -3.773199
H       1.578908    -1.980321    -2.660688
H       1.239093    -1.739105    -4.386598
H       1.781443     1.962142    -4.452663
H       3.084256     0.786067    -4.719823
H       1.483670     0.519172    -5.440055
C       0.145354     0.315877    -3.113888
N      -0.990131     0.465135    -3.018437
48
     -1091.820752     -1091.483395  20.70  22.64
C      -2.311035    -0.872958     0.350650
C      -1.446902    -0.132773    -0.470245
C      -1.372478    -0.363658    -1.854368
C      -2.204508    -1.335462    -2.411250
C      -3.084033    -2.045390    -1.610119
C      -3.135825    -1.822875    -0.239424
C      -2.346946    -0.655823     1.822142
C      -1.173443    -0.619085     2.578295
C      -1.231047    -0.437064     3.953165
C      -2.456693    -0.291486     4.592038
C      -3.629326    -0.328428     3.846578
C      -3.573477    -0.510044     2.471090
H      -2.151409    -1.536839    -3.475002
H      -3.727154    -2.795421    -2.059306
H      -3.802962    -2.407110     0.384473
H      -0.204903    -0.744110     2.107599
H      -0.309164    -0.411776     4.524970
H      -2.498254    -0.149126     5.667287
H      -4.591034    -0.212387     4.336310
H      -4.489860    -0.522145     1.889043
C      -0.563716     0.873142     0.058280
N       0.527258     1.321221    -0.029452
C       0.795319     0.745761    -2.519159
O       1.338846     1.461331    -3.344795
C       1.537759     0.244000    -1.319025
C       2.946851     0.782260    -1.234195
H       2.995797     1.735793    -1.759654
H       3.574322     0.085010    -1.804015
C       1.367266    -1.218624    -0.960290
H       0.817337    -1.368815    -0.029187
H       0.847391    -1.770078    -1.748433
H       2.348545    -1.679435    -0.821183
N      -0.537929     0.395227    -2.707631
C      -1.137531     0.893990    -3.950997
H      -0.780433     0.335793    -4.822108
H      -2.221470     0.809220    -3.877691
H      -0.863070     1.939670    -4.084902
C       3.597057     0.982322     0.171441
C       3.451982     2.442705     0.644546
C       5.094866     0.627416     0.084821
H       2.405678     2.740616     0.696457
H       3.904655     2.567428     1.632144
H       3.971971     3.097646    -0.060681
H       5.593746     0.816929     1.038761
H       5.236623    -0.424670    -0.176422
H       5.569704     1.243522    -0.684399
C       3.002100     0.109848     1.202267
N       2.576778    -0.559047     2.034371
48
     -1091.818896     -1091.481209  21.87  24.02
C      -1.315454    -2.270419     0.978778
C      -0.489438    -1.547947     0.104524
C       0.871265    -1.869452    -0.043387
C       1.392847    -2.923366     0.707023
C       0.574838    -3.653012     1.554283
C      -0.770098    -3.333799     1.688902
C      -2.750711    -1.918366     1.153020
C      -3.148845    -0.607202     1.416394
C      -4.490565    -0.302152     1.600865
C      -5.452890    -1.302257     1.525343
C      -5.065180    -2.611036     1.264181
C      -3.723045    -2.916119     1.080280
H       2.446419    -3.164460     0.624179
H       0.995070    -4.474775     2.125192
H      -1.399594    -3.893202     2.371933
H      -2.405972     0.179468     1.492181
H      -4.784580     0.722066     1.807282
H      -6.501422    -1.062075     1.669313
H      -5.810162    -3.397848     1.200407
H      -3.424553    -3.936614     0.861286
C      -0.969981    -0.406359    -0.632294
N      -0.681080     0.676103    -1.020596
C       1.822433     0.136082    -1.267043
O       2.508651     0.469101    -2.220359
C       1.100212     1.170767    -0.457462
C       1.167920     2.565634    -1.042083
H       0.234224     3.073268    -0.781876
H       1.186655     2.464565    -2.126877
C       1.076983     1.060910     1.043787
H       0.699218     0.106005     1.402364
H       2.088435     1.172810     1.451150
H       0.452046     1.850418     1.466360
N       1.714981    -1.217953    -0.974031
C       2.517344    -2.086872    -1.848578
H       2.342077    -1.813603    -2.889068
H       3.585940    -1.976512    -1.643915
H       2.215477    -3.121258    -1.690490
C       2.341672     3.507551    -0.622399
C       3.729587     2.852694    -0.724050
C       2.149521     4.131964     0.775011
H       4.502407     3.584750    -0.473914
H       3.807872     2.020307    -0.019356
H       3.910017     2.462219    -1.724559
H       2.874448     4.936208     0.925731
H       1.146044     4.552134     0.882954
H       2.305512     3.391017     1.559473
C       2.302230     4.629299    -1.587204
N       2.271178     5.512034    -2.322409
48
     -1091.818896     -1091.481206  21.87  24.02
C      -1.573316     0.277786     2.292871
C      -0.342275     0.112635     1.640295
C       0.643902     1.113845     1.682678
C       0.371867     2.288501     2.384168
C      -0.833811     2.445357     3.048325
C      -1.799756     1.448271     3.007820
C      -2.626793    -0.771350     2.231466
C      -3.248549    -1.198995     3.404828
C      -4.250557    -2.159530     3.365163
C      -4.645671    -2.704582     2.149338
C      -4.032455    -2.283267     0.975268
C      -3.030283    -1.323392     1.015130
H       1.111804     3.080446     2.401961
H      -1.026323     3.362458     3.595764
H      -2.750977     1.587173     3.509428
H      -2.931339    -0.786109     4.357385
H      -4.721793    -2.484855     4.287246
H      -5.428630    -3.455403     2.116540
H      -4.337071    -2.701752     0.021248
H      -2.569518    -0.992253     0.090740
C      -0.050006    -1.052353     0.843794
N       0.478235    -1.428210    -0.149004
C       2.275332     0.412997    -0.126080
O       3.458486     0.224222    -0.360846
C       1.235395     0.046768    -1.141954
C       1.781007    -0.709767    -2.334425
H       0.996442    -1.393106    -2.673086
H       2.609768    -1.322661    -1.981065
C       0.079711     0.977620    -1.395458
H      -0.614296     0.526042    -2.107403
H      -0.478570     1.229704    -0.496623
H       0.436204     1.922950    -1.820621
N       1.926141     0.950222     1.106923
C       3.074527     1.281747     1.964215
H       3.621097     2.146324     1.577250
H       2.714186     1.492098     2.970186
H       3.759423     0.434411     1.994815
C       2.269148     0.092755    -3.582907
C       3.224036     1.249431    -3.242659
C       1.112876     0.600955    -4.468540
H       2.706787     2.003261    -2.642842
H       4.082251     0.898406    -2.671441
H       3.569993     1.725773    -4.164146
H       1.505821     0.958555    -5.423924
H       0.394009    -0.197103    -4.672236
H       0.590038     1.430314    -3.991545
C       3.020759    -0.884404    -4.402028
N       3.594039    -1.638767    -5.052411
48
     -1091.817716     -1091.480350  22.61  24.56
C      -1.481054    -1.988208    -0.829134
C      -0.710735    -0.849031    -1.105788
C       0.299900    -0.871734    -2.082166
C       0.530156    -2.060239    -2.776164
C      -0.234136    -3.185024    -2.511669
C      -1.232523    -3.152946    -1.546627
C      -2.544416    -1.967217     0.210849
C      -2.601007    -2.982442     1.166285
C      -3.600763    -2.991611     2.130082
C      -4.559178    -1.985373     2.149242
C      -4.511026    -0.970996     1.199679
C      -3.511214    -0.961376     0.236772
H       1.320146    -2.098449    -3.517437
H      -0.046457    -4.099833    -3.064681
H      -1.835822    -4.033073    -1.353839
H      -1.845293    -3.761841     1.162331
H      -3.629362    -3.785798     2.869505
H      -5.341344    -1.990895     2.901613
H      -5.257921    -0.183451     1.206344
H      -3.488215    -0.174576    -0.509870
C      -0.842618     0.368643    -0.347790
N      -0.251608     1.274281     0.130088
C       1.683667     1.195588    -1.597883
O       2.238454     2.154393    -2.109860
C       1.683375     1.028381    -0.105982
C       2.277656     2.250323     0.560207
H       1.749492     3.121691     0.168750
H       3.306882     2.348554     0.192977
C       2.036141    -0.330371     0.441472
H       1.779925    -1.139924    -0.239039
H       3.117983    -0.379553     0.609542
H       1.540279    -0.527441     1.394668
N       1.051156     0.275365    -2.428486
C       1.190489     0.558017    -3.863670
H       0.964504     1.608238    -4.045752
H       2.209444     0.365800    -4.212892
H       0.486899    -0.065598    -4.414281
C       2.317077     2.367686     2.111061
C       3.358260     1.451739     2.787825
C       0.943214     2.202874     2.784387
H       3.020950     0.415614     2.802507
H       4.321079     1.502746     2.272200
H       3.509805     1.767964     3.823254
H       0.573183     1.183974     2.657953
H       1.028532     2.411858     3.854444
H       0.207815     2.882673     2.351305
C       2.765702     3.756899     2.365217
N       3.121569     4.830196     2.570017
48
     -1091.817716     -1091.480349  22.61  24.56
C      -1.503782    -1.259355     1.794524
C      -0.661668    -1.326696     0.674720
C       0.413202    -2.230744     0.624063
C       0.634242    -3.066104     1.719740
C      -0.200309    -3.008408     2.824022
C      -1.261720    -2.113493     2.864586
C      -2.635770    -0.296028     1.852385
C      -3.552212    -0.192930     0.805202
C      -4.616913     0.694023     0.886639
C      -4.781092     1.489501     2.015004
C      -3.873499     1.392502     3.063005
C      -2.808812     0.504603     2.981893
H       1.471896    -3.753925     1.703333
H      -0.018429    -3.669346     3.665451
H      -1.918976    -2.082695     3.726459
H      -3.438448    -0.820847    -0.072200
H      -5.323454     0.761911     0.065471
H      -5.613859     2.182739     2.076605
H      -3.992687     2.011912     3.946421
H      -2.093283     0.441081     3.795873
C      -0.787820    -0.417823    -0.435557
N      -0.189009     0.216995    -1.233222
C       1.857569    -1.378979    -1.276331
O       2.492895    -1.717496    -2.261715
C       1.743668     0.072527    -0.910421
C       2.347692     0.937310    -1.995516
H       1.891228     0.637127    -2.940507
H       3.403843     0.653191    -2.082880
C       1.990772     0.448538     0.527603
H       1.419871     1.332067     0.822125
H       1.744422    -0.352009     1.222263
H       3.054394     0.676442     0.661090
N       1.241622    -2.367070    -0.514048
C       1.495616    -3.737765    -0.978531
H       0.803288    -4.412662    -0.476234
H       1.334286    -3.787130    -2.054969
H       2.526182    -4.044854    -0.776522
C       2.283000     2.488868    -1.900886
C       3.228275     3.097444    -0.843945
C       0.858620     3.044478    -1.726335
H       2.841102     2.947611     0.163623
H       4.226463     2.655895    -0.908333
H       3.321370     4.174105    -1.008899
H       0.878067     4.136372    -1.784350
H       0.189373     2.663556    -2.499321
H       0.449672     2.755452    -0.756649
C       2.779111     2.960234    -3.215215
N       3.171034     3.333340    -4.228989
48
     -1091.817942     -1091.480095  22.47  24.72
C      -0.905487    -0.932035     2.391620
C       0.047909    -0.659600     1.400302
C       1.358952    -0.280558     1.732037
C       1.699889    -0.169383     3.079835
C       0.763897    -0.446176     4.063546
C      -0.528332    -0.825929     3.725940
C      -2.296735    -1.323474     2.039614
C      -2.550827    -2.340608     1.118976
C      -3.855232    -2.710264     0.820843
C      -4.923167    -2.069271     1.438466
C      -4.678969    -1.055465     2.357179
C      -3.374016    -0.686268     2.656029
H       2.701582     0.142438     3.351833
H       1.046996    -0.362580     5.107959
H      -1.251891    -1.054222     4.500569
H      -1.721912    -2.855012     0.644080
H      -4.038047    -3.505116     0.104665
H      -5.942342    -2.359257     1.203827
H      -5.507147    -0.547828     2.841650
H      -3.186322     0.115808     3.363118
C      -0.284364    -0.644601    -0.000673
N      -0.100551    -0.115138    -1.039309
C       2.333968     0.721892    -0.387122
O       3.358393     0.819124    -1.044270
C       1.092266     1.442474    -0.820246
C       1.230572     2.152512    -2.155214
H       2.225725     2.609119    -2.141259
H       0.506773     2.972593    -2.171901
C       0.386843     2.300534     0.200677
H      -0.636467     2.510402    -0.122239
H       0.354715     1.868369     1.198768
H       0.911640     3.262341     0.275004
N       2.362798    -0.070400     0.756087
C       3.665728    -0.694655     1.024496
H       4.400841     0.037073     1.373343
H       3.531986    -1.472341     1.776108
H       4.044413    -1.139422     0.105152
C       1.079247     1.404283    -3.516731
C      -0.400388     1.195083    -3.897511
C       1.861188     0.083612    -3.620922
H      -0.877249     0.506415    -3.200900
H      -0.942089     2.145418    -3.883701
H      -0.470120     0.779605    -4.906612
H       2.918847     0.232213    -3.405341
H       1.461669    -0.647595    -2.916211
H       1.754916    -0.318991    -4.632344
C       1.644678     2.331553    -4.524272
N       2.071068     3.053184    -5.310965
48
     -1091.817942     -1091.480090  22.47  24.72
C      -2.527845     0.848698     0.350706
C      -1.128769     0.927251     0.398799
C      -0.451499     2.110826     0.062622
C      -1.201077     3.218312    -0.333326
C      -2.584508     3.148673    -0.373963
C      -3.245665     1.975887    -0.034123
C      -3.244060    -0.408211     0.697004
C      -4.233908    -0.900073    -0.154353
C      -4.929232    -2.058957     0.165069
C      -4.644399    -2.740203     1.342457
C      -3.660486    -2.255949     2.196991
C      -2.964875    -1.097981     1.877246
H      -0.692089     4.132404    -0.616116
H      -3.153938     4.021605    -0.676734
H      -4.328887     1.932320    -0.055003
H      -4.448213    -0.377864    -1.081662
H      -5.693848    -2.431927    -0.509129
H      -5.186923    -3.645939     1.593808
H      -3.434710    -2.780815     3.119846
H      -2.208422    -0.717768     2.555813
C      -0.305138    -0.218461     0.685709
N       0.699523    -0.783440     0.432057
C       1.961612     1.425511    -0.329483
O       3.119016     1.786136    -0.184213
C       1.659239     0.133883    -1.028712
C       2.895261    -0.669989    -1.391315
H       3.623654     0.062482    -1.754570
H       2.638503    -1.308706    -2.241502
C       0.659444     0.164989    -2.158153
H       1.162354     0.530485    -3.063416
H       0.295805    -0.843993    -2.370760
H      -0.196433     0.811908    -1.976602
N       0.953818     2.243328     0.171543
C       1.438957     3.468918     0.821115
H       1.820635     4.189680     0.091513
H       0.619357     3.912534     1.385963
H       2.252166     3.215093     1.499863
C       3.627292    -1.584273    -0.359478
C       2.918684    -2.943397    -0.189969
C       3.893509    -0.933611     1.008815
H       1.942492    -2.806553     0.273983
H       2.785503    -3.434334    -1.158479
H       3.520562    -3.600780     0.443561
H       4.476810    -1.621711     1.627390
H       4.441570     0.002010     0.901859
H       2.950624    -0.728417     1.518479
C       4.944214    -1.871534    -0.974200
N       5.962324    -2.107213    -1.453110
48
     -1091.817656     -1091.479771  22.64  24.92
C      -2.604343     0.751637    -0.278806
C      -1.250947     0.863738     0.070118
C      -0.542908     2.062195    -0.117757
C      -1.219000     3.154971    -0.660843
C      -2.563332     3.057311    -0.982511
C      -3.253885     1.867267    -0.794568
C      -3.342096    -0.528505    -0.105818
C      -2.825499    -1.731051    -0.589474
C      -3.537480    -2.913592    -0.442356
C      -4.775520    -2.910907     0.189608
C      -5.297933    -1.717463     0.673757
C      -4.585845    -0.534540     0.525888
H      -0.684009     4.081402    -0.833425
H      -3.075799     3.919239    -1.397705
H      -4.298661     1.790272    -1.074115
H      -1.867388    -1.741762    -1.098130
H      -3.123933    -3.840866    -0.826160
H      -5.331079    -3.836108     0.304456
H      -6.262598    -1.707003     1.171221
H      -4.989327     0.393652     0.918506
C      -0.497326    -0.244051     0.594893
N       0.547217    -0.793759     0.602108
C       1.909458     1.416772     0.043349
O       3.002057     1.810871     0.418976
C       1.789432     0.093299    -0.652539
C       3.087899    -0.692236    -0.702368
H       3.867068     0.044167    -0.925013
H       3.035618    -1.366999    -1.561899
C       1.063559     0.059738    -1.974597
H       0.178167     0.691051    -2.013337
H       1.747923     0.404654    -2.761077
H       0.774971    -0.965560    -2.222844
N       0.803239     2.226388     0.287323
C       1.117937     3.477354     0.991350
H       1.619811     4.196042     0.336235
H       0.191296     3.906742     1.371366
H       1.784666     3.258750     1.824152
C       3.587353    -1.551032     0.501570
C       2.878489    -2.919039     0.566509
C       3.535526    -0.844405     1.867069
H       3.335276    -3.538670     1.343122
H       1.822168    -2.787817     0.798870
H       2.969061    -3.448135    -0.386704
H       2.500539    -0.643348     2.148680
H       3.978753    -1.495100     2.626317
H       4.079329     0.099540     1.844699
C       5.011521    -1.830069     0.203646
N       6.113470    -2.059536    -0.029810
48
     -1091.817656     -1091.479771  22.64  24.92
C      -0.957167    -0.973125     2.404969
C       0.005328    -0.685160     1.426873
C       1.323519    -0.346153     1.773800
C       1.664667    -0.304191     3.125855
C       0.724169    -0.613930     4.095270
C      -0.577038    -0.946142     3.741876
C      -2.359586    -1.302396     2.033801
C      -2.981568    -2.420939     2.588777
C      -4.297933    -2.728292     2.271036
C      -5.010777    -1.918974     1.394403
C      -4.399035    -0.801713     0.837961
C      -3.082885    -0.495026     1.155219
H       2.670939    -0.023526     3.413812
H       1.008228    -0.583096     5.142307
H      -1.314623    -1.160596     4.507129
H      -2.422320    -3.063322     3.261883
H      -4.767090    -3.604331     2.707620
H      -6.039678    -2.158029     1.145308
H      -4.949837    -0.162699     0.154994
H      -2.620025     0.387984     0.727576
C      -0.304886    -0.674122     0.021818
N      -0.108842    -0.142434    -1.013642
C       2.314424     0.695955    -0.321105
O       3.346306     0.808400    -0.963567
C       1.075805     1.418735    -0.761175
C       1.228407     2.144184    -2.086312
H       2.222427     2.602426    -2.056301
H       0.503075     2.962998    -2.102677
C       0.357298     2.264484     0.260744
H       0.879058     3.226462     0.351470
H      -0.661830     2.478788    -0.073321
H       0.313736     1.822574     1.254121
N       2.333270    -0.117514     0.808772
C       3.633039    -0.750962     1.071327
H       3.489598    -1.557294     1.790150
H       4.023829    -1.159904     0.140777
H       4.363069    -0.033283     1.458059
C       1.094000     1.409720    -3.457058
C      -0.380809     1.199643    -3.855748
C       1.881537     0.092738    -3.566330
H      -0.862539     0.501728    -3.171736
H      -0.926093     2.147850    -3.837483
H      -0.438375     0.794750    -4.869885
H       2.936187     0.242505    -3.337117
H       1.476545    -0.647457    -2.874215
H       1.788240    -0.299338    -4.583131
C       1.667068     2.349360    -4.448795
N       2.099345     3.080660    -5.223253
48
     -1091.815247     -1091.478182  24.16  25.92
C      -1.521428    -2.203031     0.815392
C      -0.717701    -1.359202     0.035263
C       0.299638    -1.875318    -0.784441
C       0.508364    -3.254412    -0.799193
C      -0.288777    -4.092548    -0.036104
C      -1.298575    -3.574734     0.763554
C      -2.592696    -1.655750     1.690394
C      -3.530152    -0.744876     1.202288
C      -4.537974    -0.262668     2.026061
C      -4.623403    -0.684116     3.348174
C      -3.694133    -1.591701     3.842295
C      -2.686287    -2.074626     3.017878
H       1.304373    -3.666061    -1.408590
H      -0.118263    -5.163968    -0.065995
H      -1.928704    -4.236297     1.347474
H      -3.477938    -0.422492     0.167649
H      -5.261797     0.443731     1.632142
H      -5.411770    -0.305695     3.990939
H      -3.751754    -1.923540     4.874207
H      -1.952765    -2.772011     3.410461
C      -0.812443     0.075532     0.123581
N      -0.211312     1.091194     0.123265
C       1.788689     0.097816    -1.371062
O       2.476512     0.577663    -2.260192
C       1.724576     0.759542    -0.038298
C       2.350157     2.132425     0.112907
H       3.431782     1.975379     0.217564
H       2.010136     2.477738     1.093689
C       2.030267    -0.091741     1.170999
H       3.118836    -0.196674     1.267578
H       1.662740     0.389967     2.080717
H       1.610145    -1.094284     1.118067
N       1.077843    -1.064232    -1.647918
C       1.264357    -1.573539    -3.014197
H       0.496002    -2.319135    -3.216841
H       1.164894    -0.749876    -3.719691
H       2.256012    -2.016082    -3.149329
C       2.157010     3.315568    -0.899594
C       0.861107     3.289409    -1.729902
C       3.377359     3.477296    -1.829253
H       0.807793     4.200827    -2.331980
H       0.864614     2.434096    -2.405707
H      -0.023628     3.239671    -1.096771
H       4.295743     3.597402    -1.246964
H       3.471226     2.599981    -2.466138
H       3.253913     4.367359    -2.452419
C       2.108367     4.540304    -0.066016
N       2.081302     5.493389     0.576401
48
     -1091.815247     -1091.478179  24.16  25.92
C      -2.701672     0.855355     0.096863
C      -1.311050     0.863879     0.277821
C      -0.547827     2.010987     0.004147
C      -1.201219     3.148956    -0.468959
C      -2.576138     3.147433    -0.641567
C      -3.323973     2.012492    -0.358860
C      -3.508727    -0.362179     0.378032
C      -4.436591    -0.812206    -0.561634
C      -5.214978    -1.933497    -0.305798
C      -5.076350    -2.618492     0.895440
C      -4.154953    -2.175772     1.837737
C      -3.376469    -1.055406     1.581655
H      -0.623555     4.034473    -0.706893
H      -3.069513     4.044276    -1.002347
H      -4.401222     2.021415    -0.481924
H      -4.536187    -0.287720    -1.506896
H      -5.929775    -2.274265    -1.048241
H      -5.683847    -3.494919     1.097167
H      -4.043042    -2.703806     2.779411
H      -2.669487    -0.707251     2.327375
C      -0.584044    -0.327317     0.635268
N       0.405662    -0.948521     0.469371
C       1.863439     1.223927    -0.142373
O       3.016822     1.544705     0.103992
C       1.579425    -0.060464    -0.840879
C       2.721063    -1.038494    -1.038761
H       3.301767    -0.674705    -1.896649
H       2.234523    -1.955257    -1.384618
C       0.722946     0.003667    -2.083017
H      -0.113190     0.695669    -2.002859
H       1.342536     0.333857    -2.927052
H       0.330469    -0.986448    -2.328660
N       0.845880     2.085189     0.251449
C       1.315667     3.304357     0.925154
H       2.056691     3.035048     1.676429
H       1.784536     3.999948     0.222456
H       0.466262     3.784867     1.409869
C       3.752996    -1.439717     0.073169
C       3.263462    -1.311792     1.526937
C       5.095821    -0.700342    -0.099523
H       4.038452    -1.695088     2.196637
H       3.087025    -0.264746     1.773626
H       2.348048    -1.876947     1.696360
H       5.504525    -0.866527    -1.100653
H       4.948308     0.366984     0.052666
H       5.821707    -1.074337     0.627803
C       4.039915    -2.875388    -0.158649
N       4.273321    -3.986071    -0.342239
48
     -1091.815520     -1091.478127  23.99  25.95
C      -1.237397    -0.512207     2.488076
C      -0.242245    -0.396213     1.506434
C       1.042010     0.080268     1.821829
C       1.310715     0.439560     3.143266
C       0.337888     0.302659     4.120212
C      -0.927352    -0.170492     3.799349
C      -2.603998    -0.992448     2.148297
C      -3.325068    -0.434998     1.091871
C      -4.608979    -0.877569     0.804298
C      -5.190593    -1.882428     1.568592
C      -4.479909    -2.442574     2.623443
C      -3.195737    -1.999391     2.911184
H       2.288035     0.830141     3.401055
H       0.567804     0.580229     5.143923
H      -1.692552    -0.251176     4.563255
H      -2.886382     0.360105     0.498538
H      -5.158315    -0.432746    -0.019393
H      -6.194298    -2.227769     1.342434
H      -4.925304    -3.229775     3.223529
H      -2.636994    -2.449035     3.726105
C      -0.496701    -0.708198     0.123660
N      -0.282975    -0.399124    -0.996051
C       2.103988     0.659930    -0.413538
O       3.156416     0.661463    -1.030030
C       0.874988     1.197988    -1.057316
C       0.943774     1.533284    -2.533260
H       1.339674     2.554807    -2.615333
H      -0.101714     1.595166    -2.854059
C       0.083707     2.241786    -0.309192
H      -0.899475     2.376082    -0.768776
H      -0.056732     2.014576     0.745915
H       0.610297     3.203183    -0.370508
N       2.094843     0.137723     0.878268
C       3.405552    -0.339629     1.340343
H       3.879311    -0.905423     0.539895
H       4.068808     0.489722     1.605827
H       3.257896    -0.985673     2.205493
C       1.677673     0.666527    -3.597502
C       1.026523     0.988857    -4.962627
C       1.616175    -0.851054    -3.366932
H      -0.009273     0.638125    -4.967780
H       1.033838     2.065110    -5.157163
H       1.568099     0.491456    -5.770987
H       2.113783    -1.362295    -4.195738
H       2.112818    -1.141371    -2.442227
H       0.576297    -1.178708    -3.324809
C       3.091016     1.084869    -3.732994
N       4.163407     1.425772    -3.965286
48
     -1091.804072     -1091.467779  31.17  32.44
C      -2.022721     0.722042     1.699655
C      -0.889057     1.013590     0.931242
C      -0.102613     2.155860     1.188381
C      -0.510993     3.028371     2.200133
C      -1.653983     2.752915     2.937421
C      -2.400433     1.607365     2.705970
C      -2.823865    -0.507484     1.452702
C      -4.213107    -0.430138     1.357266
C      -4.972457    -1.574073     1.146713
C      -4.351143    -2.811690     1.030555
C      -2.966617    -2.897951     1.125779
C      -2.208657    -1.754457     1.335589
H       0.068707     3.913399     2.425948
H      -1.954650     3.441078     3.721689
H      -3.270341     1.386263     3.313492
H      -4.699153     0.537603     1.431618
H      -6.052534    -1.497245     1.070372
H      -4.942985    -3.706468     0.866098
H      -2.473922    -3.861300     1.039518
H      -1.129815    -1.830187     1.423580
C      -0.539806     0.189027    -0.208096
N       0.256580    -0.140624    -1.028203
C       1.932966     1.261771     0.248228
O       2.596238     0.873892     1.178769
C       1.928177     0.639243    -1.100332
C       2.980204    -0.440755    -1.265370
H       3.302340    -0.769004    -0.275056
H       3.844762     0.055465    -1.724620
C       1.761476     1.587291    -2.265468
H       1.506197     1.040010    -3.172206
H       0.979923     2.320011    -2.066033
H       2.702393     2.121585    -2.449333
N       1.034253     2.396419     0.404333
C       1.773363     3.636202     0.617416
H       2.252837     3.678446     1.603937
H       2.550424     3.712389    -0.146131
H       1.099732     4.487448     0.499006
C       2.701871    -1.732498    -2.085329
C       1.894895    -2.771934    -1.285283
C       4.068788    -2.344749    -2.457761
H       1.774949    -3.684710    -1.875349
H       2.440311    -3.022139    -0.370283
H       0.908545    -2.398927    -1.017377
H       3.933767    -3.288079    -2.992676
H       4.645448    -1.667761    -3.093474
H       4.641429    -2.540547    -1.546277
C       2.001814    -1.455055    -3.353681
N       1.492718    -1.280074    -4.369020
48
     -1091.806009     -1091.467715  29.95  32.48
C      -1.827078    -1.997889     0.171067
C      -0.491796    -1.582433     0.116843
C       0.494694    -2.349613    -0.535246
C       0.128265    -3.584242    -1.071750
C      -1.189261    -4.014713    -0.980725
C      -2.164871    -3.229523    -0.384931
C      -2.865405    -1.143422     0.806329
C      -2.928129     0.223701     0.532272
C      -3.899840     1.016599     1.125986
C      -4.827905     0.452490     1.994176
C      -4.776692    -0.909735     2.267855
C      -3.800222    -1.702294     1.678104
H       0.858760    -4.201963    -1.577161
H      -1.460720    -4.975843    -1.406780
H      -3.196482    -3.561161    -0.361393
H      -2.221990     0.681673    -0.150754
H      -3.921433     2.078446     0.904744
H      -5.588578     1.072771     2.457930
H      -5.495700    -1.356611     2.947411
H      -3.748905    -2.761610     1.910114
C      -0.055568    -0.387534     0.803968
N       0.751506     0.472323     0.949351
C       1.876299    -0.486118    -1.132963
O       1.625459    -0.268519    -2.292468
C       2.236045     0.559860    -0.140138
C       2.321678     1.955235    -0.732131
H       1.935037     1.917631    -1.751953
H       3.386309     2.211718    -0.805701
C       3.326223     0.180900     0.837978
H       4.305727     0.204473     0.343288
H       3.356943     0.887690     1.667996
H       3.162656    -0.819390     1.239706
N       1.806160    -1.844419    -0.604399
C       2.833628    -2.697442    -1.193716
H       2.667846    -2.882568    -2.262878
H       3.802809    -2.207835    -1.075342
H       2.867532    -3.647625    -0.656789
C       1.639671     3.156370    -0.022128
C       2.025680     4.428870    -0.805418
C       2.041200     3.324020     1.451529
H       3.104617     4.594264    -0.732419
H       1.756947     4.336347    -1.860734
H       1.512484     5.301999    -0.395054
H       1.702696     2.484416     2.057711
H       3.129773     3.408814     1.526072
H       1.598716     4.238783     1.854883
C       0.168373     3.038130    -0.120873
N      -0.975433     3.017678    -0.227585
