48
  -29710.569379  -29701.425781    0.00    0.00
 C      -0.405570     2.111743     0.561618
 C       0.054222     0.847306     0.958149
 C      -0.643284     0.095405     1.914584
 C      -1.795136     0.633607     2.486588
 C      -2.235292     1.894053     2.114216
 C      -1.551552     2.629451     1.159091
 C       0.293862     2.917957    -0.476038
 C       0.718486     4.210691    -0.177252
 C       1.347611     4.987136    -1.142214
 C       1.553631     4.478968    -2.418601
 C       1.126980     3.191817    -2.725486
 C       0.501051     2.416826    -1.760118
 H      -2.354191     0.064575     3.218382
 H      -3.131982     2.300163     2.570995
 H      -1.910403     3.605951     0.854198
 H       0.567271     4.603897     0.823420
 H       1.679211     5.990623    -0.895070
 H       2.045835     5.084344    -3.173079
 H       1.284516     2.788538    -3.720639
 H       0.163530     1.416197    -2.007231
 C       1.287879     0.312613     0.386919
 N       2.377212     0.512147    -0.013064
 C       0.657201    -1.976171     1.592694
 O       1.237038    -2.921616     2.095768
 C       0.813512    -1.675358     0.133195
 C      -0.434345    -1.591682    -0.723598
 H      -0.199357    -1.022397    -1.628948
 H      -1.223372    -1.048887    -0.198924
 C       2.021965    -2.317112    -0.484198
 H       1.891605    -3.403420    -0.526608
 H       2.179306    -1.944931    -1.498020
 H       2.911562    -2.111077     0.110249
 N      -0.180804    -1.163696     2.340659
 C      -0.481835    -1.583238     3.708460
 H       0.232395    -2.354875     3.985879
 H      -0.385628    -0.732553     4.386845
 H      -1.494068    -1.994036     3.787028
 C      -1.075072    -2.940806    -1.168291
 C      -2.429071    -2.626551    -1.834218
 C      -1.282181    -3.905061     0.010511
 H      -3.101562    -2.176290    -1.098237
 H      -2.304796    -1.929017    -2.666993
 H      -2.892906    -3.539326    -2.215669
 H      -0.336150    -4.220758     0.452772
 H      -1.878867    -3.411615     0.784375
 H      -1.822018    -4.794895    -0.323003
 C      -0.235460    -3.601469    -2.187627
 N       0.379253    -4.123379    -3.006416
48
  -29710.569382  -29701.425754   -0.00    0.02
 C       0.344077     1.199921    -1.751468
 C       0.778066     0.727536    -0.504091
 C       0.856113     1.585210     0.602679
 C       0.515830     2.927488     0.441087
 C       0.112002     3.400407    -0.797619
 C       0.023011     2.547857    -1.886569
 C       0.217822     0.306265    -2.935258
 C      -0.598940    -0.822781    -2.902506
 C      -0.730552    -1.628905    -4.023746
 C      -0.046640    -1.315532    -5.192946
 C       0.766500    -0.189971    -5.234906
 C       0.895387     0.617650    -4.111984
 H       0.558516     3.603409     1.285581
 H      -0.146574     4.448571    -0.907696
 H      -0.313863     2.916152    -2.848942
 H      -1.140687    -1.067805    -1.995468
 H      -1.367634    -2.506586    -3.983961
 H      -0.147422    -1.947751    -6.069372
 H       1.304478     0.060116    -6.143784
 H       1.539445     1.491230    -4.141454
 C       1.176916    -0.670103    -0.356998
 N       1.690416    -1.621355    -0.823779
 C       1.273813    -0.193060     2.260866
 O       1.908657    -0.578194     3.226165
 C       0.404316    -1.141412     1.492970
 C      -1.060987    -0.794824     1.316881
 H      -1.452859    -1.356246     0.462360
 H      -1.178409     0.265825     1.085129
 C       0.739109    -2.585516     1.729312
 H       1.807268    -2.757690     1.600499
 H       0.474792    -2.871092     2.752756
 H       0.190919    -3.225776     1.036011
 N       1.313325     1.131619     1.854069
 C       2.001328     2.083802     2.724422
 H       2.654673     2.725352     2.128870
 H       1.289847     2.707280     3.276338
 H       2.596041     1.516178     3.436202
 C      -1.999908    -1.067381     2.530371
 C      -3.376283    -0.450314     2.213587
 C      -1.449471    -0.476934     3.838288
 H      -3.276340     0.634950     2.119460
 H      -3.778502    -0.846837     1.277370
 H      -4.089145    -0.665275     3.013227
 H      -2.179320    -0.600832     4.642296
 H      -0.516529    -0.953734     4.142449
 H      -1.264057     0.593706     3.705091
 C      -2.207796    -2.518443     2.708336
 N      -2.415645    -3.639604     2.851424
48
  -29710.586251  -29701.400883  -10.59   15.62
 C      -0.594030     1.611310    -1.254361
 C      -0.712810     0.928654    -0.034600
 C      -1.763083     0.027492     0.182844
 C      -2.697831    -0.186064    -0.825954
 C      -2.582681     0.489277    -2.030628
 C      -1.540732     1.377357    -2.248195
 C       0.512146     2.569753    -1.524644
 C       0.691719     3.706208    -0.737393
 C       1.712830     4.601328    -1.022831
 C       2.565158     4.372589    -2.097144
 C       2.388676     3.245139    -2.889593
 C       1.364923     2.350125    -2.604856
 H      -3.493359    -0.904717    -0.678767
 H      -3.314834     0.312289    -2.811753
 H      -1.457530     1.908808    -3.189696
 H       0.026603     3.890991     0.097950
 H       1.845439     5.480012    -0.400118
 H       3.364942     5.072867    -2.316493
 H       3.049645     3.060197    -3.730522
 H       1.230037     1.464800    -3.219139
 C       0.313424     1.084815     0.994473
 N       1.074929     1.778660     1.564865
 C      -0.842937    -1.059969     2.177752
 O      -1.003830    -1.595969     3.261271
 C       0.549663    -0.862717     1.643728
 C       0.951454    -1.607066     0.379880
 H       2.032115    -1.488012     0.257528
 H       0.487539    -1.164888    -0.505551
 C       1.591148    -0.787130     2.729110
 H       1.739900    -1.768949     3.187906
 H       2.539977    -0.437767     2.317062
 H       1.280849    -0.097500     3.513824
 N      -1.904979    -0.635820     1.416412
 C      -3.248975    -0.985130     1.874423
 H      -3.575085    -1.937457     1.446164
 H      -3.221225    -1.077595     2.958136
 H      -3.941266    -0.190775     1.590013
 C       0.649160    -3.135057     0.320769
 C       1.105199    -3.899562     1.572922
 C       1.337580    -3.709649    -0.931886
 H       0.558276    -3.577208     2.460681
 H       0.935348    -4.970645     1.435965
 H       2.174946    -3.737573     1.732138
 H       1.030000    -3.168475    -1.830755
 H       2.422522    -3.622560    -0.824765
 H       1.084869    -4.764818    -1.061658
 C      -0.804251    -3.341392     0.150949
 N      -1.929627    -3.513961    -0.006309
48
  -29710.586254  -29701.400801  -10.59   15.68
 C      -0.250491     0.980073    -1.843050
 C       0.405748     0.847492    -0.610280
 C       0.015474     1.614190     0.495296
 C      -1.034203     2.518237     0.361473
 C      -1.681926     2.651555    -0.856419
 C      -1.299431     1.889520    -1.949434
 C       0.130683     0.177367    -3.037060
 C      -0.818287    -0.639378    -3.649195
 C      -0.490464    -1.378204    -4.779179
 C       0.791063    -1.302099    -5.310366
 C       1.739923    -0.483085    -4.708859
 C       1.412879     0.253126    -3.579072
 H      -1.363702     3.090608     1.218688
 H      -2.501629     3.356626    -0.948570
 H      -1.804343     2.001211    -2.902520
 H      -1.817530    -0.703165    -3.228739
 H      -1.236885    -2.014845    -5.243710
 H       1.050343    -1.879192    -6.192349
 H       2.742546    -0.419306    -5.118883
 H       2.154122     0.894053    -3.116372
 C       1.450490    -0.160840    -0.441986
 N       2.368898    -0.748196    -0.887177
 C       1.206243     0.330399     2.210761
 O       1.821144     0.284255     3.262887
 C       0.988360    -0.930443     1.419400
 C      -0.434668    -1.437859     1.245262
 H      -0.375480    -2.441919     0.814756
 H      -0.989790    -0.825078     0.530372
 C       2.039371    -1.977514     1.679172
 H       1.964115    -2.778146     0.940633
 H       3.037793    -1.544906     1.618685
 H       1.919987    -2.401612     2.680409
 N       0.691478     1.508129     1.725574
 C       0.769351     2.687102     2.587015
 H       1.637296     2.574342     3.233322
 H       0.885778     3.576743     1.965625
 H      -0.125689     2.779175     3.209197
 C      -1.321489    -1.538747     2.523148
 C      -0.628599    -2.248684     3.696271
 C      -2.618899    -2.279058     2.146461
 H      -0.310233    -3.247268     3.384147
 H       0.240455    -1.689033     4.046538
 H      -1.326959    -2.354538     4.530486
 H      -2.382825    -3.308729     1.863260
 H      -3.310354    -2.301214     2.992324
 H      -3.118517    -1.790490     1.305555
 C      -1.707427    -0.181085     2.960900
 N      -2.034783     0.868319     3.296418
48
  -29710.528612  -29701.392774   25.58   20.71
 C       0.331388     2.036808    -0.793987
 C       0.209536     1.408971     0.447209
 C       1.090297     1.692727     1.496713
 C       2.047925     2.687419     1.325294
 C       2.148068     3.343116     0.105021
 C       1.316794     3.008761    -0.953990
 C      -0.538244     1.649551    -1.938863
 C      -1.919837     1.827540    -1.894938
 C      -2.708103     1.444984    -2.971670
 C      -2.126426     0.879030    -4.100510
 C      -0.749200     0.701273    -4.151729
 C       0.040432     1.087243    -3.075677
 H       2.731232     2.930238     2.130051
 H       2.901924     4.113063    -0.023289
 H       1.414684     3.509720    -1.910806
 H      -2.377210     2.262738    -1.013906
 H      -3.783224     1.584687    -2.925559
 H      -2.746016     0.577324    -4.939035
 H      -0.288093     0.259663    -5.029582
 H       1.116066     0.941372    -3.108740
 C      -0.799675     0.381662     0.682447
 N      -1.932705     0.061642     0.692595
 C       0.562150    -0.339785     2.768175
 O       0.335977    -0.881238     3.833493
 C       0.409579    -1.082019     1.462683
 C      -0.434581    -2.325715     1.613427
 H      -1.420188    -2.022664     1.974544
 H       0.017651    -2.913839     2.422149
 C       1.660092    -1.170006     0.619471
 H       2.256709    -2.022384     0.964907
 H       1.439160    -1.345644    -0.435039
 H       2.279918    -0.277536     0.695330
 N       0.993557     0.975993     2.703790
 C       1.344337     1.647423     3.951673
 H       0.837794     1.133187     4.765709
 H       2.423736     1.617027     4.136343
 H       1.014196     2.687454     3.911266
 C      -0.648684    -3.260658     0.397009
 C      -1.196060    -2.564500    -0.861859
 C      -1.638953    -4.362134     0.831871
 H      -2.172426    -2.128927    -0.644621
 H      -0.547334    -1.762917    -1.217585
 H      -1.303761    -3.296440    -1.667372
 H      -1.783906    -5.090250     0.029767
 H      -1.274013    -4.889367     1.717131
 H      -2.604255    -3.907056     1.068704
 C       0.614682    -3.946481     0.049225
 N       1.579264    -4.511045    -0.219873
48
  -29710.558476  -29701.388093    6.84   23.65
 C       0.526719     2.364765    -0.798271
 C       0.261896     1.495901     0.268428
 C       1.012506     1.554133     1.449911
 C       2.009042     2.520184     1.570920
 C       2.250643     3.402580     0.528834
 C       1.523241     3.326092    -0.648448
 C      -0.218561     2.283738    -2.083698
 C      -0.851915     3.415729    -2.591914
 C      -1.528216     3.361042    -3.804168
 C      -1.573421     2.173102    -4.522988
 C      -0.938852     1.040907    -4.024376
 C      -0.265580     1.096268    -2.812760
 H       2.604061     2.576775     2.473593
 H       3.029103     4.150979     0.636291
 H       1.734597     4.000136    -1.470886
 H      -0.826898     4.341218    -2.024718
 H      -2.022702     4.248406    -4.186412
 H      -2.102335     2.129083    -5.469727
 H      -0.970244     0.109461    -4.580531
 H       0.233399     0.211722    -2.431719
 C      -0.820906     0.519938     0.171069
 N      -1.919851     0.287018    -0.187150
 C       0.119532    -0.542701     2.384827
 O      -0.338849    -1.131767     3.347728
 C       0.036161    -1.133627     1.007693
 C      -0.997406    -2.229876     0.854752
 H      -1.429133    -2.142210    -0.145723
 H      -1.804375    -2.036104     1.562700
 C       1.317619    -1.291220     0.226240
 H       1.875930    -2.157223     0.599266
 H       1.108489    -1.489792    -0.827252
 H       1.974202    -0.425463     0.303360
 N       0.741960     0.686785     2.524810
 C       1.002298     1.164850     3.881463
 H       0.406999     0.566898     4.567493
 H       2.059588     1.058181     4.145718
 H       0.714119     2.215077     3.964983
 C      -0.551393    -3.709231     1.043304
 C      -1.823827    -4.580719     1.025943
 C       0.233023    -3.974154     2.338402
 H      -2.443627    -4.332624     1.891688
 H      -2.405994    -4.405993     0.117260
 H      -1.566997    -5.642036     1.074352
 H       1.160081    -3.399380     2.383398
 H      -0.374701    -3.689444     3.197718
 H       0.484562    -5.036251     2.406152
 C       0.271790    -4.132718    -0.108992
 N       0.894467    -4.481105    -1.010346
48
  -29710.558476  -29701.387930    6.84   23.75
 C       0.364106     2.403071    -0.541929
 C      -0.313653     1.422998     0.194963
 C      -0.553451     1.587716     1.565387
 C      -0.142454     2.764876     2.186987
 C       0.499330     3.750359     1.452233
 C       0.757512     3.573628     0.102022
 C       0.680686     2.225010    -1.984988
 C       1.402828     1.118717    -2.430467
 C       1.717314     0.978611    -3.774284
 C       1.314070     1.943888    -4.690139
 C       0.597162     3.050891    -4.253636
 C       0.284610     3.191072    -2.907309
 H      -0.312976     2.907904     3.246484
 H       0.813476     4.662970     1.948320
 H       1.284276     4.335095    -0.461979
 H       1.725728     0.365994    -1.719314
 H       2.277510     0.111137    -4.108284
 H       1.557943     1.832957    -5.741911
 H       0.277628     3.807564    -4.963131
 H      -0.285949     4.050404    -2.568371
 C      -0.800033     0.212699    -0.463139
 N      -1.305172    -0.266825    -1.414532
 C      -1.307262    -0.727469     1.939750
 O      -2.124057    -1.479550     2.441260
 C      -0.331956    -1.222500     0.911941
 C      -0.718050    -2.532440     0.257418
 H      -0.400486    -2.487950    -0.787663
 H      -1.806740    -2.600657     0.251808
 C       1.138431    -0.993460     1.163206
 H       1.356409     0.003285     1.544737
 H       1.504999    -1.712812     1.904136
 H       1.719315    -1.164298     0.254141
 N      -1.240906     0.607083     2.304759
 C      -2.047767     1.039713     3.444343
 H      -2.559976     1.973330     3.201447
 H      -2.781007     0.263364     3.649766
 H      -1.430440     1.187827     4.336561
 C      -0.166710    -3.858750     0.857327
 C      -0.866872    -5.022293     0.126016
 C      -0.378790    -4.004874     2.372730
 H      -1.935855    -5.001506     0.354190
 H      -0.738460    -4.938573    -0.956413
 H      -0.460402    -5.983826     0.449959
 H       0.124777    -3.217549     2.936974
 H      -1.443587    -3.945024     2.599521
 H       0.011244    -4.969938     2.708045
 C       1.277040    -3.976874     0.563310
 N       2.395101    -4.091153     0.321608
48
  -29710.522823  -29701.351059   29.21   46.89
 C      -1.325350     1.449419    -0.179889
 C      -0.537875     0.840209     0.810087
 C      -1.128687     0.295518     1.959758
 C      -2.511051     0.367069     2.114296
 C      -3.290029     0.962245     1.134548
 C      -2.706978     1.494331    -0.004168
 C      -0.746441     2.054788    -1.411798
 C      -1.212907     1.649054    -2.662143
 C      -0.710005     2.218400    -3.824847
 C       0.260472     3.209891    -3.748119
 C       0.719495     3.629763    -2.505085
 C       0.219285     3.058166    -1.343322
 H      -2.978874    -0.059240     2.992969
 H      -4.366359     1.009403     1.264664
 H      -3.318236     1.972414    -0.761344
 H      -1.969772     0.872531    -2.723880
 H      -1.077681     1.887653    -4.791067
 H       0.655759     3.656846    -4.654775
 H       1.474315     4.406348    -2.437380
 H       0.576193     3.396510    -0.378306
 C       0.909282     0.723854     0.644571
 N       1.936194     1.196417     0.320025
 C       0.861408    -0.923121     2.744086
 O       1.578788    -1.270084     3.662951
 C       1.242538    -1.224447     1.319553
 C       0.272611    -2.173508     0.636411
 H      -0.740150    -1.763227     0.668514
 H       0.243054    -3.081106     1.259301
 C       2.714232    -1.473987     1.156886
 H       3.016965    -1.428886     0.110919
 H       3.286797    -0.732728     1.712587
 H       2.963282    -2.467773     1.545396
 N      -0.345746    -0.286972     2.973503
 C      -0.801062    -0.175939     4.357822
 H      -1.277811     0.794517     4.508705
 H      -1.508741    -0.971635     4.614459
 H       0.068288    -0.262984     5.006036
 C       0.525007    -2.619088    -0.824917
 C       0.718143    -1.440281    -1.790523
 C      -0.690152    -3.456132    -1.275985
 H      -0.161659    -0.794901    -1.752974
 H       1.593280    -0.839334    -1.544666
 H       0.828064    -1.808318    -2.813917
 H      -1.585058    -2.826788    -1.276711
 H      -0.537019    -3.843679    -2.285984
 H      -0.857695    -4.301622    -0.603351
 C       1.703328    -3.508445    -0.897137
 N       2.590755    -4.234386    -0.976132
48
  -29710.522825  -29701.351004   29.21   46.92
 C      -0.790894     1.559339    -0.833918
 C      -0.972818     0.770316     0.313100
 C      -2.207866     0.157752     0.571780
 C      -3.260106     0.342175    -0.321925
 C      -3.079671     1.115364    -1.457958
 C      -1.857690     1.714933    -1.716828
 C       0.495374     2.242297    -1.147426
 C       1.080945     3.135408    -0.251021
 C       2.262955     3.784495    -0.579912
 C       2.872970     3.553075    -1.807289
 C       2.290016     2.673102    -2.710937
 C       1.105448     2.026391    -2.383050
 H      -4.214890    -0.134318    -0.137519
 H      -3.905994     1.249391    -2.148515
 H      -1.724847     2.331261    -2.598877
 H       0.607508     3.327254     0.704053
 H       2.710367     4.473376     0.129091
 H       3.798743     4.060029    -2.060249
 H       2.756897     2.489920    -3.673553
 H       0.652261     1.337088    -3.089540
 C       0.132257     0.536730     1.240160
 N       1.058100     0.943414     1.840673
 C      -1.411803    -1.324899     2.368672
 O      -1.594014    -1.839963     3.455335
 C      -0.100949    -1.498151     1.649632
 C      -0.238695    -2.267723     0.346966
 H      -0.956713    -1.769515    -0.309759
 H      -0.699290    -3.232936     0.609293
 C       1.021161    -1.866121     2.577039
 H       0.923341    -2.916529     2.873096
 H       1.994131    -1.732093     2.104709
 H       0.987057    -1.249998     3.474440
 N      -2.410869    -0.607086     1.735300
 C      -3.738950    -0.610576     2.345348
 H      -4.392276    -1.359313     1.884497
 H      -3.624279    -0.852621     3.399760
 H      -4.191375     0.377475     2.240897
 C       1.014631    -2.567343    -0.511596
 C       1.832889    -1.310710    -0.844176
 C       0.537974    -3.228997    -1.821452
 H       2.666316    -1.569575    -1.502400
 H       1.196605    -0.593115    -1.365882
 H       2.234313    -0.827179     0.046050
 H       1.391264    -3.512790    -2.442014
 H      -0.053951    -4.125294    -1.617396
 H      -0.080104    -2.521539    -2.382178
 C       1.883385    -3.550615     0.168893
 N       2.556800    -4.343889     0.656732
48
  -29710.488010  -29701.347331   51.06   49.23
 C       0.010355     1.011643    -1.782356
 C       0.619810     0.740178    -0.548629
 C       0.401841     1.575121     0.555213
 C      -0.419000     2.691058     0.412867
 C      -1.020098     2.961724    -0.806980
 C      -0.814834     2.128140    -1.894523
 C       0.207869     0.142251    -2.974480
 C      -0.894398    -0.466709    -3.571000
 C      -0.736157    -1.261839    -4.699352
 C       0.528144    -1.449956    -5.243651
 C       1.630550    -0.838688    -4.657123
 C       1.472842    -0.046581    -3.528778
 H      -0.602406     3.339567     1.260601
 H      -1.659152     3.833321    -0.904698
 H      -1.281062     2.343239    -2.849496
 H      -1.880897    -0.324346    -3.139825
 H      -1.601379    -1.735645    -5.152218
 H       0.654893    -2.071561    -6.124392
 H       2.620427    -0.982298    -5.077752
 H       2.334123     0.431534    -3.077109
 C       1.430402    -0.465178    -0.384778
 N       2.201321    -1.227850    -0.843540
 C       1.323151     0.063763     2.266477
 O       1.941024    -0.092783     3.306165
 C       0.848995    -1.127329     1.487198
 C      -0.645590    -1.332982     1.305963
 H      -0.780078    -2.263112     0.746619
 H      -1.079572    -0.538028     0.695156
 C       1.682509    -2.358767     1.727892
 H       1.397119    -3.149916     1.032028
 H       2.739867    -2.137738     1.582296
 H       1.559006    -2.717287     2.752934
 N       1.024029     1.324440     1.794231
 C       1.368234     2.462182     2.644496
 H       2.187251     2.163450     3.295176
 H       1.680795     3.301013     2.019964
 H       0.521751     2.770123     3.268641
 C      -1.519761    -1.412548     2.599202
 C      -1.663770    -0.045587     3.293857
 C      -1.029936    -2.462592     3.608768
 H      -1.965999     0.728153     2.582859
 H      -2.421659    -0.105918     4.079312
 H      -0.720113     0.245154     3.759690
 H      -1.769938    -2.587246     4.403551
 H      -0.873811    -3.432503     3.130316
 H      -0.093559    -2.132564     4.063444
 C      -2.865223    -1.820780     2.135681
 N      -3.908633    -2.139672     1.774661
48
  -29710.488010  -29701.347249   51.06   49.28
 C      -0.530885     0.928962    -1.826289
 C       0.377118     0.755400    -0.771484
 C       0.445861     1.686901     0.272872
 C      -0.390260     2.800288     0.247879
 C      -1.286600     2.974130    -0.795655
 C      -1.363458     2.045599    -1.821166
 C      -0.641938    -0.044208    -2.947281
 C       0.438795    -0.302488    -3.788926
 C       0.305258    -1.192440    -4.845156
 C      -0.907483    -1.833245    -5.072289
 C      -1.990136    -1.576561    -4.240374
 C      -1.857129    -0.683588    -3.184268
 H      -0.352961     3.523205     1.053396
 H      -1.934200     3.844867    -0.802754
 H      -2.060992     2.184806    -2.639504
 H       1.384586     0.198126    -3.617840
 H       1.154316    -1.389270    -5.491505
 H      -1.008173    -2.531274    -5.897384
 H      -2.940065    -2.072923    -4.411977
 H      -2.700201    -0.487143    -2.528525
 C       1.209468    -0.444941    -0.715265
 N       1.840716    -1.257849    -1.287233
 C       1.784989     0.314415     1.817011
 O       2.650382     0.238208     2.672877
 C       1.133028    -0.931545     1.294196
 C      -0.356657    -1.126265     1.521883
 H      -0.625231    -2.099184     1.100713
 H      -0.937763    -0.380241     0.974941
 C       2.007377    -2.151636     1.420745
 H       2.990328    -1.962505     0.989355
 H       2.153996    -2.417385     2.470687
 H       1.556919    -2.995275     0.894483
 N       1.367382     1.534228     1.327675
 C       1.912470     2.735461     1.956798
 H       2.873104     2.480297     2.398943
 H       2.048904     3.511257     1.201221
 H       1.253529     3.111137     2.747736
 C      -0.868008    -1.077486     2.998067
 C      -0.836825     0.347297     3.581927
 C      -0.128288    -2.043212     3.937176
 H      -1.366548     0.368807     4.537910
 H       0.193119     0.661724     3.761835
 H      -1.316725     1.060802     2.906547
 H       0.891535    -1.690559     4.104672
 H      -0.637916    -2.085157     4.903272
 H      -0.094648    -3.053824     3.522992
 C      -2.284889    -1.501882     2.934025
 N      -3.384075    -1.833438     2.883074
48
  -29710.470391  -29701.325698   62.12   62.80
 C       0.846324     1.985007    -1.211166
 C       0.441891     1.315427    -0.047511
 C       1.219088     1.375239     1.119800
 C       2.387815     2.133560     1.118155
 C       2.785423     2.797935    -0.031704
 C       2.029213     2.719712    -1.190447
 C       0.058413     1.929410    -2.473367
 C       0.643664     1.409330    -3.626051
 C      -0.064648     1.369767    -4.820728
 C      -1.364878     1.856423    -4.872741
 C      -1.951078     2.383857    -3.727696
 C      -1.244499     2.420904    -2.533936
 H       2.998788     2.186629     2.010530
 H       3.701291     3.379993    -0.020415
 H       2.339723     3.242238    -2.088243
 H       1.657817     1.023480    -3.581678
 H       0.399701     0.957148    -5.710877
 H      -1.921059     1.825778    -5.804346
 H      -2.966370     2.765220    -3.762224
 H      -1.703764     2.836341    -1.644571
 C      -0.763332     0.487171    -0.063990
 N      -1.867528     0.321483    -0.441245
 C      -0.002606    -0.399325     2.295139
 O      -0.584904    -0.764838     3.299681
 C      -0.159844    -1.148635     1.008142
 C      -1.334166    -2.096393     1.025720
 H      -1.679851    -2.234338    -0.001936
 H      -2.143138    -1.608434     1.567003
 C       1.064033    -1.598434     0.250088
 H       1.467817    -2.508703     0.706878
 H       0.803288    -1.830084    -0.786693
 H       1.863370    -0.858020     0.251856
 N       0.820650     0.713426     2.294140
 C       1.182574     1.292248     3.585607
 H       2.206853     1.026730     3.867668
 H       1.088415     2.379758     3.545710
 H       0.499270     0.891893     4.331278
 C      -1.097617    -3.516180     1.642247
 C      -0.847240    -4.557574     0.532935
 C      -2.336143    -3.917130     2.464528
 H      -0.668576    -5.545323     0.966066
 H      -1.726932    -4.613965    -0.114415
 H       0.016333    -4.291530    -0.080751
 H      -3.220937    -3.895766     1.821196
 H      -2.223199    -4.925889     2.870735
 H      -2.484939    -3.218810     3.290905
 C       0.068437    -3.558846     2.546476
 N       0.993982    -3.659831     3.220012
48
  -29710.490466  -29701.309670   49.52   72.86
 C       0.359689     2.152451    -0.604826
 C      -0.388362     1.300806     0.221670
 C      -0.816351     1.724051     1.487561
 C      -0.489830     3.006904     1.921489
 C       0.239934     3.853336     1.101218
 C       0.661342     3.434006    -0.150046
 C       0.833081     1.736515    -1.952018
 C       1.597788     0.585227    -2.118646
 C       2.048825     0.215747    -3.377325
 C       1.749141     1.002761    -4.482970
 C       0.994046     2.159436    -4.324154
 C       0.537910     2.524140    -3.064152
 H      -0.798624     3.341886     2.903569
 H       0.486758     4.850740     1.450332
 H       1.245934     4.091880    -0.783114
 H       1.842588    -0.035635    -1.266583
 H       2.625566    -0.696278    -3.484560
 H       2.100798     0.714733    -5.468828
 H       0.755111     2.776930    -5.184338
 H      -0.065093     3.418922    -2.941908
 C      -0.775889    -0.030740    -0.238457
 N      -1.172722    -0.726196    -1.101219
 C      -1.607247    -0.481823     2.256458
 O      -2.440785    -1.137603     2.855888
 C      -0.506884    -1.156172     1.477897
 C      -0.888559    -2.579613     1.133545
 H      -1.737112    -2.523638     0.448815
 H      -1.277956    -3.033455     2.052499
 C       0.891878    -0.858378     1.961571
 H       1.039656     0.201583     2.169866
 H       1.068042    -1.401342     2.899351
 H       1.649365    -1.175115     1.242815
 N      -1.617759     0.899220     2.301459
 C      -2.576008     1.537624     3.202589
 H      -2.103725     1.836209     4.144567
 H      -3.003582     2.417540     2.717909
 H      -3.363575     0.820139     3.420726
 C       0.146468    -3.571433     0.550559
 C      -0.632375    -4.698429    -0.158715
 C       1.039337    -4.193419     1.644199
 H      -1.213713    -4.300896    -0.993513
 H       0.051553    -5.460343    -0.541301
 H      -1.317582    -5.167455     0.553349
 H       0.407933    -4.692554     2.384327
 H       1.712386    -4.934266     1.204766
 H       1.648390    -3.446943     2.154412
 C       1.038886    -2.966571    -0.456775
 N       1.790282    -2.570307    -1.229613
48
  -29710.444337  -29701.275819   78.46   94.10
 C       0.035998     2.105973    -1.010458
 C       0.053964     1.147309     0.019825
 C       0.452449     1.507134     1.315977
 C       0.835888     2.825500     1.562318
 C       0.821535     3.766453     0.547048
 C       0.427598     3.411267    -0.733285
 C      -0.395054     1.776783    -2.397257
 C      -1.686828     1.324570    -2.661357
 C      -2.082689     1.059689    -3.964312
 C      -1.193573     1.243994    -5.017471
 C       0.093790     1.698791    -4.761967
 C       0.489154     1.966235    -3.456888
 H       1.166917     3.109016     2.553444
 H       1.124508     4.786458     0.760189
 H       0.405288     4.147205    -1.529134
 H      -2.382483     1.181042    -1.842625
 H      -3.089179     0.703264    -4.157780
 H      -1.504705     1.033108    -6.035762
 H       0.793261     1.844987    -5.579045
 H       1.497115     2.315929    -3.254522
 C      -0.291696    -0.229286    -0.312161
 N      -0.826202    -1.021519    -0.989333
 C       0.778143    -0.729634     2.298750
 O       0.869736    -1.433498     3.290916
 C       1.037447    -1.317419     0.950002
 C       0.674697    -2.773939     0.790998
 H       1.477488    -3.356713     1.261765
 H       0.716548    -2.984695    -0.279829
 C       2.347058    -0.940234     0.303391
 H       2.347996    -1.211458    -0.755915
 H       2.565508     0.125886     0.393707
 H       3.163448    -1.490273     0.791395
 N       0.454586     0.600136     2.395128
 C       0.160729     1.102717     3.737242
 H      -0.323968     0.306263     4.298540
 H       1.069806     1.401602     4.269218
 H      -0.517565     1.952797     3.657833
 C      -0.684632    -3.311421     1.344757
 C      -0.458810    -4.217934     2.572774
 C      -1.410197    -4.117608     0.248156
 H       0.142475    -5.081953     2.273634
 H       0.059083    -3.677055     3.364109
 H      -1.416573    -4.581936     2.954876
 H      -0.774787    -4.952364    -0.063050
 H      -2.349650    -4.523346     0.633030
 H      -1.623082    -3.491117    -0.619061
 C      -1.590077    -2.222821     1.764366
 N      -2.310633    -1.399734     2.116731
48
  -29710.424889  -29701.249587   90.67  110.56
 C      -0.988241     1.680920     0.526486
 C      -0.096264     0.781138     1.131226
 C      -0.435446     0.135306     2.328968
 C      -1.666832     0.402396     2.921998
 C      -2.548190     1.290160     2.325406
 C      -2.217889     1.919867     1.136478
 C      -0.678080     2.391261    -0.745424
 C      -1.552835     2.274335    -1.825680
 C      -1.301860     2.946314    -3.014903
 C      -0.175796     3.752073    -3.132185
 C       0.693173     3.883226    -2.055223
 C       0.444765     3.208247    -0.867954
 H      -1.943340    -0.098486     3.841335
 H      -3.505690     1.488418     2.796022
 H      -2.905018     2.621612     0.677190
 H      -2.429282     1.638901    -1.736558
 H      -1.987057     2.840596    -3.850063
 H       0.022943     4.278719    -4.060188
 H       1.572825     4.512982    -2.139150
 H       1.122855     3.320079    -0.030632
 C       1.186146     0.470108     0.503916
 N       2.152820     0.823835    -0.064671
 C       1.379104    -1.528329     2.284186
 O       2.218966    -2.176404     2.880596
 C       1.290959    -1.601003     0.781825
 C      -0.005595    -2.236374     0.305163
 H      -0.851807    -1.683475     0.720158
 H      -0.051442    -3.230642     0.776142
 C       2.593506    -2.030229     0.164468
 H       2.717696    -3.113917     0.273833
 H       2.643624    -1.766711    -0.891503
 H       3.425449    -1.541817     0.669768
 N       0.460586    -0.748466     2.959866
 C       0.446176    -0.832459     4.419193
 H      -0.308710    -1.542123     4.774489
 H       1.425108    -1.175303     4.747159
 H       0.241669     0.154372     4.838574
 C      -0.273488    -2.433093    -1.213977
 C       0.516759    -3.605579    -1.826854
 C      -0.071669    -1.148989    -2.034458
 H       0.159163    -3.802965    -2.840771
 H       1.579846    -3.374570    -1.881616
 H       0.385333    -4.515583    -1.235070
 H      -0.380912    -1.314965    -3.069847
 H      -0.665651    -0.328046    -1.631405
 H       0.975827    -0.845614    -2.031600
 C      -1.707411    -2.796702    -1.310196
 N      -2.818612    -3.080750    -1.384679
48
  -29710.424890  -29701.249506   90.67  110.61
 C      -0.555875     1.831158     0.028793
 C      -0.143524     0.849839     0.944170
 C      -0.985905     0.451518     1.992231
 C      -2.237708     1.047266     2.124160
 C      -2.645769     2.015770     1.220651
 C      -1.818181     2.401513     0.178784
 C       0.298655     2.288364    -1.102263
 C       1.566125     2.826821    -0.885833
 C       2.328929     3.273722    -1.956030
 C       1.835735     3.189933    -3.252909
 C       0.569660     2.662361    -3.475951
 C      -0.195386     2.219167    -2.404934
 H      -2.900402     0.739882     2.923459
 H      -3.624395     2.471115     1.332657
 H      -2.135812     3.166659    -0.520645
 H       1.954237     2.901006     0.122773
 H       3.315620     3.687170    -1.774574
 H       2.435945     3.537360    -4.087826
 H       0.175818     2.595895    -4.485224
 H      -1.182138     1.800235    -2.580124
 C       1.155223     0.196236     0.799404
 N       2.306531     0.260912     0.568787
 C       0.291911    -1.549031     2.646002
 O       0.719666    -2.276669     3.522736
 C       0.663229    -1.796358     1.206855
 C      -0.532403    -2.200418     0.358814
 H      -1.305716    -1.432366     0.436743
 H      -0.962233    -3.092782     0.839884
 C       1.948617    -2.567621     1.084653
 H       2.388797    -2.460280     0.093823
 H       2.672949    -2.204537     1.812336
 H       1.765911    -3.629445     1.286921
 N      -0.574112    -0.511682     2.932781
 C      -1.063844    -0.400008     4.305591
 H      -0.349793    -0.895318     4.959974
 H      -1.144654     0.653782     4.578576
 H      -2.039718    -0.882648     4.425764
 C      -0.351059    -2.532145    -1.149611
 C       0.282124    -3.914760    -1.399159
 C       0.402157    -1.437760    -1.922807
 H      -0.243760    -4.691317    -0.837026
 H       0.222272    -4.162782    -2.462063
 H       1.331781    -3.922543    -1.108132
 H       1.436707    -1.364584    -1.585703
 H       0.402051    -1.668274    -2.991486
 H      -0.070651    -0.464578    -1.786565
 C      -1.726025    -2.593815    -1.700369
 N      -2.792099    -2.643798    -2.126972
48
  -29710.393562  -29701.234594  110.33  119.97
 C       0.334193     2.315738    -0.949394
 C      -0.160306     1.480423     0.062032
 C       0.020717     1.807821     1.412627
 C       0.677253     2.990380     1.744596
 C       1.162665     3.819083     0.744713
 C       1.002245     3.483961    -0.590463
 C       0.179470     1.991419    -2.394166
 C      -1.080963     1.881616    -2.979092
 C      -1.201447     1.605122    -4.333631
 C      -0.065989     1.435602    -5.117817
 C       1.193399     1.549103    -4.542321
 C       1.313997     1.828659    -3.186633
 H       0.827721     3.252577     2.784427
 H       1.677019     4.735493     1.015488
 H       1.380255     4.134486    -1.371206
 H      -1.968515     2.016670    -2.372077
 H      -2.187647     1.517509    -4.777665
 H      -0.163297     1.216145    -6.176364
 H       2.084282     1.418664    -5.148564
 H       2.297488     1.911259    -2.733536
 C      -0.809109     0.214989    -0.280058
 N      -1.528435    -0.365078    -1.013539
 C      -0.672609    -0.385836     2.288844
 O      -1.333494    -1.016670     3.093692
 C      -0.031973    -1.065185     1.111320
 C      -0.628366    -2.416342     0.768160
 H      -0.598411    -2.525007    -0.318611
 H      -1.681954    -2.387473     1.045984
 C       1.454934    -0.886078     0.917807
 H       1.755276    -1.220632    -0.078211
 H       1.779434     0.145261     1.049868
 H       2.001970    -1.487568     1.652005
 N      -0.478016     0.976378     2.432961
 C      -0.926313     1.599320     3.677342
 H      -0.089588     1.772592     4.362365
 H      -1.414688     2.550748     3.456647
 H      -1.634965     0.925998     4.154163
 C       0.005344    -3.710251     1.377060
 C       0.234864    -3.650191     2.896738
 C       1.295465    -4.148576     0.652859
 H      -0.688373    -3.419276     3.426256
 H       0.623154    -4.610638     3.247124
 H       0.964869    -2.875636     3.144439
 H       1.153572    -4.148317    -0.431105
 H       2.128642    -3.488993     0.896396
 H       1.569419    -5.160747     0.961984
 C      -0.991610    -4.775698     1.121058
 N      -1.755146    -5.609556     0.914688
48
  -29710.393560  -29701.234594  110.33  119.97
 C       0.725660     2.199404    -0.951323
 C       0.094106     1.463755     0.061206
 C       0.328133     1.757674     1.411355
 C       1.178455     2.810043     1.741736
 C       1.799913     3.540777     0.740754
 C       1.584833     3.235733    -0.593945
 C       0.518125     1.903783    -2.395630
 C       1.608076     1.546527    -3.186848
 C       1.441829     1.289275    -4.542121
 C       0.182005     1.393234    -5.118465
 C      -0.907693     1.757294    -4.335543
 C      -0.742085     2.011549    -2.981412
 H       1.371339     3.044382     2.781215
 H       2.464348     4.355369     1.010297
 H       2.069685     3.809887    -1.375546
 H       2.590865     1.459397    -2.733079
 H       2.297247     1.006178    -5.147376
 H       0.048897     1.191749    -6.176689
 H      -1.894020     1.839968    -4.780243
 H      -1.593427     2.298629    -2.375398
 C      -0.762871     0.328406    -0.279115
 N      -1.571064    -0.120512    -1.012038
 C      -0.732939    -0.282173     2.291054
 O      -1.492772    -0.788296     3.096661
 C      -0.218479    -1.063932     1.115195
 C      -1.038542    -2.292823     0.774056
 H      -1.027247    -2.407127    -0.312493
 H      -2.071540    -2.082366     1.050992
 C       1.277133    -1.143994     0.922399
 H       1.515715    -1.527598    -0.072642
 H       1.774339    -0.183631     1.052362
 H       1.712180    -1.828966     1.658363
 N      -0.306978     1.026555     2.432740
 C      -0.641913     1.719791     3.675625
 H       0.211624     1.747176     4.361276
 H      -0.958443     2.740862     3.452822
 H      -1.456584     1.179855     4.152793
 C      -0.637453    -3.675386     1.385799
 C      -0.401445    -3.652845     2.905507
 C       0.558057    -4.330801     0.663185
 H       0.451090    -3.015266     3.152226
 H      -1.271205    -3.265218     3.434031
 H      -0.184642    -4.665173     3.257906
 H       0.653927    -5.374227     0.974905
 H       0.418265    -4.308839    -0.420828
 H       1.492232    -3.823661     0.905406
 C      -1.802987    -4.553620     1.131169
 N      -2.698718    -5.243852     0.925890
48
  -29710.360474  -29701.181804  131.09  153.10
 C      -1.444961     1.136309    -0.155864
 C      -0.523548     0.631819     0.776376
 C      -0.964748     0.008149     1.952194
 C      -2.331701    -0.160190     2.154892
 C      -3.239642     0.305572     1.216868
 C      -2.803980     0.959342     0.077206
 C      -1.017496     1.861164    -1.384056
 C      -1.398721     1.386028    -2.637327
 C      -1.027629     2.070425    -3.788257
 C      -0.280907     3.238408    -3.696385
 C       0.091189     3.722655    -2.447332
 C      -0.275796     3.038839    -1.297202
 H      -2.687103    -0.665460     3.044187
 H      -4.301189     0.158684     1.385281
 H      -3.515243     1.336877    -0.648030
 H      -1.969076     0.466094    -2.704426
 H      -1.321840     1.686716    -4.760097
 H       0.009876     3.771774    -4.596069
 H       0.673193     4.634979    -2.367217
 H       0.011127     3.422685    -0.325101
 C       0.904528     0.729798     0.495310
 N       1.808628     1.304023     0.010679
 C       1.248638    -0.730340     2.744227
 O       2.046160    -0.839646     3.658060
 C       1.656642    -1.047359     1.331649
 C       0.967124    -2.301026     0.803994
 H      -0.001100    -2.425149     1.298061
 H       1.595013    -3.124614     1.174326
 C       3.149699    -0.965904     1.146479
 H       3.547307    -0.081145     1.641453
 H       3.618109    -1.848704     1.598526
 H       3.424698    -0.915868     0.095164
 N      -0.066413    -0.378964     2.969157
 C      -0.514276    -0.283703     4.357515
 H      -1.155100     0.592045     4.477119
 H      -1.065533    -1.179243     4.663364
 H       0.366108    -0.184407     4.988808
 C       0.745714    -2.576442    -0.715105
 C       0.687213    -4.106717    -0.911303
 C       1.797173    -1.981490    -1.662727
 H      -0.056355    -4.558549    -0.249074
 H       0.422354    -4.351822    -1.942822
 H       1.665679    -4.541426    -0.688380
 H       1.855487    -0.895610    -1.578603
 H       2.778283    -2.412103    -1.448818
 H       1.535396    -2.229464    -2.694960
 C      -0.582832    -2.071456    -1.116560
 N      -1.634422    -1.761178    -1.459511
48
  -29710.339648  -29701.174702  144.16  157.55
 C      -0.069448     2.493587    -0.242230
 C      -0.202660     1.276326     0.446516
 C      -0.332474     1.254793     1.842136
 C      -0.357626     2.466027     2.534015
 C      -0.265711     3.667195     1.850256
 C      -0.117963     3.685789     0.472603
 C       0.131352     2.550001    -1.716237
 C       1.229752     1.933952    -2.313371
 C       1.427275     2.023655    -3.683460
 C       0.528202     2.731610    -4.473324
 C      -0.566727     3.351481    -3.884769
 C      -0.761989     3.262905    -2.511998
 H      -0.438266     2.471016     3.613140
 H      -0.293264     4.598713     2.406234
 H      -0.017969     4.624799    -0.059961
 H       1.937000     1.386982    -1.699428
 H       2.284901     1.537296    -4.137048
 H       0.681133     2.799443    -5.545733
 H      -1.273164     3.904677    -4.495528
 H      -1.622971     3.738998    -2.052821
 C      -0.230984     0.035670    -0.320145
 N      -0.486230    -0.528250    -1.317741
 C       0.089160    -1.156248     2.210287
 O      -0.015270    -2.131264     2.930375
 C       0.862880    -1.255853     0.937905
 C       0.937960    -2.604002     0.252191
 H       1.850249    -3.099395     0.611667
 H       1.112092    -2.378783    -0.804210
 C       2.197555    -0.546183     0.940127
 H       2.620973    -0.518475    -0.067948
 H       2.139261     0.471892     1.328434
 H       2.895416    -1.107058     1.576398
 N      -0.477022     0.053515     2.564641
 C      -1.176417     0.091222     3.848755
 H      -0.510647     0.390296     4.665353
 H      -2.011904     0.790311     3.784415
 H      -1.550118    -0.908070     4.060824
 C      -0.210091    -3.650555     0.306128
 C      -0.032138    -4.580837    -0.915554
 C      -1.635012    -3.074346     0.279106
 H       0.975125    -5.006062    -0.940056
 H      -0.750761    -5.403487    -0.878651
 H      -0.196526    -4.011459    -1.834145
 H      -2.355075    -3.896467     0.317892
 H      -1.835587    -2.420647     1.127917
 H      -1.789001    -2.514563    -0.643593
 C      -0.059169    -4.523111     1.493683
 N       0.058468    -5.288392     2.342560
48
  -29710.339647  -29701.174593  144.16  157.62
 C       0.324380     2.134567    -1.245704
 C       0.260147     1.298910    -0.118148
 C       0.775824     1.721006     1.115131
 C       1.327545     2.998785     1.211564
 C       1.354855     3.836769     0.108922
 C       0.862223     3.410533    -1.114083
 C      -0.157922     1.695189    -2.583811
 C      -1.138494     2.430996    -3.244561
 C      -1.572795     2.050704    -4.508378
 C      -1.025326     0.932975    -5.125197
 C      -0.041404     0.197785    -4.473422
 C       0.389483     0.577153    -3.210638
 H       1.747979     3.337096     2.149551
 H       1.782888     4.829214     0.206071
 H       0.908811     4.055839    -1.984010
 H      -1.573065     3.298840    -2.757946
 H      -2.342088     2.628431    -5.010897
 H      -1.364555     0.634540    -6.112065
 H       0.390594    -0.676348    -4.949951
 H       1.162257     0.005543    -2.708259
 C      -0.378085    -0.006366    -0.247438
 N      -1.172123    -0.693559    -0.772443
 C       0.790174    -0.466982     2.272257
 O       0.817054    -1.089726     3.317030
 C       0.861460    -1.198298     0.973166
 C       0.326448    -2.614071     0.921058
 H       1.172446    -3.287013     1.116867
 H       0.046437    -2.776172    -0.124100
 C       2.169447    -1.059166     0.228304
 H       2.084842    -1.474568    -0.779937
 H       2.513361    -0.025963     0.158503
 H       2.941320    -1.633178     0.758542
 N       0.720520     0.913162     2.268520
 C       0.705652     1.565633     3.577560
 H       1.715974     1.816365     3.918017
 H       0.103538     2.474040     3.521348
 H       0.264226     0.877065     4.294655
 C      -0.866749    -3.104693     1.788087
 C      -1.465904    -4.339147     1.076237
 C      -1.988333    -2.078174     2.014917
 H      -1.902626    -4.033200     0.121934
 H      -0.696597    -5.092830     0.886171
 H      -2.247142    -4.794012     1.690484
 H      -1.637003    -1.185763     2.532801
 H      -2.419715    -1.785661     1.057429
 H      -2.770056    -2.531356     2.630883
 C      -0.384954    -3.598489     3.098987
 N      -0.062467    -4.080512     4.090825
