48
  -29710.567668  -29701.427496    0.00    0.00
 C      -0.085766     0.450166    -2.053155
 C      -0.806812     0.060392    -0.914720
 C      -1.700961     0.946414    -0.296264
 C      -1.882867     2.216620    -0.839354
 C      -1.172840     2.600565    -1.966191
 C      -0.275599     1.731046    -2.565672
 C       0.883478    -0.455792    -2.729011
 C       0.474415    -1.667258    -3.284100
 C       1.389613    -2.483068    -3.934051
 C       2.721701    -2.098508    -4.037013
 C       3.135186    -0.889912    -3.490717
 C       2.218284    -0.071942    -2.842148
 H      -2.565550     2.913258    -0.368971
 H      -1.321149     3.594334    -2.376143
 H       0.276376     2.030995    -3.449332
 H      -0.563777    -1.968970    -3.210027
 H       1.060923    -3.425989    -4.358653
 H       3.435987    -2.740116    -4.543268
 H       4.173444    -0.582856    -3.567813
 H       2.541043     0.870049    -2.408682
 C      -0.575014    -1.255787    -0.321432
 N      -0.343621    -2.401080    -0.468984
 C      -2.010814    -0.384696     1.752982
 O      -2.767573    -0.843434     2.589826
 C      -0.578735    -0.824522     1.692146
 C       0.507565     0.229903     1.778257
 H       0.231670     1.110185     1.194066
 H       1.423170    -0.174375     1.333603
 C      -0.324024    -2.125210     2.396815
 H      -0.437985    -1.996409     3.478188
 H      -1.038651    -2.882047     2.074809
 H       0.686528    -2.482481     2.192396
 N      -2.436140     0.567873     0.842608
 C      -3.770903     1.134104     1.027483
 H      -3.726899     2.120931     1.501064
 H      -4.271001     1.221223     0.060586
 H      -4.333593     0.462631     1.672154
 C       0.856829     0.763663     3.199492
 C      -0.394340     1.194727     3.981495
 C       1.812853     1.961534     3.035562
 H      -0.105262     1.653115     4.930592
 H      -0.950990     1.935182     3.398061
 H      -1.056360     0.353373     4.191601
 H       2.131806     2.337508     4.010665
 H       2.702698     1.678513     2.466784
 H       1.299310     2.767582     2.503324
 C       1.579923    -0.261943     3.977837
 N       2.173839    -1.026322     4.597236
48
  -29710.567668  -29701.427305   -0.00    0.12
 C      -0.423338     0.491849    -1.968942
 C      -0.820515    -0.245078    -0.843308
 C      -1.991274     0.088267    -0.146725
 C      -2.771222     1.150614    -0.599007
 C      -2.380474     1.876674    -1.713218
 C      -1.213689     1.558414    -2.389833
 C       0.820102     0.178844    -2.725816
 C       1.814912     1.147589    -2.843014
 C       2.972543     0.886408    -3.565578
 C       3.141866    -0.346901    -4.182338
 C       2.149267    -1.314504    -4.075400
 C       0.994217    -1.054499    -3.351639
 H      -3.674578     1.422995    -0.067615
 H      -2.995206     2.704287    -2.052030
 H      -0.911000     2.124525    -3.263560
 H       1.683763     2.108694    -2.354658
 H       3.742949     1.646886    -3.645289
 H       4.045678    -0.554194    -4.746530
 H       2.276064    -2.279637    -4.554842
 H       0.221227    -1.810083    -3.274586
 C       0.027483    -1.327109    -0.345163
 N       0.757538    -2.222343    -0.574473
 C      -1.540150    -1.331377     1.815001
 O      -1.952238    -2.131030     2.636082
 C      -0.073222    -1.046582     1.692430
 C       0.400083     0.387916     1.824601
 H      -0.283721     1.064216     1.307563
 H       1.374248     0.481335     1.332902
 C       0.793535    -2.109627     2.302253
 H       0.688451    -2.102021     3.392136
 H       0.497918    -3.096127     1.946430
 H       1.842216    -1.942204     2.051491
 N      -2.406145    -0.645386     0.980416
 C      -3.839571    -0.779185     1.232946
 H      -4.235821     0.089104     1.770631
 H      -4.371588    -0.889029     0.285597
 H      -3.991032    -1.666475     1.843578
 C       0.533646     0.952723     3.270267
 C      -0.731887     0.709104     4.108023
 C       0.811799     2.465158     3.165778
 H      -0.914008    -0.353418     4.275859
 H      -0.640829     1.202307     5.079069
 H      -1.598716     1.130521     3.588848
 H      -0.044853     2.962077     2.701089
 H       0.968969     2.898398     4.156493
 H       1.700238     2.659813     2.558969
 C       1.690429     0.348106     3.960807
 N       2.603199    -0.078702     4.513394
48
  -29710.586254  -29701.400883  -11.66   16.70
 C       0.294951     0.655551    -1.866953
 C      -0.593502     0.191599    -0.885456
 C      -1.418542     1.082611    -0.187000
 C      -1.353260     2.442218    -0.477226
 C      -0.477410     2.901504    -1.448067
 C       0.342848     2.020835    -2.136020
 C       1.192182    -0.259614    -2.623746
 C       2.571544    -0.066076    -2.576578
 C       3.425619    -0.893605    -3.294874
 C       2.905352    -1.920979    -4.072106
 C       1.529745    -2.114238    -4.129461
 C       0.677054    -1.288916    -3.410333
 H      -1.963052     3.141089     0.080206
 H      -0.431858     3.964046    -1.663614
 H       1.022272     2.383118    -2.899512
 H       2.977081     0.733014    -1.963116
 H       4.498466    -0.736043    -3.245705
 H       3.570318    -2.569837    -4.633319
 H       1.117190    -2.914869    -4.734630
 H      -0.394784    -1.440011    -3.461857
 C      -0.603937    -1.222965    -0.517435
 N      -0.520756    -2.351931    -0.841760
 C      -2.086109    -0.443384     1.611479
 O      -2.919909    -0.842723     2.406774
 C      -0.741684    -1.114991     1.541485
 C       0.488898    -0.311943     1.933406
 H       0.749212     0.417226     1.161861
 H       1.329430    -1.009188     1.999182
 C      -0.774551    -2.547780     2.004625
 H       0.158565    -3.050119     1.741829
 H      -0.915425    -2.598160     3.088235
 H      -1.599368    -3.085230     1.537207
 N      -2.334516     0.618611     0.776063
 C      -3.579389     1.359600     0.974414
 H      -4.314615     0.675499     1.392995
 H      -3.434843     2.192222     1.669051
 H      -3.930374     1.733247     0.010904
 C       0.435731     0.470100     3.280698
 C       1.847788     1.011481     3.574333
 C      -0.062827    -0.376240     4.462002
 H       2.220228     1.608336     2.737378
 H       1.842558     1.638564     4.469222
 H       2.532561     0.174930     3.739936
 H      -1.098662    -0.689941     4.321317
 H       0.568762    -1.262386     4.570586
 H      -0.003274     0.204865     5.385905
 C      -0.456103     1.639309     3.134459
 N      -1.127546     2.565733     3.025444
48
  -29710.586252  -29701.400774  -11.66   16.77
 C       0.183826     0.123663    -1.986307
 C      -0.653393    -0.008272    -0.868452
 C      -1.312630     1.105119    -0.331598
 C      -1.132946     2.353179    -0.920739
 C      -0.307664     2.484411    -2.026307
 C       0.348869     1.383868    -2.554934
 C       0.906581    -1.034395    -2.579456
 C       0.216113    -2.136838    -3.080869
 C       0.907626    -3.194321    -3.654384
 C       2.295262    -3.162860    -3.734454
 C       2.989748    -2.064907    -3.242060
 C       2.297018    -1.005289    -2.669756
 H      -1.612223     3.223953    -0.492904
 H      -0.171602     3.462855    -2.475381
 H       0.988720     1.489262    -3.423995
 H      -0.865784    -2.163301    -3.025009
 H       0.359421    -4.048972    -4.037119
 H       2.833951    -3.992696    -4.180933
 H       4.073102    -2.032797    -3.301714
 H       2.838879    -0.149499    -2.278156
 C      -0.777274    -1.299755    -0.195181
 N      -0.842550    -2.473430    -0.265071
 C      -1.966257     0.091204     1.802340
 O      -2.759646    -0.024021     2.721275
 C      -0.711774    -0.739239     1.792747
 C       0.627049    -0.027810     1.912057
 H       0.889382     0.482818     0.981914
 H       1.392583    -0.792431     2.074175
 C      -0.851252    -2.025322     2.564117
 H      -0.896060    -1.825891     3.638736
 H      -1.767297    -2.545221     2.284426
 H      -0.003986    -2.682273     2.357560
 N      -2.178899     0.972563     0.770131
 C      -3.315690     1.885381     0.882393
 H      -3.713559     2.085023    -0.114099
 H      -4.076370     1.401455     1.491443
 H      -3.021082     2.822886     1.362978
 C       0.781068     1.023852     3.052184
 C       2.262896     1.439317     3.121309
 C       0.309330     0.515737     4.423177
 H       2.406128     2.238630     3.852519
 H       2.869436     0.580293     3.421888
 H       2.615882     1.794108     2.149216
 H       0.852084    -0.397606     4.682348
 H       0.515477     1.268253     5.188715
 H      -0.762237     0.308638     4.426799
 C       0.005792     2.234710     2.710690
 N      -0.573068     3.191240     2.444315
48
  -29710.558476  -29701.387985    5.77   24.79
 C      -1.980859     0.595795    -1.513982
 C      -1.543380     0.386775    -0.199513
 C      -2.283279    -0.402901     0.690240
 C      -3.490601    -0.951874     0.263629
 C      -3.941528    -0.718993    -1.026861
 C      -3.194956     0.041967    -1.912597
 C      -1.183812     1.382881    -2.493550
 C       0.136258     1.041454    -2.784526
 C       0.859792     1.764800    -3.721352
 C       0.271938     2.838924    -4.380019
 C      -1.044091     3.183282    -4.098181
 C      -1.768265     2.456833    -3.161283
 H      -4.073364    -1.570262     0.934489
 H      -4.884104    -1.151630    -1.346275
 H      -3.538177     0.198165    -2.929067
 H       0.597693     0.200240    -2.278532
 H       1.887541     1.490291    -3.936440
 H       0.838876     3.406429    -5.111128
 H      -1.508979     4.021605    -4.607234
 H      -2.792938     2.733683    -2.932665
 C      -0.308279     1.008216     0.272517
 N       0.385996     1.961225     0.277518
 C      -0.527079    -0.500813     2.414918
 O      -0.230346    -0.412817     3.593263
 C       0.531829    -0.508166     1.351271
 C       1.876167     0.027341     1.797831
 H       1.703408     0.765939     2.581771
 H       2.317680     0.562810     0.953225
 C       0.546729    -1.659166     0.375247
 H      -0.446630    -1.931586     0.020836
 H       1.183896    -1.433104    -0.482612
 H       0.976039    -2.546466     0.854007
 N      -1.848437    -0.606925     2.013193
 C      -2.859276    -0.803699     3.050653
 H      -3.209360    -1.840982     3.074543
 H      -2.406220    -0.563999     4.009741
 H      -3.708349    -0.140832     2.869917
 C       2.943188    -0.976377     2.324122
 C       2.429766    -1.934827     3.410652
 C       4.119111    -0.149225     2.882610
 H       3.243624    -2.585496     3.742578
 H       2.056482    -1.359245     4.258104
 H       1.612927    -2.564227     3.052247
 H       4.499414     0.547946     2.131295
 H       3.778931     0.422554     3.750114
 H       4.937857    -0.802303     3.195411
 C       3.477420    -1.772000     1.198797
 N       3.917058    -2.381583     0.328931
48
  -29710.531030  -29701.374134   22.99   33.48
 C      -2.187357    -0.599292    -0.764727
 C      -1.424802    -0.606562     0.409148
 C      -1.483243    -1.683604     1.301975
 C      -2.342017    -2.744985     1.023462
 C      -3.121778    -2.724979    -0.123479
 C      -3.045653    -1.666231    -1.015621
 C      -2.091194     0.516586    -1.744457
 C      -3.218665     1.264605    -2.073276
 C      -3.131130     2.298313    -2.997639
 C      -1.915696     2.590370    -3.604392
 C      -0.788294     1.841130    -3.287128
 C      -0.877822     0.809076    -2.364281
 H      -2.395577    -3.591095     1.696919
 H      -3.788354    -3.556833    -0.326687
 H      -3.639553    -1.664844    -1.922794
 H      -4.165293     1.043894    -1.589609
 H      -4.014751     2.879357    -3.241883
 H      -1.847373     3.398994    -4.325105
 H       0.163064     2.060900    -3.761472
 H      -0.003942     0.211545    -2.128198
 C      -0.585618     0.536798     0.758226
 N      -0.475099     1.703099     0.870714
 C       0.459223    -0.980421     2.645171
 O       0.966874    -0.843497     3.742877
 C       1.124822    -0.431398     1.407780
 C       2.155906     0.616659     1.767870
 H       2.778900     0.172052     2.553181
 H       1.633571     1.453445     2.238928
 C       1.474003    -1.460094     0.359114
 H       1.688376    -1.007690    -0.610473
 H       2.386341    -1.985110     0.667529
 H       0.689173    -2.204554     0.227412
 N      -0.727725    -1.677783     2.488358
 C      -1.260640    -2.380200     3.653903
 H      -0.795373    -1.959536     4.542235
 H      -2.342450    -2.239977     3.703796
 H      -1.035894    -3.451381     3.613417
 C       3.097050     1.207058     0.691288
 C       3.974927     2.270825     1.384180
 C       2.375285     1.855449    -0.501309
 H       4.516609     1.841235     2.230693
 H       4.701830     2.688212     0.682824
 H       3.338816     3.080909     1.750566
 H       1.729289     2.659985    -0.146352
 H       3.110782     2.265649    -1.199081
 H       1.753390     1.143403    -1.042115
 C       4.016916     0.166770     0.183245
 N       4.757472    -0.620952    -0.207300
48
  -29710.531029  -29701.374052   22.99   33.54
 C      -1.080772    -1.294402    -1.612757
 C      -1.260676    -0.832384    -0.303674
 C      -1.871871    -1.634286     0.667902
 C      -2.333737    -2.898251     0.306427
 C      -2.184565    -3.345420    -0.998061
 C      -1.560097    -2.556546    -1.952196
 C      -0.384891    -0.469267    -2.637064
 C       0.937578    -0.073833    -2.445464
 C       1.592476     0.685238    -3.404484
 C       0.931318     1.053582    -4.570779
 C      -0.384255     0.654796    -4.773173
 C      -1.038600    -0.104996    -3.811294
 H      -2.801630    -3.536977     1.044954
 H      -2.551379    -4.330782    -1.266590
 H      -1.424525    -2.918620    -2.965214
 H       1.456622    -0.377610    -1.542824
 H       2.621939     0.989215    -3.242656
 H       1.441529     1.648496    -5.321601
 H      -0.905244     0.938784    -5.682005
 H      -2.070490    -0.406439    -3.963233
 C      -0.860439     0.522020     0.068847
 N      -0.862098     1.672628    -0.178575
 C      -1.270547    -0.193131     2.574062
 O      -1.596489     0.326899     3.625135
 C       0.032040     0.163833     1.902127
 C       0.572288     1.475004     2.431458
 H       0.542763     1.395951     3.524796
 H      -0.140037     2.261727     2.169535
 C       0.988915    -0.988072     1.708856
 H       1.489357    -1.196966     2.662296
 H       0.484868    -1.900083     1.389946
 H       1.775692    -0.757358     0.988805
 N      -2.065360    -1.158456     1.977296
 C      -3.218761    -1.647433     2.729927
 H      -3.444476    -0.922629     3.508561
 H      -4.076576    -1.748797     2.061837
 H      -3.009725    -2.614349     3.199990
 C       1.980091     1.974029     2.028454
 C       2.187837     3.348732     2.698828
 C       2.196004     2.119998     0.513296
 H       3.191262     3.730540     2.494226
 H       1.456989     4.058144     2.301703
 H       2.056584     3.280648     3.781735
 H       2.080676     1.172688    -0.011620
 H       1.465109     2.819115     0.103887
 H       3.203743     2.497861     0.318903
 C       3.021409     1.077025     2.573917
 N       3.847222     0.406355     3.009448
48
  -29710.500781  -29701.357453   41.97   43.95
 C      -0.474037     0.051630    -2.076068
 C      -0.997697    -0.072181    -0.781659
 C      -1.701581     0.981610    -0.186383
 C      -1.913463     2.149824    -0.915805
 C      -1.433261     2.257713    -2.212240
 C      -0.714297     1.222970    -2.789300
 C       0.343852    -1.024736    -2.697153
 C      -0.027105    -1.561166    -3.927700
 C       0.745947    -2.547198    -4.527814
 C       1.901133    -3.001788    -3.904197
 C       2.280634    -2.465481    -2.678816
 C       1.506830    -1.482638    -2.079135
 H      -2.447143     2.979433    -0.469585
 H      -1.610813     3.171125    -2.770564
 H      -0.313506     1.322253    -3.791797
 H      -0.935924    -1.213568    -4.409478
 H       0.443459    -2.962414    -5.483892
 H       2.505055    -3.772737    -4.372076
 H       3.182371    -2.815745    -2.186880
 H       1.811776    -1.060933    -1.127187
 C      -0.819933    -1.318438    -0.041767
 N      -0.781614    -2.494516    -0.050568
 C      -1.686166     0.080002     2.108517
 O      -2.235403    -0.040498     3.190771
 C      -0.381057    -0.614934     1.854490
 C       0.858658     0.226076     1.603962
 H       0.780280     0.770969     0.660112
 H       1.702128    -0.462902     1.499034
 C      -0.202363    -1.857339     2.687663
 H      -0.080106    -1.603856     3.743863
 H      -1.076316    -2.503165     2.602170
 H       0.672306    -2.415529     2.347967
 N      -2.232741     0.864542     1.113062
 C      -3.437211     1.623910     1.442991
 H      -4.105495     1.639262     0.580041
 H      -3.928770     1.131988     2.279196
 H      -3.197154     2.652542     1.734570
 C       1.236134     1.289742     2.684698
 C       1.346587     0.710084     4.103378
 C       0.274567     2.492624     2.681909
 H       1.764308     1.460244     4.779809
 H       0.355479     0.433930     4.469710
 H       1.994712    -0.169472     4.124509
 H       0.677114     3.291777     3.309778
 H       0.137070     2.885386     1.670732
 H      -0.696543     2.203581     3.088535
 C       2.573312     1.784483     2.286448
 N       3.611934     2.161396     1.970381
48
  -29710.500784  -29701.357209   41.97   44.11
 C      -0.530501     0.616077    -1.893454
 C      -0.871530    -0.135598    -0.760439
 C      -1.881080     0.292621     0.110029
 C      -2.577367     1.462670    -0.186358
 C      -2.270402     2.184669    -1.329803
 C      -1.252938     1.772339    -2.175589
 C       0.590875     0.221231    -2.787802
 C       1.881827     0.063744    -2.285031
 C       2.928273    -0.275256    -3.130254
 C       2.696480    -0.460152    -4.488668
 C       1.413567    -0.300583    -4.997273
 C       0.366619     0.041289    -4.150497
 H      -3.354939     1.815351     0.479357
 H      -2.824896     3.090826    -1.551137
 H      -0.994519     2.355571    -3.052261
 H       2.069277     0.215626    -1.227285
 H       3.928322    -0.397645    -2.726847
 H       3.514687    -0.728103    -5.149526
 H       1.225595    -0.444536    -6.056486
 H      -0.638193     0.155185    -4.545804
 C      -0.175959    -1.389263    -0.483497
 N       0.310147    -2.379472    -0.893235
 C      -1.354824    -1.261618     1.950430
 O      -1.735897    -1.947303     2.884280
 C       0.094998    -1.268403     1.564755
 C       0.895260     0.014828     1.705679
 H       0.545821     0.775527     1.003441
 H       1.928645    -0.215510     1.429633
 C       0.796642    -2.550449     1.930452
 H       0.233897    -3.410480     1.567321
 H       1.791577    -2.576057     1.481609
 H       0.888126    -2.648766     3.015222
 N      -2.231174    -0.457865     1.249591
 C      -3.607606    -0.383289     1.735501
 H      -3.760424     0.490388     2.378979
 H      -4.291058    -0.330719     0.886001
 H      -3.810836    -1.280863     2.315084
 C       0.912391     0.700769     3.109623
 C       1.338799    -0.240412     4.246820
 C      -0.434710     1.363278     3.453050
 H       1.484110     0.330943     5.167270
 H       0.558803    -0.983635     4.425655
 H       2.274598    -0.752484     4.009770
 H      -1.188470     0.602897     3.666612
 H      -0.325616     1.987437     4.343798
 H      -0.784902     1.994079     2.631405
 C       1.924785     1.775233     3.000118
 N       2.713480     2.605800     2.906228
48
  -29710.522824  -29701.351004   28.14   48.00
 C      -0.311581     0.585670    -1.759304
 C      -1.020763     0.068914    -0.663255
 C      -2.090048     0.782463    -0.102024
 C      -2.447366     2.013846    -0.646035
 C      -1.743749     2.528007    -1.723770
 C      -0.683253     1.826205    -2.273822
 C       0.821866    -0.137936    -2.400318
 C       2.053947     0.500621    -2.541017
 C       3.118134    -0.141684    -3.160610
 C       2.957248    -1.429689    -3.656520
 C       1.728021    -2.066788    -3.533101
 C       0.665619    -1.426013    -2.910735
 H      -3.264655     2.578078    -0.214359
 H      -2.029492     3.489817    -2.137187
 H      -0.144800     2.224799    -3.126293
 H       2.181980     1.506506    -2.151851
 H       4.073090     0.365246    -3.256750
 H       3.786849    -1.934612    -4.141146
 H       1.593930    -3.071056    -3.921541
 H      -0.291370    -1.926071    -2.825718
 C      -0.633868    -1.203532    -0.057959
 N      -0.283821    -2.320113    -0.175871
 C      -2.297249    -0.584151     1.935180
 O      -3.006264    -1.138623     2.753223
 C      -0.802639    -0.756949     1.975464
 C      -0.065923     0.537343     2.275809
 H      -0.467754     0.902692     3.233750
 H      -0.329382     1.299699     1.537943
 C      -0.385371    -1.998769     2.709210
 H       0.655636    -2.252995     2.510710
 H      -0.503188    -1.845092     3.787672
 H      -1.007753    -2.841136     2.410612
 N      -2.828747     0.258295     0.974789
 C      -4.252231     0.576816     1.065364
 H      -4.419863     1.532899     1.572934
 H      -4.681368     0.619737     0.062447
 H      -4.737243    -0.209932     1.639223
 C       1.478586     0.541392     2.386293
 C       1.932378     2.006432     2.554933
 C       2.173028    -0.068923     1.159689
 H       1.667966     2.574486     1.658088
 H       1.449485     2.471532     3.418563
 H       3.014719     2.060545     2.694042
 H       1.870240     0.477431     0.264263
 H       3.257927     0.017424     1.261698
 H       1.922776    -1.120165     1.019289
 C       1.910929    -0.179459     3.602055
 N       2.272810    -0.698963     4.561178
48
  -29710.522825  -29701.351004   28.14   48.00
 C       0.426068     0.181994    -1.752466
 C      -0.685431     0.228322    -0.895899
 C      -1.476370     1.383661    -0.811755
 C      -1.150592     2.490469    -1.591994
 C      -0.049698     2.448189    -2.432947
 C       0.735461     1.309253    -2.510989
 C       1.289529    -1.024255    -1.888832
 C       0.758680    -2.259681    -2.257605
 C       1.588748    -3.361650    -2.410194
 C       2.957716    -3.243904    -2.199984
 C       3.496299    -2.013690    -1.843235
 C       2.665991    -0.910392    -1.694014
 H      -1.748150     3.391262    -1.527455
 H       0.196007     3.317804    -3.033813
 H       1.587085     1.274798    -3.181114
 H      -0.305934    -2.357714    -2.431108
 H       1.161675    -4.318276    -2.692854
 H       3.603692    -4.108196    -2.317296
 H       4.564754    -1.911434    -1.681650
 H       3.088208     0.049980    -1.412831
 C      -1.017592    -0.911010    -0.043379
 N      -1.134465    -2.072380     0.100694
 C      -2.732583     0.714878     1.197065
 O      -3.788335     0.659669     1.798452
 C      -1.501692     0.046854     1.748476
 C      -0.405578     1.034398     2.111021
 H      -0.853560     1.738095     2.829854
 H      -0.138996     1.636958     1.238723
 C      -1.827281    -1.044197     2.727363
 H      -2.639848    -1.662119     2.347878
 H      -0.966702    -1.685711     2.916033
 H      -2.142717    -0.601724     3.678830
 N      -2.611872     1.428904     0.018035
 C      -3.754354     2.235816    -0.405748
 H      -3.857634     2.180872    -1.491172
 H      -4.646052     1.832205     0.069119
 H      -3.642201     3.282958    -0.104512
 C       0.923191     0.526227     2.722464
 C       1.873994     1.734991     2.847271
 C       1.596717    -0.566595     1.879023
 H       2.810287     1.440290     3.327112
 H       2.101223     2.123322     1.850027
 H       1.419473     2.534359     3.438696
 H       2.557827    -0.842000     2.320938
 H       0.985567    -1.464969     1.796156
 H       1.781053    -0.184165     0.873176
 C       0.700024     0.018548     4.092530
 N       0.562219    -0.344717     5.174106
48
  -29710.478123  -29701.319194   56.19   67.96
 C      -2.438459    -0.517803    -0.756238
 C      -1.489457    -0.458030     0.273892
 C      -1.296191    -1.545499     1.139465
 C      -2.089644    -2.680785     0.982153
 C      -3.048402    -2.728480    -0.017920
 C      -3.222477    -1.661137    -0.884714
 C      -2.628106     0.601384    -1.718787
 C      -3.889313     1.169510    -1.883433
 C      -4.086064     2.195834    -2.798831
 C      -3.022919     2.660509    -3.562858
 C      -1.762781     2.093770    -3.407971
 C      -1.567339     1.070650    -2.491790
 H      -1.951712    -3.533032     1.635112
 H      -3.658667    -3.619284    -0.126432
 H      -3.956068    -1.711569    -1.681325
 H      -4.717861     0.813856    -1.278575
 H      -5.072195     2.634531    -2.913563
 H      -3.175535     3.462877    -4.277641
 H      -0.927754     2.451714    -4.001661
 H      -0.584370     0.626304    -2.379212
 C      -0.702662     0.757795     0.467270
 N      -0.653499     1.934879     0.454786
 C       0.717631    -0.618004     2.200807
 O       1.306799    -0.346577     3.230670
 C       1.145745    -0.011976     0.900485
 C       2.061469     1.173830     1.081956
 H       1.709160     1.732044     1.947854
 H       1.948045     1.830970     0.215582
 C       1.421055    -0.909227    -0.279939
 H       1.461004    -0.322030    -1.201741
 H       2.394661    -1.396333    -0.154333
 H       0.680467    -1.699667    -0.398919
 N      -0.359386    -1.489928     2.185829
 C      -0.611935    -2.271891     3.394033
 H      -1.668250    -2.209951     3.666205
 H      -0.335112    -3.321533     3.251480
 H      -0.003316    -1.853065     4.192075
 C       3.589078     0.879103     1.257158
 C       4.166101     1.845209     2.308143
 C       4.337142     1.054330    -0.079858
 H       3.685492     1.684567     3.275584
 H       5.243646     1.698589     2.420829
 H       3.984302     2.876580     1.991234
 H       3.942553     0.389870    -0.851814
 H       4.227361     2.086980    -0.422912
 H       5.401671     0.839125     0.044884
 C       3.855255    -0.495983     1.723479
 N       4.121346    -1.569338     2.035832
48
  -29710.444338  -29701.275874   77.39   95.14
 C      -0.828912     0.201113    -2.096149
 C      -0.854119     0.280639    -0.691204
 C      -2.067865     0.470395    -0.013660
 C      -3.245481     0.571205    -0.754499
 C      -3.219680     0.488846    -2.136137
 C      -2.020763     0.301756    -2.805613
 C       0.435502     0.017500    -2.860954
 C       1.458673     0.961984    -2.797730
 C       2.613773     0.793410    -3.547323
 C       2.759537    -0.319337    -4.368411
 C       1.741964    -1.262144    -4.439743
 C       0.584094    -1.091686    -3.690510
 H      -4.190540     0.694936    -0.240832
 H      -4.147552     0.569001    -2.693147
 H      -1.994628     0.246654    -3.888092
 H       1.347463     1.830966    -2.159480
 H       3.405981     1.532464    -3.486525
 H       3.665563    -0.450563    -4.951583
 H       1.848743    -2.133252    -5.078506
 H      -0.209917    -1.830807    -3.740206
 C       0.397980     0.100353     0.032993
 N       1.567527     0.129387     0.089648
 C      -1.367758    -0.091650     2.281758
 O      -1.567257    -0.022138     3.483249
 C      -0.260918    -0.952106     1.765637
 C       0.943115    -1.078968     2.667050
 H       1.727432    -1.544721     2.066413
 H       0.678189    -1.795661     3.455650
 C      -0.677066    -2.248644     1.116587
 H       0.157221    -2.690610     0.564931
 H      -0.980254    -2.962261     1.895053
 H      -1.521480    -2.122539     0.435742
 N      -2.150072     0.595066     1.388092
 C      -3.181961     1.461338     1.958174
 H      -2.800816     1.873931     2.890285
 H      -3.388403     2.274231     1.261320
 H      -4.104543     0.911535     2.171031
 C       1.542657     0.186157     3.362261
 C       3.065621     0.237535     3.123809
 C       1.269325     0.161346     4.880638
 H       3.290950     0.299407     2.058317
 H       3.500934     1.103181     3.630250
 H       3.523410    -0.668463     3.532479
 H       0.199386     0.118026     5.081444
 H       1.753769    -0.717642     5.316814
 H       1.687074     1.054047     5.354327
 C       0.970654     1.441268     2.834562
 N       0.532077     2.434677     2.458231
48
  -29710.424889  -29701.249615   89.60  111.62
 C      -0.735291    -0.011778    -1.662233
 C      -1.168613    -0.279097    -0.353913
 C      -2.244338     0.429082     0.201050
 C      -2.888942     1.398255    -0.563475
 C      -2.461504     1.663140    -1.854979
 C      -1.391896     0.971332    -2.399521
 C       0.402265    -0.733234    -2.297840
 C       0.399080    -2.120469    -2.435080
 C       1.458422    -2.764585    -3.059434
 C       2.531236    -2.032574    -3.554799
 C       2.537661    -0.648636    -3.429500
 C       1.475858    -0.003680    -2.808693
 H      -3.713890     1.958404    -0.141310
 H      -2.970498     2.422206    -2.440072
 H      -1.066042     1.173420    -3.413680
 H      -0.436650    -2.696708    -2.057030
 H       1.445767    -3.845259    -3.156420
 H       3.359462    -2.539495    -4.039686
 H       3.370138    -0.069208    -3.816032
 H       1.484391     1.077498    -2.704496
 C      -0.482083    -1.272372     0.468855
 N       0.030526    -2.325219     0.576634
 C      -1.897299    -0.294622     2.528728
 O      -2.365420    -0.643942     3.596405
 C      -0.405382    -0.295911     2.317976
 C       0.155627     1.103718     2.122319
 H      -0.141286     1.680478     3.012085
 H      -0.357200     1.583864     1.285383
 C       0.291490    -1.246005     3.252694
 H       0.368319    -0.797325     4.249961
 H      -0.278838    -2.169603     3.340434
 H       1.288293    -1.502280     2.895284
 N      -2.706137     0.152032     1.501819
 C      -4.130606     0.316378     1.786059
 H      -4.384061    -0.328605     2.624617
 H      -4.370872     1.350212     2.056546
 H      -4.712462     0.026631     0.909130
 C       1.682739     1.318511     1.922183
 C       2.277132     0.434877     0.813703
 C       2.494480     1.184250     3.225208
 H       3.321790     0.706242     0.639748
 H       2.236024    -0.618865     1.091612
 H       1.734008     0.561974    -0.123345
 H       2.063244     1.801297     4.018226
 H       2.522592     0.149273     3.563664
 H       3.522669     1.514678     3.056358
 C       1.821179     2.727918     1.483962
 N       1.928771     3.821268     1.146312
48
  -29710.424891  -29701.249587   89.59  111.64
 C      -0.442248     0.862889    -1.575530
 C      -1.071212     0.105296    -0.574837
 C      -2.169447     0.621650     0.127981
 C      -2.639700     1.895053    -0.182872
 C      -2.019072     2.643823    -1.170297
 C      -0.927356     2.138271    -1.857141
 C       0.727662     0.362601    -2.349838
 C       1.904858     1.110650    -2.371315
 C       3.002476     0.681093    -3.105828
 C       2.929786    -0.498860    -3.836205
 C       1.755392    -1.242439    -3.829531
 C       0.659657    -0.815472    -3.091986
 H      -3.480388     2.307741     0.360693
 H      -2.393394     3.635683    -1.402002
 H      -0.450039     2.722112    -2.636138
 H       1.964228     2.029303    -1.794749
 H       3.914773     1.269204    -3.107812
 H       3.785804    -0.837071    -4.411434
 H       1.690962    -2.163305    -4.399862
 H      -0.254464    -1.396661    -3.096452
 C      -0.569209    -1.219888    -0.218830
 N      -0.141864    -2.266556    -0.542464
 C      -2.198827    -1.078649     1.908522
 O      -2.833227    -1.800681     2.655040
 C      -0.694956    -1.162590     1.868925
 C      -0.027960     0.106233     2.376058
 H      -0.412040     0.268616     3.395177
 H      -0.387212     0.959185     1.795196
 C      -0.195907    -2.499224     2.344715
 H       0.823893    -2.689016     2.011525
 H      -0.233366    -2.542037     3.439483
 H      -0.827996    -3.295029     1.953352
 N      -2.826040    -0.137919     1.114848
 C      -4.263621     0.052076     1.299703
 H      -4.475983     0.884801     1.978813
 H      -4.732574     0.244223     0.332919
 H      -4.671764    -0.859264     1.731333
 C       1.522307     0.206198     2.446257
 C       2.212527    -0.169572     1.125180
 C       2.132172    -0.576027     3.625676
 H       2.068588    -1.226315     0.897435
 H       1.815996     0.415448     0.294679
 H       3.285828     0.025975     1.195851
 H       3.192033    -0.327920     3.725686
 H       1.631463    -0.320084     4.563425
 H       2.049353    -1.650492     3.466986
 C       1.806644     1.638802     2.700063
 N       2.027084     2.749127     2.899015
48
  -29710.402168  -29701.229152  103.85  124.46
 C      -2.307113     0.073005    -1.184181
 C      -1.586636     0.197033     0.011451
 C      -2.088774    -0.320943     1.212425
 C      -3.339527    -0.935214     1.213252
 C      -4.067663    -1.030187     0.037139
 C      -3.558720    -0.536525    -1.153767
 C      -1.770397     0.565772    -2.481553
 C      -0.541458     0.119471    -2.965011
 C      -0.063633     0.562921    -4.189436
 C      -0.810121     1.458739    -4.946706
 C      -2.037644     1.905229    -4.473665
 C      -2.515872     1.458480    -3.248204
 H      -3.741049    -1.348566     2.129688
 H      -5.041231    -1.509367     0.052421
 H      -4.119928    -0.636385    -2.075996
 H       0.040755    -0.585215    -2.381094
 H       0.896095     0.209829    -4.552934
 H      -0.435384     1.808086    -5.903531
 H      -2.624957     2.605653    -5.058909
 H      -3.469878     1.816638    -2.873434
 C      -0.300426     0.890076     0.024517
 N       0.340810     1.793099    -0.380728
 C      -0.003037     0.000822     2.487042
 O       0.528458     0.384141     3.513049
 C       0.813279    -0.297685     1.261883
 C       2.193077     0.330542     1.256336
 H       2.128438     1.264648     1.814323
 H       2.427328     0.603581     0.224180
 C       0.663012    -1.664807     0.638619
 H       1.142414    -1.695577    -0.342818
 H       1.151160    -2.417148     1.268237
 H      -0.376606    -1.971100     0.528871
 N      -1.373863    -0.186949     2.417275
 C      -2.133522    -0.093725     3.663244
 H      -2.430750    -1.084052     4.023608
 H      -1.496868     0.375219     4.409640
 H      -3.026116     0.516050     3.507044
 C       3.409774    -0.486164     1.803281
 C       3.927736    -1.541947     0.804287
 C       3.177348    -1.122351     3.184162
 H       4.899167    -1.919629     1.133991
 H       3.246055    -2.390227     0.737849
 H       4.049434    -1.110196    -0.192743
 H       2.380170    -1.868170     3.133716
 H       4.092121    -1.621134     3.516402
 H       2.886848    -0.373778     3.919863
 C       4.497217     0.509127     1.950601
 N       5.349009     1.273514     2.055688
48
  -29710.382651  -29701.199029  116.10  143.37
 C      -0.901941    -0.517704    -1.725139
 C      -1.189835    -0.211767    -0.385046
 C      -2.079420     0.824220    -0.062945
 C      -2.653166     1.568913    -1.091895
 C      -2.364605     1.270689    -2.414079
 C      -1.503037     0.233396    -2.731683
 C      -0.000064    -1.637442    -2.111128
 C      -0.474431    -2.641990    -2.953009
 C       0.356772    -3.684832    -3.341931
 C       1.671365    -3.731276    -2.892665
 C       2.150911    -2.729406    -2.057036
 C       1.320214    -1.687236    -1.672588
 H      -3.323439     2.386508    -0.859316
 H      -2.821008     1.858034    -3.204192
 H      -1.275692     0.002487    -3.766234
 H      -1.505503    -2.612839    -3.292357
 H      -0.024615    -4.464615    -3.993555
 H       2.320018    -4.548244    -3.193047
 H       3.172414    -2.755258    -1.692787
 H       1.707904    -0.912427    -1.025535
 C      -0.598618    -1.007612     0.688594
 N      -0.256085    -2.060808     1.085414
 C      -1.687842     0.767599     2.372782
 O      -2.143656     0.815575     3.500211
 C      -0.237947     0.429332     2.156809
 C       0.533347     1.577652     1.516479
 H       0.182158     2.507294     1.989593
 H       0.244192     1.665725     0.465916
 C       0.346585    -0.318819     3.321874
 H       1.337399    -0.710546     3.093914
 H       0.397511     0.340026     4.195605
 H      -0.296601    -1.159252     3.580555
 N      -2.458030     1.085564     1.269003
 C      -3.798686     1.616352     1.513632
 H      -3.829486     2.702785     1.379687
 H      -4.510692     1.148204     0.830728
 H      -4.068737     1.383699     2.541101
 C       2.080762     1.635647     1.581666
 C       2.601579     2.056695     2.968968
 C       2.555966     2.666963     0.536489
 H       3.690706     2.146156     2.946816
 H       2.179858     3.030925     3.232780
 H       2.336038     1.340666     3.744993
 H       3.643958     2.765189     0.558246
 H       2.255103     2.370216    -0.471625
 H       2.113550     3.642487     0.759530
 C       2.703553     0.346376     1.223609
 N       3.250905    -0.623391     0.941471
48
  -29710.360476  -29701.181940  130.02  154.09
 C      -0.385490     1.032663    -1.431865
 C      -0.897148     0.030765    -0.591031
 C      -2.130040     0.200265     0.055050
 C      -2.813117     1.403425    -0.099253
 C      -2.289806     2.406150    -0.900411
 C      -1.093612     2.220741    -1.571820
 C       0.887596     0.864819    -2.185311
 C       1.036856    -0.162385    -3.116520
 C       2.216692    -0.291152    -3.835189
 C       3.259113     0.606342    -3.632823
 C       3.112339     1.637020    -2.712837
 C       1.930270     1.769365    -1.994540
 H      -3.752347     1.560587     0.416110
 H      -2.829946     3.341294    -1.003256
 H      -0.692992     2.999407    -2.210239
 H       0.224354    -0.860469    -3.281342
 H       2.323113    -1.097948    -4.552988
 H       4.183448     0.502720    -4.192582
 H       3.921931     2.341493    -2.549914
 H       1.816267     2.563426    -1.264774
 C      -0.116293    -1.180442    -0.364712
 N       0.645263    -1.987061    -0.753796
 C      -2.030119    -1.845337     1.425224
 O      -2.584099    -2.841697     1.853545
 C      -0.555986    -1.638239     1.640496
 C      -0.273287    -0.485640     2.598182
 H      -0.357970    -0.942505     3.595067
 H      -1.083061     0.247885     2.541779
 C       0.159846    -2.935999     1.911654
 H      -0.185453    -3.711394     1.229437
 H       1.236470    -2.836760     1.791568
 H      -0.058703    -3.261438     2.936064
 N      -2.733127    -0.843099     0.789051
 C      -4.191504    -0.943515     0.773222
 H      -4.568373    -0.657678    -0.210730
 H      -4.459772    -1.976476     0.984154
 H      -4.645966    -0.300971     1.534814
 C       1.067748     0.310684     2.600833
 C       2.312922    -0.475336     2.165816
 C       1.283137     0.862959     4.026412
 H       2.217336    -0.863665     1.151081
 H       3.185548     0.182706     2.197792
 H       2.488946    -1.305750     2.853710
 H       0.411015     1.430276     4.362785
 H       1.449871     0.032834     4.718621
 H       2.153867     1.522701     4.055206
 C       0.936253     1.495780     1.729365
 N       0.858830     2.467795     1.121974
48
  -29710.339649  -29701.174620  143.08  158.68
 C      -2.436388     0.353380    -0.776157
 C      -1.464522     0.006322     0.177185
 C      -1.807791    -0.752395     1.304827
 C      -3.138777    -1.131995     1.480317
 C      -4.103312    -0.755864     0.560003
 C      -3.758681    -0.022404    -0.563996
 C      -2.095488     1.105316    -2.014938
 C      -1.179272     0.595128    -2.932993
 C      -0.896216     1.286318    -4.101900
 C      -1.527035     2.496748    -4.367123
 C      -2.444227     3.009576    -3.458678
 C      -2.728645     2.314978    -2.289442
 H      -3.421615    -1.733713     2.334119
 H      -5.134142    -1.056057     0.717706
 H      -4.508543     0.248275    -1.298709
 H      -0.690724    -0.352266    -2.732821
 H      -0.178830     0.880047    -4.807670
 H      -1.303481     3.039029    -5.280362
 H      -2.939373     3.954506    -3.658787
 H      -3.438150     2.720213    -1.574469
 C      -0.095903     0.473474    -0.013742
 N       0.645393     1.276761    -0.442204
 C       0.474736    -1.365137     2.040432
 O       1.212282    -1.748661     2.928701
 C       1.009686    -1.191908     0.657915
 C       2.478200    -0.858552     0.497596
 H       2.550829    -0.339168    -0.462614
 H       3.013694    -1.809281     0.370067
 C       0.551349    -2.227842    -0.342974
 H       1.046065    -3.181944    -0.116313
 H      -0.526117    -2.398426    -0.318015
 H       0.842168    -1.939095    -1.357033
 N      -0.861325    -1.111013     2.285422
 C      -1.327768    -1.351361     3.650778
 H      -2.117751    -0.638559     3.893143
 H      -1.703850    -2.372118     3.777839
 H      -0.486863    -1.210235     4.326182
 C       3.275585    -0.011854     1.528833
 C       2.496895     1.139275     2.185877
 C       4.493369     0.580219     0.783152
 H       1.631029     0.788587     2.747415
 H       3.154042     1.663486     2.885334
 H       2.163224     1.841989     1.422142
 H       5.151911     1.104335     1.480405
 H       5.071467    -0.207023     0.291169
 H       4.147722     1.288884     0.025955
 C       3.842614    -0.882440     2.584756
 N       4.384755    -1.515652     3.375459
48
  -29710.339650  -29701.174566  143.08  158.72
 C      -2.635837    -0.368778     0.379340
 C      -1.268759    -0.653928     0.532970
 C      -0.841838    -1.942793     0.881705
 C      -1.800505    -2.931786     1.103646
 C      -3.149806    -2.639671     0.990307
 C      -3.569136    -1.370040     0.626566
 C      -3.120404     0.972002    -0.049266
 C      -4.011994     1.677829     0.754723
 C      -4.497934     2.914985     0.350023
 C      -4.100027     3.454862    -0.866410
 C      -3.215006     2.752219    -1.676624
 C      -2.728710     1.518302    -1.270208
 H      -1.491550    -3.937863     1.355433
 H      -3.880011    -3.421378     1.172878
 H      -4.624026    -1.148408     0.510589
 H      -4.315085     1.259902     1.709852
 H      -5.187536     3.458629     0.987991
 H      -4.478348     4.421644    -1.183044
 H      -2.900397     3.168331    -2.628298
 H      -2.044148     0.969770    -1.908009
 C      -0.302248     0.423125     0.349599
 N      -0.045067     1.567475     0.401452
 C       1.562336    -1.686117     0.352156
 O       2.705982    -2.073901     0.499739
 C       1.272099    -0.591237    -0.619733
 C       2.362487     0.421618    -0.900077
 H       1.837645     1.325476    -1.223527
 H       2.919179     0.063306    -1.776783
 C       0.562747    -1.024134    -1.882442
 H       0.235348    -0.153773    -2.458245
 H       1.267255    -1.588451    -2.508259
 H      -0.298182    -1.666310    -1.689921
 N       0.519982    -2.262255     1.053031
 C       0.871076    -3.363838     1.949005
 H       0.202610    -3.354703     2.811544
 H       0.805537    -4.334047     1.445087
 H       1.897328    -3.218586     2.279030
 C       3.406480     0.863455     0.163401
 C       2.880122     0.974624     1.603434
 C       3.940132     2.246815    -0.273800
 H       2.504274     0.024704     1.983478
 H       3.694773     1.293824     2.259431
 H       2.081340     1.715174     1.647918
 H       4.316333     2.214470    -1.300164
 H       3.133951     2.982944    -0.217211
 H       4.755136     2.567266     0.380124
 C       4.580967    -0.039056     0.141497
 N       5.555804    -0.646114     0.106025
48
  -29710.290845  -29701.139436  173.71  180.76
 C      -2.547239    -0.420388    -0.050221
 C      -1.298828    -0.434980     0.595340
 C      -1.055109    -1.323656     1.651393
 C      -2.070791    -2.187896     2.057285
 C      -3.302553    -2.169535     1.423771
 C      -3.540396    -1.297691     0.373658
 C      -2.847474     0.497090    -1.184286
 C      -2.843304     1.880536    -1.015862
 C      -3.158148     2.715539    -2.078211
 C      -3.480280     2.178284    -3.319536
 C      -3.490959     0.800169    -3.493192
 C      -3.178198    -0.035801    -2.428158
 H      -1.890960    -2.893179     2.858409
 H      -4.081063    -2.850281     1.752547
 H      -4.504485    -1.279630    -0.122101
 H      -2.596303     2.303102    -0.048773
 H      -3.147519     3.791352    -1.937016
 H      -3.722961     2.833839    -4.149911
 H      -3.741643     0.373645    -4.459355
 H      -3.179709    -1.113291    -2.563349
 C      -0.242181     0.439580     0.099289
 N       0.081025     1.423602    -0.453734
 C       1.410194    -1.163127     1.747417
 O       2.436473    -1.324309     2.385663
 C       1.467007    -0.786839     0.302701
 C       2.656933    -0.001022    -0.211525
 H       2.306319     0.450489    -1.142908
 H       3.419008    -0.736093    -0.503500
 C       1.076428    -1.892524    -0.654203
 H       0.184483    -2.433939    -0.335830
 H       0.907230    -1.493626    -1.658044
 H       1.900868    -2.615606    -0.716307
 N       0.179181    -1.356391     2.336006
 C       0.185015    -1.777605     3.737306
 H       1.049822    -1.333897     4.225833
 H      -0.727823    -1.426613     4.220545
 H       0.257456    -2.865984     3.834869
 C       3.383452     1.106351     0.620439
 C       4.643579     0.559853     1.324641
 C       2.503449     1.870658     1.626384
 H       4.359986    -0.181033     2.069707
 H       5.320528     0.097156     0.600534
 H       5.179932     1.377982     1.813419
 H       1.656962     2.348251     1.135851
 H       2.139808     1.200308     2.406079
 H       3.106061     2.645302     2.108567
 C       3.865020     2.097962    -0.371325
 N       4.255864     2.862535    -1.135490
48
  -29710.290845  -29701.139409  173.71  180.78
 C      -0.502842    -1.573921    -1.762863
 C      -0.629785    -1.071775    -0.456262
 C      -1.080399    -1.898243     0.582141
 C      -1.407909    -3.223400     0.299387
 C      -1.287211    -3.716246    -0.989588
 C      -0.832748    -2.901966    -2.014201
 C      -0.016603    -0.736986    -2.894727
 C       1.148187    -1.101765    -3.566127
 C       1.605096    -0.353066    -4.643923
 C       0.895390     0.765398    -5.062047
 C      -0.271886     1.129891    -4.400298
 C      -0.726215     0.383617    -3.322518
 H      -1.738655    -3.878875     1.094702
 H      -1.545708    -4.750768    -1.190911
 H      -0.739870    -3.284665    -3.024393
 H       1.704852    -1.972840    -3.233537
 H       2.517071    -0.643706    -5.155849
 H       1.250463     1.352879    -5.902854
 H      -0.829931     2.003063    -4.722138
 H      -1.638579     0.668872    -2.811583
 C      -0.216397     0.301211    -0.188901
 N      -0.043632     1.398549    -0.569205
 C      -0.408100    -0.511908     2.515741
 O      -0.542946    -0.244328     3.697605
 C       0.683180     0.120310     1.714836
 C       1.193528     1.491558     2.111255
 H       1.682131     1.873627     1.211498
 H       1.996877     1.330577     2.842723
 C       1.819322    -0.810394     1.349093
 H       2.451508    -0.364291     0.576578
 H       2.443268    -0.974877     2.237932
 H       1.474351    -1.785267     1.001733
 N      -1.237662    -1.426271     1.903397
 C      -2.252659    -2.055116     2.749228
 H      -3.110518    -2.330792     2.134358
 H      -1.864623    -2.943672     3.258374
 H      -2.562124    -1.337355     3.505851
 C       0.274931     2.621993     2.680984
 C       0.320940     2.675092     4.222912
 C      -1.185717     2.603761     2.194501
 H      -0.250968     3.535284     4.581946
 H      -0.102196     1.762368     4.638058
 H       1.350976     2.783554     4.574963
 H      -1.247032     2.663724     1.109183
 H      -1.693852     1.701587     2.537132
 H      -1.712123     3.463176     2.618788
 C       0.870656     3.895073     2.208551
 N       1.336057     4.886619     1.859955
