48
  -29710.878790  -29701.571689    0.00    0.00
 C      -1.724855     1.114957     0.546319
 C      -0.970503     0.486152    -0.457685
 C      -0.531783     1.221710    -1.567487
 C      -0.875625     2.571451    -1.663931
 C      -1.625688     3.177863    -0.667777
 C      -2.047355     2.463168     0.441302
 C      -2.125395     0.310210     1.711383
 C      -2.612747    -0.998882     1.446118
 C      -2.943577    -1.833749     2.551666
 C      -2.698427    -1.412871     3.835707
 C      -2.166485    -0.135333     4.078973
 C      -1.889099     0.716849     3.015663
 H      -0.539186     3.165810    -2.501476
 H      -1.875888     4.229649    -0.762588
 H      -2.638382     2.936781     1.217299
 H      -3.127000    -1.176081     0.506267
 H      -3.366606    -2.813878     2.360537
 H      -2.929485    -2.065125     4.672005
 H      -1.968679     0.185301     5.096349
 H      -1.454518     1.695016     3.198254
 C      -0.550453    -0.922598    -0.288504
 N      -1.015436    -1.745428     0.550993
 C       0.937873    -0.551796    -2.372786
 O       1.780390    -0.929692    -3.162533
 C       0.600936    -1.433211    -1.161691
 C       1.894197    -1.648349    -0.336274
 H       2.641699    -2.015620    -1.044210
 H       1.690247    -2.448691     0.381651
 C       0.202723    -2.801971    -1.757215
 H       1.016160    -3.184776    -2.374529
 H      -0.021178    -3.500676    -0.950379
 H      -0.690480    -2.703923    -2.381339
 N       0.248004     0.622538    -2.568661
 C       0.596558     1.400089    -3.754125
 H       1.294776     2.203171    -3.499226
 H       1.076101     0.729992    -4.462521
 H      -0.308459     1.817215    -4.200650
 C       2.525432    -0.482762     0.467921
 C       3.957596    -0.901239     0.856861
 C       1.739765    -0.129841     1.745964
 H       4.449243    -0.111164     1.430015
 H       3.917249    -1.804425     1.472953
 H       4.559703    -1.110915    -0.030550
 H       1.556035    -1.037267     2.327493
 H       2.319057     0.568384     2.356773
 H       0.780713     0.336560     1.528968
 C       2.632908     0.736254    -0.358706
 N       2.721033     1.696720    -0.984434
48
  -29710.878788  -29701.571417    0.00    0.17
 C      -1.651602    -1.417413    -0.154246
 C      -1.203191    -0.089796    -0.248191
 C      -1.880050     0.927608     0.438767
 C      -3.009675     0.600686     1.191365
 C      -3.444323    -0.713636     1.270628
 C      -2.770465    -1.727791     0.610282
 C      -0.882081    -2.454714    -0.859426
 C      -0.458513    -2.147583    -2.181497
 C       0.348711    -3.097597    -2.870381
 C       0.785315    -4.230733    -2.228993
 C       0.400791    -4.493830    -0.903412
 C      -0.433117    -3.606569    -0.231734
 H      -3.542454     1.362668     1.742245
 H      -4.321867    -0.943714     1.866298
 H      -3.114074    -2.754601     0.668479
 H      -1.073565    -1.479512    -2.776954
 H       0.632373    -2.897737    -3.897867
 H       1.421425    -4.937431    -2.752595
 H       0.757272    -5.387583    -0.402298
 H      -0.711920    -3.793766     0.800853
 C       0.044009     0.214787    -0.983949
 N       0.644131    -0.554206    -1.788009
 C      -0.155873     2.598366     0.003705
 O       0.278736     3.718975     0.181704
 C       0.722869     1.561269    -0.710074
 C       2.033120     1.388406     0.098294
 H       2.436316     2.395699     0.230957
 H       2.730500     0.828132    -0.532024
 C       1.098104     2.211398    -2.060357
 H       1.591255     3.167811    -1.883224
 H       1.756263     1.543686    -2.617409
 H       0.202483     2.388718    -2.663157
 N      -1.433435     2.256863     0.383935
 C      -2.226838     3.297052     1.031945
 H      -2.195165     3.187046     2.120208
 H      -1.797502     4.258638     0.763904
 H      -3.259140     3.246659     0.679465
 C       2.025532     0.687421     1.481204
 C       3.365933     1.002075     2.175319
 C       1.854210    -0.841350     1.387374
 H       4.189417     0.619659     1.564929
 H       3.497871     2.079150     2.303766
 H       3.412898     0.527831     3.158846
 H       2.032463    -1.295520     2.366219
 H       0.855073    -1.128761     1.065635
 H       2.574964    -1.249410     0.673677
 C       0.949534     1.219980     2.341124
 N       0.114796     1.617960     3.024222
48
  -29710.836782  -29701.552396   26.36   12.11
 C      -0.757615     1.077784    -1.679782
 C       0.003495     1.074926    -0.500326
 C      -0.196902     2.073219     0.461535
 C      -1.150358     3.064988     0.228598
 C      -1.899291     3.053202    -0.939964
 C      -1.714039     2.064961    -1.891419
 C      -0.522808     0.007154    -2.659395
 C       0.831511    -0.345627    -2.903248
 C       1.102547    -1.424026    -3.792736
 C       0.070112    -2.158111    -4.320828
 C      -1.264396    -1.825085    -4.029640
 C      -1.551052    -0.744622    -3.206043
 H      -1.331076     3.840679     0.960086
 H      -2.639790     3.830085    -1.100613
 H      -2.294204     2.058984    -2.807203
 H       1.591179     0.423312    -2.795239
 H       2.133420    -1.669118    -4.023860
 H       0.282262    -2.995522    -4.978203
 H      -2.072477    -2.422746    -4.437565
 H      -2.577303    -0.514598    -2.942263
 C       0.943835    -0.034895    -0.231484
 N       1.347703    -0.888336    -1.071351
 C       1.207921     0.973397     2.139803
 O       1.641454     0.943478     3.276274
 C       1.461409    -0.211808     1.203914
 C       0.912988    -1.509648     1.844105
 H       1.403816    -1.615228     2.816082
 H       1.249447    -2.332276     1.206602
 C       3.001797    -0.343523     1.148783
 H       3.397992    -0.474720     2.156510
 H       3.270997    -1.194831     0.522646
 H       3.448101     0.555113     0.712359
 N       0.540672     2.078273     1.662571
 C       0.442245     3.231013     2.551739
 H       1.205217     3.128047     3.319059
 H       0.613326     4.149092     1.985337
 H      -0.538654     3.281711     3.036915
 C      -0.602684    -1.691026     2.095552
 C      -1.206276    -0.625323     3.029326
 C      -0.806140    -3.086684     2.719712
 H      -0.603332    -0.539894     3.936492
 H      -1.257085     0.354701     2.551839
 H      -2.225757    -0.909177     3.304141
 H      -0.394371    -3.866773     2.074283
 H      -0.299932    -3.130137     3.688238
 H      -1.868809    -3.290516     2.872122
 C      -1.364035    -1.670589     0.830979
 N      -2.004386    -1.671248    -0.123021
48
  -29710.836782  -29701.552314   26.36   12.16
 C      -1.012394     0.728061    -1.714035
 C      -0.163610     0.963290    -0.621036
 C      -0.437388     2.016658     0.260659
 C      -1.551839     2.825151     0.034204
 C      -2.385408     2.578492    -1.047876
 C      -2.127241     1.533849    -1.918668
 C      -0.694836    -0.393192    -2.610123
 C       0.672744    -0.564197    -2.954475
 C       1.034771    -1.678179    -3.764152
 C       0.090503    -2.609482    -4.117302
 C      -1.250470    -2.449944    -3.726216
 C      -1.633752    -1.343224    -2.980465
 H      -1.790512     3.638237     0.706036
 H      -3.250280     3.215066    -1.204282
 H      -2.774360     1.344753    -2.767649
 H       1.307702     0.316333    -2.993530
 H       2.068194    -1.790113    -4.073500
 H       0.376099    -3.470750    -4.713171
 H      -1.985437    -3.201006    -3.995153
 H      -2.657490    -1.241960    -2.637846
 C       0.959628     0.040571    -0.346909
 N       1.420959    -0.827208    -1.141252
 C       1.260223     1.321982     1.884015
 O       1.787423     1.477309     2.969532
 C       1.617962     0.095492     1.039861
 C       1.337628    -1.194486     1.847556
 H       1.919241    -1.122412     2.771315
 H       1.744877    -2.020589     1.257614
 C       3.149579     0.189532     0.843682
 H       3.409756     1.093348     0.284554
 H       3.645173     0.226124     1.814632
 H       3.496141    -0.673597     0.274342
 N       0.388801     2.258436     1.376671
 C       0.184786     3.471143     2.162062
 H      -0.747318     3.426230     2.735902
 H       1.016427     3.564630     2.855706
 H       0.160199     4.339381     1.499863
 C      -0.103610    -1.571928     2.264396
 C      -0.787052    -0.515332     3.152367
 C      -0.030465    -2.908456     3.030670
 H      -1.721947    -0.917180     3.552279
 H      -0.130772    -0.245671     3.983253
 H      -1.032283     0.390180     2.594756
 H      -1.030842    -3.250966     3.306303
 H       0.443420    -3.682338     2.421399
 H       0.556218    -2.773458     3.943772
 C      -0.962620    -1.798843     1.085486
 N      -1.673023    -1.995659     0.204148
48
  -29710.821921  -29701.541021   35.69   19.24
 C      -1.875518     1.119374     0.008371
 C      -0.958731     0.399668    -0.766595
 C      -0.488120     0.921590    -1.976520
 C      -0.909397     2.188823    -2.378714
 C      -1.786816     2.913935    -1.581347
 C      -2.276552     2.390254    -0.395010
 C      -2.376496     0.460674     1.224620
 C      -2.714310    -0.918723     1.093070
 C      -3.136455    -1.619698     2.260492
 C      -3.113349    -1.003090     3.487346
 C      -2.727381     0.342738     3.604983
 C      -2.368762     1.064771     2.470986
 H      -0.550086     2.620483    -3.304022
 H      -2.099581     3.901217    -1.905641
 H      -2.986676     2.947117     0.206483
 H      -3.082745    -1.265977     0.132273
 H      -3.447461    -2.654252     2.165248
 H      -3.410013    -1.554150     4.374251
 H      -2.707604     0.818256     4.579873
 H      -2.049806     2.099170     2.560126
 C      -0.411366    -0.886689    -0.276720
 N      -0.962440    -1.663381     0.548532
 C       1.039797    -0.958318    -2.314939
 O       1.698004    -1.660036    -3.052334
 C       0.995879    -1.206952    -0.795297
 C       2.033354    -0.180063    -0.241341
 H       1.644010     0.828666    -0.411997
 H       2.934392    -0.274712    -0.857390
 C       1.388790    -2.654135    -0.516973
 H       2.401795    -2.844337    -0.871918
 H       1.331254    -2.868215     0.549897
 H       0.708110    -3.333628    -1.033330
 N       0.365836     0.153351    -2.785929
 C       0.520293     0.506525    -4.192763
 H       1.013961    -0.323813    -4.691946
 H      -0.459536     0.676650    -4.646023
 H       1.133043     1.406382    -4.309371
 C       2.487570    -0.219561     1.240855
 C       1.335442    -0.213755     2.259051
 C       3.376365     1.021462     1.474861
 H       0.658896     0.618666     2.046153
 H       0.756977    -1.136263     2.236832
 H       1.737483    -0.079016     3.267046
 H       2.774432     1.928008     1.361877
 H       3.796674     1.007774     2.483364
 H       4.201058     1.057428     0.757845
 C       3.344039    -1.397782     1.492341
 N       4.047025    -2.279302     1.715358
48
  -29710.821922  -29701.540804   35.69   19.38
 C      -1.546680     1.575499     0.038203
 C      -0.814949     0.690797    -0.762362
 C      -0.249094     1.125089    -1.966108
 C      -0.384987     2.462838    -2.336340
 C      -1.077062     3.343661    -1.513758
 C      -1.662027     2.912406    -0.333371
 C      -2.171815     1.014291     1.245838
 C      -2.804411    -0.254319     1.088953
 C      -3.362114    -0.872841     2.246043
 C      -3.196389    -0.304912     3.485355
 C      -2.524210     0.920713     3.627067
 C      -2.023670     1.572910     2.504578
 H       0.054261     2.826818    -3.256236
 H      -1.167930     4.382757    -1.813322
 H      -2.228952     3.597071     0.287917
 H      -3.246395    -0.490063     0.125347
 H      -3.892781    -1.811772     2.132464
 H      -3.600688    -0.798144     4.363730
 H      -2.394277     1.357581     4.611537
 H      -1.485272     2.510064     2.611962
 C      -0.559548    -0.695212    -0.306269
 N      -1.262016    -1.351493     0.508471
 C       0.827316    -1.035419    -2.361906
 O       1.310563    -1.847090    -3.121546
 C       0.740042    -1.303419    -0.847471
 C       1.980654    -0.541110    -0.284001
 H       1.820419     0.531963    -0.429227
 H       2.835167    -0.816433    -0.911982
 C       0.808665    -2.807464    -0.604041
 H       0.712723    -3.028200     0.458710
 H      -0.007559    -3.309739    -1.126680
 H       1.753167    -3.206278    -0.974453
 N       0.410615     0.207616    -2.801342
 C       0.629584     0.551055    -4.202009
 H       1.423691     1.297583    -4.306389
 H       0.926291    -0.355325    -4.724304
 H      -0.292124     0.941851    -4.640406
 C       2.424636    -0.712758     1.191871
 C       1.308093    -0.478758     2.222779
 C       3.564725     0.298445     1.441891
 H       1.736258    -0.458035     3.228806
 H       0.828436     0.485909     2.034866
 H       0.541905    -1.251982     2.187802
 H       3.174819     1.316935     1.354922
 H       3.978416     0.170014     2.445031
 H       4.372660     0.169962     0.716454
 C       3.004349    -2.055058     1.409005
 N       3.498991    -3.073726     1.605593
48
  -29710.821922  -29701.540668   35.69   19.47
 C      -1.267369    -0.229392    -1.758480
 C      -0.919197     0.627525    -0.708001
 C      -1.905755     1.335290    -0.012604
 C      -3.245115     1.141517    -0.349766
 C      -3.583788     0.256134    -1.366060
 C      -2.608623    -0.427338    -2.075567
 C      -0.160777    -0.871732    -2.484415
 C       0.954396    -0.036171    -2.788352
 C       2.082146    -0.629696    -3.427388
 C       2.124645    -1.985278    -3.643010
 C       1.036749    -2.800906    -3.289036
 C      -0.099479    -2.235450    -2.718834
 H      -4.028139     1.667225     0.181397
 H      -4.631023     0.111949    -1.611464
 H      -2.877216    -1.091818    -2.889504
 H       0.770024     1.019669    -2.963486
 H       2.914848     0.003854    -3.712558
 H       2.999849    -2.431339    -4.104883
 H       1.083328    -3.871367    -3.458928
 H      -0.934175    -2.865037    -2.424618
 C       0.490016     0.733577    -0.263992
 N       1.510311     0.492694    -0.963237
 C      -0.278153     2.272408     1.554512
 O       0.048392     3.132447     2.343874
 C       0.654701     1.093778     1.217523
 C       0.112296    -0.054157     2.126260
 H      -0.887968    -0.327352     1.775417
 H      -0.013682     0.367226     3.129715
 C       2.090496     1.485016     1.551516
 H       2.777515     0.681052     1.288814
 H       2.379047     2.372312     0.984858
 H       2.182323     1.709043     2.614398
 N      -1.537164     2.255758     0.983121
 C      -2.498238     3.268049     1.406643
 H      -3.285321     2.829892     2.028998
 H      -1.961618     4.013262     1.988922
 H      -2.952077     3.742504     0.532928
 C       0.890004    -1.386372     2.284827
 C       1.260954    -2.067580     0.957209
 C      -0.004942    -2.337343     3.109187
 H       2.005697    -1.505157     0.395800
 H       1.656663    -3.067440     1.156048
 H       0.368803    -2.170286     0.333121
 H      -0.300042    -1.879185     4.057096
 H      -0.907946    -2.574583     2.538910
 H       0.522911    -3.269120     3.326182
 C       2.119953    -1.180659     3.078480
 N       3.062373    -1.067326     3.726556
48
  -29710.793944  -29701.523525   53.24   30.22
 C      -0.774738     1.169461    -1.643221
 C       0.074155     1.121295    -0.525997
 C       0.068295     2.173938     0.399322
 C      -0.758917     3.275939     0.172695
 C      -1.582672     3.315428    -0.943123
 C      -1.606555     2.265672    -1.846000
 C      -0.771582     0.017135    -2.558357
 C       0.499653    -0.510632    -2.914412
 C       0.541252    -1.670680    -3.740150
 C      -0.620565    -2.313470    -4.090955
 C      -1.867391    -1.808998    -3.684642
 C      -1.932381    -0.645468    -2.925611
 H      -0.783121     4.100461     0.871762
 H      -2.220119     4.179879    -1.098242
 H      -2.249518     2.296561    -2.718650
 H       1.347164     0.167332    -2.951540
 H       1.504441    -2.049967    -4.063388
 H      -0.578767    -3.211696    -4.699028
 H      -2.779021    -2.328813    -3.959664
 H      -2.892282    -0.266018    -2.588454
 C       0.903213    -0.081398    -0.279694
 N       1.147515    -1.000335    -1.110906
 C       1.400590     0.946226     2.045271
 O       1.859806     0.888598     3.168497
 C       1.501125    -0.271314     1.119774
 C       0.921907    -1.520732     1.826782
 H       1.430756    -1.591234     2.791544
 H       1.221081    -2.386041     1.229046
 C       3.025081    -0.497788     0.962360
 H       3.477632    -0.656048     1.942238
 H       3.198286    -1.364185     0.323085
 H       3.496589     0.372673     0.495807
 N       0.862128     2.119554     1.558970
 C       0.943695     3.293900     2.421386
 H       1.716944     3.111359     3.163032
 H       1.207686     4.170727     1.825976
 H      -0.003376     3.477998     2.939913
 C      -0.604955    -1.631612     2.085601
 C      -1.439825    -1.828551     0.805040
 C      -1.169585    -0.457625     2.906443
 H      -2.452155    -2.148008     1.068501
 H      -1.519577    -0.893313     0.250082
 H      -0.993708    -2.579867     0.149639
 H      -1.186483     0.452893     2.301505
 H      -2.198565    -0.672899     3.207293
 H      -0.573357    -0.273419     3.802572
 C      -0.764902    -2.857479     2.901389
 N      -0.891765    -3.808550     3.534284
48
  -29710.793943  -29701.522599   53.24   30.80
 C      -0.226394     0.946749    -1.930865
 C       0.184278     1.066247    -0.593633
 C      -0.277170     2.137198     0.183823
 C      -1.111609     3.092972    -0.399494
 C      -1.498180     2.968805    -1.726266
 C      -1.072678     1.896854    -2.492828
 C       0.241799    -0.222916    -2.691144
 C       1.615146    -0.564204    -2.554121
 C       2.089315    -1.732571    -3.216957
 C       1.213626    -2.555658    -3.881618
 C      -0.151299    -2.231965    -3.961288
 C      -0.624707    -1.066004    -3.369182
 H      -1.482270     3.928098     0.178681
 H      -2.149933     3.721051    -2.158724
 H      -1.373889     1.799890    -3.530009
 H       2.327541     0.232525    -2.361753
 H       3.145602    -1.972657    -3.165073
 H       1.578916    -3.457786    -4.362282
 H      -0.836486    -2.893058    -4.481280
 H      -1.682746    -0.824760    -3.406937
 C       1.027027     0.012110     0.017126
 N       1.660332    -0.887404    -0.603227
 C       0.554290     1.182650     2.278816
 O       0.601617     1.233826     3.491653
 C       1.125540    -0.036736     1.546815
 C       0.506499    -1.334386     2.120652
 H       0.656360    -1.293894     3.202577
 H       1.103440    -2.164459     1.733109
 C       2.626087    -0.035077     1.930034
 H       3.111619     0.880035     1.577161
 H       2.729854    -0.088858     3.014632
 H       3.120384    -0.886902     1.461650
 N       0.068227     2.243526     1.542986
 C      -0.306522     3.445596     2.280613
 H       0.030526     4.331314     1.737524
 H      -1.389777     3.502308     2.432400
 H       0.179652     3.407338     3.251923
 C      -0.987683    -1.666094     1.859893
 C      -1.297028    -2.030534     0.394566
 C      -1.948570    -0.563767     2.341995
 H      -1.302738    -1.137460    -0.231059
 H      -0.558090    -2.727042    -0.007783
 H      -2.286958    -2.490926     0.328588
 H      -1.874712     0.312579     1.692506
 H      -2.980737    -0.921862     2.296684
 H      -1.726997    -0.261060     3.367539
 C      -1.257459    -2.873546     2.674213
 N      -1.469330    -3.810748     3.305045
48
  -29710.844692  -29701.522490   21.40   30.87
 C      -0.500232     0.003607    -2.257450
 C      -0.149903     0.571426    -1.025748
 C      -0.966516     1.542920    -0.436063
 C      -2.151714     1.911998    -1.071987
 C      -2.505706     1.320792    -2.277770
 C      -1.689640     0.374331    -2.878150
 C       0.434417    -0.973013    -2.836378
 C       1.819522    -0.656923    -2.729218
 C       2.766295    -1.602947    -3.217673
 C       2.347761    -2.822516    -3.689237
 C       0.979004    -3.136175    -3.744489
 C       0.034147    -2.208247    -3.320495
 H      -2.808441     2.645794    -0.623792
 H      -3.433478     1.616230    -2.757159
 H      -1.957115    -0.063373    -3.833615
 H       2.106733     0.390585    -2.725988
 H       3.820983    -1.352331    -3.186188
 H       3.077525    -3.547073    -4.036581
 H       0.659606    -4.105527    -4.112442
 H      -1.022542    -2.457456    -3.337434
 C       1.024579     0.066378    -0.277025
 N       1.999158    -0.572573    -0.757833
 C       0.374875     1.625455     1.599824
 O       0.737072     2.203750     2.605289
 C       0.926206     0.235099     1.250053
 C      -0.083225    -0.869358     1.699925
 H       0.465020    -1.816065     1.656222
 H      -0.873839    -0.939788     0.946330
 C       2.306134     0.062054     1.890137
 H       2.676001    -0.946555     1.697751
 H       3.013940     0.767779     1.449809
 H       2.269960     0.249219     2.960049
 N      -0.572401     2.163767     0.759863
 C      -1.207951     3.418640     1.152996
 H      -2.219141     3.238751     1.527576
 H      -0.612870     3.855606     1.950934
 H      -1.234894     4.100408     0.299553
 C      -0.797607    -0.812560     3.076445
 C       0.130823    -0.607933     4.284548
 C      -1.572825    -2.136290     3.244516
 H      -0.441744    -0.720168     5.209389
 H       0.919580    -1.365272     4.274198
 H       0.581947     0.384084     4.279701
 H      -0.865088    -2.967260     3.315194
 H      -2.175741    -2.114767     4.155657
 H      -2.238077    -2.314555     2.395362
 C      -1.806844     0.267584     3.065886
 N      -2.619466     1.080292     3.054759
48
  -29710.786820  -29701.500558   57.71   44.64
 C      -1.322428     2.029797     0.299961
 C      -0.740063     1.006647    -0.458073
 C       0.097147     1.314456    -1.536781
 C       0.370616     2.650598    -1.827789
 C      -0.185177     3.657786    -1.048563
 C      -1.030665     3.359863     0.008612
 C      -2.232625     1.626189     1.382271
 C      -3.124298     0.554500     1.085666
 C      -3.980896     0.085664     2.123693
 C      -3.872882     0.593402     3.394547
 C      -2.953909     1.617601     3.680216
 C      -2.144036     2.127101     2.671116
 H       1.022213     2.912427    -2.651563
 H       0.041555     4.692614    -1.284072
 H      -1.485077     4.150769     0.595131
 H      -3.463900     0.440700     0.060234
 H      -4.698334    -0.695497     1.897369
 H      -4.512237     0.212261     4.184592
 H      -2.872143     2.006632     4.689642
 H      -1.415162     2.900531     2.893934
 C      -0.908704    -0.410530    -0.055192
 N      -1.822579    -0.879447     0.673319
 C       0.567411    -1.046579    -1.958461
 O       0.786673    -1.938382    -2.750614
 C       0.257238    -1.325001    -0.479910
 C       1.444535    -0.869635     0.423674
 H       1.057761    -0.835072     1.447557
 H       1.706688     0.159596     0.160233
 C      -0.101407    -2.795982    -0.298138
 H       0.698874    -3.439347    -0.662502
 H      -0.284668    -3.007767     0.755821
 H      -1.007125    -3.032829    -0.858970
 N       0.617939     0.282942    -2.337796
 C       1.073107     0.598932    -3.687395
 H       0.327024     1.207455    -4.205679
 H       2.024252     1.140439    -3.664612
 H       1.209704    -0.339030    -4.220230
 C       2.777637    -1.659392     0.455791
 C       3.768938    -0.849362     1.318596
 C       3.392587    -1.899920    -0.932659
 H       4.708451    -1.394335     1.438232
 H       3.981652     0.106483     0.830832
 H       3.356573    -0.650878     2.311590
 H       4.391050    -2.331937    -0.825413
 H       2.787918    -2.568847    -1.543815
 H       3.486718    -0.945389    -1.460418
 C       2.601213    -2.960534     1.134090
 N       2.513185    -3.961287     1.692278
48
  -29710.780471  -29701.469211   61.70   64.31
 C      -0.607150     0.667038    -1.805543
 C       0.025615     1.025618    -0.606902
 C      -0.301615     2.229921     0.027895
 C      -1.298348     3.039364    -0.518139
 C      -1.948166     2.653012    -1.683004
 C      -1.607487     1.478193    -2.333919
 C      -0.165822    -0.573840    -2.459989
 C       1.237610    -0.817656    -2.467217
 C       1.706272    -2.040194    -3.028706
 C       0.815297    -2.992223    -3.459660
 C      -0.568343    -2.754684    -3.402114
 C      -1.046386    -1.545784    -2.908929
 H      -1.579086     3.966507    -0.035980
 H      -2.724218     3.292489    -2.091104
 H      -2.092930     1.197405    -3.262091
 H       1.907051     0.037092    -2.485843
 H       2.775187    -2.213824    -3.086649
 H       1.181045    -3.931310    -3.862907
 H      -1.264047    -3.515531    -3.739800
 H      -2.115580    -1.370062    -2.837098
 C       0.978707     0.096819     0.044142
 N       1.584111    -0.860340    -0.512810
 C       1.177265     1.776974     1.921849
 O       1.816288     2.169244     2.875480
 C       1.135427     0.279653     1.556293
 C      -0.131654    -0.218624     2.324913
 H      -0.946669     0.490854     2.146040
 H       0.116650    -0.136770     3.387747
 C       2.432839    -0.351956     2.069852
 H       2.507935    -1.393943     1.771368
 H       3.293075     0.175481     1.651354
 H       2.481841    -0.266565     3.156068
 N       0.395604     2.636888     1.177629
 C       0.317823     4.030992     1.600816
 H       0.490741     4.691189     0.747346
 H      -0.659192     4.256442     2.040449
 H       1.087964     4.194683     2.350492
 C      -0.728582    -1.635231     2.080125
 C       0.289227    -2.784487     2.170132
 C      -1.517036    -1.744003     0.761176
 H      -0.239045    -3.741828     2.179570
 H       0.947571    -2.765369     1.299508
 H       0.889809    -2.716367     3.080149
 H      -2.113297    -2.660678     0.762215
 H      -2.193781    -0.895154     0.631084
 H      -0.833840    -1.789021    -0.085631
 C      -1.703192    -1.819927     3.181397
 N      -2.458604    -1.963685     4.035886
48
  -29710.748218  -29701.448639   81.93   77.21
 C      -0.844835     0.953034    -1.968313
 C      -0.121701     0.977934    -0.769355
 C      -0.457332     1.887684     0.238330
 C      -1.540427     2.745771     0.051402
 C      -2.271113     2.692209    -1.129160
 C      -1.930768     1.807487    -2.140278
 C      -0.400392     0.004582    -3.000511
 C       1.008225    -0.110149    -3.182382
 C       1.489346    -1.063586    -4.125623
 C       0.615953    -1.908811    -4.764227
 C      -0.767494    -1.813260    -4.537059
 C      -1.263947    -0.855642    -3.659322
 H      -1.825966     3.449327     0.822839
 H      -3.113919     3.363448    -1.258924
 H      -2.486471     1.788952    -3.071369
 H       1.622176     0.764963    -2.989884
 H       2.556371    -1.126029    -4.309165
 H       0.993783    -2.648884    -5.462656
 H      -1.447906    -2.490957    -5.041780
 H      -2.329975    -0.796381    -3.461492
 C       0.928791    -0.034905    -0.506949
 N       1.541550    -0.715891    -1.372064
 C       1.182545     0.954095     1.793570
 O       1.903252     1.077872     2.764820
 C       1.152736    -0.347409     0.985402
 C      -0.088260    -1.210466     1.384864
 H       0.074025    -2.186167     0.916816
 H      -0.972572    -0.787603     0.898687
 C       2.476049    -1.093371     1.173237
 H       3.293756    -0.518577     0.733202
 H       2.700022    -1.241760     2.226213
 H       2.430027    -2.055738     0.660862
 N       0.319633     1.957282     1.409445
 C       0.242746     3.154485     2.239858
 H       1.081057     3.136294     2.932138
 H       0.304976     4.047233     1.612914
 H      -0.691078     3.180070     2.811704
 C      -0.479804    -1.444500     2.873047
 C      -1.114606    -0.202527     3.532234
 C       0.655141    -1.985476     3.759086
 H      -1.596699    -0.488157     4.470955
 H      -0.351012     0.541643     3.760642
 H      -1.870606     0.245150     2.881114
 H       1.399844    -1.206132     3.928012
 H       0.250922    -2.290858     4.728040
 H       1.137075    -2.852554     3.301010
 C      -1.533250    -2.485189     2.819710
 N      -2.350857    -3.292063     2.780466
48
  -29710.704543  -29701.432149  109.34   87.56
 C      -0.845852     0.820518    -2.032872
 C      -0.150174     0.957613    -0.825268
 C      -0.516400     1.948281     0.093112
 C      -1.600433     2.777002    -0.194181
 C      -2.304282     2.611964    -1.380674
 C      -1.935133     1.644943    -2.302379
 C      -0.370508    -0.210713    -2.967407
 C       1.042739    -0.328755    -3.107395
 C       1.551477    -1.357064    -3.952499
 C       0.698676    -2.262782    -4.533264
 C      -0.690204    -2.159927    -4.345635
 C      -1.212860    -1.133282    -3.566787
 H      -1.907685     3.544089     0.504905
 H      -3.148986     3.261176    -1.587408
 H      -2.470298     1.539113    -3.239615
 H       1.646036     0.565413    -2.979736
 H       2.622805    -1.426073    -4.106233
 H       1.097318    -3.057954    -5.155387
 H      -1.354369    -2.885356    -4.803470
 H      -2.283475    -1.066202    -3.398343
 C       0.902082    -0.018500    -0.454762
 N       1.540316    -0.768840    -1.239863
 C       1.154757     1.197452     1.711360
 O       1.952830     1.463900     2.585895
 C       1.092937    -0.195602     1.065252
 C      -0.200437    -0.948716     1.511205
 H      -0.305140    -1.805221     0.837021
 H      -1.052909    -0.296321     1.302579
 C       2.387519    -0.948097     1.361289
 H       2.603816    -0.938592     2.428429
 H       2.317988    -1.974074     0.996411
 H       3.222455    -0.465089     0.850463
 N       0.231490     2.126220     1.271134
 C       0.146437     3.401516     1.975042
 H      -0.811554     3.499124     2.495685
 H       0.952833     3.433889     2.703655
 H       0.257681     4.230145     1.270558
 C      -0.379019    -1.478959     2.963203
 C      -0.157673    -0.408601     4.045642
 C       0.455023    -2.737907     3.269256
 H       0.894267    -0.126400     4.099714
 H      -0.743976     0.490553     3.835193
 H      -0.467648    -0.796826     5.019476
 H       1.511731    -2.491547     3.361930
 H       0.125137    -3.181593     4.212421
 H       0.337014    -3.484912     2.479665
 C      -1.800528    -1.892439     3.036977
 N      -2.901278    -2.218130     3.095386
