48
     -1091.857071     -1091.515302   0.00   0.00
C      -1.312374     0.297846    -1.840638
C      -1.089726    -0.033783    -0.496793
C      -2.172534    -0.289117     0.352968
C      -3.468235    -0.230706    -0.162576
C      -3.675412     0.073922    -1.500890
C      -2.608568     0.339633    -2.344290
C      -0.135447     0.600488    -2.669124
C       0.871527     1.401895    -2.063085
C       2.053821     1.677767    -2.806280
C       2.247846     1.103049    -4.038192
C       1.262421     0.274981    -4.602308
C       0.077861     0.033347    -3.915888
H      -4.320896    -0.434821     0.471277
H      -4.690494     0.110024    -1.882956
H      -2.773180     0.602706    -3.383319
H       0.571824     2.114132    -1.299314
H       2.805925     2.329050    -2.374217
H       3.162086     1.299363    -4.589328
H       1.428561    -0.180488    -5.572915
H      -0.674269    -0.625953    -4.338182
C       0.291075    -0.204237     0.003191
N       1.346236     0.205262    -0.554739
C      -0.741679    -0.916580     2.229489
O      -0.590638    -1.155190     3.412858
C       0.433660    -1.070664     1.257013
C       1.749985    -0.793357     1.998762
H       2.558951    -1.001900     1.296661
H       1.815633    -1.510238     2.818505
C       0.412134    -2.547427     0.800599
H      -0.516622    -2.779016     0.271170
H       1.249296    -2.730147     0.122090
H       0.497742    -3.210079     1.665611
N      -1.968706    -0.581566     1.712041
C      -3.092349    -0.479406     2.636918
H      -3.614673     0.467821     2.483055
H      -3.794044    -1.308540     2.500710
H      -2.694456    -0.515889     3.647719
C       1.963515     0.641389     2.587073
C       3.229935     1.285555     1.991618
C       2.083499     0.587735     4.122609
H       3.375778     2.292131     2.393763
H       4.099909     0.677684     2.257835
H       3.158025     1.340312     0.903880
H       2.955893    -0.015143     4.392424
H       2.219469     1.592758     4.532118
H       1.193875     0.137189     4.564616
C       0.821659     1.518314     2.261721
N      -0.076203     2.187082     1.997595
48
     -1091.857071     -1091.515302   0.00   0.00
C      -1.174699     0.612025    -1.831591
C      -1.112637     0.113410    -0.522776
C      -2.290882    -0.144074     0.188003
C      -3.520661     0.080973    -0.432509
C      -3.569894     0.550938    -1.737696
C      -2.407372     0.819307    -2.442395
C       0.098260     0.905993    -2.507092
C       1.095192     1.546349    -1.719945
C       2.362974     1.803750    -2.313860
C       2.637042     1.357295    -3.583158
C       1.655347     0.683997    -4.330107
C       0.393503     0.467088    -3.788405
H      -4.445161    -0.120817     0.091937
H      -4.536225     0.715219    -2.203408
H      -2.447393     1.210787    -3.452853
H       0.773214     2.190613    -0.906494
H       3.113486     2.336543    -1.739949
H       3.613786     1.536837    -4.021178
H       1.884256     0.328492    -5.329283
H      -0.358598    -0.074742    -4.353624
C       0.194974    -0.227943     0.076622
N       1.327783     0.151607    -0.329611
C      -1.104882    -1.097344     2.097737
O      -1.090997    -1.479733     3.252594
C       0.147610    -1.239155     1.224794
C       1.399677    -1.159045     2.111196
H       2.257553    -1.354417     1.465642
H       1.330383    -1.966758     2.841268
C       0.064266    -2.647936     0.593929
H      -0.821195    -2.739358    -0.041773
H       0.949614    -2.822758    -0.022676
H       0.014250    -3.408757     1.377085
N      -2.246161    -0.604052     1.514870
C      -3.446397    -0.512714     2.339189
H      -3.155550    -0.696364     3.370231
H      -3.880209     0.486393     2.253597
H      -4.189479    -1.259183     2.040852
C       1.657237     0.177119     2.884842
C       3.020545     0.775447     2.488948
C       1.618495    -0.059250     4.407265
H       3.062165     0.958434     1.413713
H       3.198402     1.714353     3.020934
H       3.812794     0.070361     2.758071
H       2.413128    -0.760003     4.680830
H       1.785714     0.878149     4.945392
H       0.658562    -0.480254     4.709053
C       0.620744     1.178100     2.564827
N      -0.194947     1.945563     2.302500
48
     -1091.857071     -1091.515299   0.00   0.00
C      -1.161853     0.615626    -1.790127
C      -1.092408     0.104244    -0.486623
C      -2.266097    -0.138148     0.236881
C      -3.499282     0.114803    -0.365871
C      -3.556378     0.597252    -1.666175
C      -2.398129     0.850737    -2.383310
C       0.107660     0.892626    -2.479152
C       1.125717     1.508045    -1.699191
C       2.390382     1.748017    -2.306876
C       2.640483     1.307958    -3.583341
C       1.637586     0.658916    -4.323561
C       0.378908     0.459835    -3.767824
H      -4.420637    -0.074767     0.168570
H      -4.525344     0.783255    -2.118036
H      -2.443721     1.251909    -3.389724
H       0.825598     2.150630    -0.876110
H       3.157469     2.262240    -1.737962
H       3.614744     1.473876    -4.032132
H       1.847559     0.308210    -5.328574
H      -0.389842    -0.063421    -4.328123
C       0.216226    -0.265939     0.093093
N       1.350529     0.096783    -0.324219
C      -1.073734    -1.129940     2.122918
O      -1.052415    -1.523210     3.274005
C       0.165064    -1.286209     1.233068
C       1.429314    -1.235917     2.104230
H       2.275436    -1.440428     1.446120
H       1.355072    -2.048752     2.828104
C       0.048827    -2.687721     0.591333
H      -0.005468    -3.454306     1.368558
H      -0.845702    -2.757742    -0.034315
H       0.923419    -2.872972    -0.037455
N      -2.213050    -0.610778     1.558989
C      -3.401063    -0.505506     2.399194
H      -4.161330    -1.235461     2.103310
H      -3.100825    -0.704237     3.424731
H      -3.817562     0.502095     2.328375
C       1.719924     0.088678     2.886003
C       3.088759     0.666192     2.478443
C       1.695425    -0.160175     4.406730
H       3.120693     0.857253     1.404274
H       3.289540     1.597435     3.015715
H       3.871599    -0.054890     2.732287
H       2.480729    -0.877212     4.664583
H       1.885802     0.769417     4.950675
H       0.731893    -0.566754     4.716709
C       0.697653     1.110646     2.587234
N      -0.107295     1.894788     2.341567
48
     -1091.850864     -1091.509200   3.90   3.83
C      -0.961040     0.545357    -1.927675
C      -0.980938     0.125000    -0.587755
C      -2.196299     0.083999     0.110054
C      -3.365352     0.499539    -0.530608
C      -3.327473     0.923670    -1.850998
C      -2.136812     0.939430    -2.557689
C       0.327635     0.531669    -2.636714
C       1.452631     1.028643    -1.924506
C       2.730066     0.971810    -2.551617
C       2.874073     0.362535    -3.773359
C       1.758418    -0.167836    -4.443305
C       0.494789    -0.076745    -3.871036
H      -4.315194     0.476514    -0.014608
H      -4.248430     1.238491    -2.331070
H      -2.106021     1.273628    -3.588804
H       1.287922     1.805543    -1.183630
H       3.587201     1.395112    -2.039328
H       3.854640     0.301734    -4.234864
H       1.884425    -0.654620    -5.404630
H      -0.365003    -0.510371    -4.372410
C       0.261871    -0.368556     0.048441
N       1.432419    -0.242716    -0.409304
C      -1.243221    -1.114555     2.021525
O      -1.414072    -1.687811     3.079146
C       0.112212    -1.216488     1.316345
C       1.237056    -0.938078     2.341016
H       2.180946    -1.124846     1.823943
H       1.135425    -1.683802     3.133048
C       0.225180    -2.695001     0.872210
H      -0.553673    -2.938410     0.142466
H       1.198230    -2.857608     0.403848
H       0.113764    -3.352916     1.736101
N      -2.255145    -0.384896     1.435576
C      -3.509531    -0.274776     2.173654
H      -3.315277    -0.553954     3.206054
H      -3.874852     0.754150     2.134151
H      -4.271800    -0.946771     1.765976
C       1.345799     0.454590     3.027909
C       0.155857     0.799224     3.944826
C       1.588742     1.624596     2.056687
H       0.398578     1.683371     4.541076
H      -0.729034     1.032747     3.347606
H      -0.087971    -0.026018     4.615315
H       1.815647     2.530968     2.625365
H       2.415096     1.414620     1.375981
H       0.690382     1.814545     1.463539
C       2.543395     0.351827     3.894052
N       3.472212     0.275074     4.566783
48
     -1091.850864     -1091.509198   3.90   3.83
C      -1.658570     0.797553    -1.361275
C      -1.189554     0.147791    -0.207884
C      -2.091052    -0.206091     0.805916
C      -3.439553     0.128817     0.667395
C      -3.885488     0.781581    -0.472690
C      -3.007877     1.108656    -1.492570
C      -0.687206     1.111764    -2.420203
C       0.562448     1.643843    -2.001759
C       1.554663     1.899802    -2.990869
C       1.333768     1.547568    -4.299205
C       0.110051     0.976990    -4.688777
C      -0.890700     0.766220    -3.747173
H      -4.154772    -0.133771     1.434530
H      -4.938417     1.028858    -0.561781
H      -3.355246     1.621503    -2.382602
H       0.587419     2.241202    -1.095040
H       2.492593     2.353971    -2.690331
H       2.103608     1.723821    -5.043836
H      -0.051197     0.694657    -5.723799
H      -1.826532     0.299665    -4.039049
C       0.233582    -0.250569    -0.113491
N       1.166123     0.136072    -0.872716
C      -0.448204    -1.561522     2.015233
O      -0.201925    -2.333314     2.920803
C       0.594967    -1.323223     0.919846
C       1.968941    -1.059006     1.579489
H       2.697001    -1.000921     0.767251
H       2.206392    -1.940238     2.180152
C       0.683975    -2.663063     0.149832
H       0.928602    -3.473271     0.839247
H      -0.269672    -2.891646    -0.336679
H       1.453528    -2.585585    -0.621152
N      -1.659050    -0.906550     1.947435
C      -2.597121    -1.126891     3.043719
H      -3.044905    -0.177304     3.346176
H      -3.388732    -1.826457     2.755980
H      -2.043223    -1.551333     3.877128
C       2.177045     0.188938     2.486404
C       1.338348     0.174745     3.779407
C       1.974101     1.536337     1.769090
H       0.287159     0.369381     3.552792
H       1.408750    -0.784322     4.294447
H       1.687037     0.965764     4.449369
H       2.296886     2.351303     2.423330
H       2.539064     1.582481     0.836889
H       0.915548     1.685961     1.540972
C       3.600045     0.122297     2.893380
N       4.703743     0.073299     3.210569
48
     -1091.849212     -1091.507311   4.93   5.01
C      -1.531543     0.304281    -1.777755
C      -1.407875    -0.188051    -0.474120
C      -2.233185    -1.222377    -0.025045
C      -3.149176    -1.793418    -0.908239
C      -3.234011    -1.328399    -2.215288
C      -2.438334    -0.282383    -2.656382
C      -0.685061     1.453082    -2.134132
C      -0.588656     2.481220    -1.151353
C       0.271174     3.586614    -1.417386
C       1.055049     3.599746    -2.544534
C       0.983321     2.552051    -3.478364
C       0.110482     1.489727    -3.267282
H      -3.788898    -2.606082    -0.588960
H      -3.947019    -1.787558    -2.892396
H      -2.532519     0.099688    -3.666989
H      -1.441726     2.645832    -0.499495
H       0.313791     4.401311    -0.702706
H       1.726623     4.433069    -2.725638
H       1.612729     2.569552    -4.361869
H       0.069917     0.666124    -3.973770
C      -0.343095     0.323236     0.421600
N       0.206329     1.453643     0.344316
C      -1.085925    -1.346685     2.134191
O      -1.094020    -1.651316     3.308267
C       0.145829    -0.701740     1.455967
C       1.029609    -0.075380     2.555735
H       0.881508    -0.677801     3.453269
H       0.630221     0.918437     2.775415
C       0.829576    -1.867899     0.701767
H       1.151230    -2.638950     1.404282
H       0.144098    -2.318961    -0.018339
H       1.704051    -1.517065     0.152885
N      -2.157609    -1.643141     1.313486
C      -3.269588    -2.398671     1.880591
H      -3.150628    -2.410355     2.961106
H      -4.216780    -1.919245     1.621348
H      -3.274195    -3.430132     1.513075
C       2.564873     0.088300     2.379110
C       3.076301     0.824242     3.638128
C       3.033626     0.865127     1.136246
H       2.648545     1.830036     3.669133
H       2.787019     0.293332     4.548790
H       4.165832     0.910303     3.618798
H       2.717470     0.399008     0.203019
H       2.616425     1.872393     1.154014
H       4.126222     0.925901     1.139771
C       3.230617    -1.232597     2.380576
N       3.786933    -2.238502     2.405523
48
     -1091.848428     -1091.506534   5.42   5.50
C      -1.685000     0.268274    -1.867872
C      -1.372322     0.001161    -0.529192
C      -2.147956    -0.899773     0.208593
C      -3.212882    -1.552491    -0.411504
C      -3.493065    -1.306166    -1.749669
C      -2.741786    -0.399764    -2.480918
C      -0.863143     1.270394    -2.562534
C      -0.534808     2.437213    -1.814210
C       0.312301     3.409758    -2.420392
C       0.867088     3.172790    -3.653556
C       0.569323     1.993524    -4.357758
C      -0.295487     1.053762    -3.807678
H      -3.818523    -2.260958     0.138834
H      -4.321339    -1.826276    -2.219946
H      -2.982163    -0.187732    -3.516920
H      -1.241345     2.778260    -1.062961
H       0.529379     4.325474    -1.881381
H       1.530796     3.907996    -4.097563
H       1.019439     1.813672    -5.328348
H      -0.507018     0.129561    -4.336902
C      -0.150292     0.580187     0.083724
N       0.461386     1.605653    -0.317311
C      -0.700669    -0.683058     2.164245
O      -0.576818    -0.663577     3.371477
C       0.443294    -0.287071     1.219015
C       1.527870     0.505532     1.979995
H       1.023394     1.157312     2.697937
H       2.001696     1.161688     1.247493
C       0.974384    -1.567466     0.532683
H       1.391760    -2.267202     1.257788
H       0.176587    -2.078839    -0.008972
H       1.758509    -1.304596    -0.179676
N      -1.874630    -1.106206     1.571220
C      -2.921168    -1.655550     2.426488
H      -2.616459    -1.511107     3.460142
H      -3.865874    -1.135126     2.248118
H      -3.058566    -2.725392     2.240283
C       2.682300    -0.199857     2.745613
C       2.275913    -1.232713     3.810933
C       3.498107     0.918172     3.432793
H       1.642757    -0.757542     4.560018
H       1.717951    -2.070842     3.393079
H       3.175876    -1.624710     4.294023
H       3.825841     1.668119     2.708105
H       2.876989     1.408909     4.187144
H       4.381423     0.504101     3.925823
C       3.605311    -0.852017     1.791300
N       4.356892    -1.345084     1.074462
48
     -1091.848428     -1091.506533   5.42   5.50
C      -2.088231    -0.593772    -1.369778
C      -1.431348    -0.502969    -0.136314
C      -1.707262    -1.426557     0.877809
C      -2.616466    -2.455927     0.636209
C      -3.236635    -2.557133    -0.602748
C      -2.983618    -1.633912    -1.604924
C      -1.792428     0.446136    -2.366433
C      -1.699838     1.778543    -1.871073
C      -1.352508     2.814511    -2.785977
C      -1.025337     2.511039    -4.084240
C      -1.076416     1.183840    -4.543774
C      -1.462323     0.163109    -3.681907
H      -2.835697    -3.186748     1.403961
H      -3.937332    -3.367154    -0.777681
H      -3.492190    -1.698730    -2.560535
H      -2.302303     2.045889    -1.007681
H      -1.327557     3.839668    -2.432960
H      -0.738197     3.303404    -4.768262
H      -0.808573     0.955006    -5.569878
H      -1.477355    -0.866631    -4.025973
C      -0.354998     0.499372     0.066286
N      -0.198876     1.558673    -0.597085
C      -0.023426    -0.447162     2.351510
O       0.341037    -0.165134     3.474350
C       0.708685     0.064719     1.102153
C       1.621492     1.258103     1.457504
H       1.100697     1.867417     2.200648
H       1.696485     1.868590     0.555678
C       1.460020    -1.123074     0.456249
H       2.221058    -1.527220     1.124899
H       0.769676    -1.930030     0.203993
H       1.950929    -0.792667    -0.460946
N      -1.100926    -1.285005     2.137321
C      -1.713691    -1.930854     3.293135
H      -1.259711    -1.512295     4.188045
H      -2.789878    -1.739105     3.305680
H      -1.540543    -3.011532     3.276238
C       3.074480     1.061852     1.973985
C       3.251755     0.179077     3.221437
C       3.620108     2.472554     2.290161
H       2.674987     0.592590     4.048575
H       2.912439    -0.844851     3.063956
H       4.310410     0.152702     3.496258
H       3.050080     2.904887     3.117090
H       4.672333     2.422993     2.581964
H       3.532188     3.131873     1.422652
C       3.932195     0.523838     0.895673
N       4.631358     0.132932     0.070927
48
     -1091.847041     -1091.505599   6.29   6.09
C      -1.409748     0.066146    -1.885086
C      -1.450739    -0.227425    -0.519523
C      -2.353375    -1.165065    -0.011969
C      -3.192246    -1.841215    -0.896909
C      -3.118028    -1.575219    -2.260115
C      -2.238240    -0.627702    -2.762456
C      -0.467107     1.120996    -2.292657
C      -0.453260     2.292264    -1.478136
C       0.506836     3.303419    -1.773863
C       1.458491     3.095209    -2.740844
C       1.462908     1.910829    -3.495253
C       0.496129     0.936426    -3.269106
H      -3.894109    -2.581987    -0.535437
H      -3.771933    -2.115449    -2.937033
H      -2.206264    -0.405635    -3.823538
H      -1.381319     2.592780    -0.999982
H       0.497498     4.219252    -1.193326
H       2.210738     3.853712    -2.930939
H       2.229521     1.749489    -4.245303
H       0.515266     0.006831    -3.829641
C      -0.482533     0.395571     0.406638
N       0.071878     1.517132     0.265330
C      -1.425659    -0.995182     2.249281
O      -1.545027    -1.124127     3.450053
C      -0.121000    -0.488106     1.604297
C       0.685697     0.295246     2.649956
H       0.592657    -0.232690     3.601092
H       0.185614     1.257265     2.777426
C       0.595372    -1.766863     1.107732
H       0.835481    -2.409050     1.959372
H      -0.043614    -2.332529     0.426658
H       1.513121    -1.522697     0.572664
N      -2.427402    -1.379199     1.377803
C      -3.618569    -2.012603     1.932553
H      -4.515956    -1.553258     1.510718
H      -3.629808    -3.087041     1.721571
H      -3.605549    -1.865502     3.009834
C       2.205984     0.561462     2.428978
C       3.062463    -0.525831     3.112845
C       2.546881     1.932464     3.045656
H       2.839451    -0.542828     4.183282
H       2.861564    -1.516531     2.701834
H       4.126727    -0.312640     2.981488
H       2.009188     2.729274     2.526148
H       2.253231     1.939255     4.099660
H       3.619677     2.132204     2.979821
C       2.638300     0.608924     1.016413
N       3.081779     0.618731    -0.043914
48
     -1091.847040     -1091.505590   6.29   6.09
C      -1.301421     0.109816    -1.865553
C      -1.336260    -0.205026    -0.504559
C      -2.281563    -1.099636     0.003029
C      -3.171877    -1.711797    -0.878240
C      -3.105425    -1.426327    -2.237899
C      -2.182042    -0.520962    -2.739737
C      -0.307621     1.117106    -2.271941
C      -0.214457     2.271424    -1.438670
C       0.796208     3.232081    -1.734239
C       1.718741     2.987610    -2.720758
C       1.644052     1.818128    -3.494475
C       0.627628     0.895764    -3.267762
H      -3.908404    -2.418202    -0.516966
H      -3.799917    -1.916971    -2.912145
H      -2.155157    -0.282380    -3.797369
H      -1.116150     2.615171    -0.939652
H       0.848020     4.136752    -1.138633
H       2.509401     3.705867    -2.911287
H       2.388029     1.627058    -4.260172
H       0.585192    -0.023580    -3.843709
C      -0.319421     0.346586     0.414700
N       0.294734     1.437704     0.282383
C      -1.308618    -1.021085     2.250278
O      -1.415423    -1.163272     3.450729
C       0.011659    -0.576724     1.591022
C       0.878443     0.141806     2.635109
H       0.772137    -0.397055     3.578695
H       0.435193     1.127716     2.787777
C       0.646725    -1.884649     1.060907
H       0.865024    -2.553784     1.897542
H      -0.034443    -2.402034     0.382336
H       1.567437    -1.682789     0.513450
N      -2.344270    -1.334175     1.390073
C      -3.559693    -1.910024     1.954830
H      -3.518721    -1.786597     3.034373
H      -4.436781    -1.391517     1.559632
H      -3.636381    -2.977363     1.722620
C       2.407302     0.326934     2.391347
C       3.213169    -0.817670     3.042431
C       2.834585     1.666286     3.023576
H       3.006913    -0.841018     4.116100
H       2.951039    -1.788468     2.618592
H       4.285346    -0.661230     2.896397
H       3.915504     1.807536     2.941200
H       2.332962     2.500311     2.526902
H       2.560273     1.671323     4.082788
C       2.817756     0.374172     0.972253
N       3.243149     0.377273    -0.095502
48
     -1091.845932     -1091.503891   6.99   7.16
C      -1.182040     0.964357    -1.801694
C      -0.889612     0.391828    -0.552006
C      -1.808640     0.525521     0.501637
C      -2.927096     1.345899     0.326680
C      -3.168386     1.953339    -0.895436
C      -2.321047     1.742680    -1.971261
C      -0.283808     0.666954    -2.928876
C       1.113347     0.732404    -2.681353
C       2.005987     0.363729    -3.729074
C       1.517037    -0.127235    -4.913808
C       0.131508    -0.227337    -5.127287
C      -0.756442     0.170785    -4.134009
H      -3.625451     1.498617     1.137243
H      -4.047073     2.580015    -1.009670
H      -2.522170     2.194468    -2.936200
H       1.471002     1.450882    -1.949313
H       3.074004     0.456615    -3.565366
H       2.203289    -0.426947    -5.699564
H      -0.245355    -0.624117    -6.064009
H      -1.826531     0.064529    -4.282892
C       0.340800    -0.411984    -0.370693
N       1.264440    -0.573893    -1.218190
C      -0.660164    -1.125560     1.886987
O      -0.721673    -1.953894     2.773350
C       0.598468    -1.003193     1.028336
C       1.535305     0.064862     1.686717
H       1.144233     1.054416     1.424075
H       2.498093    -0.028979     1.175234
C       1.257817    -2.380968     0.894186
H       1.387425    -2.850292     1.865726
H       0.627603    -3.037076     0.287495
H       2.219962    -2.280617     0.390071
N      -1.666051    -0.202555     1.693795
C      -2.739702    -0.161296     2.683902
H      -3.686477    -0.486574     2.242203
H      -2.468420    -0.831177     3.494257
H      -2.838171     0.849023     3.086245
C       1.818899     0.099854     3.211263
C       2.910670     1.166849     3.442604
C       2.278058    -1.234967     3.819738
H       2.620943     2.128427     3.010397
H       3.086784     1.309085     4.511647
H       3.844574     0.840238     2.976225
H       2.605546    -1.075039     4.850768
H       1.473697    -1.969273     3.825309
H       3.123561    -1.626329     3.247019
C       0.617472     0.572364     3.931900
N      -0.294326     0.985658     4.496516
48
     -1091.845630     -1091.503626   7.18   7.33
C      -1.358853     0.929437    -1.513265
C      -1.232292     0.283745    -0.271241
C      -2.363602     0.120305     0.540806
C      -3.577155     0.686060     0.143230
C      -3.674903     1.358719    -1.065886
C      -2.580243     1.465356    -1.906637
C      -0.180783     0.988018    -2.391797
C       1.054477     1.329760    -1.782620
C       2.230339     1.324258    -2.584446
C       2.172531     0.917116    -3.894375
C       0.946595     0.542070    -4.471210
C      -0.220717     0.581651    -3.717237
H      -4.459887     0.587074     0.759040
H      -4.628464     1.787252    -1.356863
H      -2.656558     1.978140    -2.858893
H       1.046378     1.977676    -0.911948
H       3.168996     1.630967    -2.136568
H       3.075346     0.897380    -4.496700
H       0.912753     0.214066    -5.504888
H      -1.163848     0.263640    -4.150817
C       0.066259    -0.309750     0.121142
N       1.160982    -0.164538    -0.494003
C      -1.244561    -1.472021     2.023778
O      -1.343478    -2.330481     2.878036
C       0.119615    -1.210903     1.362734
C       0.875874    -0.524376     2.549008
H       0.949229    -1.287221     3.329534
H       0.220065     0.258685     2.948444
C       0.704151    -2.582274     0.984762
H       0.023067    -3.101490     0.303455
H       1.658299    -2.467205     0.475581
H       0.822310    -3.196550     1.878346
N      -2.304698    -0.644237     1.720890
C      -3.505955    -0.778652     2.539573
H      -3.876104     0.210054     2.820774
H      -4.292139    -1.323146     2.006500
H      -3.239694    -1.334332     3.434721
C       2.281791     0.114842     2.417855
C       3.348334    -0.776834     1.764318
C       2.737959     0.468668     3.852638
H       3.151353    -0.919430     0.703267
H       4.332756    -0.313394     1.874641
H       3.368820    -1.748472     2.266024
H       2.877247    -0.450416     4.428941
H       3.685358     1.012751     3.829701
H       1.996602     1.091371     4.360543
C       2.200435     1.401570     1.696033
N       2.159728     2.442750     1.210416
48
     -1091.845630     -1091.503622   7.18   7.33
C      -1.488798     0.638133    -1.537560
C      -1.244923    -0.017447    -0.318417
C      -2.326377    -0.466931     0.452577
C      -3.627988    -0.170792     0.041515
C      -3.850530     0.516141    -1.142788
C      -2.791396     0.903212    -1.945859
C      -0.336871     0.998783    -2.377846
C       0.777029     1.581491    -1.719497
C       1.939714     1.875806    -2.485777
C       2.001508     1.524954    -3.811710
C       0.903545     0.910462    -4.438766
C      -0.257521     0.653369    -3.718710
H      -4.477887    -0.492797     0.626508
H      -4.870105     0.732275    -1.445013
H      -2.962169     1.427786    -2.879251
H       0.605547     2.171602    -0.824907
H       2.775871     2.365060    -1.998735
H       2.897431     1.735241    -4.387350
H       0.965295     0.629691    -5.484986
H      -1.095755     0.151466    -4.192078
C       0.145859    -0.321112     0.088991
N       1.191815     0.093263    -0.487382
C      -0.907130    -1.832036     1.904904
O      -0.826965    -2.728104     2.721689
C       0.376007    -1.241595     1.295727
C       0.932951    -0.456246     2.530079
H       1.160838    -1.217107     3.282203
H       0.108954     0.140450     2.939726
C       1.263017    -2.428057     0.882587
H       2.177085    -2.078668     0.407918
H       1.497885    -3.039661     1.754689
H       0.731398    -3.055819     0.160828
N      -2.120419    -1.250966     1.602995
C      -3.276728    -1.688417     2.379475
H      -2.910165    -2.210336     3.259356
H      -3.865759    -0.821742     2.688593
H      -3.909089    -2.370529     1.801925
C       2.160238     0.488249     2.466433
C       3.414380    -0.110713     1.812158
C       2.494202     0.871924     3.926966
H       3.643478    -1.073982     2.276751
H       3.277246    -0.247054     0.740913
H       4.265932     0.557071     1.970142
H       3.294409     1.615607     3.953793
H       1.620741     1.288908     4.435419
H       2.825370    -0.016802     4.471698
C       1.805180     1.754240     1.792268
N       1.540321     2.779964     1.345866
48
     -1091.844177     -1091.502284   8.09   8.17
C      -1.501890    -0.453885    -1.813499
C      -1.362893    -0.470553    -0.420901
C      -2.178768    -1.290817     0.362431
C      -3.102057    -2.129029    -0.262405
C      -3.203849    -2.136887    -1.648320
C      -2.416351    -1.304517    -2.428513
C      -0.661788     0.500119    -2.553022
C      -0.552748     1.802525    -1.984222
C       0.302894     2.745894    -2.624327
C       1.070858     2.368383    -3.697984
C       0.986618     1.064422    -4.215183
C       0.117678     0.142619    -3.640762
H      -3.733981    -2.785217     0.322027
H      -3.922696    -2.799025    -2.120078
H      -2.522673    -1.290127    -3.507720
H      -1.396867     2.184678    -1.417343
H       0.355293     3.756032    -2.232922
H       1.739319     3.086284    -4.162779
H       1.603405     0.775387    -5.059613
H       0.067835    -0.873081    -4.021541
C      -0.291696     0.317200     0.233964
N       0.261119     1.345371    -0.237866
C      -0.998012    -0.698018     2.424734
O      -0.973089    -0.634486     3.636218
C       0.214797    -0.284130     1.554615
C       1.069316     0.709420     2.375332
H       0.922819     0.451643     3.425044
H       0.627089     1.698998     2.237141
C       0.916355    -1.623986     1.226293
H       0.223862    -2.309660     0.733370
H       1.757573    -1.465809     0.550603
H       1.273324    -2.100883     2.141519
N      -2.084707    -1.235101     1.763925
C      -3.181003    -1.767046     2.567262
H      -3.171935    -2.862004     2.573311
H      -3.055955    -1.408919     3.585962
H      -4.136286    -1.415863     2.169927
C       2.611453     0.852475     2.175970
C       3.088858     1.184738     0.750335
C       3.418258    -0.340193     2.735658
H       4.175873     1.311135     0.755298
H       2.836700     0.382758     0.054807
H       2.623863     2.096838     0.378488
H       3.378805    -1.193119     2.058540
H       4.467406    -0.054477     2.850854
H       3.039243    -0.648282     3.713762
C       2.969823     2.014592     3.025244
N       3.256634     2.909617     3.687148
48
     -1091.842208     -1091.500297   9.33   9.42
C      -1.398473     0.974682    -1.666315
C      -1.012361     0.301829    -0.495034
C      -1.894044     0.257751     0.596318
C      -3.070684     1.010237     0.553674
C      -3.403885     1.725369    -0.586540
C      -2.592880     1.685317    -1.708649
C      -0.539714     0.848602    -2.854937
C       0.862337     0.973979    -2.662494
C       1.721196     0.762636    -3.780074
C       1.202622     0.359770    -4.985200
C      -0.183851     0.197242    -5.147496
C      -1.042364     0.442989    -4.081378
H      -3.744881     1.027265     1.398702
H      -4.325556     2.298116    -0.601341
H      -2.866182     2.217892    -2.612736
H       1.214724     1.643092    -1.882613
H       2.789104     0.903698    -3.654667
H       1.865218     0.179624    -5.825896
H      -0.583684    -0.129436    -6.101563
H      -2.110766     0.286161    -4.193286
C       0.280156    -0.421329    -0.438530
N       1.166560    -0.446692    -1.338192
C      -0.565692    -1.440138     1.752931
O      -0.536606    -2.376113     2.527911
C       0.649702    -1.086239     0.902647
C       1.451901     0.050198     1.624973
H       0.906001     0.988538     1.475989
H       2.380362     0.147775     1.055393
C       1.481967    -2.346770     0.645768
H       1.681599    -2.882389     1.569966
H       0.937150    -3.020798    -0.020573
H       2.417972    -2.075920     0.155846
N      -1.653796    -0.592471     1.692849
C      -2.716108    -0.792438     2.674086
H      -2.907503     0.133790     3.223361
H      -3.639290    -1.120425     2.187303
H      -2.388655    -1.562625     3.367446
C       1.813399    -0.009143     3.137930
C       2.517387    -1.303728     3.578850
C       0.614969     0.283370     4.064636
H       2.906361    -1.183800     4.593680
H       1.807234    -2.131609     3.578276
H       3.353672    -1.544387     2.917992
H       0.051217     1.152421     3.714549
H      -0.048841    -0.579314     4.114836
H       0.973326     0.492549     5.076055
C       2.775710     1.102113     3.325989
N       3.520982     1.964685     3.473263
48
     -1091.842208     -1091.500292   9.33   9.42
C      -0.695579     0.663437    -2.143255
C      -0.736162     0.243345    -0.803261
C      -1.880185     0.506125    -0.033509
C      -2.890603     1.311227    -0.565865
C      -2.802477     1.775677    -1.869339
C      -1.728511     1.429192    -2.672467
C       0.430645     0.214965    -2.977931
C       1.730709     0.280875    -2.408726
C       2.826364    -0.234738    -3.160380
C       2.608059    -0.858878    -4.363018
C       1.309710    -0.955288    -4.892220
C       0.232969    -0.417751    -4.195276
H      -3.761576     1.563842     0.022775
H      -3.601220     2.394254    -2.265710
H      -1.671871     1.764565    -3.702040
H       1.941858     1.080657    -1.704551
H       3.828380    -0.144951    -2.755466
H       3.445218    -1.268473    -4.919483
H       1.146061    -1.457703    -5.839653
H      -0.775285    -0.519832    -4.584640
C       0.384836    -0.538165    -0.229353
N       1.471881    -0.825981    -0.804885
C      -1.153897    -0.980198     1.768818
O      -1.461081    -1.719421     2.683519
C       0.283122    -0.911252     1.263250
C       0.999675     0.298517     1.955896
H       0.643731     1.215911     1.473840
H       2.052902     0.200994     1.678069
C       0.980585    -2.252555     1.512324
H       0.554646    -3.018413     0.858732
H       2.041954    -2.164349     1.277366
H       0.848080    -2.580920     2.539699
N      -2.062751    -0.092857     1.227783
C      -3.369380     0.006443     1.871343
H      -3.579713     1.042954     2.149992
H      -4.159369    -0.355817     1.206903
H      -3.348193    -0.610924     2.765531
C       0.922823     0.553119     3.489685
C       1.303044    -0.656503     4.360435
C      -0.434014     1.128270     3.946631
H       1.412281    -0.340685     5.401536
H       0.517607    -1.411703     4.310685
H       2.248844    -1.096673     4.035267
H      -1.193533     0.347135     3.965111
H      -0.341328     1.532641     4.958084
H      -0.761578     1.934297     3.284324
C       1.934420     1.608101     3.734555
N       2.717670     2.427408     3.925352
48
     -1091.841004     -1091.499256  10.08  10.07
C      -1.602297     0.963819    -1.223086
C      -1.140102    -0.012923    -0.324263
C      -2.073983    -0.784237     0.387687
C      -3.426518    -0.436609     0.337308
C      -3.853602     0.598024    -0.480772
C      -2.956234     1.273670    -1.291257
C      -0.631996     1.574013    -2.146272
C       0.630624     1.953549    -1.616856
C       1.621786     2.450668    -2.513623
C       1.384367     2.472535    -3.864487
C       0.145351     2.051163    -4.377725
C      -0.850128     1.605503    -3.515042
H      -4.156370    -0.984845     0.916874
H      -4.908774     0.849994    -0.508670
H      -3.293157     2.050791    -1.968120
H       0.663274     2.314485    -0.593389
H       2.570288     2.790336    -2.112090
H       2.151162     2.832819    -4.542971
H      -0.030726     2.063616    -5.448075
H      -1.794625     1.246621    -3.911750
C       0.309537    -0.309154    -0.211239
N       1.236175     0.249173    -0.864421
C      -0.369805    -2.391533     1.083568
O      -0.088145    -3.530017     1.388800
C       0.715206    -1.329713     0.863856
C       0.734184    -0.622576     2.265863
H       0.601665    -1.406322     3.019410
H      -0.151506     0.019157     2.327731
C       2.027628    -2.025545     0.513690
H       2.305075    -2.726474     1.300209
H       1.914635    -2.583107    -0.419074
H       2.824627    -1.296486     0.373858
N      -1.681890    -1.949947     1.068290
C      -2.708324    -2.873723     1.540866
H      -2.205782    -3.755475     1.930016
H      -3.299367    -2.413498     2.337512
H      -3.372945    -3.169992     0.723627
C       1.929570     0.239487     2.747430
C       1.542733     0.804921     4.132313
C       2.300543     1.406029     1.819906
H       0.682483     1.472725     4.027628
H       1.280239     0.002905     4.827256
H       2.372700     1.372937     4.559409
H       1.416031     2.027165     1.648885
H       3.066082     2.024731     2.296362
H       2.670651     1.063555     0.854971
C       3.129491    -0.596053     2.964684
N       4.075206    -1.209673     3.188218
48
     -1091.838357     -1091.496921  11.74  11.53
C      -2.351659    -0.045607     0.069023
C      -1.078761    -0.615049     0.246237
C      -0.965341    -1.838284     0.927565
C      -2.085177    -2.364428     1.576958
C      -3.316135    -1.735306     1.471524
C      -3.464815    -0.601736     0.689754
C      -2.483292     1.090589    -0.857082
C      -1.499422     2.112605    -0.787434
C      -1.549939     3.170921    -1.741414
C      -2.474912     3.145755    -2.754242
C      -3.414186     2.103243    -2.836538
C      -3.409617     1.085914    -1.888706
H      -2.009413    -3.278993     2.148608
H      -4.174355    -2.162390     1.980165
H      -4.434847    -0.133197     0.566816
H      -1.072115     2.340090     0.184308
H      -0.834256     3.982193    -1.664635
H      -2.494295     3.944029    -3.489467
H      -4.136434     2.086811    -3.645802
H      -4.111362     0.261745    -1.970030
C       0.116655     0.005346    -0.376013
N       0.130013     1.056479    -1.077784
C       1.341007    -2.160353     0.188193
O       2.241541    -2.922034    -0.094753
C       1.470945    -0.652376    -0.066475
C       1.970445    -0.165896     1.342236
H       2.684461    -0.914565     1.701743
H       1.111627    -0.216269     2.019542
C       2.463408    -0.440325    -1.208286
H       3.439898    -0.846313    -0.943908
H       2.112700    -0.962926    -2.101741
H       2.540183     0.617400    -1.454964
N       0.226638    -2.583756     0.887434
C       0.217940    -3.961332     1.370292
H       0.038549    -3.986510     2.448623
H      -0.553255    -4.547883     0.861946
H       1.192768    -4.392640     1.158056
C       2.652109     1.214932     1.571214
C       1.807451     2.428298     1.152702
C       4.067681     1.312529     0.969800
H       1.696328     2.461355     0.068834
H       0.811413     2.382764     1.601152
H       2.291612     3.348075     1.492801
H       4.663015     0.430750     1.221619
H       4.023719     1.407397    -0.114099
H       4.577725     2.193944     1.367665
C       2.819253     1.290262     3.042968
N       2.951730     1.347228     4.183362
