48
     -1091.857071     -1091.515304   0.00   0.00
C      -1.084906     1.578209    -1.351178
C      -0.329921     1.201587    -0.231526
C      -0.058518     2.131986     0.778650
C      -0.529816     3.438627     0.642244
C      -1.254829     3.806773    -0.482759
C      -1.537269     2.887487    -1.480368
C      -1.374954     0.542226    -2.354051
C      -1.737262    -0.737701    -1.850012
C      -1.975823    -1.787783    -2.780968
C      -1.767446    -1.584737    -4.122946
C      -1.363403    -0.326013    -4.599761
C      -1.174153     0.727843    -3.713019
H      -0.323741     4.178778     1.403935
H      -1.608547     4.828864    -0.571554
H      -2.125690     3.169791    -2.346364
H      -2.234874    -0.788835    -0.885535
H      -2.301728    -2.753898    -2.410945
H      -1.929032    -2.396670    -4.824928
H      -1.194053    -0.177868    -5.661132
H      -0.837864     1.694267    -4.075844
C       0.258569    -0.152675    -0.158726
N      -0.075287    -1.153295    -0.851285
C       1.376604     0.591427     2.015372
O       1.982490     0.288107     3.025822
C       1.469304    -0.294114     0.767133
C       1.699125    -1.752503     1.191494
H       2.625374    -1.778862     1.767318
H       1.848747    -2.328500     0.276779
C       2.706279     0.206054    -0.013459
H       2.575873     1.245807    -0.327186
H       3.599524     0.137701     0.612737
H       2.844501    -0.407859    -0.907109
N       0.660637     1.759820     1.926893
C       0.612683     2.619347     3.104741
H      -0.422733     2.890043     3.324665
H       1.028483     2.061462     3.939751
H       1.203108     3.529027     2.955487
C       0.579623    -2.447893     2.036092
C       1.111618    -2.837843     3.428953
C       0.058633    -3.703551     1.311366
H       0.323891    -3.311633     4.021632
H       1.931570    -3.552828     3.311435
H       1.482808    -1.960787     3.960726
H       0.881674    -4.414228     1.189813
H      -0.730684    -4.185707     1.895053
H      -0.331259    -3.444131     0.325450
C      -0.567202    -1.540698     2.237280
N      -1.452074    -0.820260     2.382676
48
     -1091.857071     -1091.515302  -0.00   0.00
C      -0.318067     0.948701    -2.228835
C      -0.127064     0.992855    -0.840659
C      -0.198870     2.213855    -0.159663
C      -0.439566     3.382036    -0.884544
C      -0.602012     3.329412    -2.262096
C      -0.544242     2.122547    -2.940495
C      -0.276871    -0.370354    -2.878092
C      -0.940015    -1.428247    -2.196451
C      -0.882895    -2.734808    -2.758485
C      -0.126406    -2.974644    -3.879095
C       0.561393    -1.926050    -4.513417
C       0.477902    -0.632527    -4.010853
H      -0.488528     4.339193    -0.382629
H      -0.784021     4.249709    -2.807620
H      -0.696931     2.079717    -4.013219
H      -1.789827    -1.181250    -1.566164
H      -1.426794    -3.538986    -2.274771
H      -0.068747    -3.978065    -4.288907
H       1.162565    -2.127287    -5.393889
H       1.028300     0.174751    -4.484214
C       0.241164    -0.236118    -0.106031
N       0.119748    -1.421857    -0.520300
C       0.444657     1.227085     1.979153
O       0.552238     1.298233     3.188895
C       0.948458    -0.014143     1.233204
C       0.837283    -1.241331     2.150508
H       1.440451    -1.037591     3.036443
H       1.288056    -2.078634     1.615168
C       2.439632     0.254568     0.926972
H       2.988254     0.433550     1.855229
H       2.867512    -0.612024     0.416541
H       2.553796     1.127328     0.277533
N      -0.051617     2.270049     1.236514
C      -0.488843     3.465486     1.949378
H       0.199316     4.300260     1.782099
H      -1.491018     3.748774     1.619043
H      -0.507920     3.230692     3.010452
C      -0.593062    -1.668248     2.621738
C      -0.717283    -1.556573     4.153807
C      -0.896913    -3.113186     2.182240
H      -0.508889    -0.538597     4.485610
H      -1.721499    -1.842869     4.479144
H       0.002822    -2.234842     4.621496
H      -1.899734    -3.410379     2.501945
H      -0.822819    -3.208453     1.097447
H      -0.171910    -3.788604     2.646370
C      -1.624565    -0.795064     2.028235
N      -2.414412    -0.105285     1.555460
48
     -1091.857071     -1091.515299   0.00   0.00
C       0.002773     1.108218    -2.103739
C       0.131193     1.089980    -0.707800
C       0.195832     2.291350     0.007952
C       0.153489     3.499737    -0.689221
C       0.051622     3.505338    -2.073561
C      -0.025018     2.319856    -2.786886
C      -0.107146    -0.186748    -2.792305
C      -0.941768    -1.159073    -2.174641
C      -1.038381    -2.446112    -2.775017
C      -0.269234    -2.760254    -3.868308
C       0.586235    -1.801773    -4.437934
C       0.657823    -0.522461    -3.898511
H       0.212852     4.441306    -0.159711
H       0.024576     4.455606    -2.596945
H      -0.130503     2.326024    -3.866108
H      -1.778714    -0.812346    -1.574848
H      -1.710548    -3.178828    -2.341625
H      -0.330841    -3.751154    -4.306998
H       1.195529    -2.062215    -5.297041
H       1.336374     0.212147    -4.321154
C       0.290600    -0.196609     0.002772
N       0.026883    -1.342951    -0.454073
C       0.593515     1.170441     2.140526
O       0.651678     1.195107     3.355483
C       0.956353    -0.109537     1.378382
C       0.632541    -1.332219     2.250152
H       1.214872    -1.237677     3.167844
H       0.988257    -2.210224     1.708461
C       2.483373    -0.043763     1.147168
H       3.005992     0.033936     2.103993
H       2.811645    -0.948602     0.629376
H       2.748147     0.820401     0.531024
N       0.282307     2.290960     1.410336
C      -0.019076     3.517251     2.140941
H       0.784709     4.252088     2.029890
H      -0.955932     3.945494     1.776723
H      -0.120322     3.260715     3.192275
C      -0.864098    -1.567077     2.643959
C      -1.045440    -1.477826     4.171797
C      -1.343144    -2.943938     2.145862
H      -0.449551    -2.261645     4.649164
H      -0.714424    -0.507660     4.544613
H      -2.094131    -1.629130     4.443115
H      -1.230334    -3.021296     1.062973
H      -0.741907    -3.725413     2.620251
H      -2.391762    -3.106169     2.410942
C      -1.735204    -0.543830     2.033347
N      -2.398410     0.261162     1.548252
48
     -1091.850864     -1091.509204   3.90   3.83
C      -1.062641     1.954772    -0.858670
C      -0.199324     1.235584    -0.016105
C       0.369800     1.867132     1.098771
C       0.037327     3.195019     1.374405
C      -0.826440     3.888533     0.539114
C      -1.370201     3.282519    -0.580889
C      -1.603828     1.268069    -2.041543
C      -2.060507    -0.064398    -1.852130
C      -2.530707    -0.786606    -2.986024
C      -2.449977    -0.233869    -4.240039
C      -1.950094     1.067600    -4.416464
C      -1.533750     1.808356    -3.316241
H       0.463407     3.704715     2.227432
H      -1.068179     4.921126     0.769462
H      -2.047800     3.823074    -1.232422
H      -2.459967    -0.335900    -0.879347
H      -2.929971    -1.785183    -2.845529
H      -2.788240    -0.799125    -5.102744
H      -1.882843     1.491939    -5.412655
H      -1.120667     2.803189    -3.451583
C       0.185194    -0.151185    -0.365294
N      -0.364578    -0.877419    -1.240454
C       1.914748     0.022629     1.556427
O       2.850711    -0.414969     2.195842
C       1.440054    -0.721275     0.304953
C       1.293033    -2.225062     0.636200
H       2.274245    -2.573748     0.966937
H       1.057994    -2.728354    -0.304348
C       2.592592    -0.567226    -0.716796
H       3.522560    -0.946567    -0.289200
H       2.346719    -1.122671    -1.624356
H       2.732262     0.485168    -0.983900
N       1.280758     1.188307     1.929257
C       1.736488     1.829851     3.158524
H       2.312625     1.100566     3.722205
H       2.376044     2.692314     2.944166
H       0.876554     2.154211     3.749298
C       0.253231    -2.697630     1.693853
C      -1.208662    -2.370260     1.337573
C       0.544821    -2.208570     3.126077
H      -1.878229    -2.875913     2.039277
H      -1.384452    -1.294449     1.419224
H      -1.453066    -2.684880     0.321896
H       0.324941    -1.141853     3.215595
H      -0.098120    -2.741965     3.831952
H       1.587626    -2.370600     3.402356
C       0.377990    -4.173864     1.707290
N       0.472406    -5.319330     1.719719
48
     -1091.850864     -1091.509195   3.89   3.83
C      -0.921778     1.256301    -1.814788
C      -0.357966     1.064914    -0.542794
C      -0.366821     2.114534     0.386693
C      -0.972324     3.325011     0.043300
C      -1.535774     3.494597    -1.213090
C      -1.505557     2.473926    -2.148318
C      -0.852448     0.144487    -2.775344
C      -1.145225    -1.152053    -2.272252
C      -1.025259    -2.263630    -3.154487
C      -0.545377    -2.086622    -4.428454
C      -0.213866    -0.803279    -4.895290
C      -0.372398     0.301355    -4.066314
H      -0.991481     4.149953     0.741934
H      -1.997620     4.444921    -1.460731
H      -1.948390     2.604805    -3.129443
H      -1.846924    -1.235412    -1.447467
H      -1.295863    -3.251112    -2.796776
H      -0.434083    -2.941624    -5.087832
H       0.172351    -0.675417    -5.901009
H      -0.090649     1.290573    -4.413754
C       0.331855    -0.206592    -0.226039
N       0.279160    -1.270539    -0.904853
C       1.132398     0.962525     1.943563
O       1.799669     0.992671     2.958558
C       1.296394    -0.203848     0.965020
C       1.254671    -1.534229     1.753108
H       2.069796    -1.497405     2.479719
H       1.480378    -2.326775     1.036100
C       2.719286    -0.040269     0.377958
H       2.795908     0.891207    -0.192015
H       3.454694    -0.019035     1.184368
H       2.929675    -0.873846    -0.295479
N       0.239251     1.969970     1.648481
C       0.081525     3.030620     2.638689
H       0.619462     3.936606     2.340956
H      -0.977995     3.264064     2.767648
H       0.493945     2.673813     3.578967
C      -0.032827    -1.950356     2.522751
C      -1.272439    -2.142737     1.629688
C      -0.395498    -1.017077     3.694473
H      -1.054522    -2.785895     0.775771
H      -2.080289    -2.589305     2.216498
H      -1.621212    -1.176430     1.256110
H       0.469594    -0.808021     4.325300
H      -0.786398    -0.068561     3.317968
H      -1.176601    -1.481662     4.302899
C       0.291921    -3.272305     3.107541
N       0.540984    -4.298132     3.562300
48
     -1091.850864     -1091.509193   3.89   3.83
C      -0.947112     1.986290    -0.929395
C      -0.135890     1.252741    -0.048314
C       0.382481     1.871696     1.097945
C       0.050887     3.201683     1.364384
C      -0.761610     3.909439     0.490496
C      -1.254053     3.315793    -0.659468
C      -1.434269     1.312437    -2.142738
C      -1.915097    -0.015644    -1.985134
C      -2.334337    -0.726157    -3.146062
C      -2.182941    -0.167502    -4.390887
C      -1.660064     1.129062    -4.533470
C      -1.292600     1.858908    -3.408819
H       0.438487     3.701842     2.241079
H      -1.003551     4.943362     0.714574
H      -1.891578     3.867502    -1.341389
H      -2.367123    -0.287836    -1.035826
H      -2.751440    -1.720843    -3.032365
H      -2.482659    -0.724080    -5.273261
H      -1.536868     1.558061    -5.522290
H      -0.861955     2.849646    -3.516669
C       0.250475    -0.136432    -0.385704
N      -0.261802    -0.851648    -1.292120
C       1.881617     0.007332     1.622691
O       2.778918    -0.444275     2.306265
C       1.462757    -0.724679     0.344576
C       1.281362    -2.228172     0.659781
H       2.240269    -2.590219     1.038155
H       1.088665    -2.724104    -0.294208
C       2.667686    -0.579531    -0.616201
H       2.833820     0.472493    -0.869248
H       3.569878    -0.972999    -0.144182
H       2.461540    -1.126713    -1.538549
N       1.242548     1.178232     1.969568
C       1.642219     1.808054     3.224141
H       2.301468     2.664247     3.047624
H       0.756989     2.139156     3.772272
H       2.180701     1.069250     3.812129
C       0.183584    -2.693255     1.660648
C      -1.254287    -2.345865     1.232795
C       0.408183    -2.215316     3.108613
H      -1.964624    -2.845998     1.897384
H      -1.420569    -1.268263     1.310798
H      -1.451088    -2.653042     0.204580
H      -0.276401    -2.744065     3.777876
H       1.433511    -2.392101     3.436461
H       0.197421    -1.146354     3.193075
C       0.289576    -4.170968     1.671803
N       0.369364    -5.317564     1.682325
48
     -1091.848428     -1091.506533   5.42   5.50
C       0.069705     2.638617     0.461900
C      -0.054460     1.310959     0.889774
C       0.384683     0.938325     2.164878
C       0.976474     1.893739     2.990460
C       1.126214     3.200292     2.542831
C       0.674958     3.581179     1.289034
C      -0.467842     2.969350    -0.866222
C      -1.723624     2.383291    -1.196096
C      -2.257432     2.621765    -2.495738
C      -1.528073     3.318617    -3.426905
C      -0.268960     3.849684    -3.098525
C       0.249159     3.673134    -1.820237
H       1.332424     1.623307     3.976244
H       1.594099     3.931145     3.194481
H       0.766467     4.608775     0.954802
H      -2.423474     2.186224    -0.389091
H      -3.235448     2.223277    -2.742484
H      -1.931560     3.474840    -4.422380
H       0.301629     4.392339    -3.844816
H       1.232954     4.059059    -1.570875
C      -0.544186     0.266295    -0.044642
N      -1.240390     0.465862    -1.075194
C      -0.159608    -1.408947     1.764544
O      -0.543469    -2.477233     2.194137
C       0.008848    -1.145889     0.260759
C      -0.753811    -2.204077    -0.565221
H      -1.028966    -1.722313    -1.505328
H      -1.689724    -2.423177    -0.044819
C       1.521312    -1.080005    -0.056474
H       2.016983    -2.028113     0.155681
H       1.665631    -0.847359    -1.113098
H       2.010180    -0.303969     0.535262
N       0.188700    -0.377883     2.615705
C       0.210447    -0.644143     4.049979
H      -0.198211    -1.638863     4.210253
H       1.232725    -0.610402     4.439773
H      -0.400875     0.091479     4.579365
C      -0.118620    -3.571187    -0.944674
C      -1.211972    -4.369138    -1.690068
C       0.410277    -4.433470     0.214455
H      -2.034185    -4.586713    -1.002839
H      -1.605367    -3.800769    -2.536944
H      -0.812108    -5.315209    -2.064020
H       0.795741    -5.376247    -0.184993
H       1.209487    -3.944618     0.771841
H      -0.398167    -4.642600     0.914798
C       0.978005    -3.373222    -1.917401
N       1.816333    -3.255495    -2.695342
48
     -1091.845932     -1091.503910   6.99   7.15
C      -1.498781     1.448336    -1.409642
C      -0.600950     0.993475    -0.428807
C      -0.474864     1.704416     0.775893
C      -1.347206     2.766569     1.031667
C      -2.269248     3.163937     0.076306
C      -2.329942     2.533054    -1.155779
C      -1.488744     0.782941    -2.722243
C      -1.440336    -0.636611    -2.730825
C      -1.340690    -1.304498    -3.985585
C      -1.204346    -0.582393    -5.144761
C      -1.209812     0.822733    -5.115107
C      -1.352402     1.492940    -3.905138
H      -1.297670     3.301217     1.969608
H      -2.931152     3.995850     0.294634
H      -3.031702     2.859278    -1.915240
H      -1.922037    -1.170757    -1.916787
H      -1.351826    -2.388740    -4.005164
H      -1.106725    -1.097906    -6.094970
H      -1.093436     1.384799    -6.035676
H      -1.324474     2.577760    -3.874612
C       0.261427    -0.180415    -0.695695
N       0.217520    -0.929393    -1.712889
C       1.525514     0.473697     1.445220
O       2.559741     0.449749     2.081904
C       1.218345    -0.624225     0.427084
C       0.402064    -1.746505     1.152362
H       0.387356    -2.595881     0.462644
H      -0.634662    -1.400622     1.234248
C       2.530169    -1.132734    -0.182513
H       2.329942    -1.997379    -0.816721
H       2.976130    -0.353933    -0.807282
H       3.248738    -1.389910     0.591095
N       0.551627     1.418427     1.690333
C       0.743247     2.298181     2.841002
H       1.614158     1.945955     3.385473
H       0.907834     3.330110     2.516441
H      -0.124816     2.243986     3.501188
C       0.791235    -2.289413     2.552244
C       2.255967    -2.733173     2.695294
C      -0.134923    -3.489908     2.843838
H       2.392682    -3.245062     3.651918
H       2.506388    -3.432109     1.892280
H       2.936161    -1.883251     2.660732
H       0.084886    -4.299211     2.141645
H       0.024154    -3.858340     3.860230
H      -1.187028    -3.211528     2.739185
C       0.490438    -1.273217     3.583210
N       0.214194    -0.509571     4.396546
48
     -1091.845932     -1091.503887   6.99   7.16
C       2.135439    -1.315172     0.183702
C       0.815551    -0.873314     0.377805
C       0.215945    -1.020169     1.639374
C       0.991970    -1.470988     2.711341
C       2.311859    -1.845091     2.514591
C       2.880344    -1.801155     1.251793
C       2.677671    -1.302587    -1.184368
C       2.434662    -0.143831    -1.969106
C       2.871003    -0.139310    -3.325588
C       3.430165    -1.265300    -3.876213
C       3.623852    -2.419554    -3.098089
C       3.246756    -2.428217    -1.759704
H       0.564167    -1.550978     3.700598
H       2.892503    -2.198859     3.360501
H       3.904229    -2.119156     1.089910
H       2.369353     0.814375    -1.461574
H       2.733083     0.758468    -3.918091
H       3.740181    -1.262095    -4.916435
H       4.059308    -3.307337    -3.544328
H       3.364940    -3.328307    -1.164376
C       0.037533    -0.329370    -0.758747
N       0.468145    -0.106232    -1.925951
C      -2.008053    -0.473198     0.791466
O      -3.212765    -0.581183     0.903676
C      -1.400496     0.141312    -0.469324
C      -1.217756     1.676869    -0.223323
H      -0.987361     2.109027    -1.201862
H      -0.318506     1.808880     0.389098
C      -2.299274    -0.172685    -1.671234
H      -3.334031     0.088623    -1.466459
H      -1.939212     0.364403    -2.549759
H      -2.262502    -1.242766    -1.893277
N      -1.157262    -0.795308     1.827521
C      -1.762235    -1.131406     3.114288
H      -2.829109    -0.944731     3.037135
H      -1.592141    -2.184269     3.358919
H      -1.353059    -0.490766     3.898159
C      -2.319165     2.554817     0.426309
C      -3.710692     2.436013    -0.215855
C      -1.840179     4.019835     0.335514
H      -4.372826     3.201198     0.198776
H      -3.630759     2.598014    -1.294471
H      -4.155211     1.459546    -0.028348
H      -0.845617     4.138000     0.773987
H      -1.799090     4.325827    -0.713792
H      -2.530290     4.681881     0.864231
C      -2.422961     2.240664     1.867333
N      -2.477117     2.039074     2.997557
48
     -1091.845630     -1091.503630   7.18   7.33
C      -0.564817     2.290838     0.168222
C       0.161186     1.175177     0.619641
C       0.853621     1.247960     1.836697
C       0.731706     2.395006     2.624274
C      -0.024992     3.470998     2.184239
C      -0.655881     3.435561     0.952479
C      -1.188390     2.225097    -1.162165
C      -1.874289     1.026324    -1.488120
C      -2.427038     0.894784    -2.793035
C      -2.224812     1.875723    -3.732119
C      -1.507154     3.039386    -3.404749
C      -0.995827     3.206674    -2.122873
H       1.243231     2.469261     3.573517
H      -0.102987     4.353771     2.810511
H      -1.236527     4.280243     0.599033
H      -2.336785     0.455014    -0.689600
H      -2.993516     0.001733    -3.032414
H      -2.633060     1.762458    -4.731501
H      -1.345815     3.805099    -4.156333
H      -0.415210     4.090102    -1.875773
C       0.275963    -0.025353    -0.239430
N      -0.356868    -0.227576    -1.314864
C       2.110023    -0.807445     1.407937
O       3.058229    -1.513846     1.687948
C       1.263218    -1.129194     0.164726
C       0.525751    -2.419028     0.657712
H       0.113270    -2.203224     1.650742
H       1.311337    -3.164790     0.810107
C       2.244513    -1.396436    -0.988890
H       1.707182    -1.595816    -1.913245
H       2.874260    -0.516479    -1.152407
H       2.894429    -2.236007    -0.738853
N       1.704770     0.206196     2.250048
C       2.397705     0.322027     3.529799
H       1.672291     0.475612     4.332180
H       2.938264    -0.604839     3.702072
H       3.112240     1.151544     3.521950
C      -0.605392    -3.120109    -0.136868
C      -0.889845    -4.454826     0.590808
C      -0.284389    -3.417018    -1.609451
H      -1.746141    -4.961829     0.139342
H      -0.016040    -5.107818     0.511392
H      -1.107893    -4.288997     1.649245
H      -0.235558    -2.502466    -2.197817
H       0.671050    -3.945256    -1.675163
H      -1.061251    -4.060051    -2.032573
C      -1.858743    -2.342477    -0.049052
N      -2.867866    -1.804192     0.066947
48
     -1091.845630     -1091.503613   7.18   7.34
C      -1.225216     1.708585    -1.070373
C      -0.330675     1.301690    -0.065486
C       0.048390     2.211615     0.931680
C      -0.543475     3.476362     0.962890
C      -1.458430     3.847021    -0.011503
C      -1.786729     2.980400    -1.039948
C      -1.517804     0.770701    -2.164846
C      -1.765982    -0.578426    -1.801491
C      -1.979125    -1.531267    -2.837019
C      -1.863843    -1.159531    -4.153657
C      -1.576540     0.173384    -4.495867
C      -1.407304     1.128707    -3.500194
H      -0.279534     4.190084     1.730464
H      -1.903220     4.835982     0.029788
H      -2.490688     3.271947    -1.811313
H      -2.208993    -0.785813    -0.832645
H      -2.216840    -2.553603    -2.564877
H      -2.009493    -1.894036    -4.939499
H      -1.479454     0.455390    -5.539069
H      -1.155266     2.152157    -3.760281
C       0.283634    -0.044131    -0.127383
N      -0.033137    -0.964524    -0.933896
C       1.880694     0.797173     1.724843
O       2.907334     0.703943     2.368128
C       1.429839    -0.376220     0.838244
C       0.988425    -1.400265     1.936917
H       0.337124    -0.867830     2.640575
H       1.899129    -1.645295     2.491092
C       2.662859    -0.836132     0.042440
H       2.403429    -1.645633    -0.636027
H       3.047203    -0.006854    -0.559403
H       3.451691    -1.152027     0.726355
N       1.048358     1.887041     1.867249
C       1.403549     2.863203     2.893056
H       1.848250     3.760894     2.451342
H       0.514714     3.141939     3.463947
H       2.130429     2.401602     3.556026
C       0.281373    -2.744069     1.626103
C       0.229116    -3.529954     2.957094
C       0.967886    -3.614808     0.562989
H      -0.343508    -4.452548     2.834464
H       1.245040    -3.788644     3.268892
H      -0.239475    -2.937483     3.747496
H       2.023509    -3.740089     0.820255
H       0.501069    -4.603545     0.540238
H       0.885142    -3.171581    -0.427802
C      -1.126929    -2.511930     1.243895
N      -2.246117    -2.371529     1.021998
48
     -1091.844177     -1091.502286   8.09   8.17
C       0.309752     2.470920    -0.414338
C       0.292606     1.444158     0.536646
C       0.938460     1.605743     1.765003
C       1.641278     2.784329     2.014931
C       1.688365     3.781372     1.048040
C       1.025902     3.637576    -0.161159
C      -0.465903     2.249621    -1.644047
C      -1.755549     1.668405    -1.468800
C      -2.522194     1.370464    -2.632978
C      -1.982977     1.549771    -3.882825
C      -0.689881     2.078453    -4.035491
C       0.055997     2.427872    -2.914634
H       2.162914     2.926318     2.952589
H       2.244382     4.690092     1.254916
H       1.037984     4.432102    -0.899252
H      -2.291227     1.881845    -0.548245
H      -3.525618     0.976603    -2.513245
H      -2.564499     1.295363    -4.763372
H      -0.271495     2.209254    -5.027898
H       1.064885     2.813316    -3.027338
C      -0.338012     0.140792     0.219766
N      -1.244073    -0.052207    -0.632974
C       0.460838    -0.695613     2.453745
O       0.352870    -1.524887     3.332940
C       0.283514    -1.055632     0.957665
C      -0.591316    -2.328051     0.877289
H      -1.632906    -2.001690     0.927353
H      -0.402459    -2.893011     1.791052
C       1.731110    -1.231513     0.439293
H       2.315583    -0.326249     0.616910
H       2.221876    -2.059717     0.954782
H       1.738077    -1.420687    -0.634669
N       0.842311     0.599561     2.741986
C       1.157874     0.928673     4.128448
H       2.238799     1.021697     4.276747
H       0.672984     1.867510     4.406395
H       0.784598     0.125041     4.758114
C      -0.476037    -3.351816    -0.296179
C       0.807593    -4.209689    -0.241386
C      -0.669568    -2.789115    -1.716271
H       0.690134    -5.090765    -0.878191
H       1.669442    -3.650184    -0.604304
H       1.011266    -4.549879     0.777459
H      -1.628977    -2.283015    -1.815379
H       0.108604    -2.064517    -1.961045
H      -0.619335    -3.609908    -2.438339
C      -1.598394    -4.291223    -0.055253
N      -2.461363    -5.027939     0.129089
48
     -1091.842208     -1091.500296   9.33   9.42
C      -0.524936     1.178877    -2.151461
C      -0.153566     0.930045    -0.819589
C      -0.355375     1.925658     0.149117
C      -1.058973     3.082125    -0.197401
C      -1.479572     3.281248    -1.503528
C      -1.187664     2.353513    -2.489715
C      -0.134370     0.197445    -3.176369
C      -0.322539    -1.176686    -2.868382
C       0.134070    -2.149538    -3.804510
C       0.817952    -1.760586    -4.929047
C       1.034854    -0.398252    -5.197454
C       0.556975     0.568284    -4.319107
H      -1.265060     3.844017     0.541484
H      -2.018879     4.189334    -1.753053
H      -1.487521     2.520850    -3.518203
H      -1.162143    -1.449662    -2.235411
H      -0.048511    -3.198994    -3.601138
H       1.181746    -2.508601    -5.626459
H       1.583631    -0.100887    -6.084723
H       0.751701     1.619874    -4.505763
C       0.516492    -0.340447    -0.454048
N       0.740386    -1.319144    -1.220701
C       1.001483     0.750217     1.811143
O       1.727493     0.816157     2.783794
C       0.840275    -0.554380     1.038202
C      -0.446481    -1.285783     1.554023
H      -0.420776    -2.271698     1.081487
H      -1.314820    -0.769727     1.129338
C       2.113215    -1.395562     1.178300
H       2.412569    -1.487164     2.218914
H       1.951647    -2.382402     0.742947
H       2.933525    -0.919198     0.634871
N       0.208220     1.815716     1.434902
C       0.186595     2.980645     2.314556
H       0.766284     2.739217     3.201594
H       0.633977     3.849011     1.822024
H      -0.840194     3.220262     2.605274
C      -0.751409    -1.479928     3.068145
C      -1.236466    -0.191154     3.764107
C       0.391819    -2.117339     3.876044
H      -1.989849     0.321428     3.159706
H      -1.683747    -0.439688     4.730189
H      -0.400202     0.483773     3.944447
H       1.206922    -1.402263     3.994267
H       0.029882    -2.395021     4.869753
H       0.769215    -3.017758     3.385291
C      -1.889907    -2.428371     3.091373
N      -2.773914    -3.162751     3.110480
48
     -1091.842208     -1091.500294   9.33   9.42
C      -0.599483     1.159796    -2.109717
C      -0.199014     0.910075    -0.786474
C      -0.421180     1.887346     0.196350
C      -1.170756     3.021574    -0.126450
C      -1.618281     3.219567    -1.423771
C      -1.308777     2.313533    -2.424661
C      -0.190008     0.204077    -3.151411
C      -0.324252    -1.179157    -2.856208
C       0.152387    -2.124870    -3.810013
C       0.804621    -1.699553    -4.940165
C       0.968623    -0.327499    -5.196344
C       0.470078     0.611754    -4.300070
H      -1.392431     3.767591     0.624033
H      -2.193369     4.110410    -1.654879
H      -1.630225     2.481099    -3.446569
H      -1.143791    -1.488880    -2.213927
H       0.010507    -3.182328    -3.615830
H       1.184139    -2.426483    -5.651358
H       1.492776    -0.001101    -6.088285
H       0.624279     1.671600    -4.477690
C       0.521285    -0.339566    -0.445397
N       0.768030    -1.301315    -1.226356
C       1.001926     0.743226     1.824475
O       1.740015     0.824498     2.786821
C       0.875200    -0.557889     1.039353
C      -0.376810    -1.340104     1.566002
H      -0.323263    -2.319459     1.082287
H      -1.269280    -0.850939     1.159923
C       2.179099    -1.354733     1.151030
H       2.973802    -0.843405     0.601360
H       2.497046    -1.447294     2.186028
H       2.046091    -2.341756     0.706526
N       0.165705     1.783778     1.472205
C       0.116252     2.937663     2.365185
H       0.717934     2.707627     3.240529
H       0.524642     3.826743     1.875748
H      -0.913780     3.137199     2.674152
C      -0.651632    -1.560902     3.082233
C      -1.171154    -0.297555     3.799629
C       0.525520    -2.165956     3.865932
H      -1.595139    -0.572082     4.769173
H      -0.356454     0.404374     3.975532
H      -1.950865     0.194715     3.211967
H       1.316574    -1.423716     3.980074
H       0.188755    -2.466885     4.861720
H       0.926972    -3.047135     3.359590
C      -1.755526    -2.549243     3.111806
N      -2.612722    -3.314610     3.135863
48
     -1091.838357     -1091.496922  11.74  11.53
C      -0.480573     2.209325    -0.301207
C       0.082924     1.148818     0.429365
C       0.301680     1.307872     1.807853
C      -0.216087     2.432330     2.455990
C      -0.856633     3.425699     1.731359
C      -0.957234     3.340237     0.352654
C      -0.467498     2.126881    -1.770550
C      -0.824169     0.885946    -2.362357
C      -0.721263     0.753559    -3.778176
C      -0.202657     1.775246    -4.532652
C       0.188456     2.981785    -3.926738
C       0.053239     3.146402    -2.552698
H      -0.102662     2.551225     3.524612
H      -1.248040     4.292974     2.253172
H      -1.415857     4.136560    -0.222795
H      -1.572870     0.281003    -1.860246
H      -1.039785    -0.172687    -4.243869
H      -0.107649     1.659842    -5.607747
H       0.605601     3.781140    -4.529931
H       0.386725     4.063890    -2.078023
C       0.547549    -0.078622    -0.262459
N       0.480520    -0.304114    -1.504315
C       1.722633    -0.676469     1.921423
O       2.640012    -1.264791     2.453843
C       1.084673    -1.208318     0.630734
C      -0.125904    -2.017964     1.222005
H      -0.863509    -1.284252     1.563254
H       0.239369    -2.522299     2.122999
C       2.122381    -2.052061    -0.107463
H       3.003812    -1.443453    -0.324361
H       2.438869    -2.892353     0.510599
H       1.722652    -2.402188    -1.057806
N       1.109127     0.405686     2.523566
C       1.532891     0.753014     3.876610
H       2.227181    -0.012672     4.212837
H       2.035078     1.725030     3.890548
H       0.672220     0.781589     4.550437
C      -0.899197    -3.100697     0.413615
C      -0.084882    -4.385334     0.165275
C      -1.525436    -2.601543    -0.897692
H       0.674832    -4.222465    -0.597666
H       0.404851    -4.723347     1.082486
H      -0.748817    -5.182009    -0.180899
H      -0.749552    -2.356880    -1.623194
H      -2.174866    -3.377093    -1.313423
H      -2.131123    -1.707978    -0.724623
C      -2.017389    -3.483579     1.309562
N      -2.882151    -3.782647     2.005292
