48
  -29710.878789  -29701.571661    0.00    0.00
 C      -1.189401     0.884405    -1.332740
 C      -1.110401    -0.079970    -0.314794
 C      -2.094663    -0.127087     0.682303
 C      -3.155101     0.779601     0.630111
 C      -3.223221     1.722788    -0.383993
 C      -2.245044     1.788528    -1.362511
 C      -0.109394     0.920068    -2.331611
 C       0.329216    -0.332095    -2.842793
 C       1.420344    -0.343556    -3.758220
 C       2.089327     0.818838    -4.053676
 C       1.675902     2.041446    -3.498196
 C       0.577688     2.082539    -2.646125
 H      -3.920250     0.774930     1.393300
 H      -4.054456     2.420375    -0.400219
 H      -2.301812     2.522973    -2.158226
 H      -0.389109    -1.144356    -2.901239
 H       1.728112    -1.287061    -4.195499
 H       2.936133     0.797880    -4.732423
 H       2.215579     2.953301    -3.731122
 H       0.270710     3.021366    -2.195147
 C       0.067184    -0.972673    -0.237291
 N       0.920927    -1.164516    -1.149618
 C      -0.855798    -1.710430     2.065045
 O      -0.757955    -2.334334     3.103078
 C       0.329688    -1.693313     1.089596
 C       1.561888    -1.109196     1.824841
 H       2.437279    -1.311839     1.200195
 H       1.663989    -1.691743     2.744096
 C       0.631734    -3.179625     0.795671
 H      -0.222260    -3.655056     0.304127
 H       1.491914    -3.253208     0.129350
 H       0.830584    -3.705892     1.729908
 N      -2.021316    -1.062389     1.725977
 C      -3.119973    -1.140699     2.684213
 H      -4.065257    -1.265381     2.151925
 H      -2.944886    -2.003247     3.321526
 H      -3.155070    -0.242099     3.307677
 C       1.623639     0.394147     2.198907
 C       1.880700     1.312318     0.988085
 C       2.763346     0.577981     3.221033
 H       1.028477     1.358239     0.312803
 H       2.088779     2.329676     1.331408
 H       2.744386     0.947108     0.425929
 H       2.587364    -0.022206     4.117025
 H       3.709404     0.263653     2.770350
 H       2.851126     1.626049     3.518164
 C       0.373061     0.831106     2.851591
 N      -0.594373     1.191867     3.357280
48
  -29710.878790  -29701.571525   -0.00    0.09
 C      -0.154937    -0.990908    -1.663323
 C      -0.724103    -0.736763    -0.404782
 C      -2.062741    -0.331168    -0.311270
 C      -2.816152    -0.208479    -1.480307
 C      -2.242630    -0.468070    -2.715758
 C      -0.915473    -0.851106    -2.818636
 C       1.265373    -1.372806    -1.711335
 C       1.704450    -2.321499    -0.747597
 C       3.086871    -2.663040    -0.716599
 C       3.979996    -2.012136    -1.531857
 C       3.536745    -1.038232    -2.442511
 C       2.183347    -0.730348    -2.527982
 H      -3.846238     0.115761    -1.438797
 H      -2.847125    -0.360591    -3.610675
 H      -0.469162    -1.059058    -3.784740
 H       0.992557    -3.059602    -0.390403
 H       3.423384    -3.424847    -0.021945
 H       5.035704    -2.259971    -1.484161
 H       4.250756    -0.523600    -3.076804
 H       1.840178     0.039465    -3.212552
 C       0.120122    -0.793761     0.809165
 N       1.269570    -1.312578     0.896443
 C      -1.901409     0.232046     2.057376
 O      -2.413311     0.699333     3.055345
 C      -0.404257    -0.107643     2.075304
 C       0.388322     1.184019     2.397046
 H       1.415394     0.884369     2.627028
 H      -0.056107     1.586286     3.311094
 C      -0.222836    -1.068231     3.271586
 H      -0.582730    -0.591116     4.183799
 H      -0.791405    -1.989540     3.113863
 H       0.830571    -1.331749     3.372557
 N      -2.644916    -0.043011     0.932701
 C      -4.068001     0.277761     0.990459
 H      -4.266586     1.244962     0.518758
 H      -4.643218    -0.506863     0.494543
 H      -4.354597     0.332513     2.037206
 C       0.484249     2.334606     1.362293
 C       1.429470     2.018498     0.186774
 C       0.998595     3.587752     2.098880
 H       1.593869     2.920170    -0.410004
 H       2.391993     1.670878     0.571559
 H       1.029144     1.252107    -0.474119
 H       1.985535     3.380143     2.522898
 H       1.086579     4.432137     1.410613
 H       0.323142     3.871097     2.909727
 C      -0.844897     2.664218     0.809475
 N      -1.870116     2.932616     0.363731
48
  -29710.836782  -29701.552586   26.36   11.97
 C      -0.803111    -1.464041    -1.150568
 C       0.128188    -1.056135    -0.182733
 C       0.322342    -1.830253     0.968337
 C      -0.411771    -3.005322     1.133375
 C      -1.332802    -3.394522     0.170671
 C      -1.537491    -2.630408    -0.965303
 C      -0.983368    -0.618461    -2.339485
 C       0.196369    -0.089933    -2.928532
 C       0.064544     0.790051    -4.040218
 C      -1.180027     1.185457    -4.462572
 C      -2.337064     0.690146    -3.836041
 C      -2.231024    -0.209574    -2.783835
 H      -0.287591    -3.615000     2.017854
 H      -1.898023    -4.308886     0.319524
 H      -2.252073    -2.937307    -1.720599
 H       1.115162    -0.663290    -2.844212
 H       0.959977     1.159626    -4.527867
 H      -1.275085     1.876648    -5.294212
 H      -3.315402     1.022950    -4.165730
 H      -3.119796    -0.556524    -2.268675
 C       0.829559     0.237644    -0.332523
 N       0.883753     0.937740    -1.383131
 C       1.712723    -0.142870     2.072604
 O       2.316557     0.221578     3.064056
 C       1.532117     0.825737     0.900408
 C       0.825980     2.112780     1.390224
 H       0.856507     2.816889     0.553784
 H       1.439764     2.523077     2.197520
 C       2.971776     1.219497     0.493585
 H       3.495005     1.644909     1.350877
 H       3.525748     0.342038     0.146629
 H       2.933507     1.941604    -0.322711
 N       1.236495    -1.429335     1.963381
 C       1.550499    -2.349229     3.051644
 H       0.703001    -2.466531     3.735832
 H       1.822739    -3.324750     2.642742
 H       2.390682    -1.938266     3.605454
 C      -0.626047     2.067606     1.922168
 C      -1.025655     3.507465     2.304210
 C      -0.807998     1.149641     3.145369
 H      -0.914776     4.182582     1.451806
 H      -2.064878     3.543755     2.639978
 H      -0.383855     3.860525     3.116380
 H      -0.054938     1.382901     3.901861
 H      -1.802565     1.298289     3.574531
 H      -0.720234     0.094459     2.880957
 C      -1.568503     1.623093     0.876515
 N      -2.346418     1.291126     0.098819
48
  -29710.836783  -29701.551988   26.36   12.35
 C      -1.409254     0.969533    -1.184044
 C      -1.184579    -0.032379    -0.226904
 C      -2.067139    -0.177777     0.851006
 C      -3.166315     0.675539     0.954049
 C      -3.374008     1.664981     0.003027
 C      -2.501471     1.821461    -1.060175
 C      -0.454248     1.094553    -2.294611
 C      -0.008505    -0.116196    -2.889162
 C       0.969083    -0.045603    -3.922087
 C       1.529026     1.161048    -4.259930
 C       1.110665     2.344357    -3.626400
 C       0.121191     2.303506    -2.653185
 H      -3.856481     0.590316     1.782201
 H      -4.231655     2.322307     0.103296
 H      -2.666810     2.589939    -1.806762
 H      -0.682029    -0.968484    -2.888388
 H       1.279461    -0.959761    -4.416221
 H       2.292551     1.206697    -5.030225
 H       1.572424     3.290387    -3.887939
 H      -0.169722     3.207653    -2.130145
 C       0.034407    -0.866839    -0.304184
 N       0.808754    -0.963217    -1.298137
 C      -0.635053    -1.781020     2.025100
 O      -0.420108    -2.453258     3.016213
 C       0.440235    -1.670328     0.940503
 C       1.751328    -1.127579     1.558103
 H       2.514424    -1.208879     0.778743
 H       2.025172    -1.808879     2.369050
 C       0.708512    -3.130615     0.506004
 H      -0.192200    -3.572325     0.069183
 H       1.494877    -3.145763    -0.249407
 H       1.003522    -3.725592     1.371262
 N      -1.849744    -1.162721     1.835460
 C      -2.884264    -1.408871     2.834610
 H      -2.612835    -2.307102     3.383260
 H      -2.965578    -0.576616     3.542328
 H      -3.846506    -1.558075     2.339861
 C       1.819440     0.302550     2.144162
 C       3.257484     0.527383     2.654362
 C       0.828501     0.545693     3.297806
 H       3.470808    -0.175494     3.464692
 H       3.984828     0.369828     1.853850
 H       3.377907     1.544786     3.034404
 H      -0.204508     0.583807     2.947855
 H       0.915944    -0.252425     4.038854
 H       1.047458     1.503417     3.777661
 C       1.567269     1.321717     1.106411
 N       1.386656     2.156267     0.337601
48
  -29710.821922  -29701.540504   35.68   19.55
 C      -0.383934    -1.876305    -0.865770
 C       0.397885    -1.205577     0.081814
 C       0.726867    -1.821111     1.294536
 C       0.228011    -3.094797     1.566535
 C      -0.582692    -3.735596     0.637238
 C      -0.889789    -3.140901    -0.576643
 C      -0.614835    -1.185001    -2.143627
 C       0.517549    -0.530779    -2.712694
 C       0.328189     0.213268    -3.913940
 C      -0.930111     0.375290    -4.439617
 C      -2.042396    -0.234248    -3.835176
 C      -1.873611    -1.014890    -2.695879
 H       0.457258    -3.587491     2.502658
 H      -0.967995    -4.723687     0.867309
 H      -1.495740    -3.659502    -1.311521
 H       1.499895    -0.956032    -2.529337
 H       1.190159     0.671179    -4.386620
 H      -1.067361     0.967129    -5.339154
 H      -3.032632    -0.095019    -4.255851
 H      -2.733439    -1.470677    -2.213577
 C       0.818229     0.195642    -0.150931
 N       0.945049     0.757770    -1.271599
 C       1.860756     0.180997     2.124607
 O       2.672011     0.703147     2.858511
 C       1.023025     1.009722     1.132457
 C      -0.331060     1.196809     1.886930
 H      -0.085903     1.515197     2.906184
 H      -0.814461     0.218554     1.974070
 C       1.736796     2.329892     0.860769
 H       2.731990     2.141451     0.453663
 H       1.183018     2.921935     0.132635
 H       1.843642     2.897551     1.785260
 N       1.581526    -1.171069     2.200953
 C       2.241981    -1.952229     3.240835
 H       3.024587    -1.334359     3.674557
 H       1.537031    -2.237748     4.028444
 H       2.683704    -2.853640     2.808630
 C      -1.417917     2.166423     1.354616
 C      -2.666848     1.977878     2.243133
 C      -1.806387     1.940050    -0.115787
 H      -2.424543     2.118878     3.299983
 H      -3.444521     2.694845     1.969075
 H      -3.062733     0.967168     2.106546
 H      -1.001321     2.198054    -0.802408
 H      -2.064381     0.888828    -0.271800
 H      -2.681807     2.547570    -0.361553
 C      -0.992853     3.571545     1.527596
 N      -0.714452     4.675649     1.683964
48
  -29710.844693  -29701.522463   21.40   30.87
 C      -1.110182    -2.009819    -0.367866
 C      -0.016004    -1.191226    -0.059780
 C       0.750513    -1.435091     1.085369
 C       0.389537    -2.480488     1.935170
 C      -0.715456    -3.267231     1.637229
 C      -1.465251    -3.044804     0.492440
 C      -1.834793    -1.720643    -1.614396
 C      -1.032973    -1.393363    -2.745721
 C      -1.691457    -1.042380    -3.959456
 C      -3.059441    -0.933310    -3.999621
 C      -3.832777    -1.214822    -2.860481
 C      -3.214536    -1.608664    -1.678853
 H       0.955482    -2.673976     2.836775
 H      -0.985208    -4.073825     2.311395
 H      -2.310182    -3.679959     0.250136
 H      -0.043275    -1.835214    -2.816713
 H      -1.092416    -0.839003    -4.840338
 H      -3.551492    -0.641343    -4.922023
 H      -4.912661    -1.118736    -2.901309
 H      -3.807320    -1.801499    -0.789805
 C       0.271043     0.011262    -0.876287
 N      -0.114577     0.221863    -2.057890
 C       2.105443     0.568342     0.766819
 O       3.122983     1.200617     0.970311
 C       0.985559     1.142063    -0.114151
 C      -0.128696     1.773590     0.780713
 H      -0.768499     0.967377     1.153004
 H      -0.752438     2.372628     0.109269
 C       1.583203     2.148227    -1.101221
 H       2.256562     1.638241    -1.793626
 H       0.784475     2.605869    -1.687483
 H       2.153999     2.915087    -0.584335
 N       1.890881    -0.659690     1.348693
 C       2.883355    -1.154128     2.299328
 H       3.781199    -0.552186     2.183983
 H       2.520691    -1.050274     3.325417
 H       3.112120    -2.200140     2.081531
 C       0.212674     2.660418     2.007648
 C      -1.115931     3.240281     2.536838
 C       1.195455     3.809077     1.728188
 H      -1.539694     3.920206     1.792173
 H      -1.840409     2.446607     2.738371
 H      -0.949764     3.797799     3.461885
 H       2.193166     3.435775     1.498289
 H       0.830513     4.409123     0.889995
 H       1.264636     4.453993     2.608562
 C       0.764230     1.817301     3.089467
 N       1.159058     1.165060     3.949504
48
  -29710.793945  -29701.522436   53.24   30.89
 C      -0.849881     0.727814    -1.732970
 C      -0.990781    -0.046629    -0.570427
 C      -2.145985     0.077254     0.213443
 C      -3.159041     0.945733    -0.198279
 C      -3.011301     1.694695    -1.356902
 C      -1.859782     1.602207    -2.120577
 C       0.403130     0.602103    -2.494216
 C       0.890965    -0.716471    -2.705697
 C       2.138335    -0.874993    -3.375196
 C       2.889608     0.224771    -3.710118
 C       2.417246     1.521086    -3.444418
 C       1.176001     1.698698    -2.842815
 H      -4.059617     1.060517     0.389004
 H      -3.809443     2.366067    -1.656744
 H      -1.744289     2.186727    -3.026597
 H       0.171618    -1.526799    -2.777788
 H       2.494070    -1.876468    -3.591006
 H       3.851031     0.094542    -4.196960
 H       3.022024     2.383207    -3.705008
 H       0.818201     2.697824    -2.613044
 C       0.119457    -0.921170    -0.126579
 N       1.116073    -1.269113    -0.819924
 C      -1.212660    -1.207450     2.076230
 O      -1.320846    -1.593907     3.222871
 C       0.100131    -1.434387     1.318509
 C       1.287261    -0.877442     2.141283
 H       2.198942    -1.261489     1.675558
 H       1.208319    -1.324346     3.135622
 C       0.249998    -2.975370     1.281167
 H       1.175623    -3.236823     0.767186
 H       0.259383    -3.369809     2.298189
 H      -0.584358    -3.429369     0.737635
 N      -2.282429    -0.639684     1.415647
 C      -3.555898    -0.600361     2.127146
 H      -3.743233     0.387768     2.560976
 H      -4.368208    -0.856177     1.443222
 H      -3.512953    -1.330967     2.930665
 C       1.459319     0.655060     2.321339
 C       0.231266     1.334770     2.954367
 C       1.860921     1.391719     1.028393
 H      -0.596359     1.360478     2.240470
 H      -0.096548     0.809724     3.853996
 H       0.471149     2.368343     3.218636
 H       2.657251     0.863552     0.499298
 H       1.006483     1.484812     0.357366
 H       2.207728     2.400603     1.269548
 C       2.584662     0.802700     3.272986
 N       3.457918     0.919999     4.011125
48
  -29710.786824  -29701.501130   57.71   44.26
 C      -0.852252    -0.155341    -2.060677
 C      -0.991137    -0.302076    -0.675111
 C      -2.064432     0.296064    -0.004630
 C      -2.975296     1.066430    -0.726852
 C      -2.809648     1.233756    -2.096189
 C      -1.760121     0.627793    -2.768890
 C       0.270481    -0.858487    -2.699277
 C       0.528798    -2.180931    -2.234550
 C       1.646559    -2.878268    -2.778063
 C       2.499186    -2.249086    -3.650809
 C       2.255467    -0.927364    -4.061613
 C       1.141788    -0.244700    -3.584704
 H      -3.807923     1.545930    -0.228299
 H      -3.523641     1.840722    -2.643501
 H      -1.652390     0.737666    -3.842366
 H      -0.310896    -2.771201    -1.879175
 H       1.824873    -3.902537    -2.469467
 H       3.362192    -2.780058    -4.040047
 H       2.939741    -0.437510    -4.746292
 H       0.964574     0.785090    -3.880048
 C       0.059071    -0.992158     0.112289
 N       0.907105    -1.813403    -0.326083
 C      -1.249098    -0.471938     2.167654
 O      -1.489484    -0.878390     3.284758
 C       0.166419    -0.508484     1.571952
 C       0.747010     0.934381     1.451222
 H       0.012375     1.562620     0.938312
 H       1.611086     0.864510     0.782180
 C       1.047669    -1.439515     2.397811
 H       1.066659    -1.131671     3.442796
 H       0.660918    -2.459010     2.352931
 H       2.063832    -1.439767     2.001976
 N      -2.237625     0.082405     1.374219
 C      -3.557299     0.290845     1.960298
 H      -4.323088    -0.197766     1.351721
 H      -3.551693    -0.146379     2.955862
 H      -3.788507     1.358025     2.038426
 C       1.192327     1.728118     2.705649
 C       0.118425     1.813087     3.802601
 C       1.558123     3.153616     2.239372
 H       0.445337     2.499424     4.588186
 H      -0.811393     2.200467     3.373773
 H      -0.092022     0.843793     4.252912
 H       0.664504     3.652261     1.852593
 H       1.950152     3.741685     3.072729
 H       2.313775     3.128413     1.449540
 C       2.423465     1.149753     3.283582
 N       3.402965     0.754612     3.736656
48
  -29710.786823  -29701.500857   57.71   44.43
 C      -1.168613    -1.712032    -1.043738
 C      -0.301343    -1.266467    -0.038786
 C      -0.486338    -1.674665     1.287270
 C      -1.562848    -2.503616     1.601461
 C      -2.437489    -2.912937     0.602473
 C      -2.248157    -2.528114    -0.715590
 C      -0.876088    -1.282635    -2.419529
 C       0.496984    -1.293039    -2.801794
 C       0.835896    -0.824087    -4.104215
 C      -0.128636    -0.289496    -4.921785
 C      -1.471290    -0.243388    -4.509162
 C      -1.833760    -0.743011    -3.263068
 H      -1.731025    -2.824801     2.621409
 H      -3.273752    -3.553425     0.863591
 H      -2.916878    -2.874446    -1.495908
 H       1.149346    -2.031721    -2.345102
 H       1.870656    -0.872946    -4.425209
 H       0.143247     0.088373    -5.902352
 H      -2.224175     0.187651    -5.160578
 H      -2.865938    -0.685609    -2.930783
 C       0.748994    -0.266148    -0.347496
 N       1.237387    -0.017036    -1.481159
 C       1.369192    -0.287116     2.065223
 O       2.305112    -0.129459     2.820275
 C       1.137525     0.623456     0.849893
 C      -0.114823     1.526382     1.073183
 H      -0.951218     0.890678     1.379405
 H      -0.381622     1.932463     0.091835
 C       2.403822     1.420803     0.556334
 H       3.219227     0.745181     0.292498
 H       2.232918     2.096937    -0.282058
 H       2.711779     1.996712     1.428469
 N       0.432021    -1.282542     2.277087
 C       0.518002    -2.060926     3.508019
 H      -0.346050    -1.872523     4.153268
 H       0.566923    -3.128732     3.277918
 H       1.423960    -1.760295     4.028792
 C      -0.083467     2.709420     2.073856
 C       0.393532     2.320858     3.482858
 C      -1.517454     3.274780     2.159378
 H       0.256124     3.163514     4.165590
 H      -0.203150     1.480132     3.851194
 H       1.442393     2.027230     3.499335
 H      -1.543551     4.161091     2.797943
 H      -1.891924     3.551399     1.170068
 H      -2.183349     2.519253     2.586652
 C       0.767169     3.805587     1.564896
 N       1.385728     4.695908     1.183392
48
  -29710.786822  -29701.500667   57.71   44.55
 C      -0.815954     0.005055    -2.110899
 C      -0.982060    -0.217037    -0.738418
 C      -2.062295     0.353647    -0.055265
 C      -2.952565     1.171967    -0.749907
 C      -2.759842     1.413417    -2.104556
 C      -1.703369     0.835326    -2.790774
 C       0.312217    -0.672661    -2.767166
 C       0.549945    -2.021411    -2.372298
 C       1.671429    -2.698551    -2.933408
 C       2.545862    -2.030337    -3.754006
 C       2.321724    -0.685444    -4.094793
 C       1.205440    -0.019291    -3.600924
 H      -3.790087     1.631285    -0.240673
 H      -3.458026     2.056917    -2.630096
 H      -1.574584     1.003576    -3.854323
 H      -0.301518    -2.622135    -2.065810
 H       1.834758    -3.740126    -2.679241
 H       3.411230    -2.547421    -4.156472
 H       3.023081    -0.165110    -4.738473
 H       1.043020     1.027052    -3.841515
 C       0.046924    -0.960396     0.028235
 N       0.895599    -1.764430    -0.439798
 C      -1.294887    -0.542428     2.085208
 O      -1.559956    -1.008286     3.173150
 C       0.131176    -0.559913     1.514371
 C       0.726778     0.881584     1.485147
 H       0.007501     1.544733     0.994920
 H       1.602565     0.840575     0.829067
 C       0.988338    -1.544286     2.302870
 H       0.990653    -1.295216     3.363570
 H       0.593215    -2.555737     2.194222
 H       2.011656    -1.532842     1.926100
 N      -2.263169     0.065513     1.306172
 C      -3.591552     0.254667     1.878951
 H      -3.608224    -0.236317     2.849003
 H      -3.814630     1.318226     2.011251
 H      -4.350320    -0.192360     1.230880
 C       1.155542     1.599639     2.789936
 C       0.062225     1.633494     3.870358
 C       1.542176     3.045387     2.411008
 H      -0.164878     0.642628     4.261770
 H       0.380366     2.271699     4.698943
 H      -0.856119     2.053126     3.447183
 H       0.660164     3.573514     2.036925
 H       1.923904     3.582083     3.282923
 H       2.311965     3.057109     1.634626
 C       2.370707     0.978013     3.356645
 N       3.338166     0.548664     3.804432
48
  -29710.780473  -29701.469129   61.69   64.34
 C      -0.734996     1.138059    -1.390469
 C      -1.131142     0.288457    -0.347897
 C      -2.221701     0.629672     0.461202
 C      -2.872990     1.845449     0.250164
 C      -2.444657     2.698513    -0.758427
 C      -1.386355     2.353099    -1.583435
 C       0.370375     0.687076    -2.249317
 C       0.363254    -0.689790    -2.614428
 C       1.451020    -1.187372    -3.388180
 C       2.518924    -0.376745    -3.685466
 C       2.531579     0.967585    -3.277038
 C       1.455019     1.489166    -2.568401
 H      -3.707859     2.137317     0.873617
 H      -2.959882     3.642273    -0.905377
 H      -1.077330     3.006163    -2.392145
 H      -0.595406    -1.191040    -2.708282
 H       1.430780    -2.220988    -3.715766
 H       3.355057    -0.771503    -4.254071
 H       3.382544     1.598116    -3.512013
 H       1.474033     2.519885    -2.227121
 C      -0.348955    -0.930645    -0.036638
 N       0.454273    -1.518507    -0.812594
 C      -1.929673    -1.329645     1.894766
 O      -2.373795    -2.118361     2.702430
 C      -0.471206    -1.431769     1.405071
 C       0.284149    -0.492435     2.400888
 H       0.219850    -0.983937     3.376729
 H      -0.280176     0.441863     2.491601
 C      -0.049320    -2.898817     1.530479
 H       0.944947    -3.058299     1.122469
 H      -0.081020    -3.205307     2.576716
 H      -0.742123    -3.532928     0.972569
 N      -2.679477    -0.261654     1.445885
 C      -4.012275    -0.075912     2.009638
 H      -4.266303    -0.974458     2.566425
 H      -4.037637     0.781983     2.689371
 H      -4.739426     0.076705     1.208309
 C       1.767506    -0.082003     2.168057
 C       1.938727     0.985585     1.070770
 C       2.723497    -1.256391     1.900257
 H       2.944538     1.411418     1.123978
 H       1.815159     0.538818     0.085382
 H       1.216125     1.797505     1.189461
 H       2.540306    -1.663475     0.904016
 H       3.757695    -0.903718     1.941697
 H       2.602189    -2.048131     2.643160
 C       2.181931     0.543395     3.446304
 N       2.503784     1.027819     4.437872
48
  -29710.780472  -29701.469047   61.69   64.39
 C      -0.784758    -1.874170     0.892642
 C       0.367251    -1.185814     0.486732
 C       1.546398    -1.286016     1.235054
 C       1.544832    -2.034434     2.412639
 C       0.385755    -2.677178     2.827198
 C      -0.776036    -2.608511     2.075221
 C      -1.967990    -1.786782     0.023640
 C      -1.727407    -1.865552    -1.378157
 C      -2.835141    -1.716235    -2.261411
 C      -4.079263    -1.408599    -1.768018
 C      -4.289824    -1.288197    -0.384052
 C      -3.234373    -1.484418     0.499529
 H       2.440034    -2.112699     3.015440
 H       0.401319    -3.251068     3.748144
 H      -1.669083    -3.140483     2.384207
 H      -0.882227    -2.454421    -1.721661
 H      -2.672667    -1.825792    -3.328033
 H      -4.912366    -1.271782    -2.450281
 H      -5.275262    -1.039311    -0.004724
 H      -3.387411    -1.364636     1.567913
 C       0.324662    -0.278910    -0.684000
 N      -0.536617    -0.293433    -1.606411
 C       2.737645     0.296200    -0.199135
 O       3.777207     0.764305    -0.613654
 C       1.376268     0.834058    -0.683554
 C       1.047946     1.927894     0.384271
 H       1.793842     2.715592     0.238880
 H       1.235867     1.508897     1.378621
 C       1.586907     1.412258    -2.086162
 H       2.013356     0.649412    -2.741559
 H       0.646214     1.734557    -2.523980
 H       2.287431     2.247017    -2.041449
 N       2.727065    -0.674117     0.782028
 C       4.006157    -1.089732     1.347580
 H       4.129184    -0.710333     2.367177
 H       4.074097    -2.180358     1.357496
 H       4.795390    -0.680792     0.721638
 C      -0.353220     2.602139     0.455767
 C      -1.431525     1.699979     1.085446
 C      -0.864568     3.162054    -0.882078
 H      -1.067145     1.222963     1.999307
 H      -2.311371     2.298064     1.338394
 H      -1.740524     0.930318     0.379730
 H      -0.108518     3.779907    -1.372094
 H      -1.145774     2.340814    -1.544097
 H      -1.749825     3.779422    -0.706475
 C      -0.163178     3.750945     1.372735
 N      -0.015822     4.642451     2.083344
48
  -29710.704544  -29701.431958  109.34   87.67
 C      -1.431805    -1.390773    -1.183934
 C      -0.573897    -1.155764    -0.102345
 C      -0.973681    -1.476977     1.199946
 C      -2.246795    -2.005040     1.411543
 C      -3.102536    -2.204569     0.335298
 C      -2.705731    -1.905736    -0.958605
 C      -0.921526    -1.073061    -2.526104
 C       0.433081    -1.432123    -2.784774
 C       0.991097    -1.085825    -4.049341
 C       0.265849    -0.342571    -4.947378
 C      -1.053344     0.044090    -4.655834
 C      -1.636474    -0.326860    -3.449133
 H      -2.581257    -2.252523     2.410761
 H      -4.092189    -2.611246     0.516800
 H      -3.367123    -2.089960    -1.798030
 H       0.838721    -2.300608    -2.273900
 H       2.004766    -1.396879    -4.277073
 H       0.708127    -0.062073    -5.898147
 H      -1.614784     0.637435    -5.369767
 H      -2.646334    -0.007702    -3.209526
 C       0.716271    -0.456277    -0.310911
 N       1.348480    -0.354453    -1.395660
 C       1.088850    -0.577534     2.155038
 O       1.955540    -0.631355     3.002784
 C       1.216419     0.327458     0.919474
 C       0.223553     1.528999     1.016418
 H      -0.774503     1.120857     1.198498
 H       0.187123     1.978758     0.018682
 C       2.676168     0.736108     0.740680
 H       2.767441     1.459648    -0.070959
 H       3.076862     1.149788     1.664796
 H       3.276950    -0.137618     0.481797
 N      -0.080088    -1.304587     2.272561
 C      -0.312035    -2.042583     3.509762
 H      -0.516451    -3.093873     3.289998
 H       0.587326    -1.966795     4.116069
 H      -1.155857    -1.621360     4.065534
 C       0.434761     2.684621     2.036849
 C       1.565599     3.655790     1.646613
 C       0.611417     2.205670     3.487964
 H       1.519818     4.550159     2.273712
 H       2.541442     3.193198     1.786776
 H       1.470718     3.964732     0.602126
 H       1.567881     1.696946     3.612555
 H       0.577690     3.061513     4.167337
 H      -0.185607     1.512892     3.773151
 C      -0.823604     3.465968     1.981113
 N      -1.796576     4.076264     1.936394
48
  -29710.704544  -29701.431795  109.34   87.77
 C      -0.550222     0.793951    -2.027217
 C      -0.891454     0.154784    -0.828844
 C      -1.996737     0.586977    -0.086865
 C      -2.735782     1.679845    -0.538415
 C      -2.369859     2.327315    -1.711994
 C      -1.287538     1.892704    -2.460748
 C       0.593927     0.250986    -2.774781
 C       0.684441    -1.169661    -2.840872
 C       1.811071    -1.742053    -3.499286
 C       2.822168    -0.939975    -3.967509
 C       2.738645     0.457969    -3.851115
 C       1.624138     1.041371    -3.258417
 H      -3.589005     2.037630     0.023319
 H      -2.951743     3.179733    -2.047460
 H      -1.023427     2.384031    -3.390724
 H      -0.238418    -1.742340    -2.827929
 H       1.866655    -2.820478    -3.599533
 H       3.688451    -1.386485    -4.445456
 H       3.546739     1.081847    -4.218176
 H       1.568214     2.119663    -3.143321
 C      -0.018294    -0.906779    -0.273875
 N       0.820329    -1.598333    -0.910423
 C      -1.555458    -1.033009     1.689684
 O      -1.977608    -1.785306     2.543241
 C      -0.079458    -1.036927     1.261557
 C       0.640337     0.253472     1.767177
 H       0.055475     1.113569     1.429511
 H       1.591676     0.306145     1.227486
 C       0.575932    -2.337602     1.718210
 H       0.147922    -3.180271     1.172250
 H       1.646993    -2.311840     1.511427
 H       0.398117    -2.507410     2.778978
 N      -2.375588    -0.104491     1.078066
 C      -3.738997     0.045539     1.575757
 H      -3.881953     1.027331     2.038348
 H      -4.454973    -0.073207     0.758091
 H      -3.908061    -0.727612     2.321314
 C       0.951311     0.479437     3.275022
 C       2.121863    -0.374018     3.800069
 C      -0.276537     0.332759     4.190013
 H       2.428795    -0.016491     4.786583
 H       1.830054    -1.418975     3.893992
 H       2.982811    -0.309272     3.129266
 H      -0.597998    -0.708047     4.240342
 H      -0.029466     0.673229     5.199065
 H      -1.114046     0.933378     3.823467
 C       1.395213     1.891297     3.356730
 N       1.744204     2.984489     3.422109
