59
     -1302.794194     -1302.371828   0.00   0.00
C      -0.999615     0.893355    -1.149270
C      -0.886066     0.168819     0.056701
C      -1.968042     0.087177     0.948436
C      -3.159334     0.729192     0.620743
C      -3.267284     1.437603    -0.572682
C      -2.210004     1.527888    -1.454439
C       0.162671     0.943255    -2.016610
C       1.219049    -0.075193    -1.762303
C       2.518214     0.188501    -2.435595
C       2.602118     1.056222    -3.467583
C       1.472196     1.839044    -3.847817
C       0.300297     1.793370    -3.102107
H      -4.006039     0.700371     1.291084
H      -4.206583     1.928457    -0.806731
H      -2.327474     2.072864    -2.382673
H       0.830741    -1.003820    -2.299759
H       3.364369    -0.406689    -2.110118
H       3.537513     1.179296    -4.004101
H       1.545299     2.512326    -4.694472
H      -0.506555     2.470498    -3.360784
C       0.396139    -0.444671     0.396016
N       1.385767    -0.539096    -0.401263
C      -0.666401    -1.071824     2.659935
O      -0.590988    -1.553176     3.773353
C       0.596584    -0.997213     1.796699
C       1.671217    -0.195941     2.574281
H       2.620630    -0.331321     2.048299
H       1.755105    -0.675508     3.552458
C       1.102888    -2.452326     1.683703
H       1.268191    -2.865430     2.679192
H       0.365005    -3.076898     1.169712
H       2.028361    -2.469979     1.107479
N      -1.865708    -0.634175     2.147102
C      -3.033178    -0.725072     3.018251
H      -2.782575    -1.390821     3.839340
H      -3.285878     0.258903     3.423736
H      -3.881497    -1.132341     2.463662
C       1.503070     1.329410     2.799239
C       1.777060     2.166058     1.534172
C       2.489587     1.754935     3.905408
H       1.802604     3.228584     1.791718
H       2.743051     1.882568     1.108498
H       1.012917     2.026018     0.770190
H       2.413025     2.827734     4.099677
H       2.289580     1.219652     4.836788
H       3.512002     1.531343     3.586601
C       0.143377     1.657260     3.274451
N      -0.908794     1.943830     3.638135
C       0.008640    -2.567751    -3.175607
C       1.075179    -3.522899    -2.727620
C      -1.301091    -2.526153    -2.445700
H       0.752489    -4.561329    -2.885085
H       2.008651    -3.370656    -3.272394
H       1.267102    -3.398033    -1.656476
H      -1.136094    -2.540007    -1.363760
H      -1.878951    -1.635249    -2.699443
H      -1.908173    -3.407521    -2.695538
C       0.110221    -1.959100    -4.438080
N       0.210339    -1.421984    -5.461122
59
     -1302.794869     -1302.370734  -0.42   0.69
C      -0.577806     0.901914    -1.407914
C      -0.731729     0.236361    -0.175459
C      -1.975671     0.210361     0.472791
C      -3.058376     0.847090    -0.126951
C      -2.902311     1.497891    -1.346820
C      -1.681563     1.535550    -1.989502
C       0.738988     0.880965    -2.021561
C       1.659953    -0.182575    -1.533155
C       3.070018    -0.044674    -1.981385
C       3.404726     0.784543    -2.996088
C       2.428189     1.640175    -3.584932
C       1.134553     1.691438    -3.070423
H      -4.027921     0.855183     0.349701
H      -3.762820     1.984366    -1.794917
H      -1.590378     2.033751    -2.947008
H       1.285290    -1.123050    -2.061577
H       3.798269    -0.684247    -1.494499
H       4.429533     0.825373    -3.352360
H       2.708718     2.294815    -4.402680
H       0.438028     2.415018    -3.481216
C       0.434029    -0.388561     0.444291
N       1.556972    -0.553812    -0.136672
C      -1.080203    -0.861635     2.473177
O      -1.244854    -1.264203     3.608657
C       0.333281    -0.857395     1.884685
C       1.246969    -0.024676     2.818471
H       2.280317    -0.205413     2.508375
H       1.115792    -0.444890     3.818505
C       0.810441    -2.325335     1.959844
H       0.767129    -2.673222     2.992408
H       0.170760    -2.965057     1.345727
H       1.830250    -2.392865     1.579998
N      -2.137904    -0.449886     1.697792
C      -3.465088    -0.502637     2.300675
H      -4.175307    -0.938239     1.594577
H      -3.401927    -1.128576     3.186498
H      -3.793127     0.498229     2.596434
C       1.076022     1.513636     2.917333
C       1.632972     2.267174     1.693756
C       1.817323     1.992241     4.181804
H       1.628272     3.343542     1.887284
H       2.660650     1.947286     1.503000
H       1.046673     2.086608     0.793196
H       1.731847     3.076105     4.293565
H       1.409563     1.518670     5.078150
H       2.877262     1.733211     4.101669
C      -0.344323     1.889232     3.073395
N      -1.441088     2.213292     3.188964
C       0.277936    -2.589289    -2.922820
C      -0.116738    -1.764500    -4.112029
C       1.476599    -3.487420    -3.000845
H      -0.923676    -1.070945    -3.869177
H       0.739877    -1.191984    -4.483508
H      -0.455884    -2.413729    -4.931182
H       1.272640    -4.346041    -3.655511
H       2.329128    -2.948732    -3.426882
H       1.755552    -3.870340    -2.017337
C      -0.645710    -2.773041    -1.881128
N      -1.396550    -2.905684    -1.006953
59
     -1302.793966     -1302.369516   0.14   1.45
C      -1.700333    -0.527913    -0.190551
C      -0.486769    -0.794615     0.469021
C      -0.400387    -1.822718     1.417590
C      -1.528307    -2.590676     1.687160
C      -2.726000    -2.327417     1.026534
C      -2.825594    -1.306973     0.103572
C      -1.710367     0.547753    -1.164743
C      -0.380194     0.946585    -1.699279
C      -0.373710     2.204649    -2.488384
C      -1.523705     2.751255    -2.942063
C      -2.784607     2.196417    -2.575128
C      -2.851563     1.133682    -1.678771
H      -1.495176    -3.392282     2.411698
H      -3.593760    -2.939736     1.249948
H      -3.764200    -1.130524    -0.407548
H      -0.146434     0.129567    -2.463171
H       0.597689     2.627834    -2.718826
H      -1.496729     3.640014    -3.564876
H      -3.698756     2.644991    -2.947876
H      -3.825262     0.795119    -1.341315
C       0.682519     0.024843     0.164079
N       0.751919     0.850971    -0.801681
C       1.860506    -1.190027     2.103701
O       2.787034    -1.320853     2.882200
C       1.903662    -0.073064     1.061493
C       2.172346     1.283917     1.754047
H       2.427533     1.994355     0.963433
H       3.052093     1.151656     2.389978
C       3.134643    -0.404739     0.185322
H       3.007119    -1.376717    -0.299225
H       3.236225     0.355557    -0.589813
H       4.031890    -0.433436     0.805375
N       0.805047    -2.072844     2.098299
C       0.892497    -3.229527     2.981306
H       0.247857    -3.111783     3.858668
H       0.602763    -4.130816     2.436455
H       1.923563    -3.319447     3.312998
C       1.074214     1.928723     2.633322
C       1.653938     3.222355     3.239622
C       0.580935     1.011208     3.766785
H       2.489227     2.973192     3.900072
H       2.015548     3.893385     2.456282
H       0.894310     3.750001     3.821614
H      -0.074611     1.570494     4.439712
H       0.010688     0.162409     3.384146
H       1.433876     0.632448     4.335455
C      -0.096709     2.322500     1.821920
N      -1.023235     2.653721     1.227861
C       0.121708    -1.534640    -3.479933
C      -1.319383    -1.640492    -3.883437
C       1.116285    -0.894635    -4.402852
H      -1.704666    -0.661490    -4.188190
H      -1.429790    -2.317822    -4.741680
H      -1.936158    -2.019138    -3.066446
H       0.708529     0.032207    -4.818053
H       2.050263    -0.667796    -3.884776
H       1.346910    -1.559321    -5.246975
C       0.591516    -2.316668    -2.412322
N       0.976767    -2.941365    -1.513812
59
     -1302.793966     -1302.369468   0.14   1.48
C      -1.574514    -0.745840    -0.465209
C      -0.398344    -0.870835     0.296308
C      -0.220791    -1.957841     1.162991
C      -1.217185    -2.924574     1.248211
C      -2.377068    -2.800264     0.487019
C      -2.568599    -1.725421    -0.356256
C      -1.683282     0.403104    -1.345152
C      -0.400054     1.067061    -1.701105
C      -0.541452     2.379854    -2.380894
C      -1.723007     2.770055    -2.908850
C      -2.895780     1.980804    -2.724280
C      -2.857570     0.839254    -1.928820
H      -1.110918    -3.776338     1.905348
H      -3.141344    -3.566674     0.566740
H      -3.472986    -1.657930    -0.948614
H       0.041365     0.378727    -2.499088
H       0.358032     2.978602    -2.471653
H      -1.794985     3.707559    -3.451457
H      -3.836374     2.305969    -3.154836
H      -3.783850     0.312750    -1.725374
C       0.632876     0.156691     0.184485
N       0.644767     1.073121    -0.698691
C       1.822939    -1.029394     2.134537
O       2.683187    -1.080137     2.994205
C       1.765542     0.175250     1.195828
C       1.729511     1.484153     2.019642
H       1.927971     2.300442     1.320217
H       2.557185     1.438001     2.732858
C       3.110032     0.138361     0.431624
H       3.198600    -0.789788    -0.139750
H       3.147543     0.976385    -0.265178
H       3.938346     0.198778     1.139148
N       0.942525    -2.069932     1.946013
C       1.149410    -3.276484     2.737654
H       0.416567    -3.353093     3.547753
H       1.072580    -4.155987     2.094456
H       2.145591    -3.226154     3.169265
C       0.460361     1.849903     2.826049
C       0.748065     3.156542     3.592263
C       0.033477     0.757714     3.823449
H       1.550403     2.986100     4.315578
H       1.056882     3.951037     2.908104
H      -0.141668     3.492128     4.130702
H      -0.342787    -0.132528     3.315555
H       0.884007     0.471923     4.447367
H      -0.768061     1.132752     4.465519
C      -0.682536     2.121393     1.929067
N      -1.594735     2.350782     1.268508
C       0.688824    -1.111590    -3.611416
C      -0.668481    -1.415303    -4.173734
C       1.636391    -0.228319    -4.368057
H      -0.579779    -2.014702    -5.090464
H      -1.281658    -1.968782    -3.460337
H      -1.189493    -0.488847    -4.438289
H       2.464418     0.099231    -3.736177
H       2.056661    -0.760028    -5.233039
H       1.112420     0.653713    -4.749057
C       1.188384    -1.904815    -2.565825
N       1.593143    -2.541226    -1.684267
59
     -1302.792241     -1302.368615   1.23   2.02
C      -1.546683    -0.518027    -0.910781
C      -0.649449    -0.788205     0.141252
C      -0.912217    -1.820114     1.053634
C      -2.064824    -2.583800     0.897003
C      -2.944585    -2.315920    -0.148067
C      -2.703936    -1.294256    -1.043508
C      -1.202713     0.556273    -1.825813
C       0.233430     0.948985    -1.842960
C       0.532838     2.196115    -2.593056
C      -0.369392     2.733911    -3.445093
C      -1.680127     2.184034    -3.555963
C      -2.075312     1.134118    -2.730068
H      -2.294859    -3.388117     1.581362
H      -3.835344    -2.926877    -0.253220
H      -3.394127    -1.117675    -1.859492
H       0.728190     0.121574    -2.455852
H       1.526466     2.611985    -2.466133
H      -0.110485     3.609314    -4.032865
H      -2.390630     2.621170    -4.248791
H      -3.104688     0.793550    -2.775029
C       0.550340     0.035623     0.284412
N       0.955744     0.869234    -0.589514
C       0.980927    -1.227407     2.488170
O       1.593931    -1.394796     3.524790
C       1.392470    -0.098570     1.542127
C       1.483965     1.235215     2.323004
H       1.986818     1.950806     1.667457
H       2.139655     1.046797     3.176390
C       2.832302    -0.474063     1.110264
H       2.835986    -1.435710     0.589601
H       3.211257     0.289197     0.429774
H       3.473420    -0.546108     1.989746
N      -0.032863    -2.082812     2.116630
C      -0.271378    -3.247441     2.961404
H      -0.348212    -4.143472     2.341314
H       0.571495    -3.345211     3.640210
H      -1.188064    -3.131591     3.548752
C       0.192777     1.912502     2.858076
C      -0.653669     0.994033     3.758364
C      -0.690329     2.522098     1.752675
H      -0.045824     0.524314     4.534197
H      -1.449731     1.571683     4.236217
H      -1.126671     0.210404     3.160021
H      -1.454108     3.164154     2.200637
H      -0.097186     3.115915     1.054067
H      -1.198253     1.737376     1.189127
C       0.668499     3.035264     3.699327
N       1.033120     3.908152     4.352083
C       1.320299    -1.543957    -3.328967
C       0.133543    -1.601307    -4.245024
C       2.604725    -0.931344    -3.803487
H      -0.754767    -1.967161    -3.727095
H      -0.082502    -0.609287    -4.656128
H       0.336744    -2.269575    -5.093313
H       3.108919    -1.595538    -4.519128
H       2.408417     0.014418    -4.318253
H       3.289264    -0.746165    -2.973486
C       1.334225    -2.349155    -2.178696
N       1.336120    -2.993767    -1.213994
59
     -1302.792241     -1302.368615   1.23   2.02
C      -1.094045    -1.323645     0.743319
C       0.213515    -0.953129     0.372102
C       1.288680    -1.827917     0.584458
C       1.044235    -3.073851     1.153800
C      -0.250849    -3.436670     1.513005
C      -1.314525    -2.578969     1.322051
C      -2.160241    -0.372936     0.480446
C      -1.854183     0.668320    -0.538927
C      -2.846994     1.770278    -0.626288
C      -4.069747     1.657051    -0.059484
C      -4.396213     0.523407     0.741111
C      -3.433461    -0.445199     1.015892
H       1.850542    -3.772216     1.327994
H      -0.418634    -4.414926     1.951915
H      -2.315703    -2.891785     1.592534
H      -1.959880     0.109750    -1.529829
H      -2.561200     2.635343    -1.214792
H      -4.805476     2.445237    -0.187171
H      -5.383106     0.442588     1.183178
H      -3.683506    -1.250878     1.698521
C       0.440540     0.365504    -0.218105
N      -0.488150     1.146492    -0.606179
C       2.957525    -0.169314    -0.091727
O       4.126608     0.146929    -0.199476
C       1.866735     0.856673    -0.401826
C       2.135030     2.163530     0.383837
H       1.470639     2.924580    -0.033367
H       3.162419     2.454897     0.153026
C       2.067108     1.178252    -1.904176
H       1.325276     1.915357    -2.213371
H       3.073545     1.566102    -2.066555
H       1.933202     0.276768    -2.508548
N       2.597765    -1.458130     0.235471
C       3.665741    -2.444972     0.347123
H       3.396218    -3.344946    -0.210276
H       4.567048    -2.010229    -0.076449
H       3.856451    -2.707896     1.392691
C       1.970783     2.189469     1.928032
C       2.812208     1.122705     2.652320
C       0.505320     2.108520     2.396280
H       3.851161     1.137714     2.317087
H       2.787758     1.298435     3.731328
H       2.398362     0.127142     2.469545
H       0.442701     2.350768     3.461014
H      -0.127419     2.803053     1.839720
H       0.111654     1.100114     2.256614
C       2.485586     3.513971     2.346701
N       2.883039     4.540932     2.675874
C      -1.980937    -1.158527    -3.039067
C      -3.148613    -1.931568    -2.500755
C      -2.202553    -0.073093    -4.050472
H      -3.917698    -1.250473    -2.120748
H      -3.609054    -2.533191    -3.296686
H      -2.846868    -2.603777    -1.695598
H      -3.041552     0.562266    -3.749835
H      -1.313450     0.549061    -4.169674
H      -2.451555    -0.502722    -5.030739
C      -0.684409    -1.666626    -2.858753
N       0.389457    -2.071266    -2.687702
59
     -1302.791418     -1302.368294   1.74   2.22
C       1.150763    -1.626090     0.230275
C       0.929396    -0.479114    -0.552811
C       1.656212    -0.262632    -1.730006
C       2.647626    -1.171819    -2.088629
C       2.895308    -2.283067    -1.286271
C       2.158022    -2.522872    -0.143651
C       0.280432    -1.824483     1.374516
C      -0.974604    -1.024139     1.370225
C      -1.747545    -1.063088     2.636220
C      -1.480953    -1.980304     3.593124
C      -0.373111    -2.866983     3.458874
C       0.491616    -2.754266     2.375211
H       3.237290    -1.023291    -2.983270
H       3.676400    -2.977477    -1.578780
H       2.350066    -3.410691     0.445913
H      -1.639815    -1.562595     0.604263
H      -2.562931    -0.354070     2.729746
H      -2.093065    -2.027984     4.488603
H      -0.172078    -3.597408     4.234694
H       1.374860    -3.382977     2.343837
C      -0.038423     0.517757    -0.101861
N      -0.901109     0.312844     0.811725
C       0.541747     1.868068    -2.167890
O       0.271225     2.778284    -2.924149
C       0.071566     1.906845    -0.703811
C       1.215735     2.712486    -0.005335
H       1.139148     3.741907    -0.370060
H       2.176232     2.326261    -0.365641
C      -1.275317     2.636794    -0.676567
H      -1.156688     3.649336    -1.062929
H      -1.986453     2.108411    -1.315798
H      -1.687502     2.660501     0.327909
N       1.361502     0.831543    -2.557286
C       1.864818     0.837269    -3.925402
H       1.365122     1.641907    -4.458357
H       2.945333     1.011234    -3.947652
H       1.640786    -0.116419    -4.409695
C       1.326954     2.779181     1.538665
C       0.044483     3.221751     2.261433
C       2.466520     3.765897     1.871916
H      -0.321322     4.155264     1.824871
H      -0.730991     2.459854     2.189875
H       0.260906     3.395227     3.319278
H       3.394353     3.481275     1.368486
H       2.185730     4.771881     1.546872
H       2.652711     3.786965     2.948408
C       1.740354     1.467870     2.079232
N       2.101423     0.475244     2.531804
C      -2.462822    -2.379682    -0.950955
C      -1.658469    -3.645469    -0.901062
C      -3.842767    -2.353401    -0.362577
H      -2.141348    -4.428712    -1.501561
H      -0.647243    -3.494418    -1.282299
H      -1.592574    -4.016856     0.127404
H      -3.829836    -2.755324     0.655766
H      -4.248650    -1.340436    -0.337026
H      -4.525429    -2.980173    -0.952891
C      -2.084931    -1.366684    -1.848554
N      -1.747071    -0.512447    -2.556716
59
     -1302.791418     -1302.368261   1.74   2.24
C       1.834620    -0.135513     0.619563
C       0.835152     0.634172    -0.002058
C       1.110384     1.925021    -0.469883
C       2.376582     2.464086    -0.259468
C       3.350605     1.715803     0.397304
C       3.098179     0.428636     0.828768
C       1.492989    -1.499939     0.976983
C       0.283042    -2.052613     0.308956
C      -0.185723    -3.356640     0.839484
C       0.594287    -4.104974     1.651643
C       1.848521    -3.608166     2.111656
C       2.255912    -2.317937     1.788970
H       2.614620     3.464782    -0.594280
H       4.329930     2.155200     0.557686
H       3.882504    -0.142844     1.309323
H       0.640512    -2.282040    -0.758164
H      -1.159252    -3.696431     0.503184
H       0.255816    -5.081193     1.985220
H       2.463097    -4.220119     2.762534
H       3.172501    -1.935054     2.224452
C      -0.516701     0.092468    -0.115144
N      -0.811944    -1.132938     0.063975
C      -1.182945     2.262340    -1.244787
O      -1.990668     2.886414    -1.901842
C      -1.637883     1.084302    -0.366520
C      -2.042459     1.795963     0.966112
H      -2.947609     2.372288     0.748953
H      -1.262878     2.524942     1.215874
C      -2.824386     0.420384    -1.072978
H      -2.514297     0.087712    -2.066308
H      -3.168666    -0.451465    -0.524553
H      -3.635210     1.139399    -1.192006
N       0.137841     2.648196    -1.176739
C       0.549559     3.810540    -1.954264
H       0.810880     4.649559    -1.301547
H       1.408796     3.556080    -2.579726
H      -0.286712     4.099471    -2.585414
C      -2.311551     0.988286     2.260718
C      -3.325523    -0.157186     2.109957
C      -2.822727     1.985376     3.322695
H      -4.243272     0.220849     1.650964
H      -2.920743    -0.963861     1.499710
H      -3.571963    -0.561009     3.095939
H      -3.791661     2.386261     3.011309
H      -2.945479     1.487956     4.287812
H      -2.124544     2.816838     3.451290
C      -1.049199     0.429985     2.787429
N      -0.082121     0.015406     3.249362
C       1.318821    -2.268240    -2.575558
C       2.770290    -2.245915    -2.195515
C       0.666619    -3.569722    -2.938742
H       3.085637    -1.252925    -1.871071
H       2.964749    -2.956731    -1.384991
H       3.393328    -2.545067    -3.049663
H      -0.413702    -3.459794    -3.049638
H       1.070287    -3.951740    -3.886608
H       0.868723    -4.323781    -2.171076
C       0.691346    -1.065480    -2.941995
N       0.161598    -0.066646    -3.200965
59
     -1302.790712     -1302.367868   2.19   2.48
C      -0.699867    -1.620197     0.833212
C       0.479782    -0.998034     0.373012
C       1.719288    -1.648226     0.483993
C       1.765309    -2.929210     1.028069
C       0.594646    -3.543873     1.465456
C      -0.626194    -2.906796     1.382080
C      -1.941237    -0.878126     0.711708
C      -1.936393     0.251111    -0.257394
C      -3.103084     1.166304    -0.161215
C      -4.218751     0.805315     0.511339
C      -4.255774    -0.410706     1.254028
C      -3.118520    -1.205594     1.362649
H       2.703067    -3.457063     1.128847
H       0.653126    -4.543258     1.884545
H      -1.522721    -3.412612     1.719146
H      -2.087096    -0.252908    -1.274433
H      -3.044205     2.088347    -0.727979
H      -5.091350     1.450520     0.504748
H      -5.160423    -0.691229     1.782352
H      -3.150491    -2.075411     2.010667
C       0.400419     0.357436    -0.171464
N      -0.687497     0.961963    -0.438583
C       2.977946     0.320055    -0.256928
O       4.049855     0.859600    -0.447549
C       1.686884     1.114493    -0.458943
C       1.760743     2.444810     0.329676
H       0.928287     3.062853    -0.015762
H       2.689195     2.933256     0.024747
C       1.696894     1.477099    -1.964812
H       0.796303     2.044486    -2.202096
H       2.586089     2.063839    -2.199151
H       1.708358     0.570579    -2.577837
N       2.904410    -1.019341     0.065454
C       4.157238    -1.765705     0.112963
H       4.055904    -2.699986    -0.444324
H       4.928300    -1.151552    -0.344037
H       4.445983    -1.989231     1.145032
C       1.722494     2.427714     1.882402
C       2.814256     1.544223     2.513245
C       0.346263     2.055261     2.466198
H       3.799345     1.767679     2.099060
H       2.842568     1.703728     3.594581
H       2.591416     0.487450     2.341461
H       0.327036     2.277332     3.536966
H      -0.456328     2.610747     1.976856
H       0.150289     0.988929     2.340433
C       1.999692     3.825652     2.287041
N       2.213351     4.909385     2.604604
C      -2.364261    -1.230426    -2.940839
C      -0.979070    -1.030109    -3.481421
C      -2.730830    -2.534168    -2.294496
H      -0.831562    -1.622277    -4.395514
H      -0.790379     0.017632    -3.721975
H      -0.235551    -1.365761    -2.751038
H      -3.657740    -2.453430    -1.722695
H      -2.869026    -3.315440    -3.055229
H      -1.931238    -2.865994    -1.624974
C      -3.392297    -0.366507    -3.359803
N      -4.236242     0.365014    -3.671819
59
     -1302.790260     -1302.367461   2.47   2.74
C       0.920857    -1.866301     0.642388
C       0.943449    -0.571345     0.098740
C       2.140882     0.009797    -0.333742
C       3.330630    -0.686885    -0.156284
C       3.313945    -1.949537     0.433376
C       2.131258    -2.547808     0.823230
C      -0.387427    -2.431986     0.925658
C      -1.531028    -1.754791     0.247854
C      -2.873737    -2.219233     0.673967
C      -3.030242    -3.353524     1.394707
C      -1.896670    -4.080313     1.860830
C      -0.609998    -3.595415     1.639196
H       4.272414    -0.261681    -0.476994
H       4.252454    -2.478174     0.566605
H       2.144453    -3.548362     1.238488
H      -1.431567    -2.089777    -0.843839
H      -3.720146    -1.629212     0.339158
H      -4.025712    -3.704592     1.648658
H      -2.038321    -4.991461     2.431471
H       0.232118    -4.131586     2.065017
C      -0.298142     0.198421     0.023836
N      -1.460110    -0.306149     0.131019
C       0.982426     2.024109    -1.071097
O       0.885177     2.937451    -1.862937
C      -0.130225     1.710051    -0.059084
C       0.312945     2.115679     1.382633
H       1.289501     1.662453     1.582286
H      -0.394033     1.634540     2.066731
C      -1.425850     2.385243    -0.494780
H      -2.206609     2.204413     0.244230
H      -1.285801     3.457922    -0.621227
H      -1.756112     1.972875    -1.449915
N       2.121985     1.246469    -0.999844
C       3.220945     1.555066    -1.909395
H       4.133341     1.789031    -1.353381
H       3.401535     0.708172    -2.575895
H       2.929789     2.420444    -2.498893
C       0.430505     3.601523     1.805957
C       1.307338     4.452062     0.872612
C       1.029660     3.624692     3.228671
H       1.462142     5.441508     1.311084
H       2.283821     3.972389     0.751657
H       0.863999     4.572778    -0.114980
H       0.435037     3.018011     3.917051
H       2.048542     3.227317     3.203049
H       1.065907     4.646867     3.613252
C      -0.905096     4.226873     1.908562
N      -1.925688     4.737802     2.042629
C      -0.963798    -2.609396    -2.649782
C      -0.493403    -3.973367    -2.235597
C      -2.365211    -2.419899    -3.152675
H       0.494277    -3.932603    -1.772585
H      -1.196091    -4.422161    -1.525648
H      -0.437021    -4.640931    -3.106613
H      -2.639040    -1.363108    -3.177273
H      -2.469074    -2.822074    -4.169957
H      -3.074736    -2.955343    -2.514452
C      -0.008365    -1.615290    -2.926915
N       0.775736    -0.785758    -3.133025
59
     -1302.792529     -1302.367075   1.04   2.98
C      -1.227995    -1.681206     0.140055
C      -0.025368    -0.968873    -0.018113
C       1.200702    -1.638290    -0.126417
C       1.222096    -3.025992    -0.018098
C       0.034347    -3.726655     0.177995
C      -1.182952    -3.077071     0.248509
C      -2.456316    -0.905907     0.138817
C      -2.338436     0.478845    -0.399838
C      -3.538656     1.329755    -0.209908
C      -4.729296     0.795333     0.146138
C      -4.837187    -0.590486     0.459983
C      -3.704470    -1.399548     0.475747
H       2.156822    -3.567292    -0.073923
H       0.071837    -4.808067     0.262468
H      -2.094055    -3.651112     0.366044
H      -2.271433     0.322908    -1.535339
H      -3.421332     2.387071    -0.421551
H      -5.609386     1.426357     0.222526
H      -5.799697    -1.006387     0.736764
H      -3.804657    -2.432616     0.792594
C      -0.049867     0.492593     0.006187
N      -1.106133     1.191541    -0.114342
C       2.458446     0.444340    -0.274670
O       3.466794     1.046993    -0.582845
C       1.264427     1.184811     0.339107
C       1.347130     1.105720     1.899653
H       0.963927     0.127849     2.211308
H       0.634203     1.845988     2.277053
C       1.245282     2.626045    -0.176576
H       2.203232     3.114045    -0.020090
H       1.037076     2.627085    -1.248711
H       0.451260     3.182236     0.322859
N       2.376735    -0.924629    -0.385923
C       3.555615    -1.646413    -0.852903
H       4.268427    -0.911747    -1.217472
H       4.014913    -2.205911    -0.033602
H       3.277545    -2.320287    -1.666738
C       2.680658     1.313276     2.663156
C       2.346959     1.323923     4.169953
C       3.444976     2.597067     2.302169
H       3.262299     1.371841     4.765002
H       1.734934     2.200339     4.401650
H       1.795029     0.425304     4.458667
H       3.829956     2.558689     1.283755
H       2.780953     3.459588     2.407216
H       4.288483     2.726384     2.986062
C       3.564473     0.148935     2.439316
N       4.239885    -0.771546     2.308419
C      -1.828944    -0.136016    -3.371098
C      -2.328302    -1.549750    -3.309468
C      -2.700961     0.933664    -3.959725
H      -2.458683    -1.952172    -4.323464
H      -1.636118    -2.198221    -2.769940
H      -3.305103    -1.590131    -2.815374
H      -2.272822     1.926900    -3.813162
H      -2.830451     0.773408    -5.038936
H      -3.696601     0.906363    -3.504804
C      -0.453190     0.108213    -3.223975
N       0.675199     0.314587    -3.052959
59
     -1302.790506     -1302.366092   2.31   3.60
C      -0.546777     0.491271    -1.586362
C      -0.729112     0.128405    -0.240064
C      -2.001518     0.138636     0.342084
C      -3.088732     0.560241    -0.423452
C      -2.898057     0.960966    -1.742462
C      -1.646765     0.927505    -2.331989
C       0.797145     0.348786    -2.126180
C       1.691085    -0.592442    -1.363864
C       3.125027    -0.537539    -1.789226
C       3.511439     0.098853    -2.915415
C       2.571316     0.828648    -3.703641
C       1.247287     0.956533    -3.277717
H      -4.083307     0.588749     0.001307
H      -3.755674     1.291813    -2.319440
H      -1.531211     1.204703    -3.373138
H       1.337022    -1.617266    -1.605434
H       3.830629    -1.078212    -1.167525
H       4.552893     0.076623    -3.221477
H       2.896621     1.324712    -4.611093
H       0.572957     1.587307    -3.848759
C       0.443082    -0.205779     0.575517
N       1.581145    -0.507071     0.095504
C      -1.130597    -0.541951     2.520159
O      -1.314597    -0.995588     3.628168
C       0.272875    -0.085332     2.078230
C       0.280126     1.411963     2.540066
H       0.289522     1.381242     3.633675
H      -0.675647     1.867166     2.257593
C       1.295283    -0.942166     2.829457
H       1.120418    -1.996721     2.606521
H       2.308644    -0.700179     2.521695
H       1.181685    -0.797574     3.903960
N      -2.183765    -0.305436     1.656946
C      -3.525657    -0.656237     2.105819
H      -3.430135    -1.176622     3.055107
H      -4.140622     0.237903     2.249105
H      -4.004353    -1.314610     1.376584
C       1.383696     2.404561     2.075350
C       1.196151     2.884357     0.623200
C       2.822752     1.903600     2.281504
H       0.160624     3.180287     0.434873
H       1.839352     3.748072     0.433278
H       1.472794     2.097909    -0.078197
H       3.034984     1.095976     1.578932
H       3.526409     2.719854     2.095582
H       2.975703     1.544571     3.302037
C       1.200166     3.592788     2.942547
N       1.057251     4.515115     3.613542
C      -0.496853    -3.519366    -1.735374
C      -1.317840    -2.786884    -2.748195
C       0.563970    -4.492695    -2.146986
H      -2.053969    -2.133839    -2.278134
H      -0.674131    -2.175521    -3.394012
H      -1.838878    -3.497626    -3.401590
H       1.547096    -4.188445    -1.768001
H       0.361927    -5.489652    -1.739392
H       0.621428    -4.567772    -3.234945
C      -0.713345    -3.299244    -0.373025
N      -0.887983    -3.111891     0.759694
59
     -1302.789554     -1302.366040   2.91   3.63
C      -1.366370     0.775633    -1.046359
C      -1.171382    -0.005901     0.107742
C      -2.263191    -0.465357     0.856583
C      -3.550070    -0.101019     0.472362
C      -3.736392     0.702520    -0.650881
C      -2.669045     1.135175    -1.411908
C      -0.184833     1.150108    -1.800172
C       1.041683     0.355892    -1.518669
C       2.291043     0.900214    -2.106166
C       2.258660     1.865908    -3.051044
C       1.024722     2.470897    -3.427226
C      -0.157359     2.119965    -2.784758
H      -4.412130    -0.426672     1.038461
H      -4.746526     0.981174    -0.933451
H      -2.844729     1.735825    -2.295613
H       0.882287    -0.627069    -2.088481
H       3.218129     0.433480    -1.793440
H       3.179464     2.202224    -3.516728
H       1.015250     3.245573    -4.186070
H      -1.065749     2.659138    -3.030753
C       0.191316    -0.280358     0.559116
N       1.230862    -0.099208    -0.152630
C      -0.821260    -1.550209     2.510368
O      -0.675964    -2.331722     3.428780
C       0.366315    -0.714859     2.004591
C       0.326582     0.526555     2.955932
H       0.613138     0.167040     3.949528
H      -0.713359     0.863508     3.035399
C       1.631407    -1.560212     2.187137
H       1.774578    -1.797851     3.241606
H       1.527602    -2.502846     1.642903
H       2.503925    -1.047710     1.792738
N      -2.061836    -1.318775     1.956168
C      -3.207467    -2.016159     2.529767
H      -3.866219    -1.319060     3.057036
H      -3.772961    -2.521088     1.742554
H      -2.830307    -2.751068     3.236236
C       1.170777     1.792492     2.662995
C       2.666831     1.532524     2.423936
C       1.004547     2.739814     3.870745
H       3.203005     2.484886     2.388210
H       3.073887     0.937007     3.245938
H       2.831148     1.011402     1.481425
H       1.505907     3.692100     3.681860
H      -0.051025     2.941712     4.071407
H       1.449239     2.281992     4.759096
C       0.623596     2.509219     1.493151
N       0.196016     3.112533     0.613580
C       0.515965    -2.295648    -2.976301
C       0.471732    -3.159934    -1.749871
C      -0.764131    -1.851014    -3.622810
H       0.190373    -4.189518    -2.013169
H       1.440237    -3.191484    -1.246915
H      -0.278176    -2.783822    -1.046982
H      -0.596349    -1.026240    -4.319003
H      -1.222651    -2.678302    -4.182799
H      -1.483039    -1.529583    -2.863324
C       1.708074    -2.239573    -3.723492
N       2.698680    -2.159624    -4.320452
59
     -1302.787760     -1302.365908   4.04   3.71
C       1.001153    -1.649097     0.534235
C       0.928022    -0.567667    -0.361035
C       1.883902    -0.400708    -1.370800
C       2.961684    -1.279742    -1.428834
C       3.065960    -2.313710    -0.500464
C       2.100272    -2.514695     0.467345
C      -0.124185    -1.825917     1.436501
C      -1.373730    -1.116964     1.036328
C      -2.459954    -1.147324     2.046980
C      -2.414286    -1.990682     3.103798
C      -1.264862    -2.799576     3.338587
C      -0.143436    -2.683956     2.521007
H       3.725310    -1.167363    -2.187145
H       3.916468    -2.985469    -0.558017
H       2.182548    -3.355654     1.145402
H      -1.773771    -1.737371     0.156472
H      -3.309961    -0.498655     1.864659
H      -3.246212    -2.037515     3.799845
H      -1.246478    -3.475842     4.186075
H       0.744095    -3.259232     2.765005
C      -0.146749     0.412796    -0.214087
N      -1.216500     0.198967     0.440238
C       0.792689     1.615910    -2.209008
O       0.600740     2.417306    -3.097710
C       0.106072     1.775249    -0.838779
C       1.199209     2.556272    -0.033876
H       1.544771     3.371315    -0.678677
H       2.052945     1.882359     0.091617
C      -1.196827     2.543126    -1.044151
H      -1.757757     2.595343    -0.112705
H      -0.994574     3.543472    -1.427425
H      -1.816747     2.016718    -1.772746
N       1.722710     0.603588    -2.335183
C       2.452777     0.496617    -3.592697
H       2.335324    -0.507532    -4.007977
H       2.032325     1.224967    -4.281229
H       3.516627     0.711147    -3.450919
C       0.906499     3.178246     1.361238
C       0.331589     2.187369     2.386542
C       0.038430     4.449518     1.296594
H       0.924637     1.269647     2.426509
H       0.334887     2.642051     3.381141
H      -0.691064     1.918179     2.122432
H      -0.992738     4.201506     1.049367
H       0.044779     4.953366     2.266883
H       0.420922     5.146474     0.546057
C       2.236322     3.605232     1.858988
N       3.266388     3.940636     2.243230
C      -2.148151    -2.678820    -1.481364
C      -1.294379    -3.876933    -1.185333
C      -3.626739    -2.744210    -1.234905
H      -0.233975    -3.660605    -1.324731
H      -1.451350    -4.214338    -0.154977
H      -1.566059    -4.711256    -1.846547
H      -3.827904    -3.108567    -0.222034
H      -4.098299    -1.767665    -1.358802
H      -4.102784    -3.444654    -1.934844
C      -1.637594    -1.665089    -2.309339
N      -1.198006    -0.804613    -2.950830
59
     -1302.788389     -1302.365700   3.64   3.85
C       0.999694    -1.915249     0.278357
C       0.973281    -0.575382    -0.148154
C       2.088562     0.008230    -0.765086
C       3.251646    -0.740253    -0.908621
C       3.286190    -2.057773    -0.452610
C       2.181655    -2.652061     0.124754
C      -0.230256    -2.452638     0.831865
C      -1.467368    -1.678459     0.526350
C      -2.672019    -2.105072     1.280541
C      -2.706373    -3.286724     1.936047
C      -1.541243    -4.103961     2.021820
C      -0.332097    -3.661165     1.498637
H       4.132774    -0.314573    -1.370281
H       4.200989    -2.629339    -0.572752
H       2.225647    -3.690126     0.429815
H      -1.701586    -1.962410    -0.560065
H      -3.536402    -1.451990     1.225761
H      -3.618843    -3.611444     2.426483
H      -1.588811    -5.057057     2.536424
H       0.553802    -4.270517     1.642287
C      -0.210479     0.239796     0.129260
N      -1.340896    -0.230584     0.469935
C       0.910603     2.130231    -1.044666
O       0.707259     3.120705    -1.714479
C       0.010560     1.748557     0.138258
C       0.760136     1.997444     1.486997
H       1.732697     1.496703     1.436943
H       0.183975     1.472645     2.255923
C      -1.310446     2.504314     0.045482
H      -1.852709     2.199848    -0.852150
H      -1.930642     2.276782     0.912342
H      -1.144763     3.579308    -0.010574
N       2.001073     1.312879    -1.283344
C       2.979433     1.741080    -2.276625
H       3.067970     0.994633    -3.070993
H       2.634155     2.680565    -2.700982
H       3.960642     1.892011    -1.816491
C       1.035906     3.429038     2.011388
C       1.750591     4.342213     1.002098
C       1.908545     3.289011     3.277278
H       1.123655     4.582017     0.144308
H       2.044502     5.274399     1.491748
H       2.655665     3.846001     0.637424
H       1.433439     2.635159     4.013596
H       2.879649     2.864001     3.006980
H       2.073955     4.265411     3.739112
C      -0.218686     4.082020     2.441211
N      -1.166053     4.607571     2.824438
C      -1.951712    -2.484729    -2.398419
C      -3.447676    -2.374256    -2.334442
C      -1.156827    -1.389824    -3.047934
H      -3.740951    -1.379089    -1.985456
H      -3.888310    -2.515079    -3.331274
H      -3.877177    -3.123607    -1.666521
H      -1.443171    -0.415477    -2.639176
H      -0.083901    -1.530961    -2.904753
H      -1.355830    -1.363415    -4.128545
C      -1.354937    -3.744743    -2.210679
N      -0.857678    -4.774980    -2.021993
59
     -1302.789410     -1302.365542   3.00   3.94
C      -0.962316     0.754306    -1.299835
C      -0.922047     0.028785    -0.095225
C      -2.102565    -0.381156     0.537733
C      -3.326268    -0.000361    -0.007053
C      -3.362573     0.763148    -1.171523
C      -2.203851     1.135296    -1.825049
C       0.308632     1.018151    -1.952632
C       1.450836     0.176758    -1.493652
C       2.781368     0.598360    -1.998521
C       2.897016     1.465606    -3.029926
C       1.742228     2.089730    -3.585695
C       0.486990     1.877949    -3.022298
H      -4.255031    -0.289059     0.466628
H      -4.326001     1.053193    -1.578344
H      -2.263500     1.692734    -2.751962
H       1.258347    -0.840127    -1.990578
H       3.644331     0.139637    -1.528942
H       3.876758     1.716591    -3.424633
H       1.849630     2.775487    -4.418838
H      -0.361363     2.429356    -3.414765
C       0.370729    -0.271744     0.517401
N       1.485537    -0.176453    -0.087255
C      -0.882001    -1.453025     2.363758
O      -0.856883    -2.223419     3.299519
C       0.360618    -0.626411     1.991231
C       0.188710     0.650142     2.878049
H       0.318927     0.310740     3.909984
H      -0.847921     0.997902     2.796037
C       1.601910    -1.433764     2.375052
H       1.586653    -1.650637     3.443122
H       1.603216    -2.381595     1.831969
H       2.507970    -0.892347     2.115589
N      -2.050890    -1.201525     1.672080
C      -3.248356    -1.932728     2.067414
H      -2.957204    -2.660247     2.820454
H      -4.000111    -1.260226     2.492342
H      -3.670567    -2.451567     1.202991
C       1.054834     1.919655     2.672084
C       0.856102     2.809178     3.919272
C       0.659676     2.730934     1.423039
H       1.438148     3.729699     3.830930
H      -0.201282     3.074731     4.014816
H       1.168797     2.288782     4.828055
H       1.160195     3.702814     1.441669
H       0.940536     2.228892     0.499725
H      -0.421364     2.898770     1.420290
C       2.498926     1.622605     2.595213
N       3.637086     1.468626     2.561957
C       0.601061    -2.552930    -2.608626
C      -0.320155    -1.993457    -3.652675
C       1.960202    -3.048944    -3.005808
H      -1.229116    -1.583154    -3.209581
H       0.180956    -1.203305    -4.222382
H      -0.608236    -2.777534    -4.366366
H       1.874448    -3.958147    -3.616685
H       2.478095    -2.297634    -3.610851
H       2.572384    -3.283155    -2.132985
C       0.069930    -2.942285    -1.367437
N      -0.359535    -3.220745    -0.326643
59
     -1302.789410     -1302.365486   3.00   3.98
C       1.812754    -0.673897    -0.236313
C       0.914068     0.401160    -0.361612
C       1.324550     1.621697    -0.913065
C       2.659570     1.782214    -1.275282
C       3.559225     0.733160    -1.101063
C       3.153321    -0.487502    -0.597618
C       1.265427    -1.940192     0.219762
C      -0.217727    -2.065444     0.131383
C      -0.785701    -3.262717     0.799899
C       0.001713    -4.297847     1.171071
C       1.418344    -4.216666     1.035025
C       2.017447    -3.040054     0.593939
H       3.010173     2.717738    -1.690244
H       4.596240     0.879177    -1.385847
H       3.865811    -1.299072    -0.512907
H      -0.411559    -2.235675    -0.987304
H      -1.862120    -3.279434     0.929041
H      -0.438725    -5.190450     1.604612
H       2.036132    -5.058406     1.327834
H       3.100915    -2.979842     0.577982
C      -0.457451     0.248546     0.120611
N      -0.996631    -0.870369     0.394110
C      -0.889408     2.618578    -0.634433
O      -1.692329     3.484896    -0.907567
C      -1.230809     1.524026     0.391028
C      -0.784420     2.180144     1.738554
H      -1.476683     3.011009     1.904314
H       0.207035     2.627463     1.600033
C      -2.739732     1.278069     0.340053
H      -3.026004     0.498400     1.041168
H      -3.273039     2.201293     0.566502
H      -3.023217     0.954994    -0.664231
N       0.395478     2.645134    -1.140719
C       0.744318     3.721045    -2.060286
H       1.490836     4.390181    -1.621063
H       1.133050     3.303171    -2.992465
H      -0.161062     4.285983    -2.265845
C      -0.677348     1.368051     3.055101
C      -0.560587     2.389810     4.207750
C       0.549763     0.437069     3.098773
H      -0.473132     1.876486     5.168370
H       0.331427     3.006688     4.061186
H      -1.435292     3.044058     4.244208
H       1.447357     0.998440     2.823071
H       0.682248     0.049774     4.112611
H       0.446113    -0.413070     2.427982
C      -1.882496     0.561186     3.331025
N      -2.800954    -0.062923     3.626229
C      -0.577284    -2.160130    -2.914686
C       0.826981    -2.602593    -3.204423
C      -1.695790    -3.158990    -2.962371
H       0.914790    -2.932466    -4.248738
H       1.545158    -1.797957    -3.038067
H       1.099272    -3.453556    -2.570595
H      -2.628195    -2.735142    -2.584993
H      -1.866776    -3.495976    -3.994058
H      -1.442383    -4.043296    -2.368619
C      -0.885242    -0.790093    -2.963699
N      -1.130034     0.343610    -2.958437
59
     -1302.789662     -1302.365082   2.84   4.23
C      -0.602181    -1.815618     0.306223
C       0.519364    -0.969680     0.387135
C       1.736563    -1.436257     0.900298
C       1.804475    -2.734910     1.398475
C       0.676923    -3.552205     1.366868
C      -0.514983    -3.114817     0.822265
C      -1.776845    -1.287719    -0.366164
C      -1.536466    -0.090570    -1.221941
C      -2.763458     0.564032    -1.740355
C      -3.965559    -0.053619    -1.686441
C      -4.108167    -1.307987    -1.024817
C      -3.026773    -1.881317    -0.361639
H       2.725957    -3.118303     1.815881
H       0.748758    -4.559772     1.763765
H      -1.362917    -3.787002     0.771195
H      -1.016336    -0.517021    -2.152274
H      -2.634042     1.532524    -2.211128
H      -4.840318     0.416662    -2.125044
H      -5.076768    -1.794734    -0.996964
H      -3.182966    -2.798385     0.197355
C       0.396721     0.424985    -0.032845
N      -0.561086     0.872532    -0.742629
C       2.827847     0.724532     0.573948
O       3.838577     1.387368     0.481833
C       1.440358     1.388661     0.498057
C       1.175812     1.751672     1.999013
H       1.884484     2.550028     2.238827
H       1.462664     0.894897     2.618778
C       1.567940     2.623375    -0.398052
H       2.296670     3.314997     0.024881
H       1.918351     2.319544    -1.387043
H       0.608204     3.116948    -0.522561
N       2.877172    -0.624067     0.866389
C       4.188158    -1.240017     1.031001
H       4.277087    -2.110360     0.376024
H       4.936935    -0.501602     0.756739
H       4.352737    -1.546913     2.068753
C      -0.231784     2.189612     2.494949
C      -1.226430     1.018614     2.616811
C      -0.865136     3.335124     1.688107
H      -2.098688     1.333986     3.196024
H      -1.571532     0.705626     1.631881
H      -0.770760     0.162894     3.122053
H      -1.156288     2.972105     0.701104
H      -1.759531     3.697161     2.202843
H      -0.171636     4.171975     1.575566
C       0.002086     2.693281     3.869506
N       0.182385     3.082461     4.935961
C       0.115549    -1.333093    -3.483667
C      -0.305031    -2.746635    -3.206970
C      -0.506058    -0.584673    -4.625801
H       0.158953    -3.134805    -2.298792
H      -1.393510    -2.808522    -3.099498
H      -0.022283    -3.398950    -4.044568
H      -0.216071     0.467599    -4.621618
H      -0.195794    -1.020671    -5.585367
H      -1.597868    -0.651571    -4.575429
C       1.313442    -0.855571    -2.926075
N       2.276517    -0.445387    -2.426636
59
     -1302.789344     -1302.365064   3.04   4.24
C      -0.088052     0.697597    -1.879361
C      -0.459418     0.387686    -0.558744
C      -1.687379     0.812788    -0.037932
C      -2.521503     1.598155    -0.827509
C      -2.133621     1.938668    -2.121967
C      -0.939970     1.494300    -2.655933
C       1.154030     0.122711    -2.365176
C       1.689317    -1.014063    -1.563116
C       3.053524    -1.458742    -1.940112
C       3.623516    -1.066873    -3.102612
C       2.972620    -0.121651    -3.947419
C       1.775575     0.468755    -3.552139
H      -3.470096     1.953306    -0.446996
H      -2.795380     2.553964    -2.723066
H      -0.680822     1.744490    -3.677559
H       1.008342    -1.893540    -1.848712
H       3.541934    -2.150988    -1.262837
H       4.598101    -1.450381    -3.388502
H       3.438246     0.177133    -4.880086
H       1.342500     1.241759    -4.178784
C       0.480798    -0.329998     0.301356
N       1.510305    -0.943482    -0.123818
C      -1.231698    -0.190574     2.142468
O      -1.633685    -0.627464     3.202695
C       0.260522    -0.198827     1.803111
C       0.894970     1.190804     2.145769
H       0.618048     1.895423     1.354115
H       1.975345     1.044488     2.051453
C       0.938889    -1.360269     2.533688
H       0.581577    -2.306736     2.122352
H       2.017044    -1.309731     2.378443
H       0.710709    -1.348252     3.595645
N      -2.088528     0.408721     1.245230
C      -3.501810     0.486899     1.595634
H      -3.807713     1.523097     1.773602
H      -4.108913     0.062893     0.792156
H      -3.651645    -0.090054     2.504440
C       0.616674     1.918173     3.492365
C       0.880012     1.069881     4.747871
C      -0.792208     2.542643     3.562579
H       1.864784     0.598060     4.707845
H       0.840403     1.705968     5.636400
H       0.114080     0.298880     4.840742
H      -1.543730     1.770578     3.728428
H      -0.842602     3.248683     4.395792
H      -1.028456     3.081727     2.640970
C       1.581881     3.042527     3.508100
N       2.329065     3.915770     3.520728
C      -0.425679    -3.157346    -2.179485
C      -0.946994    -2.485560    -3.416071
C       0.495235    -4.335001    -2.308023
H      -0.119857    -2.200972    -4.075543
H      -1.592266    -3.173053    -3.980024
H      -1.525818    -1.592308    -3.175505
H       1.321845    -4.099788    -2.986509
H       0.905614    -4.631476    -1.341050
H      -0.039206    -5.196867    -2.730764
C      -1.071965    -2.926548    -0.953822
N      -1.574226    -2.696765     0.066191
59
     -1302.789344     -1302.364987   3.04   4.29
C      -1.477846     0.429686    -1.315338
C      -0.776472    -0.177438    -0.258230
C      -1.407263    -1.094252     0.591140
C      -2.761075    -1.361200     0.412430
C      -3.464515    -0.727649    -0.610222
C      -2.841948     0.151387    -1.474561
C      -0.712950     1.283169    -2.207390
C       0.766997     1.119605    -2.136056
C       1.545887     2.131145    -2.891736
C       0.953840     2.934540    -3.804912
C      -0.459532     2.909533    -3.985369
C      -1.259151     2.111835    -3.171719
H      -3.278767    -2.054301     1.062317
H      -4.520452    -0.945765    -0.733744
H      -3.405332     0.601598    -2.282879
H       0.959064     0.132349    -2.690281
H       2.615078     2.153688    -2.710708
H       1.550742     3.627149    -4.390255
H      -0.919140     3.553804    -4.726735
H      -2.337399     2.171203    -3.279556
C       0.611256     0.207408    -0.003362
N       1.335282     0.851145    -0.827014
C       0.611110    -1.403277     1.932498
O       1.264493    -2.071606     2.709004
C       1.146156    -0.074045     1.395083
C       0.583975     1.112839     2.247318
H      -0.451791     1.291958     1.939111
H       1.148841     1.992204     1.923040
C       2.675971    -0.117661     1.369961
H       3.006720    -0.842613     0.623160
H       3.064798     0.860914     1.086626
H       3.080013    -0.418836     2.332254
N      -0.668653    -1.768767     1.576105
C      -1.213556    -2.996140     2.144341
H      -1.577104    -3.647252     1.345709
H      -0.413463    -3.497285     2.682820
H      -2.032913    -2.780291     2.837906
C       0.576196     1.084019     3.802616
C       1.938375     0.776480     4.446922
C      -0.506223     0.151709     4.384862
H       1.885133     0.958047     5.523890
H       2.195797    -0.271112     4.285671
H       2.725446     1.410192     4.031085
H      -1.464476     0.299823     3.879290
H      -0.205639    -0.891291     4.284002
H      -0.643101     0.363212     5.448726
C       0.204034     2.464257     4.193080
N      -0.085960     3.534059     4.497089
C       1.061794    -1.691299    -3.344510
C      -0.281803    -1.696029    -4.013025
C       2.295502    -1.443951    -4.161975
H      -0.429902    -0.772149    -4.582724
H      -0.351361    -2.531770    -4.722791
H      -1.091816    -1.793804    -3.288371
H       2.174487    -0.541880    -4.770734
H       3.178821    -1.328398    -3.531313
H       2.474835    -2.281080    -4.850596
C       1.191405    -2.266989    -2.069771
N       1.288022    -2.696969    -0.996796
59
     -1302.789344     -1302.364974   3.04   4.30
C      -0.777750     1.553517    -1.036738
C      -0.677607     0.464241    -0.152739
C      -1.795849     0.005667     0.553756
C      -3.006423     0.677184     0.413841
C      -3.093998     1.781670    -0.431425
C      -2.004703     2.219271    -1.158961
C       0.408522     1.888096    -1.804904
C       1.456837     0.829570    -1.856152
C       2.743392     1.251309    -2.462649
C       2.841119     2.396064    -3.176682
C       1.734616     3.289146    -3.270864
C       0.561112     3.032789    -2.567374
H      -3.884155     0.354529     0.958109
H      -4.045420     2.295031    -0.526780
H      -2.111128     3.058357    -1.835775
H       1.029040     0.057764    -2.591060
H       3.579770     0.570462    -2.347033
H       3.776101     2.657476    -3.662580
H       1.825429     4.199365    -3.853274
H      -0.236177     3.768521    -2.595704
C       0.627778    -0.152278     0.081208
N       1.647221     0.035696    -0.655283
C      -0.501418    -1.727540     1.689111
O      -0.458392    -2.783099     2.289509
C       0.778195    -0.951395     1.369533
C       1.021960     0.149113     2.456048
H       0.345521     0.985747     2.250229
H       2.030993     0.525673     2.262226
C       1.946274    -1.932330     1.242141
H       1.802337    -2.555980     0.357264
H       2.876974    -1.377994     1.117324
H       2.011019    -2.586418     2.106977
N      -1.703853    -1.145135     1.352422
C      -2.929822    -1.842985     1.721563
H      -3.566229    -1.968848     0.842319
H      -2.652726    -2.819656     2.109620
H      -3.480176    -1.293328     2.492249
C       0.895845    -0.147993     3.977779
C       1.725022    -1.346101     4.469963
C      -0.566850    -0.289187     4.447273
H       1.725716    -1.368540     5.563194
H       1.284791    -2.275239     4.105797
H       2.760613    -1.278453     4.127960
H      -0.611923    -0.234429     5.538255
H      -1.189153     0.511110     4.037329
H      -0.974529    -1.252554     4.140519
C       1.438446     1.064670     4.634344
N       1.857719     2.005294     5.144672
C       0.018450    -1.277266    -3.570495
C      -0.988956    -0.324442    -4.144493
C       1.188765    -1.709450    -4.404197
H      -1.729605    -0.025343    -3.400997
H      -0.492489     0.574113    -4.526807
H      -1.516177    -0.790068    -4.988469
H       1.908413    -2.284624    -3.818858
H       0.853411    -2.334840    -5.242989
H       1.695378    -0.837369    -4.830554
C      -0.322397    -2.026023    -2.431900
N      -0.585053    -2.606882    -1.462826
59
     -1302.787546     -1302.364384   4.17   4.67
C       1.619082     0.242549    -1.013772
C       0.292250     0.689850    -0.866997
C      -0.231868     1.678476    -1.711392
C       0.596209     2.261290    -2.666396
C       1.922428     1.847565    -2.778464
C       2.437717     0.848405    -1.976439
C       2.041943    -0.854183    -0.161684
C       0.946827    -1.632462     0.484054
C       1.389167    -2.585475     1.532086
C       2.688819    -2.935977     1.656886
C       3.689271    -2.305886     0.861438
C       3.353127    -1.270292    -0.004564
H       0.225388     3.037146    -3.322526
H       2.555001     2.315280    -3.526128
H       3.461546     0.522329    -2.113594
H       0.551827    -2.315635    -0.350824
H       0.610237    -3.034205     2.137336
H       2.982446    -3.689546     2.380420
H       4.726592    -2.604695     0.965771
H       4.146688    -0.756440    -0.537435
C      -0.524969     0.154542     0.221739
N      -0.239803    -0.895241     0.879954
C      -2.398417     1.650130    -0.573893
O      -3.583284     1.909466    -0.566398
C      -1.728613     0.980027     0.637362
C      -1.294657     2.213753     1.496152
H      -2.225246     2.676813     1.837788
H      -0.808236     2.944709     0.839694
C      -2.775719     0.123515     1.351399
H      -2.335832    -0.392733     2.200622
H      -3.606394     0.747500     1.681601
H      -3.170669    -0.629257     0.664204
N      -1.587170     2.035518    -1.624669
C      -2.187230     2.809324    -2.705489
H      -3.262974     2.819168    -2.549737
H      -1.816765     3.839228    -2.702891
H      -1.961247     2.347420    -3.669983
C      -0.346763     2.076130     2.715842
C      -0.432381     3.401753     3.504451
C       1.122989     1.833212     2.322680
H      -0.117688     4.230738     2.863041
H      -1.452986     3.592148     3.845925
H       0.223552     3.371103     4.377760
H       1.282671     0.835104     1.921028
H       1.431299     2.570709     1.575734
H       1.762012     1.945694     3.202613
C      -0.762309     1.007451     3.645439
N      -1.049502     0.214867     4.426167
C      -0.151162    -3.383370    -1.776963
C      -1.556718    -2.858414    -1.729915
C       0.795463    -2.890247    -2.833157
H      -1.562660    -1.773395    -1.869969
H      -2.159424    -3.298616    -2.536966
H      -2.040898    -3.092817    -0.779892
H       0.709292    -1.805584    -2.946857
H       1.831287    -3.138359    -2.591032
H       0.558535    -3.343425    -3.806089
C       0.142054    -4.592571    -1.116930
N       0.397245    -5.567158    -0.543424
59
     -1302.787546     -1302.364366   4.17   4.68
C       1.846887    -0.392780    -0.336170
C       0.878039     0.628529    -0.316785
C       1.211722     1.944265    -0.666907
C       2.533895     2.246665    -0.979685
C       3.499112     1.241544    -0.953726
C       3.173615    -0.064846    -0.646355
C       1.387288    -1.741326    -0.057115
C      -0.083374    -1.959790    -0.163843
C      -0.562177    -3.265281     0.354533
C       0.297723    -4.278315     0.603240
C       1.704223    -4.079996     0.488869
C       2.217076    -2.821971     0.189273
H       2.825470     3.255439    -1.239151
H       4.525853     1.495749    -1.196810
H       3.939275    -0.830659    -0.671960
H      -0.279949    -2.030925    -1.293488
H      -1.635077    -3.382480     0.452350
H      -0.078354    -5.248455     0.911420
H       2.381231    -4.904972     0.681956
H       3.293424    -2.683383     0.187626
C      -0.478290     0.317017     0.133838
N      -0.943144    -0.861641     0.240090
C      -1.064541     2.742867    -0.255163
O      -1.926289     3.582320    -0.409869
C      -1.327531     1.487686     0.593461
C      -0.903207     1.963203     2.022365
H      -1.635175     2.724269     2.308956
H       0.063228     2.475542     1.949192
C      -2.819985     1.161146     0.516978
H      -3.405365     1.998620     0.896947
H      -3.109673     0.990484    -0.523139
H      -3.045878     0.260706     1.082112
N       0.213219     2.928196    -0.748879
C       0.512224     4.187735    -1.420575
H       1.198196     4.797110    -0.823869
H       0.959072     3.995845    -2.399442
H      -0.422923     4.727319    -1.546781
C      -0.744821     0.974370     3.206511
C      -0.672905     1.823094     4.495310
C       0.528425     0.111609     3.115583
H      -0.552916     1.180660     5.370946
H       0.185527     2.499713     4.441115
H      -1.579732     2.418950     4.626115
H       1.394762     0.752164     2.925756
H       0.686662    -0.410650     4.062943
H       0.463512    -0.637445     2.329616
C      -1.905665     0.075656     3.360303
N      -2.791177    -0.629922     3.555836
C      -0.601802    -2.059207    -3.181243
C      -1.560163    -0.904694    -3.226111
C       0.827999    -1.859641    -3.594347
H      -2.471026    -1.117324    -2.663058
H      -1.092729    -0.005768    -2.813373
H      -1.845687    -0.681333    -4.263873
H       0.908119    -1.793015    -4.688533
H       1.218557    -0.925757    -3.179406
H       1.460785    -2.685408    -3.261471
C      -1.120406    -3.368329    -3.149357
N      -1.542085    -4.446197    -3.084256
59
     -1302.787538     -1302.363453   4.18   5.26
C       1.015204    -1.650285     0.495179
C       0.979423    -0.560141    -0.395141
C       1.970585    -0.396335    -1.372708
C       3.033736    -1.293524    -1.415522
C       3.090437    -2.344019    -0.501264
C       2.098509    -2.537227     0.440044
C      -0.109983    -1.796823     1.400751
C      -1.337825    -1.036417     1.032274
C      -2.394834    -1.011393     2.073292
C      -2.360439    -1.855600     3.128887
C      -1.242878    -2.715084     3.334764
C      -0.140492    -2.652891     2.488292
H       3.822040    -1.184407    -2.148058
H       3.928470    -3.032200    -0.546581
H       2.150221    -3.386499     1.110435
H      -1.809731    -1.648168     0.180984
H      -3.229609    -0.341911     1.900180
H      -3.180770    -1.871807     3.839133
H      -1.233861    -3.392695     4.181484
H       0.726812    -3.265233     2.713384
C      -0.075189     0.442707    -0.253131
N      -1.142523     0.265743     0.417443
C       0.950226     1.662472    -2.210136
O       0.816851     2.485737    -3.090885
C       0.189741     1.799892    -0.878782
C       1.195855     2.639651    -0.019753
H       1.210928     3.636010    -0.471665
H       2.200691     2.226653    -0.160073
C      -1.112485     2.553063    -1.163109
H      -1.720392     2.634194    -0.266528
H      -0.892426     3.544052    -1.560736
H      -1.696769     2.012343    -1.912179
N       1.858833     0.628367    -2.326028
C       2.699159     0.583761    -3.517381
H       2.335451     1.338873    -4.209519
H       3.742815     0.800309    -3.268913
H       2.636834    -0.401989    -3.985365
C       1.010179     2.808318     1.515560
C       1.403599     1.553298     2.318654
C      -0.387293     3.287376     1.942143
H       0.641391     0.781139     2.220609
H       2.363171     1.151866     1.982207
H       1.491629     1.807127     3.378598
H      -1.113087     2.486824     1.790035
H      -0.377502     3.548598     3.003922
H      -0.695493     4.169206     1.375265
C       1.974848     3.871039     1.887046
N       2.723798     4.693966     2.175281
C      -2.530586    -2.639717    -1.278308
C      -2.416016    -1.567128    -2.322379
C      -1.520626    -3.750281    -1.236258
H      -2.726979    -1.950910    -3.304422
H      -3.041797    -0.705261    -2.082605
H      -1.377474    -1.234832    -2.413844
H      -1.703338    -4.469050    -2.047499
H      -0.510257    -3.353030    -1.371353
H      -1.561933    -4.294866    -0.290303
C      -3.770265    -2.828686    -0.636539
N      -4.776731    -2.962696    -0.077109
59
     -1302.786978     -1302.363399   4.53   5.29
C       1.431474    -1.577464    -0.079360
C       0.881277    -0.318239    -0.382457
C       1.549692     0.575367    -1.229068
C       2.794754     0.224415    -1.739841
C       3.352587    -1.010696    -1.411778
C       2.689051    -1.910513    -0.601445
C       0.629954    -2.463225     0.745085
C      -0.814909    -2.114451     0.852636
C      -1.573051    -2.888571     1.865500
C      -1.059959    -4.010208     2.419810
C       0.274808    -4.416608     2.132631
C       1.093054    -3.630457     1.327474
H       3.340836     0.899112    -2.385562
H       4.325648    -1.269695    -1.816739
H       3.133821    -2.875680    -0.391607
H      -1.266136    -2.462787    -0.145550
H      -2.581463    -2.552001     2.077773
H      -1.659401    -4.601496     3.104359
H       0.669728    -5.322427     2.579518
H       2.127764    -3.926050     1.186901
C      -0.361392     0.094100     0.270630
N      -1.146536    -0.699294     0.878848
C      -0.181723     2.282401    -0.960638
O      -0.760343     3.266320    -1.379158
C      -0.625969     1.594751     0.331692
C       0.265364     2.073635     1.526448
H       1.227620     1.555114     1.461345
H      -0.224763     1.683878     2.423771
C      -2.115455     1.858789     0.564149
H      -2.345510     2.919419     0.516119
H      -2.705405     1.352998    -0.204004
H      -2.411367     1.452643     1.531943
N       0.937845     1.788051    -1.595291
C       1.455111     2.519076    -2.746993
H       1.584373     1.841310    -3.594459
H       0.733490     3.289891    -3.005643
H       2.415231     2.990177    -2.513131
C       0.594541     3.575523     1.762531
C      -0.631120     4.502908     1.816856
C       1.632367     4.130804     0.765662
H      -0.327233     5.492512     2.168644
H      -1.061301     4.609750     0.820043
H      -1.391430     4.115741     2.499462
H       2.477034     3.445035     0.655828
H       1.174957     4.297111    -0.209949
H       2.014284     5.089617     1.126052
C       1.230443     3.605019     3.100794
N       1.724763     3.628793     4.138086
C      -1.963025    -2.982423    -1.852263
C      -2.397263    -1.620909    -2.311986
C      -0.687366    -3.574790    -2.378891
H      -1.549643    -0.928832    -2.305352
H      -2.777970    -1.665325    -3.342288
H      -3.187932    -1.216276    -1.677110
H      -0.822850    -3.927176    -3.411157
H       0.106753    -2.822407    -2.390676
H      -0.359560    -4.423946    -1.775090
C      -2.921869    -3.840878    -1.280114
N      -3.698037    -4.536405    -0.772442
59
     -1302.786978     -1302.363391   4.53   5.29
C      -1.752065     0.020655    -1.126966
C      -0.848701    -0.465078    -0.163520
C      -1.195212    -1.531052     0.676520
C      -2.467384    -2.084869     0.581116
C      -3.372041    -1.580201    -0.352267
C      -3.030592    -0.548858    -1.204524
C      -1.275098     1.076664    -2.001076
C       0.203415     1.256947    -2.049283
C       0.664006     2.470582    -2.766814
C      -0.173840     3.178551    -3.557634
C      -1.556809     2.845251    -3.631969
C      -2.079478     1.825868    -2.842336
H      -2.768337    -2.900185     1.225373
H      -4.361641    -2.021604    -0.413719
H      -3.744184    -0.200736    -1.941412
H       0.573104     0.394822    -2.713680
H       1.717614     2.712034    -2.684111
H       0.200937     4.020626    -4.130356
H      -2.214820     3.418225    -4.276099
H      -3.149101     1.643689    -2.864240
C       0.433348     0.215529     0.020635
N       0.929961     1.040948    -0.808774
C       0.944798    -1.428556     1.857047
O       1.799932    -1.970501     2.530175
C       1.119088     0.010210     1.367222
C       0.358433     0.994952     2.317453
H      -0.709472     0.936640     2.082469
H       0.678672     1.994937     2.009561
C       2.610738     0.333578     1.254368
H       3.058596    -0.259630     0.453461
H       2.737661     1.386218     0.999450
H       3.140142     0.103928     2.174781
N      -0.243954    -2.063149     1.565935
C      -0.480983    -3.380391     2.146506
H      -1.271595    -3.338894     2.902597
H      -0.767734    -4.088693     1.365253
H       0.442851    -3.710874     2.614591
C       0.469779     0.901267     3.866189
C       1.908524     0.895897     4.409532
C      -0.322224    -0.282331     4.458642
H       1.890948     1.017043     5.496009
H       2.390267    -0.055016     4.177594
H       2.496309     1.712649     3.983688
H       0.201961    -1.221396     4.279513
H      -0.423705    -0.154530     5.539582
H      -1.324397    -0.340241     4.024932
C      -0.182643     2.138569     4.355698
N      -0.689439     3.097289     4.736364
C       1.156876    -1.101016    -3.757459
C       1.984800    -1.770521    -2.699191
C      -0.213767    -1.626713    -4.074525
H       1.374375    -1.982543    -1.816075
H       2.377113    -2.729595    -3.066217
H       2.832783    -1.150732    -2.401305
H      -0.145402    -2.552151    -4.663587
H      -0.754504    -1.863351    -3.153414
H      -0.797389    -0.905081    -4.650492
C       1.802484    -0.281095    -4.703299
N       2.323185     0.426264    -5.459895
59
     -1302.783373     -1302.359769   6.79   7.57
C       1.574447    -1.908185    -0.821799
C       1.489049    -0.503517    -0.754817
C       2.182622     0.293548    -1.676880
C       2.855697    -0.317495    -2.730561
C       2.875398    -1.705741    -2.832577
C       2.268392    -2.501232    -1.883740
C       0.961079    -2.672126     0.247027
C      -0.030360    -1.963484     1.105340
C      -0.292324    -2.608076     2.422369
C      -0.008773    -3.915069     2.613412
C       0.682665    -4.658885     1.609426
C       1.187642    -4.019052     0.482041
H       3.370620     0.272694    -3.475857
H       3.396684    -2.163495    -3.666983
H       2.307500    -3.578861    -1.980878
H      -1.008377    -2.112611     0.554361
H      -0.798575    -2.006581     3.169459
H      -0.280674    -4.404385     3.543499
H       0.888632    -5.711920     1.767163
H       1.820222    -4.582660    -0.195199
C       0.676644     0.119136     0.291441
N       0.028551    -0.521464     1.179338
C       1.583588     2.357599    -0.509036
O       1.835917     3.516708    -0.244677
C       0.431600     1.625000     0.174261
C       0.163892     2.237394     1.571160
H       1.111318     2.623428     1.956623
H      -0.128287     1.410278     2.217839
C      -0.751194     1.716892    -0.829195
H      -1.617165     1.197255    -0.423495
H      -1.024368     2.751649    -1.035650
H      -0.483380     1.236431    -1.772717
N       2.253537     1.688859    -1.511852
C       3.209721     2.445777    -2.312433
H       4.214054     2.024571    -2.212510
H       2.919291     2.438713    -3.366888
H       3.210069     3.469492    -1.947369
C      -0.886473     3.357742     1.795675
C      -0.644274     4.669140     1.029154
C      -0.880781     3.672285     3.309063
H      -1.405565     5.402420     1.311246
H       0.341816     5.059349     1.284719
H      -0.672446     4.539560    -0.051624
H      -1.078460     2.774074     3.899608
H       0.097244     4.070031     3.593904
H      -1.642533     4.418444     3.549704
C      -2.244867     2.857396     1.490483
N      -3.311912     2.475968     1.295288
C      -2.643833    -2.222502    -0.719764
C      -2.681061    -3.711248    -0.540514
C      -3.562554    -1.351628     0.081641
H      -3.597430    -4.128376    -0.980438
H      -1.824074    -4.193983    -1.014250
H      -2.683794    -3.967303     0.524265
H      -3.378770    -0.289401    -0.079598
H      -4.608352    -1.562009    -0.179747
H      -3.453029    -1.564740     1.150519
C      -1.923128    -1.683184    -1.793971
N      -1.292325    -1.243236    -2.663593
59
     -1302.782924     -1302.358694   7.07   8.24
C       1.610035    -1.608461    -0.877878
C       1.191455    -0.289519    -1.149914
C       1.485817     0.307892    -2.382417
C       2.137106    -0.439826    -3.359554
C       2.515814    -1.752836    -3.097762
C       2.275153    -2.335652    -1.871022
C       1.326816    -2.153559     0.437924
C       0.260961    -1.463653     1.218260
C       0.215073    -1.808182     2.667452
C       0.831838    -2.916677     3.132636
C       1.651726    -3.705929     2.270238
C       1.909307    -3.292105     0.965270
H       2.361088    -0.014779    -4.327349
H       3.016815    -2.319696    -3.875759
H       2.572036    -3.361929    -1.693831
H      -0.697297    -1.897170     0.814654
H      -0.401979    -1.174629     3.296052
H       0.730222    -3.204273     4.174605
H       2.132023    -4.598853     2.655159
H       2.622184    -3.854862     0.371869
C       0.453069     0.449594    -0.126483
N       0.068169    -0.051759     0.976612
C       0.612499     2.487407    -1.677489
O       0.534647     3.685740    -1.868960
C      -0.019741     1.862093    -0.426459
C       0.213398     2.889479     0.712588
H      -0.241451     3.808725     0.342492
H       1.288000     3.097805     0.766861
C      -1.519873     1.760736    -0.810301
H      -1.639447     1.178449    -1.728040
H      -2.075771     1.265508    -0.016842
H      -1.927071     2.761512    -0.971154
N       1.160345     1.652975    -2.627829
C       1.550333     2.249590    -3.901435
H       2.636828     2.223827    -4.028682
H       1.076686     1.713067    -4.727766
H       1.215355     3.283086    -3.901342
C      -0.249149     2.691556     2.187176
C      -0.571781     4.094363     2.753931
C       0.851934     2.067095     3.066826
H      -1.408186     4.551464     2.219369
H      -0.831213     4.030751     3.813956
H       0.304545     4.740534     2.647198
H       1.716659     2.737774     3.080489
H       0.494173     1.951110     4.094134
H       1.161338     1.094573     2.690098
C      -1.488418     1.904690     2.347273
N      -2.479413     1.362363     2.562835
C      -2.417774    -2.506187    -0.206728
C      -2.050464    -3.928910     0.091078
C      -3.378021    -1.775179     0.680012
H      -1.185582    -4.249858    -0.493085
H      -1.819370    -4.048083     1.155216
H      -2.889235    -4.600197    -0.138851
H      -3.063918    -1.843131     1.726860
H      -3.459790    -0.720770     0.417175
H      -4.376726    -2.227485     0.613655
C      -2.017245    -1.935489    -1.422215
N      -1.657454    -1.452248    -2.415016
