59
     -1302.796484     -1302.371637   0.00   0.00
C      -0.362616     1.696050    -0.726580
C       0.183588     0.832761     0.241998
C       0.795668     1.344664     1.392926
C       0.889697     2.725976     1.550351
C       0.357890     3.576055     0.585897
C      -0.274897     3.079482    -0.537287
C      -0.997701     1.088651    -1.881902
C      -0.590876    -0.325091    -2.183129
C      -1.494977    -1.020520    -3.152769
C      -2.381096    -0.338907    -3.906379
C      -2.560653     1.067877    -3.730406
C      -1.891107     1.737700    -2.708534
H       1.364214     3.151863     2.423295
H       0.439542     4.648823     0.729085
H      -0.673123     3.760382    -1.279991
H       0.393256    -0.253148    -2.694989
H      -1.362927    -2.092528    -3.249990
H      -2.987154    -0.861511    -4.639838
H      -3.270952     1.602582    -4.350748
H      -2.131775     2.779106    -2.522431
C       0.062913    -0.614235     0.051801
N      -0.314078    -1.170497    -1.027235
C       1.005431    -0.853588     2.439022
O       1.285091    -1.522757     3.416481
C       0.387228    -1.534609     1.217045
C      -0.865199    -2.338234     1.638982
H      -0.567119    -2.980250     2.472510
H      -1.127474    -2.978535     0.792599
C       1.459895    -2.550159     0.755968
H       1.668781    -3.255491     1.561563
H       1.097195    -3.079821    -0.125518
H       2.388815    -2.034413     0.496329
N       1.293667     0.489080     2.387727
C       2.105051     1.048379     3.462224
H       1.505437     1.674406     4.130825
H       2.516352     0.219815     4.032352
H       2.920217     1.634022     3.032723
C      -2.145252    -1.591321     2.083758
C      -1.910957    -0.617404     3.252698
C      -3.187127    -2.648334     2.501472
H      -1.393846    -1.132054     4.066332
H      -1.314132     0.245427     2.950541
H      -2.869132    -0.241674     3.621598
H      -3.372812    -3.356644     1.690013
H      -2.817858    -3.200476     3.370226
H      -4.134415    -2.172812     2.767304
C      -2.733556    -0.827633     0.964207
N      -3.232163    -0.228197     0.119743
C       3.079227     0.764838    -2.090621
C       2.608632     2.076003    -2.632280
C       3.312958    -0.392360    -3.008959
H       2.464823     2.811909    -1.840614
H       3.334328     2.470068    -3.356104
H       1.659925     1.951214    -3.168500
H       4.255691    -0.257775    -3.557142
H       3.371996    -1.336312    -2.464132
H       2.517206    -0.460503    -3.757936
C       3.415231     0.647943    -0.740655
N       3.698729     0.546872     0.381729
59
     -1302.794167     -1302.371510   1.45   0.08
C      -0.592272     1.776177    -0.183456
C       0.427976     0.914602     0.271614
C       1.522947     1.418828     0.992094
C       1.592713     2.787576     1.238103
C       0.588099     3.633879     0.777751
C      -0.497309     3.148315     0.077196
C      -1.702110     1.178954    -0.904961
C      -1.464720    -0.181961    -1.459029
C      -2.680487    -0.882815    -1.947163
C      -3.832909    -0.211105    -2.167389
C      -3.947220     1.165339    -1.816307
C      -2.900267     1.818596    -1.172142
H       2.413574     3.207040     1.801552
H       0.665637     4.697138     0.981225
H      -1.257525     3.831290    -0.281527
H      -0.872120     0.007687    -2.419550
H      -2.568070    -1.931770    -2.196207
H      -4.687613    -0.722524    -2.598307
H      -4.875382     1.693607    -2.005241
H      -3.050624     2.839474    -0.836669
C       0.292038    -0.523164     0.046545
N      -0.585283    -1.055245    -0.708996
C       2.406876    -0.801451     1.493835
O       3.228263    -1.499705     2.054683
C       1.231205    -1.469371     0.774565
C       0.468086    -2.347908     1.797893
H       1.218076    -2.998035     2.254774
H      -0.225566    -2.976621     1.232146
C       1.873599    -2.422022    -0.258293
H       2.522174    -3.136059     0.250311
H       1.088711    -2.944451    -0.805954
H       2.478562    -1.858702    -0.975286
N       2.537494     0.568164     1.454123
C       3.678881     1.146571     2.156035
H       4.147492     1.913681     1.535630
H       3.364060     1.575860     3.111663
H       4.390554     0.347970     2.345905
C      -0.355917    -1.691015     2.936018
C      -0.653495    -2.776051     3.990521
C      -1.687215    -1.083375     2.452562
H      -1.238610    -2.362640     4.815906
H      -1.227401    -3.584689     3.528235
H       0.271373    -3.192662     4.396804
H      -2.291887    -0.784714     3.313465
H      -1.539355    -0.203484     1.827292
H      -2.241014    -1.826234     1.872749
C       0.412432    -0.623953     3.609194
N       0.983928     0.216368     4.146552
C       0.141707     0.446136    -4.031565
C       1.455706    -0.097761    -3.553436
C      -0.121386     1.922514    -3.974370
H       1.424019    -1.183309    -3.444398
H       2.257776     0.151030    -4.262557
H       1.721641     0.347576    -2.589155
H       0.421635     2.441868    -4.776576
H      -1.184380     2.146332    -4.088060
H       0.226056     2.335238    -3.022352
C      -0.673744    -0.358312    -4.848253
N      -1.367382    -1.029790    -5.490634
59
     -1302.794590     -1302.371479   1.19   0.10
C       0.690209    -1.789635    -0.157730
C      -0.040987    -0.644929    -0.533951
C      -0.871456    -0.668547    -1.662095
C      -0.935514    -1.831228    -2.428872
C      -0.197178    -2.951021    -2.063950
C       0.601937    -2.947752    -0.936382
C       1.503102    -1.699146     1.043682
C       1.888281    -0.310077     1.465372
C       2.438665    -0.230899     2.855867
C       2.839311    -1.334040     3.522119
C       2.650870    -2.634072     2.961620
C       1.962202    -2.786678     1.757395
H      -1.559493    -1.877325    -3.310151
H      -0.259133    -3.843593    -2.678170
H       1.177248    -3.828684    -0.677505
H       2.725684    -0.014880     0.798293
H       2.552978     0.764180     3.272118
H       3.291463    -1.242395     4.504892
H       2.991164    -3.509861     3.502686
H       1.739895    -3.789793     1.407419
C       0.041285     0.557810     0.300896
N       0.884765     0.725345     1.238650
C      -1.812737     1.540616    -1.200346
O      -2.613394     2.413096    -1.475597
C      -0.925269     1.701039     0.036134
C      -1.798682     2.017150     1.274521
H      -2.414741     2.877849     1.003717
H      -1.117399     2.330546     2.069749
C      -0.086700     2.968785    -0.266209
H       0.505490     2.828830    -1.175218
H      -0.750693     3.821149    -0.414900
H       0.589791     3.159230     0.567710
N      -1.642354     0.446643    -2.017431
C      -2.331902     0.450052    -3.303028
H      -1.617635     0.229444    -4.098694
H      -3.147395    -0.279846    -3.317839
H      -2.745788     1.443202    -3.453606
C      -2.739423     0.928558     1.859541
C      -1.995013    -0.226544     2.555698
C      -3.737209     0.364291     0.831654
H      -1.225353     0.148318     3.233586
H      -2.703998    -0.831884     3.127718
H      -1.516597    -0.875546     1.819712
H      -3.215592    -0.262185     0.102889
H      -4.478258    -0.261411     1.336718
H      -4.255938     1.163221     0.298167
C      -3.529028     1.624800     2.901748
N      -4.143026     2.161272     3.711807
C       3.145659     0.324683    -2.025859
C       3.631005    -1.088152    -2.074577
C       3.893549     1.376006    -1.265791
H       3.740378    -1.492998    -1.060953
H       2.949210    -1.729844    -2.633805
H       4.623027    -1.134189    -2.543283
H       4.533908     1.958703    -1.941730
H       3.209319     2.076543    -0.778239
H       4.538384     0.925013    -0.507087
C       2.038516     0.706006    -2.788333
N       1.118578     1.028842    -3.420030
59
     -1302.793966     -1302.369433   1.58   1.38
C      -1.017902     1.182858    -0.946105
C      -0.035390     0.985119     0.041052
C       0.477367     2.069642     0.765712
C       0.014607     3.350679     0.483868
C      -0.953220     3.542458    -0.499349
C      -1.476351     2.479671    -1.206389
C      -1.495625     0.012472    -1.658973
C      -0.605071    -1.178801    -1.613741
C      -1.214175    -2.435771    -2.118335
C      -2.353910    -2.417841    -2.844784
C      -3.065867    -1.199409    -3.047134
C      -2.641178    -0.025770    -2.431043
H       0.390579     4.208948     1.022979
H      -1.299205     4.550319    -0.705181
H      -2.218077     2.655510    -1.975987
H       0.208468    -0.929916    -2.376295
H      -0.672642    -3.352982    -1.915173
H      -2.754846    -3.340186    -3.253495
H      -3.978122    -1.200307    -3.633323
H      -3.255106     0.863861    -2.521802
C       0.434972    -0.369917     0.313772
N       0.167766    -1.384559    -0.406700
C       1.726870     0.633229     2.301367
O       2.382912     0.520787     3.320484
C       1.278541    -0.620620     1.551366
C       0.543314    -1.578549     2.518317
H       1.190087    -1.714721     3.389519
H       0.458548    -2.539272     2.003795
C       2.595256    -1.308487     1.119934
H       2.358239    -2.222176     0.573836
H       3.170398    -0.652015     0.461127
H       3.196048    -1.540530     2.000587
N       1.439606     1.870595     1.772430
C       2.042502     3.032030     2.414965
H       1.309918     3.581135     3.015791
H       2.836744     2.678323     3.067093
H       2.460399     3.696769     1.655614
C      -0.859306    -1.202850     3.053401
C      -0.897437     0.162244     3.764024
C      -1.299090    -2.303827     4.039098
H      -0.759202     0.989079     3.064523
H      -1.866844     0.301940     4.249930
H      -0.110685     0.208643     4.521137
H      -2.313598    -2.116479     4.399422
H      -1.279077    -3.286804     3.561586
H      -0.620831    -2.317577     4.896862
C      -1.857750    -1.178749     1.963895
N      -2.668460    -1.158277     1.149404
C       1.607883    -0.126058    -3.505411
C       0.626769     0.569044    -4.402592
C       2.163558    -1.464840    -3.891963
H       1.106884     0.856310    -5.348377
H      -0.206470    -0.098009    -4.648598
H       0.225928     1.469753    -3.934287
H       2.899131    -1.361252    -4.701741
H       2.655851    -1.949655    -3.046509
H       1.364532    -2.117444    -4.257138
C       2.247597     0.608031    -2.493558
N       2.758074     1.205004    -1.639721
59
     -1302.793966     -1302.369412   1.58   1.40
C      -0.977292     1.199764    -1.158765
C      -0.019592     1.098669    -0.133338
C       0.526295     2.250111     0.450134
C       0.121709     3.498552    -0.010667
C      -0.821622     3.593703    -1.031090
C      -1.377234     2.466568    -1.600247
C      -1.491948    -0.036468    -1.718287
C      -0.652604    -1.244666    -1.494769
C      -1.305368    -2.533398    -1.839171
C      -2.431711    -2.569028    -2.585591
C      -3.089062    -1.362109    -2.964567
C      -2.625727    -0.133638    -2.502484
H       0.524452     4.406312     0.416408
H      -1.122096     4.577361    -1.377488
H      -2.098724     2.565904    -2.402083
H       0.182622    -1.132875    -2.266347
H      -0.805751    -3.435307    -1.503390
H      -2.864136    -3.521667    -2.875418
H      -3.991166    -1.406362    -3.564633
H      -3.200590     0.758952    -2.724757
C       0.389639    -0.224561     0.328512
N       0.091835    -1.315854    -0.254908
C       1.690528     0.986105     2.190713
O       2.325074     0.986526     3.229455
C       1.202472    -0.338918     1.606132
C       0.412998    -1.128465     2.676884
H       1.039724    -1.171131     3.572006
H       0.296591    -2.145702     2.294021
C       2.496187    -1.129387     1.298721
H       2.230142    -2.098262     0.874772
H       3.108485    -0.590401     0.570461
H       3.072756    -1.264172     2.215098
N       1.463379     2.151145     1.494684
C       2.103770     3.364145     1.988440
H       2.560827     3.903687     1.155901
H       1.385238     4.017363     2.494608
H       2.872266     3.070810     2.698772
C      -0.981114    -0.629713     3.126900
C      -0.973862     0.819181     3.647070
C      -1.481632    -1.569740     4.241794
H      -0.197947     0.936576     4.407676
H      -0.790425     1.538118     2.846105
H      -1.944217     1.060769     4.089132
H      -2.493142    -1.296284     4.552003
H      -1.494641    -2.608186     3.901022
H      -0.818255    -1.493933     5.107916
C      -1.960397    -0.713872     2.023078
N      -2.756612    -0.771814     1.196186
C       1.632092    -0.545095    -3.462644
C       0.695516     0.060294    -4.466158
C       2.137667    -1.944544    -3.653690
H       0.324852     1.030888    -4.131761
H       1.202547     0.198408    -5.431241
H      -0.160591    -0.600860    -4.638542
H       2.595656    -2.329505    -2.740322
H       1.318131    -2.608768    -3.944985
H       2.889854    -1.980204    -4.453991
C       2.285633     0.293469    -2.545191
N       2.806836     0.979934    -1.768592
59
     -1302.792577     -1302.369058   2.45   1.62
C      -0.498238     1.403141    -1.122503
C       0.091515     1.073393     0.113554
C       0.439090     2.076855     1.030656
C       0.218169     3.408941     0.693063
C      -0.352573     3.730230    -0.536843
C      -0.716889     2.750437    -1.437002
C      -0.853937     0.310602    -2.008008
C      -0.185754    -0.992066    -1.744541
C      -0.773146    -2.155126    -2.457915
C      -1.618866    -1.981082    -3.497084
C      -2.065882    -0.676496    -3.856551
C      -1.701201     0.428665    -3.094629
H       0.471085     4.206412     1.377675
H      -0.516343     4.774806    -0.781512
H      -1.151141     3.027383    -2.389816
H       0.841952    -0.881640    -2.233086
H      -0.430123    -3.136118    -2.150595
H      -1.982338    -2.839356    -4.052790
H      -2.743820    -0.552193    -4.693874
H      -2.138658     1.392593    -3.331231
C       0.291892    -0.334495     0.448398
N       0.150558    -1.298221    -0.369729
C       0.977674     0.469998     2.798735
O       1.267911     0.258180     3.960937
C       0.666439    -0.706119     1.873647
C      -0.433957    -1.592532     2.504416
H      -0.110258    -1.835445     3.520319
H      -0.459582    -2.518411     1.924029
C       1.971112    -1.535779     1.840827
H       2.798362    -0.935360     1.449626
H       2.229176    -1.863063     2.849112
H       1.831144    -2.397442     1.187256
N       0.991867     1.747678     2.283087
C       1.431327     2.821312     3.167218
H       0.583250     3.415069     3.524016
H       1.927453     2.368401     4.021464
H       2.131994     3.472900     2.639986
C      -1.883003    -1.059613     2.610036
C      -1.993738     0.265177     3.386642
C      -2.730396    -2.136677     3.316602
H      -1.485787     0.175598     4.350032
H      -1.554401     1.098838     2.835165
H      -3.045759     0.506439     3.560421
H      -2.671665    -3.090632     2.786389
H      -2.362507    -2.279653     4.336536
H      -3.778991    -1.832749     3.363550
C      -2.476994    -0.853913     1.272799
N      -2.980977    -0.685661     0.253699
C       2.574327    -0.558813    -3.089992
C       3.362490    -0.453384    -1.817608
C       2.150677     0.686400    -3.812399
H       4.393450    -0.134056    -2.025821
H       2.914789     0.295490    -1.156016
H       3.402654    -1.408969    -1.291574
H       1.370757     0.478324    -4.548149
H       1.774309     1.428997    -3.102124
H       3.003628     1.136259    -4.340010
C       2.547239    -1.785966    -3.776723
N       2.491819    -2.804279    -4.328654
59
     -1302.792241     -1302.368624   2.66   1.89
C      -0.934482     0.952693    -1.351648
C      -0.036316     1.095124    -0.275630
C       0.414722     2.365077     0.111821
C      -0.025789     3.482409    -0.590868
C      -0.908607     3.334781    -1.657052
C      -1.370330     2.091860    -2.038466
C      -1.347833    -0.393901    -1.705957
C      -0.459846    -1.486054    -1.220482
C      -1.010932    -2.857108    -1.375858
C      -2.073097    -3.097589    -2.177841
C      -2.768548    -2.021432    -2.803079
C      -2.412609    -0.701932    -2.533238
H       0.305266     4.474808    -0.319327
H      -1.235860     4.219783    -2.193199
H      -2.042143     2.001330    -2.883359
H       0.424762    -1.450543    -1.942477
H      -0.482085    -3.653549    -0.863653
H      -2.423029    -4.114101    -2.329794
H      -3.613912    -2.229886    -3.449470
H      -3.014031     0.097452    -2.953829
C       0.403945    -0.096892     0.448207
N       0.188207    -1.291150     0.060636
C       1.574566     1.507039     2.089640
O       2.185413     1.730594     3.116900
C       1.180122     0.070574     1.743790
C       0.449352    -0.577991     2.944810
H       1.102382    -0.443492     3.810350
H       0.388397    -1.649150     2.736066
C       2.534541    -0.664454     1.582840
H       2.346099    -1.710240     1.337773
H       3.117162    -0.217788     0.772336
H       3.105136    -0.591911     2.509593
N       1.294463     2.517118     1.195877
C       1.844637     3.837235     1.481355
H       2.321420     4.239986     0.584831
H       1.065708     4.527728     1.820768
H       2.584690     3.726756     2.269319
C      -0.971457    -0.093694     3.343495
C      -2.069137    -0.505626     2.344093
C      -1.050066     1.419991     3.613964
H      -1.999186     0.086384     1.429766
H      -1.985026    -1.560835     2.075855
H      -3.055148    -0.331522     2.784246
H      -0.954134     1.976423     2.677480
H      -2.021093     1.670517     4.049948
H      -0.263289     1.745268     4.297489
C      -1.268288    -0.784156     4.620116
N      -1.503206    -1.318561     5.610165
C       1.895741    -0.994077    -3.173420
C       0.974464    -0.684332    -4.316281
C       2.518102    -2.354202    -3.059599
H       0.183369    -1.438612    -4.387071
H       0.512871     0.298223    -4.203548
H       1.525593    -0.698389    -5.266819
H       3.306880    -2.483022    -3.813747
H       2.963135    -2.508430    -2.074740
H       1.768420    -3.132121    -3.235103
C       2.430676     0.064410    -2.421678
N       2.852698     0.936054    -1.782684
59
     -1302.792241     -1302.368613   2.66   1.90
C      -1.455346     1.174372    -0.515003
C      -0.259049     1.002273     0.208911
C       0.268465     2.053488     0.972455
C      -0.398468     3.274555     0.993710
C      -1.576970     3.440394     0.271531
C      -2.113150     2.409207    -0.471902
C      -1.934869     0.046823    -1.295011
C      -0.915870    -0.990012    -1.616920
C      -1.460313    -2.243638    -2.199686
C      -2.720625    -2.298956    -2.687301
C      -3.602771    -1.187884    -2.545825
C      -3.204544    -0.059044    -1.833272
H      -0.016638     4.105467     1.569888
H      -2.078107     4.402605     0.299612
H      -3.021301     2.568805    -1.040377
H      -0.315047    -0.517908    -2.466155
H      -0.777987    -3.084081    -2.266305
H      -3.080788    -3.203824    -3.167233
H      -4.608139    -1.243879    -2.948332
H      -3.925737     0.734564    -1.666865
C       0.415993    -0.294529     0.172715
N       0.109546    -1.239964    -0.624310
C       2.024864     0.654150     1.947174
O       2.931930     0.528764     2.747099
C       1.567601    -0.554490     1.129407
C       1.279508    -1.748717     2.071722
H       2.175544    -1.880470     2.682834
H       1.175073    -2.632899     1.437696
C       2.810349    -0.930118     0.283775
H       3.089363    -0.101736    -0.373339
H       3.649471    -1.156175     0.942928
H       2.572919    -1.796849    -0.333996
N       1.449785     1.883710     1.712646
C       2.037018     3.037921     2.383351
H       2.188180     3.845489     1.663441
H       1.397602     3.391975     3.198524
H       2.995200     2.732549     2.794942
C       0.056094    -1.706755     3.027590
C      -1.298424    -1.839986     2.305839
C       0.039897    -0.473543     3.949272
H      -2.091144    -2.023597     3.036692
H      -1.541028    -0.920746     1.769647
H      -1.285278    -2.662086     1.587179
H      -0.184640     0.427089     3.371115
H      -0.741487    -0.584460     4.706157
H       0.999531    -0.337600     4.451918
C       0.203799    -2.900101     3.892874
N       0.313865    -3.825371     4.565728
C       0.666919     0.635293    -3.728080
C      -0.581586     1.237447    -4.302092
C       1.318457    -0.531426    -4.409611
H      -0.369214     1.705730    -5.273213
H      -1.338118     0.463742    -4.471864
H      -1.000203     1.997833    -3.640450
H       1.821745    -0.209105    -5.331738
H       2.062191    -1.005254    -3.766076
H       0.567487    -1.276379    -4.690807
C       1.396787     1.359546    -2.771825
N       1.986822     1.944798    -1.962186
59
     -1302.792241     -1302.368610   2.66   1.90
C      -0.559092     1.309720    -1.214814
C       0.168526     0.939896    -0.066512
C       0.850486     1.906749     0.686119
C       0.810853     3.235452     0.274740
C       0.095126     3.593871    -0.864198
C      -0.591391     2.653720    -1.604692
C      -1.228829     0.253208    -1.953024
C      -0.720930    -1.124210    -1.704452
C      -1.559281    -2.212546    -2.270428
C      -2.510401    -1.953613    -3.196456
C      -2.816263    -0.611194    -3.566659
C      -2.195032     0.455915    -2.921721
H       1.328118     4.004291     0.831077
H       0.081298     4.635479    -1.168566
H      -1.125514     2.954718    -2.497713
H       0.246445    -1.164506    -2.310721
H      -1.327038    -3.221660    -1.947775
H      -3.070124    -2.768013    -3.646236
H      -3.576168    -0.419092    -4.316029
H      -2.510226     1.466130    -3.162015
C       0.186404    -0.463314     0.345029
N      -0.251717    -1.424615    -0.366981
C       1.444084     0.319429     2.452820
O       1.923972     0.116093     3.551336
C       0.769138    -0.828015     1.700186
C      -0.275313    -1.514276     2.614127
H       0.248224    -1.773940     3.537263
H      -0.563006    -2.445970     2.120313
C       1.910870    -1.848818     1.465614
H       2.330779    -2.158019     2.423623
H       1.512973    -2.713005     0.932605
H       2.703606    -1.402017     0.859143
N       1.561575     1.549053     1.843114
C       2.366616     2.559334     2.519969
H       2.925881     2.065653     3.310078
H       3.060374     3.014908     1.809733
H       1.737194     3.337388     2.964012
C      -1.578825    -0.764957     3.003445
C      -2.575007    -0.609343     1.838627
C      -1.326154     0.602957     3.663401
H      -2.710676    -1.552183     1.304644
H      -3.544592    -0.278923     2.222022
H      -2.221466     0.138995     1.127038
H      -2.262053     1.001466     4.064675
H      -0.599691     0.527131     4.474901
H      -0.952979     1.316181     2.923217
C      -2.229861    -1.627955     4.016360
N      -2.739009    -2.294937     4.801775
C       1.957484    -0.854943    -3.240090
C       1.329181    -0.041812    -4.333196
C       2.202716    -2.320924    -3.442515
H       1.110290     0.974496    -4.000933
H       2.000928     0.017169    -5.200804
H       0.398493    -0.509012    -4.672799
H       2.437134    -2.820240    -2.500431
H       1.322442    -2.796796    -3.885955
H       3.043808    -2.480977    -4.131323
C       2.611396    -0.194312    -2.187656
N       3.129113     0.350095    -1.303478
59
     -1302.790712     -1302.367874   3.62   2.36
C      -0.688828    -1.789234     0.002875
C      -0.717480    -0.515532    -0.603182
C      -1.601817    -0.248240    -1.660508
C      -2.430790    -1.266839    -2.123454
C      -2.385682    -2.526480    -1.531136
C      -1.536939    -2.795312    -0.477269
C       0.230810    -1.985865     1.108331
C       1.342476    -1.002673     1.217505
C       2.094418    -1.044514     2.498455
C       1.989618    -2.101848     3.334165
C       1.056083    -3.145751     3.068746
C       0.183530    -3.053668     1.988393
H      -3.123760    -1.094180    -2.934722
H      -3.039113    -3.306335    -1.908866
H      -1.513921    -3.787196    -0.042689
H       2.113716    -1.367019     0.453643
H       2.790074    -0.233187     2.679186
H       2.605743    -2.154268     4.226018
H       0.988547    -3.991762     3.743960
H      -0.577717    -3.817350     1.866638
C       0.149033     0.539404    -0.077525
N       1.074540     0.350467     0.775765
C      -1.062083     2.142318    -1.694986
O      -1.282912     3.253516    -2.134196
C      -0.037032     1.964015    -0.574152
C      -0.351563     2.941400     0.584690
H      -0.421819     3.936329     0.138863
H       0.516236     2.932757     1.248873
C       1.299962     2.423739    -1.206861
H       1.218460     3.461388    -1.533186
H       2.098108     2.320543    -0.470920
H       1.546063     1.805512    -2.075731
N      -1.665581     1.029246    -2.242873
C      -2.530996     1.238353    -3.398823
H      -2.362888     2.248388    -3.762333
H      -2.283078     0.520957    -4.184695
H      -3.586161     1.128860    -3.128372
C      -1.616681     2.723995     1.459288
C      -1.522843     1.504232     2.395730
C      -2.921626     2.658457     0.644864
H      -1.620361     0.575915     1.830043
H      -0.568699     1.483127     2.926142
H      -2.333489     1.538561     3.129148
H      -3.003916     3.497998    -0.048160
H      -2.965275     1.725956     0.075239
H      -3.781904     2.673298     1.319573
C      -1.696370     3.925931     2.321727
N      -1.760729     4.856490     2.993212
C       3.349921    -2.099365    -0.867398
C       3.169635    -1.009838    -1.883039
C       2.632609    -3.406005    -1.040646
H       3.684908    -1.265417    -2.819607
H       2.107701    -0.883614    -2.118185
H       3.568011    -0.058695    -1.525465
H       3.108952    -4.004894    -1.829711
H       2.640086    -3.994404    -0.120655
H       1.594327    -3.234167    -1.340898
C       4.443100    -2.035705     0.015573
N       5.320477    -1.970000     0.770962
59
     -1302.790712     -1302.367868   3.62   2.37
C      -0.624792     0.801267    -1.629924
C       0.129383     1.062880    -0.466644
C       0.617780     2.353674    -0.208273
C       0.372900     3.367278    -1.131149
C      -0.358503     3.098120    -2.285346
C      -0.862483     1.839344    -2.539822
C      -1.120967    -0.549565    -1.818338
C      -0.443851    -1.611833    -1.026197
C      -1.140339    -2.924349    -1.011125
C      -2.109924    -3.209444    -1.908885
C      -2.578256    -2.210718    -2.811594
C      -2.100466    -0.906117    -2.729606
H       0.733643     4.372016    -0.962211
H      -0.536076     3.902366    -2.992087
H      -1.418195     1.654869    -3.451073
H       0.512077    -1.833831    -1.616107
H      -0.770238    -3.661722    -0.308159
H      -2.552533    -4.199951    -1.936344
H      -3.351212    -2.456076    -3.531697
H      -2.543477    -0.147758    -3.366916
C       0.348506    -0.018165     0.494282
N       0.067658    -1.240580     0.277046
C       1.413776     1.757583     2.031900
O       1.897310     2.103675     3.091545
C       0.962294     0.308295     1.846119
C       0.035132    -0.106183     3.014753
H       0.576933     0.123893     3.935133
H      -0.079903    -1.191380     2.956429
C       2.266459    -0.515637     1.985807
H       2.036541    -1.573852     1.856905
H       2.990389    -0.221248     1.219671
H       2.711540    -0.342187     2.966451
N       1.335016     2.632149     0.967828
C       1.903397     3.963217     1.152472
H       2.538823     4.218584     0.301155
H       1.117560     4.718214     1.257066
H       2.500553     3.947381     2.060065
C      -1.384615     0.512579     3.133757
C      -2.370680     0.017198     2.058664
C      -1.381832     2.051760     3.170914
H      -3.389222     0.310243     2.328710
H      -2.138817     0.461738     1.089175
H      -2.332530    -1.069063     1.954965
H      -1.120193     2.453137     2.187868
H      -2.380565     2.419225     3.421981
H      -0.671554     2.433424     3.906930
C      -1.898354     0.041990     4.441205
N      -2.300606    -0.322101     5.454420
C       2.094829    -2.128269    -2.719801
C       3.075939    -1.507460    -1.769475
C       1.604848    -1.345081    -3.902342
H       3.176318    -2.096081    -0.855867
H       4.068203    -1.428291    -2.235447
H       2.757215    -0.493832    -1.505073
H       2.383381    -1.289120    -4.676261
H       0.718883    -1.801804    -4.348564
H       1.362007    -0.319770    -3.606581
C       1.927515    -3.524946    -2.712731
N       1.757227    -4.671688    -2.686260
59
     -1302.792529     -1302.367084   2.48   2.86
C       0.868957    -1.257425     1.344647
C      -0.017363    -0.831449     0.338805
C      -1.009929    -1.686675    -0.157668
C      -1.146760    -2.954793     0.400067
C      -0.293131    -3.360316     1.423296
C       0.711987    -2.536897     1.892852
C       1.927952    -0.337058     1.720605
C       2.184929     0.770687     0.757027
C       3.118816     1.817416     1.239597
C       3.893622     1.618639     2.330547
C       3.751569     0.437729     3.115333
C       2.763055    -0.494578     2.812780
H      -1.919483    -3.627362     0.053099
H      -0.417163    -4.351828     1.846988
H       1.383289    -2.892525     2.665078
H       2.746090     0.256704    -0.102693
H       3.182797     2.721558     0.643854
H       4.613184     2.373073     2.633279
H       4.384696     0.288658     3.983050
H       2.628169    -1.345752     3.472300
C       0.052428     0.547881    -0.140426
N       1.030266     1.331786     0.078847
C      -1.889235     0.016278    -1.663666
O      -2.536039     0.323401    -2.644609
C      -1.197766     1.091795    -0.817593
C      -2.126859     1.495350     0.375037
H      -1.707327     2.420157     0.784204
H      -2.019772     0.739127     1.160443
C      -0.836969     2.281608    -1.710692
H      -1.701701     2.635670    -2.264934
H      -0.424241     3.085095    -1.099696
H      -0.074788     1.978501    -2.431819
N      -1.818430    -1.287026    -1.228324
C      -2.576900    -2.296534    -1.959359
H      -2.940108    -1.836743    -2.874463
H      -1.926815    -3.138960    -2.207275
H      -3.434163    -2.635489    -1.371599
C      -3.650309     1.717740     0.190785
C      -4.035348     2.684494    -0.940474
C      -4.198464     2.254250     1.530034
H      -3.501924     3.630254    -0.810454
H      -3.799237     2.267404    -1.918808
H      -5.109388     2.886472    -0.900737
H      -3.777300     3.244521     1.725864
H      -5.287159     2.340805     1.491554
H      -3.934651     1.591537     2.358715
C      -4.314922     0.417269    -0.041562
N      -4.846202    -0.592645    -0.177266
C       3.363826    -0.819065    -1.598317
C       3.686485    -2.043971    -0.793739
C       4.460496     0.135659    -1.968390
H       4.333514    -2.719090    -1.370549
H       4.230206    -1.771939     0.117438
H       2.784682    -2.590570    -0.513179
H       5.152634    -0.331888    -2.682187
H       4.064754     1.044474    -2.425297
H       5.042428     0.409109    -1.082089
C       2.145185    -0.762728    -2.295294
N       1.118333    -0.695088    -2.830159
59
     -1302.792529     -1302.367078   2.48   2.86
C       0.395519    -2.026291     0.166090
C      -0.222317    -0.844595    -0.281811
C      -1.278097    -0.886615    -1.201952
C      -1.750484    -2.124604    -1.628732
C      -1.162891    -3.294664    -1.153525
C      -0.097192    -3.261184    -0.274940
C       1.547298    -1.876069     1.038274
C       2.165856    -0.520072     1.053542
C       3.205521    -0.316857     2.092026
C       3.748438    -1.362695     2.756453
C       3.253941    -2.684132     2.556693
C       2.156595    -2.908257     1.729964
H      -2.579838    -2.187826    -2.320114
H      -1.546838    -4.250290    -1.496101
H       0.362508    -4.186642     0.050096
H       2.737485    -0.471969     0.058993
H       3.539933     0.702837     2.249727
H       4.549713    -1.198689     3.470348
H       3.703872    -3.513735     3.090852
H       1.754310    -3.913470     1.656676
C       0.195483     0.439185     0.278930
N       1.265177     0.613539     0.945348
C      -1.555865     1.534788    -1.172035
O      -1.969284     2.554680    -1.685685
C      -0.800996     1.584013     0.161549
C      -1.802169     1.334135     1.337826
H      -1.273543     1.626997     2.250776
H      -1.971010     0.254589     1.417052
C      -0.075957     2.926906     0.281583
H       0.390852     3.003477     1.264169
H       0.711361     2.985086    -0.473115
H      -0.756443     3.758584     0.121722
N      -1.815876     0.298628    -1.717410
C      -2.640156     0.239034    -2.919829
H      -2.759037     1.254411    -3.288096
H      -2.142101    -0.368606    -3.679087
H      -3.627764    -0.169976    -2.690503
C      -3.203213     1.997230     1.378952
C      -3.207942     3.522345     1.187596
C      -3.831658     1.651837     2.745577
H      -2.912891     3.797993     0.175759
H      -4.212689     3.912218     1.373126
H      -2.522022     3.982770     1.904135
H      -3.255531     2.129831     3.543050
H      -4.861731     2.013246     2.796186
H      -3.836700     0.571889     2.916414
C      -4.071532     1.381533     0.352371
N      -4.767361     0.878218    -0.411237
C       3.349701    -0.431165    -1.784751
C       3.292559    -1.914076    -2.007315
C       4.659270     0.218223    -1.446419
H       3.732533    -2.446587    -1.157171
H       2.267347    -2.261417    -2.145249
H       3.872474    -2.187958    -2.899402
H       5.140183    -0.305709    -0.613829
H       5.345351     0.169159    -2.303174
H       4.529283     1.267518    -1.175515
C       2.288788     0.368346    -2.242229
N       1.390822     1.022543    -2.575062
59
     -1302.791043     -1302.366775   3.41   3.05
C      -1.277488     0.806839    -1.389271
C      -0.297261     0.834317    -0.379965
C       0.157414     2.048420     0.152734
C      -0.409431     3.237288    -0.295399
C      -1.403713     3.205239    -1.271419
C      -1.834994     2.015799    -1.825925
C      -1.625489    -0.494609    -1.931107
C      -0.656482    -1.591178    -1.650423
C      -1.122680    -2.950331    -2.017488
C      -2.205980    -3.131504    -2.806573
C      -3.000702    -2.021716    -3.213303
C      -2.711186    -0.740604    -2.753410
H      -0.094519     4.187349     0.114190
H      -1.836223     4.141971    -1.608282
H      -2.585539     2.026173    -2.606913
H       0.208868    -1.397191    -2.381839
H      -0.509211    -3.779691    -1.684228
H      -2.487934    -4.130789    -3.121956
H      -3.862787    -2.182130    -3.851506
H      -3.376934     0.073809    -3.020162
C       0.183943    -0.427252     0.182145
N       0.004478    -1.565508    -0.356157
C       1.628503     0.929038     1.746130
O       2.593204     0.949169     2.484617
C       0.804309    -0.352130     1.571770
C      -0.430696    -0.318778     2.531845
H      -0.827235    -1.339122     2.546715
H      -1.204635     0.301716     2.067675
C       1.701062    -1.568015     1.818485
H       2.465579    -1.630213     1.040054
H       2.207881    -1.500281     2.777178
H       1.102946    -2.478698     1.771009
N       1.205872     2.060396     1.085258
C       1.888820     3.319390     1.369178
H       2.160376     3.812521     0.432595
H       1.253771     3.972754     1.972843
H       2.788279     3.088427     1.933788
C      -0.314916     0.158031     4.002698
C       0.791121    -0.523471     4.824277
C      -1.680989    -0.097505     4.673822
H       0.678791    -1.609370     4.759978
H       1.782936    -0.240625     4.472963
H       0.701377    -0.229943     5.873807
H      -1.865556    -1.174282     4.727180
H      -1.690925     0.307647     5.688685
H      -2.492171     0.369277     4.108583
C      -0.101308     1.620670     4.030624
N       0.022000     2.762837     4.061441
C       1.671687    -0.986164    -3.552269
C       2.709921    -0.739338    -2.496455
C       1.012373     0.177348    -4.235645
H       2.917525    -1.642291    -1.918959
H       3.651715    -0.403959    -2.953562
H       2.378206     0.048668    -1.813348
H       0.109988    -0.128956    -4.769480
H       0.746731     0.948057    -3.506110
H       1.696488     0.634847    -4.964185
C       1.622853    -2.250619    -4.170882
N       1.552257    -3.301551    -4.655079
59
     -1302.789548     -1302.365948   4.35   3.57
C      -1.455500     1.072860    -0.474472
C      -0.219627     1.069464     0.198840
C       0.226160     2.205965     0.886938
C      -0.590691     3.331410     0.937785
C      -1.829392     3.317834     0.299453
C      -2.264042     2.213622    -0.405828
C      -1.807190    -0.121282    -1.219378
C      -0.683469    -1.047315    -1.526316
C      -1.088380    -2.368299    -2.068053
C      -2.346267    -2.589349    -2.509867
C      -3.352608    -1.591625    -2.361540
C      -3.071005    -0.398238    -1.705890
H      -0.281704     4.218463     1.473823
H      -2.455811     4.202454     0.353363
H      -3.219072     2.240470    -0.915520
H      -0.134677    -0.552404    -2.403028
H      -0.308490    -3.115841    -2.158038
H      -2.603641    -3.540623    -2.964499
H      -4.357843    -1.784674    -2.719710
H      -3.878012     0.305029    -1.531091
C       0.569508    -0.160332     0.231073
N       0.364809    -1.161790    -0.527324
C       2.267715     1.088915     1.645310
O       3.385418     1.145966     2.117341
C       1.632991    -0.270933     1.310676
C       0.985128    -0.678439     2.675216
H       0.464098     0.196170     3.081303
H       1.811335    -0.893410     3.360620
C       2.765188    -1.213249     0.888230
H       3.478222    -1.332163     1.704503
H       2.375359    -2.179666     0.582332
H       3.300893    -0.787921     0.035170
N       1.500799     2.222326     1.481017
C       2.058313     3.495069     1.925005
H       3.101235     3.329872     2.182818
H       1.991727     4.234808     1.123263
H       1.527438     3.868888     2.806112
C      -0.012598    -1.860121     2.771517
C      -0.326615    -2.069710     4.268576
C       0.488612    -3.182085     2.168100
H      -1.097508    -2.833754     4.394455
H       0.577417    -2.397527     4.789904
H      -0.681800    -1.144623     4.730442
H       0.555894    -3.119955     1.082503
H       1.471110    -3.427242     2.581162
H      -0.204998    -3.987804     2.423985
C      -1.290677    -1.500630     2.124277
N      -2.310951    -1.235296     1.667011
C       0.774278     0.383568    -3.820974
C       2.056370     0.632200    -3.080867
C      -0.233120     1.487850    -3.960688
H       2.568134    -0.301931    -2.841176
H       2.737394     1.248969    -3.684472
H       1.859107     1.174629    -2.150878
H       0.096426     2.218931    -4.712461
H      -1.208259     1.104653    -4.269389
H      -0.348627     2.020790    -3.012240
C       0.697046    -0.719482    -4.692425
N       0.615503    -1.648411    -5.381308
59
     -1302.788605     -1302.365772   4.94   3.68
C      -0.137771    -1.855847    -0.546879
C      -0.545008    -0.538643    -0.822564
C      -1.429885    -0.260283    -1.872826
C      -1.968959    -1.316870    -2.600005
C      -1.609319    -2.626829    -2.284927
C      -0.699739    -2.907163    -1.283566
C       0.888532    -2.020506     0.467560
C       1.670066    -0.793429     0.792819
C       2.572765    -0.918731     1.962987
C       2.868140    -2.125708     2.496963
C       2.228577    -3.306307     2.021592
C       1.245032    -3.228652     1.039961
H      -2.667434    -1.136243    -3.406298
H      -2.042531    -3.440118    -2.858374
H      -0.405310    -3.932344    -1.093911
H       2.391516    -0.665923    -0.095830
H       3.037612    -0.005391     2.316326
H       3.585710    -2.200349     3.307635
H       2.481654    -4.267523     2.455396
H       0.724557    -4.134930     0.746746
C      -0.073769     0.549363     0.035148
N       0.941455     0.465044     0.795548
C      -1.360878     2.139299    -1.406591
O      -1.482261     3.284716    -1.783355
C      -0.926266     1.808651     0.032452
C      -2.299360     1.545816     0.735201
H      -2.717911     0.619992     0.326641
H      -2.972760     2.354557     0.430974
C      -0.178985     3.003491     0.614575
H       0.705189     3.219706     0.010857
H      -0.816608     3.887053     0.619415
H       0.154118     2.789110     1.629127
N      -1.711277     1.072407    -2.215301
C      -2.313917     1.359299    -3.512026
H      -2.265274     2.433741    -3.670703
H      -1.764351     0.847069    -4.306170
H      -3.360895     1.041316    -3.535465
C      -2.405988     1.421027     2.276011
C      -1.444765     0.395662     2.897649
C      -3.860535     1.014011     2.597209
H      -0.404571     0.707685     2.820170
H      -1.692818     0.251641     3.952867
H      -1.549373    -0.565057     2.384237
H      -4.021751     0.988839     3.677657
H      -4.573727     1.717098     2.158492
H      -4.058587     0.016597     2.193725
C      -2.189105     2.733397     2.921508
N      -2.066569     3.743169     3.456344
C       3.516923    -0.406121    -1.601441
C       2.961381     0.915297    -2.048806
C       3.120685    -1.664034    -2.320577
H       3.457440     1.249035    -2.971299
H       1.892589     0.825414    -2.264688
H       3.102889     1.688038    -1.290686
H       2.045202    -1.666661    -2.520781
H       3.636757    -1.735099    -3.288418
H       3.373288    -2.554288    -1.740132
C       4.693375    -0.415316    -0.825631
N       5.638776    -0.428337    -0.155020
59
     -1302.789814     -1302.365618   4.19   3.78
C       0.157952     2.078862     0.818149
C       0.715881     0.789080     0.797227
C       1.871324     0.492000     1.527845
C       2.439978     1.486535     2.321645
C       1.862685     2.751985     2.371028
C       0.737164     3.060411     1.628433
C      -0.993713     2.308544    -0.042681
C      -1.143729     1.335279    -1.180791
C      -2.464949     1.429089    -1.880053
C      -3.306198     2.465550    -1.680268
C      -3.008221     3.473638    -0.714462
C      -1.878432     3.354839     0.097964
H       3.327515     1.285300     2.906717
H       2.318916     3.512672     2.996221
H       0.331671     4.064846     1.651924
H      -0.372909     1.620071    -1.929444
H      -2.696939     0.633118    -2.579046
H      -4.236037     2.526966    -2.237577
H      -3.688614     4.306021    -0.574349
H      -1.723043     4.083679     0.887294
C       0.039269    -0.268703     0.042957
N      -0.841516    -0.060345    -0.848841
C       1.843079    -1.849208     0.835385
O       2.405721    -2.915978     0.707174
C       0.361096    -1.693965     0.449922
C      -0.370144    -2.075608     1.778240
H       0.110576    -1.545103     2.608570
H      -0.163600    -3.139091     1.930691
C       0.058780    -2.684080    -0.676543
H       0.227011    -3.703398    -0.328451
H      -0.965390    -2.572183    -1.023247
H       0.731798    -2.501583    -1.517437
N       2.466953    -0.772695     1.430929
C       3.853908    -0.932159     1.849917
H       3.945479    -0.890634     2.939788
H       4.194535    -1.903945     1.502480
H       4.469774    -0.148103     1.402248
C      -1.890432    -1.843516     1.978107
C      -2.250169    -0.367243     2.232406
C      -2.317614    -2.673317     3.208863
H      -1.617262     0.032740     3.030152
H      -2.125168     0.246273     1.342989
H      -3.294104    -0.290827     2.548230
H      -3.383051    -2.539558     3.411115
H      -2.126967    -3.737855     3.051385
H      -1.753391    -2.343260     4.086588
C      -2.699784    -2.328935     0.843038
N      -3.391234    -2.714116     0.010099
C       1.192737     0.431780    -3.861833
C       1.658934     1.539864    -4.755274
C      -0.015767    -0.386567    -4.190858
H       2.659488     1.331946    -5.152042
H       0.974456     1.674398    -5.595299
H       1.725685     2.486329    -4.205916
H      -0.359172    -0.957123    -3.327820
H      -0.829570     0.261724    -4.533591
H       0.204904    -1.082125    -5.012296
C       1.953335     0.127643    -2.728065
N       2.586013    -0.110622    -1.783518
59
     -1302.788851     -1302.365418   4.79   3.90
C      -1.291108     1.551720    -0.597320
C      -0.168779     0.997676     0.040719
C       0.702855     1.797622     0.787929
C       0.414827     3.146983     0.947970
C      -0.724958     3.685064     0.352656
C      -1.569335     2.911937    -0.417971
C      -2.063364     0.664483    -1.447797
C      -1.380627    -0.600938    -1.843177
C      -2.245140    -1.589443    -2.533366
C      -3.455144    -1.240752    -3.026560
C      -3.983998     0.063058    -2.796714
C      -3.295945     0.970695    -1.998396
H       1.067927     3.790174     1.522586
H      -0.933346     4.741997     0.481563
H      -2.420248     3.369711    -0.906990
H      -0.627059    -0.261128    -2.641372
H      -1.835814    -2.585542    -2.664298
H      -4.047588    -1.963272    -3.579344
H      -4.951597     0.331116    -3.206534
H      -3.755932     1.928549    -1.778568
C       0.049528    -0.446873    -0.019852
N      -0.522853    -1.224530    -0.847689
C       2.128221    -0.115678     1.310118
O       3.239425    -0.562471     1.508912
C       0.914219    -1.030898     1.092117
C      -0.022265    -0.994718     2.342582
H      -0.971229    -1.439150     2.025067
H      -0.238105     0.052324     2.579390
C       1.386499    -2.438905     0.746629
H       2.053867    -2.829116     1.513808
H       0.528842    -3.102883     0.638876
H       1.931806    -2.428675    -0.199064
N       1.886876     1.243275     1.311989
C       2.986618     2.140565     1.649855
H       3.170737     2.837296     0.827680
H       2.761983     2.707778     2.558123
H       3.872974     1.533458     1.816880
C       0.380708    -1.668030     3.678716
C      -0.706789    -1.310640     4.714753
C       1.753833    -1.230994     4.214306
H      -0.699520    -0.231806     4.895678
H      -1.699898    -1.598976     4.359735
H      -0.517322    -1.822058     5.661626
H       1.793310    -0.138464     4.269943
H       1.901725    -1.631150     5.220867
H       2.572461    -1.569571     3.580562
C       0.364348    -3.140682     3.551161
N       0.322235    -4.288120     3.504439
C       0.835715     0.303055    -3.756287
C       0.033523     0.182073    -5.019920
C       1.777763    -0.799835    -3.369448
H      -0.464667    -0.791588    -5.064643
H      -0.721601     0.967164    -5.092892
H       0.688034     0.256750    -5.899523
H       2.580142    -0.892554    -4.114544
H       2.234495    -0.616599    -2.395878
H       1.252933    -1.759759    -3.332341
C       1.002945     1.573384    -3.177180
N       1.119051     2.614530    -2.679794
59
     -1302.788273     -1302.365292   5.15   3.98
C      -1.104411     1.695761    -0.627375
C      -0.077826     1.059051     0.093459
C       0.753636     1.783705     0.958718
C       0.523762     3.143506     1.138685
C      -0.519828     3.764244     0.453069
C      -1.323923     3.065665    -0.425916
C      -1.853991     0.876635    -1.562798
C      -1.223131    -0.421121    -1.936114
C      -2.090506    -1.339907    -2.712361
C      -3.238355    -0.907761    -3.281814
C      -3.707569     0.417670    -3.053185
C      -3.025415     1.267541    -2.188392
H       1.142225     3.727311     1.807489
H      -0.688902     4.825274     0.606692
H      -2.104056     3.584309    -0.969793
H      -0.398229    -0.132942    -2.684610
H      -1.719139    -2.347545    -2.860513
H      -3.821457    -1.577367    -3.905631
H      -4.626275     0.751986    -3.522652
H      -3.446493     2.244896    -1.975741
C       0.061209    -0.395365     0.003410
N      -0.481079    -1.112427    -0.894416
C       2.015618    -0.225855     1.539600
O       3.079799    -0.732674     1.824445
C       0.787580    -1.066088     1.164515
C      -0.263073    -1.030818     2.320834
H      -1.194961    -1.417332     1.895660
H      -0.454506     0.016013     2.579317
C       1.224542    -2.481135     0.801275
H       1.798075    -2.934872     1.608381
H       0.351103    -3.096181     0.585399
H       1.855711    -2.458829    -0.089483
N       1.839050     1.146322     1.584634
C       2.924005     1.964206     2.115251
H       3.256498     2.688494     1.366375
H       2.604043     2.499721     3.014200
H       3.748172     1.301491     2.367217
C      -0.022941    -1.771371     3.660363
C      -1.190461    -1.400904     4.600172
C       1.308459    -1.420041     4.343957
H      -1.153638    -0.330977     4.825242
H      -2.155423    -1.628211     4.139096
H      -1.117846    -1.955252     5.539025
H       2.169723    -1.780592     3.783069
H       1.393351    -0.333013     4.441849
H       1.335576    -1.857470     5.345479
C      -0.090272    -3.235798     3.470562
N      -0.176232    -4.377414     3.371244
C       1.031601     0.365515    -3.849714
C       2.169733    -0.132173    -3.006408
C       0.711006     1.832726    -3.878681
H       2.124069    -1.214066    -2.867499
H       3.132891     0.109746    -3.477836
H       2.154808     0.350257    -2.024547
H       0.745884     2.250982    -2.868423
H       1.447261     2.377222    -4.486575
H      -0.277928     2.019065    -4.303514
C       0.561013    -0.449303    -4.898253
N       0.143714    -1.131423    -5.737508
59
     -1302.789662     -1302.365058   4.28   4.13
C       0.665357    -1.241866     1.274204
C      -0.094667    -1.004018     0.114110
C      -0.766133    -2.049671    -0.532690
C      -0.730641    -3.323232     0.029518
C      -0.022051    -3.544027     1.208286
C       0.679239    -2.528102     1.828479
C       1.437313    -0.126603     1.794681
C       1.647259     1.001682     0.842756
C       2.255909     2.217255     1.438278
C       2.839902     2.185154     2.657859
C       2.786860     1.006363     3.457326
C       2.070818    -0.106313     3.024705
H      -1.252662    -4.147473    -0.437892
H      -0.009836    -4.542645     1.633130
H       1.257399    -2.738658     2.720013
H       2.440251     0.603510     0.114349
H       2.255874     3.110409     0.822949
H       3.332133     3.069801     3.050095
H       3.266786     0.993432     4.429637
H       1.984202    -0.961912     3.686771
C      -0.216010     0.360465    -0.395767
N       0.546715     1.319613    -0.049676
C      -1.659038    -0.559909    -2.250170
O      -2.163724    -0.397105    -3.340212
C      -1.383998     0.638138    -1.322269
C      -2.731582     0.746820    -0.530543
H      -3.039936    -0.260904    -0.230763
H      -3.474544     1.087309    -1.257988
C      -1.116171     1.856990    -2.209099
H      -0.876451     2.731120    -1.610233
H      -0.262239     1.652564    -2.858879
H      -1.983975     2.056034    -2.838033
N      -1.420458    -1.824869    -1.750522
C      -1.765182    -2.966781    -2.588602
H      -0.900334    -3.626266    -2.695905
H      -2.602111    -3.530030    -2.163742
H      -2.053740    -2.585260    -3.564472
C      -2.859413     1.632394     0.741651
C      -2.383374     3.083176     0.560140
C      -2.194115     1.011571     1.985581
H      -2.669026     3.676222     1.433448
H      -1.296326     3.104263     0.467328
H      -2.830908     3.539760    -0.325958
H      -1.109862     1.099234     1.923522
H      -2.525021     1.540307     2.883758
H      -2.459711    -0.043587     2.091709
C      -4.315717     1.675660     1.015655
N      -5.444616     1.708331     1.229689
C       3.524536    -0.313613    -1.190324
C       3.956214    -1.429213    -0.284432
C       4.437072     0.856414    -1.412394
H       3.162854    -2.165391    -0.145301
H       4.833003    -1.942071    -0.703061
H       4.246651    -1.036107     0.696020
H       3.941386     1.651743    -1.971981
H       4.780418     1.258697    -0.453572
H       5.328571     0.547266    -1.975224
C       2.465604    -0.533227    -2.087157
N       1.560100    -0.697820    -2.792970
59
     -1302.789344     -1302.364993   4.48   4.17
C       1.768108    -0.503452     1.084174
C       0.604091    -0.659190     0.310343
C       0.121712    -1.932330    -0.015695
C       0.779171    -3.052808     0.482579
C       1.908952    -2.895944     1.283218
C       2.412067    -1.644649     1.580726
C       2.251130     0.852169     1.279732
C       1.695521     1.870331     0.343410
C       2.029985     3.276595     0.677272
C       3.001906     3.574203     1.569830
C       3.656258     2.541041     2.301406
C       3.252514     1.216089     2.162771
H       0.421188    -4.049156     0.259227
H       2.407963    -3.780709     1.665336
H       3.312841    -1.553945     2.175576
H       2.250068     1.666292    -0.641310
H       1.493009     4.044974     0.131656
H       3.272628     4.608866     1.756402
H       4.438929     2.794397     3.007936
H       3.715702     0.460627     2.789275
C      -0.148340     0.525730    -0.100333
N       0.306536     1.712114    -0.049335
C      -1.788939    -1.014678    -1.230561
O      -2.668045    -1.144954    -2.059257
C      -1.608070     0.304416    -0.476093
C      -2.335276     0.233005     0.908506
H      -2.316929     1.256335     1.295768
H      -1.711969    -0.356166     1.589868
C      -2.102986     1.459151    -1.350460
H      -2.072893     2.388141    -0.780247
H      -1.443223     1.570143    -2.213627
H      -3.108604     1.275635    -1.717911
N      -0.980623    -2.071854    -0.873640
C      -1.197408    -3.353260    -1.534896
H      -1.921805    -3.198825    -2.330292
H      -0.259516    -3.715005    -1.963182
H      -1.587432    -4.098358    -0.833700
C      -3.782251    -0.318711     1.055842
C      -3.859152    -1.854705     0.934803
C      -4.817720     0.335463     0.125731
H      -4.827959    -2.206304     1.299584
H      -3.759361    -2.160648    -0.106741
H      -3.074736    -2.334359     1.526760
H      -4.646279     0.014535    -0.902535
H      -5.824274     0.027061     0.421361
H      -4.764197     1.425609     0.177784
C      -4.163166     0.018167     2.447767
N      -4.459157     0.277635     3.527610
C       3.015413     0.971343    -2.282633
C       4.099996     0.169167    -1.625056
C       3.330982     2.328849    -2.838581
H       3.710629    -0.750985    -1.186282
H       4.873512    -0.098661    -2.357865
H       4.586636     0.755131    -0.837737
H       2.427737     2.852582    -3.156690
H       3.847406     2.936915    -2.088567
H       3.999448     2.243225    -3.706319
C       1.840516     0.320977    -2.694782
N       0.850182    -0.206160    -2.989492
59
     -1302.789344     -1302.364976   4.48   4.18
C       0.574274    -1.993659     0.388579
C      -0.097556    -0.911606    -0.207906
C      -1.090291    -1.124049    -1.171872
C      -1.448156    -2.428441    -1.498187
C      -0.809885    -3.499720    -0.876083
C       0.194917    -3.299430     0.049995
C       1.661579    -1.672740     1.296341
C       2.184113    -0.279933     1.201272
C       3.145477     0.102109     2.264608
C       3.720856    -0.829677     3.058701
C       3.332082    -2.197865     2.970912
C       2.300943    -2.583481     2.118997
H      -2.221871    -2.623455    -2.228997
H      -1.103199    -4.510516    -1.140838
H       0.698497    -4.151212     0.490837
H       2.806985    -0.287567     0.236393
H       3.398466     1.154567     2.333714
H       4.466559    -0.536499     3.791230
H       3.807735    -2.934733     3.608665
H       1.973879    -3.618220     2.129781
C       0.199057     0.449902     0.236104
N       1.215406     0.767544     0.931205
C      -1.516682     1.269177    -1.415196
O      -1.946977     2.198578    -2.069101
C      -0.864279     1.502538    -0.050695
C      -1.914354     1.281636     1.089300
H      -1.428546     1.642103     2.001202
H      -2.045452     0.202784     1.226337
C      -0.237877     2.898833    -0.021742
H       0.606350     2.932904    -0.713681
H      -0.951255     3.659922    -0.324734
H       0.137322     3.110280     0.980051
N      -1.678418    -0.033931    -1.832494
C      -2.366986    -0.267709    -3.096408
H      -2.527460     0.696707    -3.571177
H      -1.751037    -0.894202    -3.746053
H      -3.334733    -0.753809    -2.934730
C      -3.345029     1.889059     1.025705
C      -4.269260     1.156982     0.030866
C      -3.389321     3.404664     0.768362
H      -4.017997     1.429342    -0.994348
H      -4.187215     0.072508     0.144763
H      -5.308622     1.443526     0.212227
H      -3.099161     3.613566    -0.262114
H      -4.406663     3.774372     0.923256
H      -2.722539     3.941486     1.447490
C      -3.903730     1.653780     2.377940
N      -4.338628     1.470552     3.425932
C       3.519237    -0.389505    -1.564676
C       3.605219    -1.886837    -1.617769
C       4.745951     0.412155    -1.242153
H       4.262468    -2.201855    -2.439871
H       4.034322    -2.279430    -0.689443
H       2.624859    -2.341400    -1.769642
H       5.222291     0.030358    -0.333138
H       5.481635     0.333034    -2.054342
H       4.509843     1.468284    -1.100100
C       2.421576     0.252290    -2.161761
N       1.490566     0.779168    -2.610215
59
     -1302.789344     -1302.364961   4.48   4.19
C      -1.774944     0.990227    -0.253431
C      -0.445905     0.767942     0.149373
C       0.262203     1.742097     0.863162
C      -0.383749     2.921298     1.221258
C      -1.713600     3.122717     0.856614
C      -2.408817     2.182161     0.122178
C      -2.390763    -0.031891    -1.081258
C      -1.446696    -0.994691    -1.716729
C      -2.089219    -2.151790    -2.386954
C      -3.414902    -2.160001    -2.655941
C      -4.254404    -1.102758    -2.199556
C      -3.734988    -0.084004    -1.405785
H       0.133562     3.686161     1.785280
H      -2.202635     4.047242     1.146324
H      -3.430376     2.381198    -0.178269
H      -0.974925    -0.389858    -2.571369
H      -1.433495    -2.959613    -2.693377
H      -3.855723    -2.989571    -3.200105
H      -5.314024    -1.119153    -2.429524
H      -4.412072     0.665253    -1.008365
C       0.179537    -0.525698    -0.122962
N      -0.283726    -1.383773    -0.939121
C       2.251324     0.332661     1.022801
O       3.449711     0.221716     1.190402
C       1.379453    -0.893033     0.740900
C       0.729930    -1.404805     2.070284
H       0.283101    -2.371403     1.818209
H      -0.107484    -0.742904     2.316273
C       2.220840    -1.961571     0.038646
H       3.137316    -2.166776     0.584473
H       1.634440    -2.874297    -0.071542
H       2.493451    -1.611709    -0.959322
N       1.618691     1.548017     1.168025
C       2.433553     2.707372     1.511758
H       2.255726     3.513408     0.795791
H       2.207475     3.063168     2.522336
H       3.476852     2.406387     1.464948
C       1.550612    -1.573442     3.380966
C       1.886794    -0.230220     4.061098
C       2.823613    -2.424426     3.237646
H       2.223640    -0.408699     5.085771
H       2.688958     0.278051     3.525775
H       1.009474     0.421572     4.096704
H       3.574135    -1.874428     2.668496
H       3.232402    -2.644205     4.227721
H       2.612376    -3.371954     2.736087
C       0.636134    -2.296612     4.295730
N      -0.072781    -2.856197     5.006574
C      -0.048475     0.862197    -3.727583
C      -1.116451     1.916367    -3.708501
C       0.029329    -0.093170    -4.882011
H      -2.104785     1.463416    -3.842960
H      -1.112813     2.476401    -2.771935
H      -0.967169     2.625081    -4.534639
H       0.325850     0.434719    -5.798830
H       0.755237    -0.887256    -4.698078
H      -0.950307    -0.545180    -5.068963
C       1.064069     1.002969    -2.881623
N       1.957520     1.093148    -2.147389
59
     -1302.787563     -1302.363910   5.60   4.85
C       0.533074    -1.582871     0.738384
C      -0.278014    -1.008779    -0.258750
C      -1.068495    -1.810521    -1.093739
C      -1.094789    -3.185830    -0.882981
C      -0.323811    -3.745477     0.134561
C       0.490859    -2.968877     0.934588
C       1.395492    -0.684149     1.484502
C       1.634602     0.646412     0.855786
C       2.319578     1.633354     1.728003
C       2.946835     1.249814     2.862174
C       2.865162    -0.099118     3.317152
C       2.075373    -1.022135     2.641793
H      -1.707302    -3.829963    -1.499358
H      -0.355827    -4.819963     0.284366
H       1.115142    -3.437346     1.685170
H       2.397673     0.423088     0.029110
H       2.345829     2.658582     1.374856
H       3.499848     1.975156     3.451060
H       3.389601    -0.395897     4.218422
H       1.973405    -2.021456     3.051385
C      -0.327161     0.446661    -0.389146
N       0.525533     1.239147     0.126537
C      -1.942373     0.128751    -2.300792
O      -2.476486     0.602697    -3.281474
C      -1.527238     1.022494    -1.117997
C      -2.812045     0.986128    -0.221489
H      -3.168401    -0.048219    -0.167645
H      -3.574820     1.542001    -0.774967
C      -1.235707     2.420261    -1.669832
H      -2.128657     2.828861    -2.143326
H      -0.889326     3.085834    -0.884344
H      -0.449266     2.363736    -2.427066
N      -1.776773    -1.235117    -2.161666
C      -2.315807    -2.101718    -3.203486
H      -2.655712    -1.469205    -4.019527
H      -1.541139    -2.782225    -3.566172
H      -3.161777    -2.685610    -2.827711
C      -2.797339     1.513089     1.242155
C      -2.229447     2.932669     1.405628
C      -2.104717     0.552940     2.228730
H      -2.694974     3.630366     0.705317
H      -2.419182     3.289184     2.421794
H      -1.150900     2.919106     1.240206
H      -1.022771     0.593721     2.107891
H      -2.340475     0.846765     3.255236
H      -2.440841    -0.476853     2.081820
C      -4.227778     1.561593     1.628782
N      -5.336704     1.597862     1.929076
C       3.647797    -0.090317    -1.334696
C       4.314011     1.254046    -1.383696
C       2.662704    -0.465966    -2.402674
H       3.572103     2.039864    -1.558250
H       4.847940     1.471647    -0.456580
H       5.037080     1.296556    -2.210146
H       3.173868    -0.584591    -3.368373
H       2.154612    -1.403947    -2.171305
H       1.912690     0.322227    -2.525077
C       4.216861    -1.103354    -0.541620
N       4.661025    -1.929677     0.139671
59
     -1302.786940     -1302.363671   5.99   5.00
C      -1.279929     1.681986    -0.200768
C      -0.071775     1.041384     0.131660
C       0.959879     1.737778     0.774290
C       0.765040     3.069733     1.123804
C      -0.445308     3.692934     0.822266
C      -1.457888     3.023729     0.163890
C      -2.259082     0.898615    -0.931949
C      -1.740323    -0.338312    -1.581693
C      -2.779698    -1.236934    -2.139374
C      -4.055398    -0.818779    -2.301641
C      -4.464642     0.462543    -1.832761
C      -3.573046     1.278610    -1.143430
H       1.538542     3.629699     1.632254
H      -0.583192     4.732187     1.103116
H      -2.374358     3.544766    -0.085204
H      -1.179407     0.043577    -2.508842
H      -2.447859    -2.212611    -2.475827
H      -4.783774    -1.467570    -2.777120
H      -5.489632     0.786333    -1.976767
H      -3.932491     2.217200    -0.733988
C       0.066726    -0.394282    -0.114604
N      -0.705928    -1.068324    -0.866046
C       2.372414    -0.256011     0.886152
O       3.476562    -0.757349     0.973391
C       1.123457    -1.121765     0.709854
C       0.422277    -1.337438     2.092976
H      -0.340744    -2.100462     1.911502
H      -0.123266    -0.421646     2.343478
C       1.507207    -2.438805     0.031257
H       0.638165    -3.096441    -0.006852
H       1.825173    -2.246810    -0.996352
H       2.327275    -2.930125     0.547262
N       2.193790     1.105157     1.011606
C       3.358737     1.926372     1.322849
H       3.439276     2.749489     0.608522
H       3.290832     2.334624     2.336342
H       4.241373     1.295850     1.250899
C       1.216878    -1.734729     3.369880
C       2.029522    -0.566126     3.964135
C       2.115467    -2.972600     3.210366
H       2.352129    -0.818536     4.977682
H       2.920913    -0.376650     3.365633
H       1.427562     0.345484     4.013225
H       2.973816    -2.730742     2.581993
H       2.483984    -3.287337     4.190444
H       1.566301    -3.806863     2.767274
C       0.169695    -2.073939     4.362114
N      -0.641691    -2.336133     5.132700
C      -0.244326     0.680229    -4.054468
C       1.104472     0.136632    -3.680859
C      -0.550683     2.133357    -3.829869
H       1.402031     0.501650    -2.693066
H       1.107189    -0.955100    -3.668480
H       1.867209     0.470326    -4.398672
H      -1.623638     2.330474    -3.885164
H      -0.182778     2.454259    -2.850786
H      -0.053979     2.754586    -4.588447
C      -1.038258    -0.046096    -4.962779
N      -1.709420    -0.658294    -5.683034
59
     -1302.787760     -1302.363588   5.47   5.05
C       0.419430    -1.605882     0.923102
C      -0.372374    -0.924909    -0.018007
C      -1.421138    -1.572745    -0.682572
C      -1.724891    -2.887161    -0.339421
C      -0.978723    -3.539947     0.639837
C       0.089240    -2.923717     1.263798
C       1.581127    -0.896964     1.432642
C       2.021541     0.268040     0.612388
C       3.088046     1.096950     1.226842
C       3.791109     0.659045     2.296503
C       3.452270    -0.568804     2.935364
C       2.348713    -1.303436     2.508913
H      -2.539619    -3.409646    -0.823179
H      -1.234268    -4.562661     0.898083
H       0.681628    -3.471878     1.986528
H       2.515376    -0.212116    -0.306858
H       3.306150     2.042859     0.742890
H       4.605466     1.256438     2.694898
H       4.029996    -0.909700     3.787380
H       2.070713    -2.197430     3.058167
C      -0.113591     0.489707    -0.282495
N       0.974868     1.078265     0.012613
C      -1.988269     0.433294    -1.953039
O      -2.516347     0.960423    -2.908032
C      -1.267692     1.275843    -0.882866
C      -2.407006     1.475442     0.172993
H      -2.624503     0.493244     0.605122
H      -3.303900     1.771294    -0.381572
C      -0.780739     2.565173    -1.538483
H      -0.142171     2.320180    -2.389625
H      -1.624823     3.151236    -1.902563
H      -0.184423     3.146148    -0.837170
N      -2.113353    -0.920246    -1.711963
C      -2.875600    -1.718372    -2.664719
H      -2.264713    -2.548081    -3.029390
H      -3.789793    -2.110819    -2.208507
H      -3.143021    -1.072244    -3.496799
C      -2.263060     2.469058     1.360796
C      -2.384462     3.947050     0.942871
C      -1.002567     2.254503     2.214459
H      -1.497323     4.269476     0.399765
H      -3.260423     4.103092     0.307498
H      -2.488496     4.576731     1.830589
H      -1.068853     2.852988     3.127364
H      -0.890755     1.204813     2.499353
H      -0.112771     2.551062     1.659157
C      -3.433879     2.181390     2.223886
N      -4.343901     1.961949     2.890879
C       3.020144    -1.142392    -1.915267
C       3.154690    -2.499777    -1.289567
C       4.245918    -0.308016    -2.144564
H       2.181039    -2.954368    -1.099681
H       3.724914    -3.168553    -1.948887
H       3.701574    -2.432926    -0.342714
H       4.838247    -0.241496    -1.225954
H       4.884424    -0.765391    -2.912858
H       3.989539     0.700835    -2.472972
C       1.837562    -0.822726    -2.603221
N       0.842098    -0.540180    -3.127035
59
     -1302.783995     -1302.360474   7.84   7.00
C       0.244026    -1.977753    -1.341282
C      -0.519644    -0.793757    -1.353897
C      -1.174875    -0.381104    -2.522409
C      -0.955037    -1.084486    -3.703121
C      -0.138681    -2.212431    -3.700982
C       0.437828    -2.678074    -2.537465
C       0.774305    -2.423228    -0.065028
C       0.833719    -1.408826     1.021116
C       1.049970    -1.948756     2.387272
C       1.519723    -3.204506     2.565470
C       1.690334    -4.078129     1.451002
C       1.285859    -3.687070     0.177657
H      -1.416952    -0.773462    -4.629521
H       0.026101    -2.741894    -4.633798
H       1.059135    -3.564751    -2.560980
H       1.811891    -0.853524     0.806715
H       0.890214    -1.258859     3.208696
H       1.747288    -3.567194     3.563063
H       2.076514    -5.079426     1.607767
H       1.329674    -4.411817    -0.628379
C      -0.660185    -0.022304    -0.123261
N      -0.120402    -0.324681     0.988008
C      -2.383669     1.404248    -1.354619
O      -3.313938     2.186288    -1.323585
C      -1.404537     1.301289    -0.179714
C      -2.177494     1.534830     1.143681
H      -2.421225     0.549099     1.544795
H      -3.123159     2.016955     0.889915
C      -0.341612     2.375176    -0.537768
H      -0.816513     3.344954    -0.693969
H       0.407816     2.450031     0.250750
H       0.177655     2.092051    -1.456470
N      -2.087305     0.690138    -2.497047
C      -2.881514     0.964210    -3.690367
H      -2.233928     1.270617    -4.516523
H      -3.451793     0.079434    -3.988107
H      -3.568972     1.771730    -3.453750
C      -1.596575     2.379807     2.309285
C      -2.428677     2.041709     3.565498
C      -1.704395     3.896212     2.045801
H      -2.104508     2.644552     4.417517
H      -3.484639     2.250518     3.370478
H      -2.324301     0.986250     3.829099
H      -1.049798     4.222862     1.239029
H      -2.735446     4.144018     1.779288
H      -1.432025     4.454157     2.945758
C      -0.189045     2.094096     2.657458
N       0.896648     1.973904     3.015463
C       3.502772    -0.060603     0.106095
C       4.229048    -1.373896     0.083980
C       3.711800     0.885510     1.249507
H       3.884966    -2.010247    -0.733270
H       5.309182    -1.211674    -0.036448
H       4.081327    -1.908022     1.028558
H       3.623230     0.358062     2.203744
H       4.721666     1.316294     1.205602
H       2.987105     1.699935     1.246629
C       2.909984     0.406735    -1.078145
N       2.385474     0.771409    -2.046907
