59
     -1302.801173     -1302.374180   0.00   0.00
C       0.723168     2.153506    -0.470092
C       0.571806     1.193790     0.549572
C       0.014562     1.544934     1.783900
C      -0.394873     2.858741     1.993198
C      -0.241878     3.804802     0.985229
C       0.313172     3.470499    -0.234567
C       1.293804     1.704611    -1.728746
C       1.236150     0.224719    -1.973172
C       2.059784    -0.234722    -3.133503
C       2.558348     0.635279    -4.036604
C       2.399582     2.043818    -3.857552
C       1.800567     2.542971    -2.700282
H      -0.832680     3.159844     2.934424
H      -0.571693     4.822630     1.165928
H       0.403652     4.221098    -1.010699
H       0.186402    -0.007585    -2.250764
H       2.179048    -1.307360    -3.240334
H       3.102793     0.270352    -4.902093
H       2.795967     2.729932    -4.597647
H       1.777609     3.617239    -2.547020
C       1.074069    -0.162335     0.326419
N       1.463591    -0.610669    -0.797961
C       0.447318    -0.652988     2.770497
O       0.386210    -1.407006     3.724272
C       1.240612    -1.069155     1.529957
C       0.929302    -2.543199     1.189622
H       1.112222    -3.118976     2.100091
H       1.654133    -2.857299     0.435595
C       2.727065    -0.985902     1.956535
H       2.906958    -1.637196     2.814355
H       3.358209    -1.291433     1.119237
H       2.993488     0.039222     2.232698
N      -0.145532     0.586122     2.799846
C      -0.940196     0.929961     3.973944
H      -0.428503     1.673854     4.592596
H      -1.911113     1.319346     3.659978
H      -1.080395     0.024406     4.557967
C      -0.480100    -2.958187     0.693150
C      -1.635494    -2.459537     1.581104
C      -0.511274    -4.500461     0.637717
H      -1.730911    -1.372570     1.556736
H      -2.579415    -2.873963     1.216673
H      -1.476771    -2.784506     2.610941
H      -1.462316    -4.852131     0.230199
H       0.296585    -4.886796     0.010537
H      -0.394207    -4.902815     1.647578
C      -0.755221    -2.493023    -0.682697
N      -1.054847    -2.191574    -1.750740
C      -2.729589     0.808098    -2.173639
C      -2.073465     1.945968    -2.888509
C      -3.407807    -0.266371    -2.959246
H      -1.255181     1.581228    -3.522960
H      -2.793712     2.439240    -3.553282
H      -1.669737     2.683980    -2.195051
H      -2.683726    -0.769628    -3.609860
H      -3.855316    -1.020646    -2.311930
H      -4.185919     0.168041    -3.599255
C      -2.716483     0.754421    -0.780504
N      -2.712913     0.712298     0.381142
59
     -1302.796373     -1302.372959   3.01   0.77
C       1.005076     1.773258    -1.279920
C       0.782017     1.335782     0.036779
C       0.499861     2.244108     1.061818
C       0.465081     3.602324     0.767722
C       0.711453     4.037213    -0.533155
C       0.978322     3.145416    -1.553860
C       1.198653     0.743582    -2.289680
C       0.696168    -0.602802    -1.913282
C       0.991660    -1.686783    -2.873794
C       1.477873    -1.413325    -4.109022
C       1.813462    -0.081027    -4.479662
C       1.685215     0.962418    -3.564387
H       0.251419     4.331642     1.537242
H       0.680193     5.101372    -0.743847
H       1.133455     3.508553    -2.562950
H      -0.464909    -0.478910    -1.965898
H       0.753870    -2.693373    -2.547786
H       1.642275    -2.217475    -4.819497
H       2.205607     0.118324    -5.471013
H       1.999508     1.959679    -3.855284
C       0.902312    -0.085941     0.341711
N       0.919771    -1.005348    -0.536623
C       0.526321     0.508411     2.787440
O       0.355763     0.170353     3.943743
C       1.166978    -0.456984     1.783905
C       0.791715    -1.911072     2.125614
H       1.013840    -2.035009     3.187284
H       1.463226    -2.565470     1.564809
C       2.694362    -0.300902     2.006628
H       3.227104    -0.957901     1.314857
H       3.013661     0.728544     1.819173
H       2.952660    -0.567189     3.034386
N       0.222050     1.780050     2.360557
C      -0.391174     2.694813     3.316622
H      -1.256639     3.176911     2.856252
H      -0.710093     2.114671     4.178533
H       0.320409     3.457658     3.648091
C      -0.662863    -2.418318     1.912568
C      -1.752343    -1.359917     2.156337
C      -0.891605    -3.608822     2.868286
H      -1.636043    -0.487179     1.511020
H      -2.735836    -1.790424     1.948318
H      -1.725274    -1.036539     3.198098
H      -0.835960    -3.257173     3.901913
H      -1.875417    -4.054817     2.700658
H      -0.132920    -4.382176     2.718853
C      -0.852432    -2.959528     0.548309
N      -1.075062    -3.447276    -0.468621
C      -2.226649     0.066835    -2.302943
C      -1.925223     0.871958    -3.535861
C      -2.841218    -1.293414    -2.464277
H      -2.856206     1.103658    -4.071715
H      -1.428056     1.812808    -3.293375
H      -1.287298     0.302033    -4.219021
H      -2.251567    -1.895893    -3.161612
H      -2.900694    -1.831478    -1.518864
H      -3.853341    -1.201956    -2.882606
C      -2.403630     0.759026    -1.088263
N      -2.503713     1.329334    -0.083800
59
     -1302.797547     -1302.372001   2.28   1.37
C       0.074098     2.099748    -0.980107
C       0.335228     1.447404     0.238198
C       0.118763     2.094709     1.462521
C      -0.349537     3.405446     1.457011
C      -0.592528     4.053947     0.248157
C      -0.388001     3.421425    -0.962047
C       0.287679     1.335207    -2.198125
C       0.335894    -0.139612    -2.035498
C       0.792469    -0.887599    -3.228896
C       0.861942    -0.297381    -4.445371
C       0.605629     1.095532    -4.587941
C       0.351136     1.882509    -3.468598
H      -0.519931     3.935748     2.384039
H      -0.956173     5.076340     0.266200
H      -0.609745     3.940219    -1.886769
H      -0.795188    -0.447587    -1.936478
H       1.010530    -1.940215    -3.086825
H       1.141902    -0.878476    -5.318491
H       0.659323     1.555858    -5.568446
H       0.243595     2.954599    -3.596495
C       0.898992     0.100614     0.214794
N       0.934390    -0.645881    -0.815680
C       1.005678     0.223439     2.757484
O       1.180249    -0.336668     3.822817
C       1.604909    -0.360355     1.477054
C       1.684770    -1.891404     1.584377
H       2.329235    -2.124362     2.433204
H       2.175571    -2.242563     0.675938
C       3.048434     0.197843     1.405575
H       3.547024    -0.205790     0.520789
H       3.043939     1.289248     1.330407
H       3.607007    -0.089909     2.299544
N       0.348131     1.428312     2.676855
C      -0.174763     2.003248     3.910732
H      -0.062875     1.260585     4.696127
H       0.379144     2.904829     4.190379
H      -1.232255     2.249660     3.788257
C       0.347678    -2.684218     1.758949
C       0.310152    -3.404005     3.121295
C       0.178667    -3.713766     0.626456
H       1.127744    -4.129933     3.164326
H       0.425803    -2.692863     3.940188
H      -0.634277    -3.941983     3.241927
H      -0.772216    -4.242901     0.717138
H       0.203855    -3.225641    -0.348224
H       0.996369    -4.438658     0.684718
C      -0.802702    -1.763781     1.718379
N      -1.680438    -1.021705     1.699757
C      -2.619905    -0.722691    -2.091608
C      -3.114507     0.327970    -1.137844
C      -2.712678    -0.458268    -3.569318
H      -2.711634     1.306896    -1.413848
H      -4.210222     0.398525    -1.191079
H      -2.835594     0.103181    -0.108234
H      -2.201222    -1.227481    -4.150734
H      -3.765034    -0.433222    -3.885765
H      -2.272329     0.513602    -3.810863
C      -2.605015    -2.071194    -1.670390
N      -2.558703    -3.181964    -1.346126
59
     -1302.797547     -1302.371995   2.28   1.37
C      -0.012919     2.182519    -0.911076
C       0.185588     1.557185     0.332934
C      -0.197957     2.187146     1.524939
C      -0.770709     3.454185     1.462198
C      -0.951801     4.077215     0.229332
C      -0.582588     3.461059    -0.949878
C       0.376867     1.435524    -2.095884
C       0.531587    -0.029731    -1.914387
C       1.158875    -0.739850    -3.052107
C       1.293378    -0.148807    -4.262715
C       0.937004     1.217490    -4.442900
C       0.513968     1.983157    -3.360390
H      -1.070955     3.970645     2.363726
H      -1.399019     5.065721     0.202794
H      -0.758573     3.957296    -1.896560
H      -0.574385    -0.430730    -1.918568
H       1.449083    -1.770246    -2.879481
H       1.701479    -0.706586    -5.099807
H       1.044369     1.678339    -5.418741
H       0.330446     3.042216    -3.508758
C       0.858587     0.262019     0.376165
N       1.052455    -0.481413    -0.638785
C       0.715231     0.399595     2.916337
O       0.834748    -0.141304     3.999054
C       1.478333    -0.135470     1.703590
C       1.673979    -1.654297     1.833623
H       2.253101    -1.830734     2.741148
H       2.275101    -1.965631     0.978533
C       2.871113     0.540740     1.761630
H       3.482321     0.177778     0.931545
H       2.783548     1.627793     1.675110
H       3.365004     0.302722     2.706830
N      -0.029325     1.545222     2.762197
C      -0.711680     2.077608     3.935816
H      -0.612528     1.349061     4.736001
H      -0.263413     3.023208     4.256367
H      -1.769849     2.234139     3.712678
C       0.396530    -2.555241     1.890956
C       0.290851    -3.271956     3.251340
C       0.420377    -3.598380     0.758544
H       1.157993    -3.927142     3.378145
H       0.269888    -2.551451     4.069942
H      -0.613005    -3.886408     3.288904
H      -0.487604    -4.204929     0.765867
H       0.496167    -3.112543    -0.214654
H       1.286341    -4.252213     0.900347
C      -0.817116    -1.733957     1.733443
N      -1.747553    -1.067619     1.625150
C      -2.347479    -0.857085    -2.240767
C      -3.014602     0.151162    -1.348267
C      -2.322670    -0.605082    -3.723342
H      -4.102533     0.130164    -1.504373
H      -2.816078    -0.047054    -0.294835
H      -2.669833     1.159518    -1.595508
H      -1.696547    -1.330129    -4.246412
H      -3.339033    -0.669219    -4.136994
H      -1.944039     0.399690    -3.932743
C      -2.260723    -2.198583    -1.806055
N      -2.153302    -3.300776    -1.467336
59
     -1302.791812     -1302.367585   5.87   4.14
C       0.129102     1.936691    -1.322347
C       0.103828     1.498805     0.015976
C      -0.618342     2.211342     0.988514
C      -1.352024     3.328614     0.597443
C      -1.344706     3.739345    -0.732972
C      -0.607920     3.069012    -1.688735
C       0.948690     1.182404    -2.256756
C       1.284685    -0.207296    -1.863235
C       2.375805    -0.833321    -2.647914
C       2.785063    -0.304751    -3.825008
C       2.254029     0.934333    -4.282929
C       1.376936     1.661832    -3.484141
H      -1.919075     3.897769     1.320710
H      -1.924604     4.612514    -1.014504
H      -0.622196     3.406950    -2.717903
H       0.341412    -0.831320    -2.188881
H       2.777571    -1.762752    -2.260404
H       3.541083    -0.810522    -4.417484
H       2.583448     1.344009    -5.231607
H       1.071264     2.650721    -3.809690
C       0.861399     0.305772     0.386165
N       1.411110    -0.483652    -0.449907
C       0.340787     0.931905     2.831770
O       0.551600     0.838590     4.021918
C       1.077936     0.008218     1.862812
C       0.705267    -1.451059     2.228449
H       1.102323    -1.642838     3.228526
H       1.237319    -2.093684     1.522158
C       2.586037     0.189201     2.142384
H       3.152833    -0.517401     1.533576
H       2.906968     1.202321     1.880348
H       2.789259     0.023578     3.200747
N      -0.590820     1.821662     2.335048
C      -1.420673     2.527742     3.305859
H      -1.077548     3.557654     3.447744
H      -2.459212     2.528251     2.968463
H      -1.356583     1.992895     4.249335
C      -0.775616    -1.903888     2.210004
C      -0.806663    -3.421224     2.478282
C      -1.479200    -1.612334     0.876270
H      -0.291405    -3.666616     3.410890
H      -1.837241    -3.777809     2.548481
H      -0.315218    -3.944129     1.653380
H      -1.607160    -0.540066     0.714672
H      -0.888881    -2.030330     0.061093
H      -2.469589    -2.075290     0.867049
C      -1.565495    -1.250955     3.275637
N      -2.237126    -0.761174     4.069376
C      -1.085636    -1.652006    -3.079880
C      -2.179027    -0.706772    -2.666610
C      -0.539223    -1.542832    -4.475555
H      -1.893356     0.324531    -2.893204
H      -3.100912    -0.922432    -3.224740
H      -2.405027    -0.779960    -1.602710
H      -0.276672    -0.505732    -4.701497
H       0.346078    -2.165510    -4.612301
H      -1.297582    -1.860897    -5.204757
C      -0.976997    -2.900509    -2.428679
N      -0.849571    -3.913297    -1.880078
59
     -1302.790968     -1302.365752   6.40   5.29
C      -1.033572     2.203864    -0.315434
C      -0.687764     1.266145     0.674992
C      -1.521944     1.057556     1.781049
C      -2.707225     1.778321     1.880754
C      -3.044810     2.704493     0.897235
C      -2.223458     2.929150    -0.189173
C      -0.131462     2.335676    -1.447381
C       0.762404     1.172099    -1.673563
C       1.786281     1.359884    -2.726595
C       1.733114     2.408978    -3.581220
C       0.747180     3.423758    -3.423348
C      -0.144815     3.378988    -2.354133
H      -3.372736     1.637630     2.721125
H      -3.974450     3.256126     0.993437
H      -2.517275     3.640265    -0.951975
H       0.037746     0.370423    -2.110140
H       2.552285     0.595696    -2.802489
H       2.464486     2.499896    -4.378361
H       0.718457     4.258700    -4.114810
H      -0.844026     4.197753    -2.218574
C       0.582454     0.551193     0.566196
N       1.298272     0.528004    -0.488259
C       0.107103    -0.368356     2.916357
O       0.427018    -1.003671     3.901672
C       1.146728    -0.062234     1.833701
C       2.040254    -1.302041     1.605554
H       2.444003    -1.558775     2.586887
H       2.874589    -0.985969     0.975368
C       2.046841     1.036942     2.461109
H       2.486597     0.673472     3.391883
H       2.838151     1.297984     1.754942
H       1.464889     1.938690     2.675651
N      -1.168983     0.129165     2.774302
C      -2.145276    -0.215604     3.801351
H      -1.747685    -1.048050     4.375884
H      -2.323285     0.625824     4.478678
H      -3.085953    -0.509343     3.330368
C       1.458939    -2.610595     0.990574
C       1.289891    -2.551784    -0.537840
C       0.137190    -3.081227     1.624780
H       1.067357    -3.552706    -0.919718
H       0.464038    -1.890129    -0.789981
H       2.193987    -2.178841    -1.023933
H      -0.145041    -4.047609     1.197912
H       0.224814    -3.186735     2.706278
H      -0.664712    -2.374309     1.393030
C       2.480175    -3.648652     1.266327
N       3.273213    -4.455858     1.468942
C      -1.413500    -0.601816    -2.855781
C      -2.075358     0.563663    -3.533066
C      -0.601130    -1.549789    -3.691131
H      -2.573507     1.217377    -2.815508
H      -1.339918     1.149704    -4.093473
H      -2.826126     0.205294    -4.250827
H       0.137474    -0.995451    -4.278929
H      -0.082050    -2.292083    -3.083814
H      -1.248954    -2.082306    -4.401104
C      -1.929533    -1.035952    -1.619295
N      -2.321493    -1.356915    -0.576460
59
     -1302.790969     -1302.365735   6.40   5.30
C      -1.160165    -0.519707     1.954379
C      -1.177032    -0.834717     0.583119
C      -2.388678    -1.074672    -0.078021
C      -3.579152    -0.981540     0.635017
C      -3.556560    -0.668661     1.991730
C      -2.367927    -0.444984     2.656917
C       0.134945    -0.251788     2.557147
C       1.204550     0.126116     1.599524
C       2.558836     0.250710     2.185082
C       2.746883     0.272270     3.525964
C       1.653895     0.067570     4.414921
C       0.383104    -0.210699     3.916439
H      -4.530095    -1.158682     0.152060
H      -4.496577    -0.600229     2.529754
H      -2.376978    -0.183139     3.708218
H       0.913808     1.215127     1.302600
H       3.381963     0.364380     1.487911
H       3.742489     0.416097     3.934235
H       1.820657     0.085791     5.486339
H      -0.419204    -0.427266     4.614324
C       0.090409    -0.965339    -0.133092
N       1.212640    -0.575390     0.328809
C      -1.283311    -1.825194    -2.125197
O      -1.368998    -2.292882    -3.243564
C       0.079496    -1.753376    -1.429295
C       1.161813    -1.330889    -2.447950
H       1.089222    -2.046990    -3.268848
H       2.131378    -1.475171    -1.965996
C       0.385182    -3.221307    -1.024564
H       0.385159    -3.860619    -1.909502
H       1.362209    -3.262569    -0.538045
H      -0.366169    -3.593974    -0.321402
N      -2.402222    -1.400204    -1.444368
C      -3.677726    -1.443148    -2.150135
H      -4.287810    -2.288845    -1.816890
H      -4.222818    -0.511865    -1.981107
H      -3.470315    -1.558871    -3.210662
C       1.160424     0.093964    -3.078997
C       1.726281     1.181300    -2.148603
C      -0.208156     0.553038    -3.614692
H       2.678819     0.874311    -1.711352
H       1.875885     2.105391    -2.715054
H       1.022695     1.376047    -1.342105
H      -0.907882     0.697425    -2.786411
H      -0.094633     1.516694    -4.118914
H      -0.626020    -0.165662    -4.319889
C       2.083123     0.000481    -4.235033
N       2.805255    -0.063665    -5.127196
C       0.164238     2.953465     1.153607
C      -0.278627     3.077996     2.583085
C       1.416687     3.664529     0.726644
H      -0.530648     4.123256     2.809321
H      -1.156004     2.462889     2.788567
H       0.527601     2.781239     3.261544
H       1.277922     4.752515     0.792525
H       2.244398     3.402177     1.393327
H       1.699388     3.420495    -0.297962
C      -0.796272     2.600828     0.185766
N      -1.576174     2.257865    -0.600539
59
     -1302.790969     -1302.365731   6.40   5.30
C       0.824805     2.157312    -0.655498
C       0.658923     1.363934     0.494679
C       0.342935     1.951933     1.726416
C       0.178498     3.331227     1.795980
C       0.343076     4.111412     0.654359
C       0.669127     3.544657    -0.561303
C       1.118212     1.466946    -1.900382
C       0.743341     0.030663    -1.922606
C       1.176707    -0.714731    -3.126386
C       1.643992    -0.071415    -4.222550
C       1.833071     1.339566    -4.209767
C       1.589568     2.072402    -3.050245
H      -0.067914     3.813796     2.731570
H       0.209721     5.185799     0.729827
H       0.772077     4.170213    -1.439915
H      -0.418763     0.067251    -2.004803
H       1.062047    -1.792968    -3.098692
H       1.907906    -0.633581    -5.113011
H       2.209891     1.840289    -5.094843
H       1.803366     3.136319    -3.046510
C       0.876675    -0.078449     0.402214
N       0.967977    -0.715578    -0.698033
C       0.646805    -0.137010     2.959292
O       0.684135    -0.721981     4.023827
C       1.166536    -0.822757     1.691886
C       0.734815    -2.306392     1.689175
H       1.098206    -2.720604     2.631684
H       1.277709    -2.798199     0.878901
C       2.711843    -0.799808     1.845410
H       3.003671    -1.311851     2.764368
H       3.164626    -1.297030     0.984745
H       3.082334     0.229339     1.883343
N       0.189124     1.158993     2.875608
C      -0.337186     1.768015     4.091728
H      -1.270719     2.288848     3.867606
H      -0.523918     0.974407     4.810372
H       0.379334     2.473225     4.525016
C      -0.765284    -2.707662     1.558374
C      -1.300617    -2.632688     0.117568
C      -1.716317    -1.932945     2.489008
H      -1.399292    -1.591873    -0.183049
H      -0.629014    -3.133854    -0.582818
H      -2.285209    -3.107395     0.068337
H      -2.726052    -2.342420     2.396675
H      -1.403396    -2.000687     3.531090
H      -1.761065    -0.881337     2.191301
C      -0.815137    -4.134150     1.957347
N      -0.858235    -5.243275     2.256564
C      -2.242855     0.548047    -2.223665
C      -2.005852     1.749859    -3.092292
C      -2.698688    -0.727358    -2.873346
H      -1.303429     1.509093    -3.896660
H      -2.947418     2.066436    -3.561865
H      -1.610495     2.589976    -2.519349
H      -3.701830    -0.598373    -3.302743
H      -2.025782    -0.992619    -3.695068
H      -2.736517    -1.557895    -2.167604
C      -2.490647     0.754063    -0.852612
N      -2.640562     0.922216     0.284665
59
     -1302.789017     -1302.364798   7.63   5.89
C      -1.020420     2.123755    -0.324301
C      -0.771560     1.185217     0.696637
C      -1.683337     1.020237     1.750499
C      -2.856784     1.768810     1.754687
C      -3.104292     2.682520     0.732719
C      -2.202579     2.873857    -0.294196
C      -0.017851     2.254578    -1.367233
C       0.906927     1.105904    -1.519013
C       2.062693     1.343081    -2.413296
C       2.103119     2.414327    -3.240375
C       1.084099     3.406996    -3.189945
C       0.065680     3.321911    -2.246372
H      -3.578790     1.664801     2.552548
H      -4.025326     3.256161     0.754683
H      -2.423827     3.582385    -1.083193
H       0.270258     0.307215    -2.110038
H       2.840617     0.587965    -2.410973
H       2.932103     2.539019    -3.930060
H       1.128573     4.259254    -3.859117
H      -0.650289     4.134103    -2.173438
C       0.488549     0.444371     0.685036
N       1.290323     0.415545    -0.304250
C      -0.168212    -0.426079     3.017290
O       0.071665    -1.043827     4.035222
C       0.938198    -0.202823     1.983738
C       1.743495    -1.508089     1.793987
H       2.107674    -1.787100     2.785060
H       2.610041    -1.259529     1.177433
C       1.889430     0.826034     2.652478
H       2.250757     0.435806     3.605716
H       2.732759     1.017933     1.985760
H       1.370780     1.772832     2.833737
N      -1.416623     0.116603     2.793294
C      -2.445858    -0.131552     3.797078
H      -2.102208    -0.940910     4.435675
H      -2.618037     0.755762     4.414653
H      -3.379913    -0.419984     3.309175
C       1.078029    -2.770453     1.173089
C       0.810820    -2.647572    -0.335603
C      -0.210418    -3.224366     1.884252
H       0.013706    -1.925654    -0.513660
H       1.695407    -2.311669    -0.876970
H       0.499482    -3.611362    -0.745602
H      -1.012688    -2.500531     1.712408
H      -0.534793    -4.183625     1.471336
H      -0.062818    -3.331917     2.959426
C       2.076607    -3.850610     1.351103
N       2.849789    -4.690051     1.487934
C      -0.842277    -0.584789    -3.301431
C      -2.068147    -0.730774    -2.442598
C      -0.845143     0.469068    -4.373979
H      -2.351150     0.234544    -2.013084
H      -2.916410    -1.081461    -3.047236
H      -1.918613    -1.445233    -1.632089
H      -1.177432     1.427203    -3.966788
H       0.145689     0.599813    -4.812050
H      -1.540278     0.189529    -5.178012
C      -0.017164    -1.713567    -3.504817
N       0.686330    -2.619556    -3.665237
59
     -1302.789818     -1302.364490   7.12   6.08
C      -1.295622     1.935705     0.632615
C      -0.635330     0.773143     1.081017
C      -1.218208    -0.041896     2.065586
C      -2.511166     0.244839     2.499243
C      -3.182753     1.358678     2.004394
C      -2.584836     2.215328     1.101732
C      -0.577198     2.804412    -0.282310
C       0.586041     2.208448    -0.995258
C       1.511585     3.190771    -1.619127
C       1.116070     4.462448    -1.851485
C      -0.148009     4.924507    -1.378270
C      -0.943064     4.107058    -0.579890
H      -2.998968    -0.385089     3.229504
H      -4.188886     1.563238     2.356324
H      -3.124111     3.084243     0.744834
H       0.111829     1.694650    -1.899017
H       2.473470     2.811117    -1.945436
H       1.769355     5.151299    -2.377988
H      -0.458932     5.943501    -1.581389
H      -1.842161     4.525860    -0.140214
C       0.680454     0.439983     0.536551
N       1.279113     1.105880    -0.368195
C       0.797169    -1.401912     2.294834
O       1.483573    -2.134718     2.977854
C       1.309202    -0.885341     0.953107
C       0.827901    -1.859610    -0.174746
H       1.388121    -1.583942    -1.071960
H      -0.220514    -1.625473    -0.391595
C       2.834348    -0.746513     1.004917
H       3.111814     0.068008     1.679820
H       3.301092    -1.656523     1.371763
H       3.210085    -0.500907     0.011541
N      -0.498021    -1.090382     2.654979
C      -1.065137    -1.778495     3.811090
H      -0.325025    -2.488888     4.167420
H      -1.300173    -1.063952     4.605310
H      -1.962000    -2.328307     3.518155
C       0.904500    -3.400472    -0.033131
C       2.283422    -3.947969     0.368090
C       0.494937    -3.994902    -1.397579
H       2.282108    -5.038929     0.292009
H       3.042533    -3.556852    -0.314926
H       2.541003    -3.675577     1.391022
H       1.224123    -3.702805    -2.157379
H       0.454365    -5.085679    -1.342607
H      -0.486588    -3.627779    -1.708146
C      -0.102809    -3.860640     0.946833
N      -0.915119    -4.225618     1.673604
C      -0.912531     0.835593    -3.412348
C      -2.183813     0.571716    -2.661696
C      -0.799912     2.056635    -4.276238
H      -2.055308    -0.203693    -1.904036
H      -2.535121     1.484871    -2.172648
H      -2.974751     0.244568    -3.350936
H       0.222645     2.209002    -4.625766
H      -1.452184     1.965379    -5.156049
H      -1.118750     2.945535    -3.722315
C       0.013639    -0.208096    -3.575873
N       0.794392    -1.058608    -3.689709
59
     -1302.787859     -1302.363651   8.35   6.61
C      -0.307579     1.371642     1.855187
C       0.020687     0.148303     1.243509
C       0.051721    -1.038249     1.986106
C      -0.190596    -0.986937     3.355838
C      -0.468811     0.233290     3.967262
C      -0.538404     1.403471     3.236698
C      -0.436646     2.528699     0.986311
C      -0.585962     2.220212    -0.463226
C      -0.522453     3.396658    -1.364593
C      -0.619362     4.656774    -0.881876
C      -0.673439     4.894204     0.521885
C      -0.556234     3.836938     1.420073
H      -0.160262    -1.887374     3.954934
H      -0.650783     0.255195     5.036985
H      -0.795745     2.332514     3.730712
H      -1.667722     1.841426    -0.552278
H      -0.446521     3.191304    -2.426906
H      -0.629056     5.501935    -1.563158
H      -0.758118     5.909503     0.893305
H      -0.526344     4.054747     2.482762
C       0.397355     0.130938    -0.172801
N       0.175400     1.093938    -0.972197
C       0.678237    -2.351437     0.027816
O       0.669320    -3.410399    -0.562322
C       1.225572    -1.073551    -0.622904
C       1.189912    -1.200654    -2.162436
H       1.066020    -0.188480    -2.547650
H       0.280269    -1.745932    -2.426909
C       2.641473    -0.833682    -0.040819
H       3.060178     0.084909    -0.455277
H       2.594307    -0.730374     1.045949
H       3.316033    -1.658417    -0.274082
N       0.272552    -2.264355     1.345039
C      -0.155258    -3.489064     2.011045
H      -1.180029    -3.379174     2.375460
H      -0.116001    -4.292991     1.280934
H       0.505444    -3.731918     2.848747
C       2.351485    -1.836306    -2.976453
C       1.913158    -1.808953    -4.458664
C       2.744512    -3.279552    -2.615418
H       2.715951    -2.173633    -5.104876
H       1.040432    -2.454414    -4.590647
H       1.649101    -0.795907    -4.773342
H       3.537272    -3.615764    -3.290447
H       3.100260    -3.374544    -1.589866
H       1.878586    -3.932781    -2.722341
C       3.565311    -0.994084    -2.897158
N       4.520662    -0.354499    -2.884217
C      -3.360039     0.915951    -0.482684
C      -3.792974     1.466239     0.844922
C      -3.878006     1.538644    -1.745967
H      -3.603136     2.543958     0.893714
H      -4.872662     1.318626     0.984883
H      -3.271142     0.981359     1.671509
H      -3.376242     1.135565    -2.627511
H      -4.955791     1.353555    -1.852115
H      -3.734691     2.623884    -1.722044
C      -2.798858    -0.371096    -0.536503
N      -2.285922    -1.410827    -0.574398
59
     -1302.784854     -1302.363367  10.24   6.79
C       0.213902     2.381794     0.048004
C       0.030804     1.247417     0.858515
C      -0.349719     1.374123     2.199843
C      -0.480648     2.646009     2.749517
C      -0.247724     3.768775     1.956856
C       0.085033     3.653744     0.620949
C       0.482433     2.142699    -1.359678
C       0.125203     0.783658    -1.854072
C       0.570028     0.483161    -3.236654
C       1.008869     1.460683    -4.062040
C       1.164481     2.795093    -3.589218
C       0.920474     3.102925    -2.253594
H      -0.756673     2.776105     3.787369
H      -0.350070     4.753536     2.401548
H       0.218179     4.544798     0.019329
H      -1.021238     0.800790    -1.934356
H       0.448691    -0.539351    -3.575831
H       1.262763     1.229110    -5.091454
H       1.513251     3.568483    -4.264797
H       1.112845     4.112559    -1.904833
C       0.301371    -0.079947     0.302297
N       0.369024    -0.323956    -0.943130
C      -0.332198    -1.051526     2.532613
O      -0.705102    -2.020800     3.158890
C       0.608977    -1.175393     1.312916
C       0.452453    -2.596563     0.723207
H      -0.341528    -2.558588    -0.027038
H       0.091435    -3.231223     1.533068
C       2.012275    -0.887655     1.908385
H       2.045793     0.119890     2.329768
H       2.250218    -1.603598     2.696655
H       2.780550    -0.950963     1.137373
N      -0.647373     0.227636     2.952732
C      -1.373485     0.378217     4.209346
H      -2.252293     1.011269     4.062611
H      -1.687308    -0.610020     4.534830
H      -0.733968     0.821107     4.979316
C       1.637595    -3.358482     0.067818
C       2.313677    -2.669945    -1.130305
C       1.075508    -4.718289    -0.406689
H       3.114873    -3.309997    -1.511537
H       1.577423    -2.510443    -1.918767
H       2.735266    -1.698325    -0.875200
H       1.871221    -5.336639    -0.830199
H       0.615941    -5.264820     0.420715
H       0.318543    -4.550204    -1.177906
C       2.677524    -3.679297     1.069821
N       3.497023    -3.976152     1.819415
C      -2.920147     0.877699    -2.085142
C      -3.262273     0.065905    -0.869256
C      -3.002196     2.376379    -2.028968
H      -2.802897     0.502639     0.022902
H      -4.349528     0.054469    -0.707248
H      -2.926015    -0.968010    -0.969029
H      -4.049642     2.707717    -2.062899
H      -2.570012     2.747066    -1.094707
H      -2.476630     2.838762    -2.867636
C      -2.935453     0.248075    -3.345241
N      -2.907883    -0.271441    -4.381243
59
     -1302.785529     -1302.362625   9.82   7.25
C      -0.727528     1.322912     1.677859
C       0.159455     0.286880     1.328792
C       0.262380    -0.858850     2.132590
C      -0.617802    -1.018629     3.199074
C      -1.547243    -0.023955     3.490685
C      -1.592641     1.148202     2.764308
C      -0.665716     2.546364     0.899211
C      -0.029694     2.451076    -0.444821
C       0.355855     3.754856    -1.049017
C      -0.178737     4.911959    -0.598477
C      -1.018750     4.920545     0.554755
C      -1.210483     3.755996     1.294021
H      -0.585967    -1.906224     3.815967
H      -2.230175    -0.170739     4.321208
H      -2.315162     1.913591     3.019162
H      -0.884197     2.098372    -1.107898
H       1.018824     3.716257    -1.906485
H       0.050064     5.849928    -1.094989
H      -1.450143     5.853937     0.899573
H      -1.756231     3.816999     2.229753
C       0.988010     0.421061     0.129529
N       0.957638     1.415205    -0.664872
C       2.211622    -1.658363     0.895950
O       3.258680    -2.270729     0.908503
C       1.806068    -0.795913    -0.293692
C       0.777176    -1.587925    -1.167530
H       0.571886    -0.933732    -2.020098
H      -0.162470    -1.659157    -0.611191
C       3.049972    -0.375845    -1.075092
H       3.644575     0.323653    -0.482023
H       3.670864    -1.237297    -1.309266
H       2.752450     0.129672    -1.993957
N       1.283966    -1.799487     1.912812
C       1.546302    -2.807452     2.933300
H       2.447872    -3.342773     2.646552
H       1.701985    -2.340814     3.910398
H       0.711613    -3.511372     2.999647
C       1.038668    -3.013991    -1.712408
C      -0.122045    -3.327484    -2.682115
C       1.069794    -4.096902    -0.616391
H      -0.007988    -4.328579    -3.105354
H      -1.071628    -3.276574    -2.141898
H      -0.151963    -2.607694    -3.504096
H       1.971359    -4.041626    -0.008390
H       0.192504    -3.984393     0.027629
H       1.033080    -5.087267    -1.077613
C       2.286107    -3.100108    -2.497142
N       3.229182    -3.215825    -3.143475
C      -2.610171     1.425079    -1.972080
C      -3.458259     2.545463    -1.450259
C      -2.022688     1.509290    -3.349018
H      -4.399590     2.606716    -2.013692
H      -3.699227     2.408161    -0.394978
H      -2.942355     3.503972    -1.570261
H      -2.797019     1.343362    -4.110644
H      -1.603325     2.504977    -3.523407
H      -1.237107     0.765809    -3.496635
C      -2.602436     0.196672    -1.295457
N      -2.573088    -0.811272    -0.720629
59
     -1302.787329     -1302.362620   8.69   7.25
C      -0.114305     1.676789     1.629995
C       0.040201     0.301547     1.380558
C      -0.068834    -0.633063     2.416344
C      -0.265862    -0.178731     3.717908
C      -0.365711     1.187731     3.969594
C      -0.301895     2.114569     2.946992
C      -0.127355     2.555252     0.472765
C      -0.384970     1.879135    -0.829387
C      -0.222349     2.742255    -2.025071
C      -0.128879     4.087163    -1.915133
C      -0.074303     4.708700    -0.633983
C      -0.051655     3.935382     0.523591
H      -0.336355    -0.876764     4.541431
H      -0.514672     1.523174     4.990967
H      -0.425886     3.168446     3.164999
H      -1.506582     1.635606    -0.794735
H      -0.236916     2.245643    -2.989286
H      -0.067710     4.704116    -2.806382
H      -0.005535     5.788536    -0.562034
H       0.060680     4.431226     1.482461
C       0.366520    -0.149848     0.026904
N       0.212827     0.567642    -1.011759
C       0.380389    -2.511207     0.915883
O       0.337660    -3.701990     0.692872
C       1.017423    -1.519611    -0.084967
C       0.886920    -2.125694    -1.502776
H      -0.054587    -1.768862    -1.926765
H       0.781620    -3.202309    -1.367073
C       2.476874    -1.383851     0.422595
H       2.972464    -2.355585     0.435147
H       3.048338    -0.708127    -0.214652
H       2.486338    -0.973834     1.435863
N      -0.025421    -2.003886     2.134807
C      -0.526894    -2.942595     3.131949
H       0.169001    -3.034679     3.972003
H      -1.500268    -2.610099     3.500947
H      -0.632704    -3.911763     2.652321
C       1.972606    -1.929371    -2.596277
C       2.281060    -0.477079    -2.999445
C       1.474618    -2.685593    -3.849473
H       2.636783     0.124656    -2.163922
H       3.042197    -0.471875    -3.785437
H       1.372784    -0.007064    -3.378442
H       2.217319    -2.635772    -4.650125
H       1.279919    -3.736861    -3.622967
H       0.547595    -2.228002    -4.206010
C       3.242576    -2.582624    -2.210251
N       4.241657    -3.097969    -1.969508
C      -3.300030     0.999769    -0.460900
C      -3.586637     1.897389     0.707024
C      -3.802070     1.375227    -1.824034
H      -3.080169     1.556586     1.611479
H      -3.266837     2.922357     0.490233
H      -4.666541     1.928304     0.907158
H      -3.514886     2.404016    -2.065244
H      -3.409216     0.709271    -2.594394
H      -4.899150     1.325821    -1.856711
C      -2.903789    -0.326438    -0.219967
N      -2.526467    -1.405088    -0.021372
59
     -1302.785276     -1302.362099   9.98   7.58
C      -0.896819     1.838168     1.250496
C      -0.319714     0.555196     1.259677
C      -0.309163    -0.218748     2.427681
C      -0.837925     0.312632     3.599440
C      -1.380522     1.596724     3.593367
C      -1.423966     2.355689     2.440829
C      -0.934366     2.535754    -0.022569
C      -0.749609     1.678260    -1.225391
C      -0.577720     2.417394    -2.499705
C      -0.878701     3.732521    -2.591647
C      -1.256334     4.474025    -1.434985
C      -1.249709     3.873171    -0.181482
H      -0.832583    -0.257810     4.518650
H      -1.790265     1.996717     4.515414
H      -1.888985     3.333502     2.455207
H      -1.770292     1.158853    -1.340828
H      -0.260843     1.838591    -3.360582
H      -0.810516     4.240797    -3.548396
H      -1.512220     5.523389    -1.528097
H      -1.473774     4.479069     0.689855
C       0.342889     0.059435     0.049400
N       0.182830     0.569968    -1.103402
C       0.848385    -2.049245     1.298039
O       1.050193    -3.241101     1.189147
C       1.383574    -1.041225     0.272688
C       1.718729    -1.747844    -1.059034
H       1.581034    -1.001837    -1.842114
H       0.962878    -2.519896    -1.228284
C       2.594591    -0.323224     0.921358
H       3.394899    -1.023675     1.162982
H       2.987432     0.427626     0.233829
H       2.292711     0.179055     1.843125
N       0.177893    -1.535978     2.391264
C      -0.171918    -2.447256     3.475043
H       0.119830    -3.450160     3.174067
H       0.357993    -2.179329     4.394032
H      -1.249121    -2.421287     3.660439
C       3.098279    -2.412470    -1.326442
C       3.012852    -3.046914    -2.733432
C       3.548811    -3.497125    -0.332462
H       3.977927    -3.470039    -3.023974
H       2.270047    -3.849466    -2.725619
H       2.720237    -2.306740    -3.482776
H       2.808611    -4.296693    -0.301455
H       4.509213    -3.906863    -0.659019
H       3.664087    -3.117054     0.682415
C       4.161183    -1.386742    -1.407379
N       5.009741    -0.617353    -1.505832
C      -3.544148     0.464061    -1.422245
C      -3.480480     0.142945    -2.887769
C      -3.381512    -0.638214    -0.415812
H      -4.365744    -0.430331    -3.196362
H      -3.436190     1.049303    -3.494773
H      -2.600868    -0.471482    -3.104963
H      -2.482141    -1.224284    -0.631695
H      -3.311814    -0.247629     0.601071
H      -4.238199    -1.325252    -0.459175
C      -4.138821     1.673558    -1.017058
N      -4.595274     2.684494    -0.679885
59
     -1302.785476     -1302.361807   9.85   7.76
C       0.046564     2.241574    -1.026100
C       0.313915     1.462202     0.116811
C      -0.108452     1.892763     1.382942
C      -0.873323     3.049772     1.484503
C      -1.169966     3.792552     0.345035
C      -0.702070     3.416575    -0.896149
C       0.565674     1.772468    -2.297431
C       0.946479     0.337200    -2.361995
C       1.746763    -0.050849    -3.550097
C       1.807173     0.749818    -4.638585
C       1.208098     2.043381    -4.619326
C       0.635819     2.536338    -3.450706
H      -1.242262     3.390880     2.441305
H      -1.773709     4.688481     0.445428
H      -0.951491     4.008041    -1.768159
H      -0.060837    -0.192617    -2.528545
H       2.215782    -1.028350    -3.522983
H       2.337427     0.423597    -5.527945
H       1.255928     2.671791    -5.501826
H       0.278895     3.560706    -3.436554
C       1.042504     0.204922    -0.029487
N       1.395520    -0.300521    -1.144945
C       1.106266     0.099746     2.522210
O       1.637650    -0.308661     3.538036
C       1.264006    -0.658774     1.209662
C       0.108317    -1.709071     1.078975
H       0.382952    -2.305838     0.205127
H      -0.801322    -1.165895     0.802884
C       2.659941    -1.291471     1.155070
H       3.418250    -0.509708     1.053000
H       2.877050    -1.850063     2.061498
H       2.731077    -1.940995     0.282415
N       0.272200     1.196078     2.546371
C      -0.026669     1.787655     3.846445
H       0.400921     2.791588     3.923682
H      -1.108056     1.844388     3.997628
H       0.414280     1.154102     4.611315
C      -0.297620    -2.680195     2.223177
C      -1.128943    -1.996761     3.327341
C       0.862897    -3.475685     2.843638
H      -1.603154    -2.753629     3.958037
H      -0.487228    -1.383188     3.959566
H      -1.913342    -1.370203     2.894486
H       1.471372    -3.954235     2.072190
H       1.490319    -2.810964     3.438312
H       0.465580    -4.256150     3.498628
C      -1.189759    -3.655156     1.550716
N      -1.872773    -4.406488     1.011527
C      -1.914896    -0.862248    -2.622863
C      -2.122139    -0.196582    -3.952502
C      -1.610009    -2.330754    -2.566408
H      -1.322609    -0.472296    -4.647452
H      -3.073184    -0.519169    -4.398583
H      -2.142030     0.890805    -3.856822
H      -0.722773    -2.561999    -3.165257
H      -1.449978    -2.678700    -1.545349
H      -2.443493    -2.906222    -2.991486
C      -2.376145    -0.219116    -1.461751
N      -2.722603     0.314590    -0.491770
59
     -1302.785476     -1302.361804   9.85   7.77
C      -0.211109     2.047628    -1.421077
C       0.057098     1.581581    -0.118769
C      -0.569156     2.172265     0.988374
C      -1.525835     3.159528     0.778395
C      -1.816890     3.585574    -0.514616
C      -1.158071     3.061013    -1.606227
C       0.517008     1.437186    -2.517901
C       1.140764     0.117376    -2.238221
C       2.121326    -0.345005    -3.251796
C       2.164500     0.214655    -4.482420
C       1.356049     1.347784    -4.790636
C       0.583110     1.950189    -3.802781
H      -2.050484     3.611603     1.608041
H      -2.571319     4.352304    -0.656869
H      -1.406666     3.404938    -2.602400
H       0.262659    -0.616241    -2.355808
H       2.743624    -1.189729    -2.977188
H       2.837191    -0.178842    -5.238196
H       1.393451     1.781395    -5.783901
H       0.058079     2.869545    -4.039533
C       1.000216     0.482049     0.067120
N       1.554674    -0.163116    -0.881921
C       0.799391     0.911207     2.577452
O       1.277229     0.825809     3.693448
C       1.227294    -0.054105     1.478325
C       0.288290    -1.308554     1.499507
H       0.754789    -2.007227     0.799936
H      -0.664390    -1.015099     1.046736
C       2.707799    -0.408535     1.663811
H       2.983908    -1.196245     0.962566
H       3.328869     0.465410     1.446800
H       2.915446    -0.719939     2.683949
N      -0.206298     1.811275     2.300569
C      -0.742720     2.586901     3.414182
H      -0.502917     3.648029     3.299360
H      -1.828020     2.467298     3.471547
H      -0.287671     2.217015     4.329041
C      -0.070233    -2.086123     2.797169
C      -1.121923    -1.362909     3.662196
C       1.133100    -2.504567     3.658255
H      -0.667250    -0.523608     4.188334
H      -1.948870    -0.997379     3.047572
H      -1.527196    -2.051855     4.408260
H       1.569181    -1.626426     4.135591
H       0.804484    -3.196675     4.438639
H       1.895170    -3.005614     3.056106
C      -0.704324    -3.328247     2.293463
N      -1.186262    -4.288875     1.885221
C      -1.428917    -1.629990    -2.432826
C      -1.598293    -1.299790    -3.887569
C      -0.887197    -2.971497    -2.033397
H      -0.691891    -1.554364    -4.446004
H      -2.425706    -1.880409    -4.318622
H      -1.812922    -0.239508    -4.034869
H      -0.783808    -3.068015    -0.952086
H      -1.558918    -3.768548    -2.379882
H       0.086877    -3.147245    -2.501982
C      -2.117743    -0.863689    -1.477399
N      -2.654494    -0.219590    -0.675666
59
     -1302.785476     -1302.361803   9.85   7.77
C       0.107434     2.285900    -1.052037
C       0.342636     1.525754     0.110715
C      -0.077922     1.997204     1.362808
C      -0.810202     3.177510     1.431001
C      -1.075771     3.901998     0.272252
C      -0.608306     3.484404    -0.955719
C       0.623683     1.773083    -2.307553
C       0.963803     0.326482    -2.335958
C       1.762751    -0.111381    -3.507517
C       1.855313     0.661988    -4.613347
C       1.293352     1.972147    -4.629023
C       0.725484     2.507920    -3.477222
H      -1.177346     3.550890     2.376377
H      -1.654447     4.816803     0.346697
H      -0.833270     4.062497    -1.843212
H      -0.056826    -0.178208    -2.499720
H       2.203359    -1.100930    -3.453864
H       2.383572     0.300457    -5.490153
H       1.366663     2.578475    -5.525117
H       0.397914     3.542070    -3.489655
C       1.036058     0.245194    -0.000259
N       1.383934    -0.295621    -1.100647
C       1.075170     0.197018     2.553638
O       1.586025    -0.202876     3.583288
C       1.222096    -0.595729     1.260202
C       0.037773    -1.615266     1.142948
H       0.302428    -2.239530     0.285383
H      -0.853513    -1.052786     0.846402
C       2.599647    -1.269164     1.232756
H       3.380980    -0.511951     1.119850
H       2.792909    -1.812736     2.153597
H       2.659444    -1.940353     0.375786
N       0.272789     1.316977     2.545229
C      -0.019852     1.946687     3.828705
H       0.396532     1.318773     4.611776
H       0.435510     2.939639     3.886743
H      -1.100398     2.037476     3.968904
C      -0.405491    -2.547907     2.305179
C      -1.225966    -1.815877     3.386061
C       0.726425    -3.361824     2.953937
H      -1.726960    -2.544241     4.029485
H      -0.572151    -1.206538     4.009929
H      -1.988411    -1.177269     2.932110
H       1.327331    -3.875083     2.199046
H       1.367699    -2.701877     3.539071
H       0.301342    -4.115435     3.622798
C      -1.319670    -3.512140     1.647004
N      -2.019473    -4.255850     1.118891
C      -1.928004    -0.797225    -2.595722
C      -2.104927    -0.156927    -3.942097
C      -1.665650    -2.272091    -2.502924
H      -1.307779    -0.471261    -4.623250
H      -3.061012    -0.462639    -4.389286
H      -2.094530     0.932511    -3.871556
H      -0.779975    -2.542081    -3.087707
H      -1.524863    -2.600841    -1.472713
H      -2.511319    -2.833355    -2.922891
C      -2.380548    -0.114620    -1.453877
N      -2.719748     0.450912    -0.499491
59
     -1302.785114     -1302.361554  10.08   7.92
C      -0.475838     1.824159     1.531360
C      -0.212198     0.457119     1.326837
C      -0.430763    -0.476414     2.348680
C      -0.871253    -0.033529     3.591806
C      -1.095696     1.325955     3.801624
C      -0.912531     2.251039     2.792877
C      -0.303490     2.705824     0.390505
C      -0.254244     2.034826    -0.937938
C       0.133103     2.911272    -2.070082
C       0.147235     4.257506    -1.941509
C      -0.097250     4.868838    -0.678670
C      -0.292965     4.087926     0.456606
H      -1.037427    -0.731473     4.401494
H      -1.436359     1.656216     4.777765
H      -1.129484     3.296560     2.974946
H      -1.349664     1.767830    -1.163424
H       0.328933     2.422964    -3.017891
H       0.363991     4.883039    -2.801283
H      -0.088408     5.949943    -0.593132
H      -0.403444     4.580166     1.417409
C       0.382331     0.025129     0.057840
N       0.408399     0.742392    -0.990402
C       0.329132    -2.317688     0.935127
O       0.256530    -3.489436     0.628050
C       1.130343    -1.310232     0.100510
C       1.354222    -1.848671    -1.329791
H       1.428135    -0.973564    -1.975893
H       0.448837    -2.382982    -1.631756
C       2.442269    -1.013573     0.870509
H       3.029530    -0.274454     0.323140
H       2.221404    -0.611402     1.861868
H       3.047000    -1.912548     0.995902
N      -0.258914    -1.846437     2.093637
C      -0.860114    -2.814544     3.004237
H      -0.324722    -2.835462     3.958210
H      -1.908925    -2.564626     3.185500
H      -0.796552    -3.794299     2.537798
C       2.553621    -2.766702    -1.697208
C       2.389492    -3.124198    -3.192107
C       2.694711    -4.074608    -0.899057
H       3.242739    -3.710104    -3.543524
H       1.481408    -3.718668    -3.325982
H       2.311858    -2.223616    -3.806856
H       2.847246    -3.903705     0.166425
H       1.789385    -4.671581    -1.009541
H       3.548758    -4.639725    -1.283956
C       3.827575    -2.021633    -1.595209
N       4.835005    -1.469190    -1.555293
C      -3.178899     1.316938    -1.462500
C      -3.015494    -0.175507    -1.434612
C      -3.727925     2.028807    -0.259326
H      -2.588997    -0.493062    -0.478452
H      -3.990346    -0.672157    -1.541818
H      -2.368450    -0.524484    -2.241885
H      -3.271703     1.639993     0.655803
H      -3.548946     3.104966    -0.313073
H      -4.812745     1.870838    -0.179588
C      -3.221017     1.969336    -2.710401
N      -3.217897     2.516836    -3.732192
59
     -1302.786247     -1302.361541   9.37   7.93
C       0.304907     2.172778     0.941630
C       0.061480     0.826910     1.266278
C      -0.387757     0.459966     2.539986
C      -0.521819     1.444246     3.515265
C      -0.228322     2.771541     3.207949
C       0.170524     3.146865     1.939754
C       0.639357     2.464395    -0.441780
C       0.309870     1.392999    -1.424944
C       0.871180     1.595050    -2.783508
C       1.345288     2.800808    -3.170850
C       1.427012     3.879320    -2.243213
C       1.105836     3.682802    -0.902949
H      -0.849009     1.191460     4.514958
H      -0.335146     3.524335     3.982390
H       0.352226     4.191712     1.718793
H      -0.826357     1.492306    -1.561920
H       0.847984     0.740423    -3.449777
H       1.700860     2.946263    -4.185981
H       1.799707     4.843611    -2.570938
H       1.262796     4.497230    -0.203100
C       0.309327    -0.206367     0.263787
N       0.445531     0.021516    -0.977995
C      -0.448129    -1.916974     1.958328
O      -0.828537    -3.044576     2.195790
C       0.497968    -1.621846     0.778221
C       0.220331    -2.651824    -0.337101
H      -0.605404    -2.250756    -0.926845
H      -0.151428    -3.558083     0.143253
C       1.911432    -1.709613     1.407297
H       2.063205    -2.689776     1.864394
H       2.681835    -1.531564     0.655621
H       2.023784    -0.949969     2.185725
N      -0.741915    -0.870507     2.808720
C      -1.550649    -1.156205     3.988388
H      -0.960730    -1.052532     4.904593
H      -2.406026    -0.477223     4.028313
H      -1.904192    -2.180575     3.908704
C       1.331064    -3.123137    -1.315965
C       0.628887    -3.647396    -2.586366
C       2.177486    -4.266909    -0.717249
H       0.075945    -2.845244    -3.081300
H       1.356674    -4.056312    -3.292094
H      -0.075317    -4.438386    -2.311627
H       2.893935    -4.634268    -1.457065
H       2.736546    -3.947352     0.162229
H       1.519572    -5.091756    -0.430049
C       2.279340    -2.080691    -1.761062
N       3.094719    -1.376559    -2.161945
C      -2.758348     1.524774    -1.363076
C      -2.829429     2.893678    -0.752481
C      -3.019213     1.354009    -2.830694
H      -3.854579     3.284515    -0.811684
H      -2.526517     2.883527     0.295784
H      -2.183473     3.590314    -1.297841
H      -2.407448     2.053149    -3.410130
H      -2.801520     0.336913    -3.161438
H      -4.071150     1.570757    -3.062124
C      -2.816649     0.399486    -0.524047
N      -2.816289    -0.528957     0.171451
59
     -1302.786247     -1302.361531   9.37   7.94
C      -0.365463     1.525028     1.707196
C       0.037867     0.208679     1.423365
C       0.087058    -0.765120     2.427400
C      -0.199620    -0.394596     3.738306
C      -0.547103     0.923676     4.027639
C      -0.642964     1.878776     3.034228
C      -0.511585     2.425279     0.576299
C      -0.601643     1.772092    -0.760972
C      -0.505341     2.696470    -1.917613
C      -0.662891     4.030312    -1.760425
C      -0.807767     4.594572    -0.460042
C      -0.698296     3.792977     0.672894
H      -0.152723    -1.118750     4.540644
H      -0.763461     1.194554     5.056077
H      -0.955236     2.885867     3.282823
H      -1.678807     1.374363    -0.795325
H      -0.337637     2.243299    -2.887845
H      -0.645141     4.686896    -2.624520
H      -0.943700     5.664911    -0.350223
H      -0.723651     4.263559     1.650457
C       0.438732    -0.138363     0.062129
N       0.176270     0.566286    -0.961144
C       0.855642    -2.492286     0.872413
O       1.029400    -3.664398     0.610606
C       1.296960    -1.379912    -0.098526
C       1.205324    -1.926876    -1.538766
H       0.174928    -1.770430    -1.861723
H       1.354686    -3.006303    -1.486100
C       2.730092    -1.025688     0.372606
H       3.163556    -0.247150    -0.256862
H       2.705614    -0.648990     1.398828
H       3.366750    -1.912765     0.351194
N       0.373134    -2.099902     2.104401
C       0.049413    -3.140679     3.073564
H       0.744340    -3.121132     3.919070
H      -0.971561    -3.006065     3.439309
H       0.130757    -4.100241     2.570272
C       2.148404    -1.429041    -2.668713
C       1.441056    -1.709278    -4.011459
C       3.498892    -2.176869    -2.661558
H       2.084165    -1.439693    -4.853285
H       1.202048    -2.774727    -4.080347
H       0.512179    -1.138437    -4.085504
H       4.070897    -1.983380    -1.754079
H       3.317154    -3.252634    -2.735080
H       4.107044    -1.867223    -3.515871
C       2.462082     0.015049    -2.653587
N       2.805083     1.108732    -2.740485
C      -3.354302     0.429691    -0.524647
C      -3.825557     1.272982     0.623635
C      -3.860688     0.712901    -1.908293
H      -4.903735     1.132812     0.781995
H      -3.307258     1.018748     1.549619
H      -3.663210     2.335182     0.410685
H      -3.335700     0.117705    -2.657556
H      -4.932840     0.483817    -1.979859
H      -3.737467     1.773833    -2.149202
C      -2.755428    -0.812857    -0.258030
N      -2.217668    -1.816694    -0.037014
59
     -1302.786247     -1302.361527   9.37   7.94
C      -0.044113     2.096554     1.038229
C      -0.057307     0.704195     1.231008
C      -0.425953     0.147790     2.461173
C      -0.711313     0.998438     3.525561
C      -0.645508     2.379243     3.348523
C      -0.327865     2.934963     2.124370
C       0.222798     2.570404    -0.308973
C       0.065322     1.557981    -1.392159
C       0.571154     1.979246    -2.721926
C       0.834746     3.278380    -2.989189
C       0.746185     4.261919    -1.961967
C       0.476000     3.887733    -0.648546
H      -0.981474     0.600526     4.494591
H      -0.867689     3.026397     4.190958
H      -0.324501     4.011729     2.005587
H      -1.072970     1.479625    -1.525343
H       0.683017     1.200229    -3.467214
H       1.150693     3.577105    -3.983683
H       0.950420     5.301530    -2.193618
H       0.503076     4.646306     0.127054
C       0.348064    -0.173021     0.135449
N       0.431422     0.191797    -1.077998
C      -0.097058    -2.139574     1.653936
O      -0.282579    -3.332161     1.780017
C       0.774500    -1.579973     0.512845
C       0.660080    -2.530547    -0.697590
H      -0.227098    -2.218157    -1.250600
H       0.449304    -3.527706    -0.308364
C       2.189444    -1.491207     1.138445
H       2.182352    -0.801201     1.986662
H       2.506538    -2.471590     1.500385
H       2.911708    -1.116767     0.411559
N      -0.551448    -1.242542     2.599160
C      -1.289069    -1.769999     3.741523
H      -1.468298    -2.826585     3.562130
H      -0.715011    -1.657454     4.666711
H      -2.244913    -1.249766     3.841538
C       1.823226    -2.714676    -1.711125
C       1.204455    -3.224401    -3.029882
C       2.854125    -3.753703    -1.220429
H       0.520851    -2.481698    -3.448491
H       1.982531    -3.437236    -3.767605
H       0.644247    -4.144045    -2.836313
H       3.613944    -3.924102    -1.988034
H       3.361394    -3.431348    -0.311076
H       2.345448    -4.700204    -1.017716
C       2.580459    -1.491307    -2.048754
N       3.263255    -0.626266    -2.375626
C      -2.981746     1.171652    -1.334048
C      -3.272125     2.444852    -0.594871
C      -3.226358     1.101453    -2.812671
H      -2.755842     3.287940    -1.066723
H      -4.348345     2.664357    -0.622324
H      -2.961160     2.384467     0.449333
H      -4.302093     1.161540    -3.027825
H      -2.745331     1.944847    -3.318731
H      -2.846462     0.171160    -3.238697
C      -2.843346    -0.022822    -0.607644
N      -2.681371    -1.000624    -0.004819
59
     -1302.783301     -1302.360846  11.21   8.37
C       0.291420     2.136670     0.745319
C       0.065352     0.820113     1.184721
C      -0.312934     0.552057     2.505967
C      -0.401569     1.606421     3.409645
C      -0.130445     2.906343     2.984006
C       0.202689     3.183760     1.672616
C       0.573452     2.316522    -0.667974
C       0.205975     1.176993    -1.555935
C       0.731408     1.267076    -2.940239
C       1.208058     2.432471    -3.432131
C       1.332123     3.575892    -2.592289
C       1.043060     3.488947    -1.233669
H      -0.675009     1.432212     4.441622
H      -0.201168     3.716938     3.702268
H       0.369284     4.208683     1.363951
H      -0.930419     1.283935    -1.692309
H       0.661588     0.370755    -3.544930
H       1.524131     2.496904    -4.467955
H       1.706346     4.507129    -3.003542
H       1.230570     4.351832    -0.602803
C       0.275721    -0.287372     0.254215
N       0.344980    -0.158849    -1.007045
C      -0.386835    -1.864934     2.106341
O      -0.768183    -2.970018     2.434123
C       0.512765    -1.654447     0.873464
C       0.226984    -2.779243    -0.143035
H      -0.626220    -2.450588    -0.739366
H      -0.101959    -3.654625     0.419224
C       1.947040    -1.665560     1.461411
H       2.134327    -2.604305     1.987460
H       2.689449    -1.532216     0.673709
H       2.067596    -0.845740     2.174415
N      -0.649709    -0.758200     2.889489
C      -1.352400    -0.962936     4.151985
H      -2.212334    -0.291502     4.216998
H      -1.693186    -1.994480     4.181549
H      -0.687805    -0.782072     5.002518
C       1.318514    -3.295076    -1.122148
C       0.592785    -3.913028    -2.335720
C       2.200946    -4.381749    -0.471495
H       0.015808    -3.153389    -2.869003
H       1.309565    -4.357258    -3.031099
H      -0.091370    -4.694440    -1.991481
H       2.908409    -4.781780    -1.202839
H       2.772358    -3.995366     0.372589
H       1.566774    -5.199176    -0.117269
C       2.235543    -2.267994    -1.658418
N       3.029679    -1.577830    -2.121073
C      -2.837715     1.445610    -1.802585
C      -3.173870     0.091720    -1.247800
C      -2.957149     2.659302    -0.926388
H      -4.261044    -0.015157    -1.125263
H      -2.827625    -0.708242    -1.905225
H      -2.718059    -0.039537    -0.261686
H      -2.539917     2.457938     0.064691
H      -2.439709     3.518664    -1.358551
H      -4.012705     2.934009    -0.790149
C      -2.819594     1.620106    -3.199998
N      -2.766758     1.761026    -4.349440
59
     -1302.783301     -1302.360639  11.21   8.50
C       0.317004     2.141585     0.827441
C       0.026172     0.826088     1.229817
C      -0.419384     0.546807     2.527409
C      -0.511081     1.586413     3.447744
C      -0.176148     2.883584     3.060848
C       0.224045     3.173585     1.771004
C       0.665360     2.337141    -0.569018
C       0.290901     1.229315    -1.493535
C       0.868456     1.328118    -2.856170
C       1.409587     2.483129    -3.304051
C       1.548707     3.602716    -2.435037
C       1.203207     3.500433    -1.090575
H      -0.835724     1.402625     4.463108
H      -0.250250     3.682521     3.791706
H       0.439215     4.197561     1.490426
H      -0.835469     1.377862    -1.666255
H       0.782840     0.449416    -3.484184
H       1.765485     2.556236    -4.326307
H       1.976116     4.525813    -2.811308
H       1.399627     4.342219    -0.434373
C       0.238876    -0.270705     0.287123
N       0.364502    -0.121225    -0.967400
C      -0.555618    -1.858496     2.076510
O      -0.987269    -2.955925     2.365191
C       0.405327    -1.655556     0.889477
C       0.130788    -2.752112    -0.160217
H      -0.685895    -2.386882    -0.785702
H      -0.247590    -3.627523     0.369997
C       1.810452    -1.723918     1.540513
H       1.944075    -2.678056     2.055143
H       2.591658    -1.599876     0.789689
H       1.924462    -0.922102     2.274724
N      -0.818150    -0.757777     2.868383
C      -1.584265    -0.961565     4.093564
H      -2.421616    -0.260364     4.134381
H      -1.962789    -1.980278     4.085813
H      -0.953044    -0.822170     4.976726
C       1.248443    -3.281674    -1.101930
C       0.559048    -3.851420    -2.359449
C       2.067655    -4.408525    -0.437091
H       1.292222    -4.303722    -3.032175
H      -0.163420    -4.617731    -2.062821
H       0.030016    -3.063153    -2.900827
H       2.795193    -4.814817    -1.144909
H       2.611566    -4.057746     0.440084
H       1.393929    -5.213212    -0.129823
C       2.219150    -2.272864    -1.574613
N       3.053377    -1.597796    -1.986151
C      -2.731284     1.605873    -1.829360
C      -3.135686     0.285271    -1.240975
C      -2.823552     2.851496    -0.995730
H      -2.799603    -0.549169    -1.859584
H      -2.716322     0.171806    -0.236512
H      -4.229471     0.222826    -1.150434
H      -2.259039     3.674394    -1.439810
H      -3.869935     3.173680    -0.898269
H      -2.442110     2.665592     0.012654
C      -2.668015     1.733087    -3.230535
N      -2.576498     1.833693    -4.381791
59
     -1302.783065     -1302.360325  11.36   8.69
C      -1.483159     0.770182     1.786356
C      -0.555124    -0.226433     1.421466
C      -0.749464    -1.559479     1.819993
C      -1.937176    -1.910500     2.455124
C      -2.888886    -0.933315     2.738805
C      -2.665475     0.394837     2.439245
C      -1.127410     2.147897     1.509445
C      -0.040758     2.386313     0.521480
C       0.596476     3.727224     0.601277
C      -0.046258     4.755584     1.196519
C      -1.276837     4.537212     1.884495
C      -1.765120     3.249270     2.061542
H      -2.128492    -2.934128     2.746465
H      -3.810670    -1.226290     3.231200
H      -3.410977     1.137556     2.695214
H      -0.605356     2.450056    -0.473071
H       1.539911     3.852433     0.081597
H       0.377868     5.754144     1.171989
H      -1.798763     5.376354     2.330551
H      -2.635253     3.105762     2.692913
C       0.629652     0.143681     0.646802
N       0.904605     1.324214     0.261253
C       1.492082    -2.181735     1.083998
O       2.482921    -2.847874     1.291868
C       1.496387    -0.998139     0.114890
C       0.753684    -1.414247    -1.197943
H       0.552681    -0.484116    -1.736444
H      -0.221235    -1.830366    -0.920011
C       2.929677    -0.534632    -0.129116
H       2.942752     0.257628    -0.876687
H       3.355093    -0.139168     0.796087
H       3.556708    -1.360968    -0.461042
N       0.271959    -2.511871     1.651670
C       0.185103    -3.770357     2.384705
H       0.042403    -3.588764     3.454303
H      -0.644454    -4.375357     2.008881
H       1.118781    -4.307097     2.237167
C       1.374270    -2.400876    -2.219696
C       0.302922    -2.661195    -3.301076
C       1.822940    -3.743293    -1.621073
H       0.708624    -3.285410    -4.100810
H      -0.549618    -3.180968    -2.853989
H      -0.049832    -1.724268    -3.741054
H       2.669765    -3.633202    -0.945360
H       0.994435    -4.189549    -1.061767
H       2.102376    -4.429265    -2.425240
C       2.521243    -1.776432    -2.912348
N       3.388362    -1.307097    -3.502654
C      -1.739745     2.430573    -2.094993
C      -0.592052     2.378511    -3.060989
C      -2.481699     1.171892    -1.752068
H      -0.938329     2.049535    -4.050500
H      -0.117272     3.354642    -3.174063
H       0.163145     1.661429    -2.722843
H      -3.154678     1.318978    -0.905458
H      -3.080249     0.833503    -2.609297
H      -1.782936     0.367052    -1.504937
C      -2.332022     3.670641    -1.800424
N      -2.803715     4.695313    -1.531355
59
     -1302.783065     -1302.360319  11.36   8.70
C      -1.595352     0.589821     1.678054
C      -0.384384    -0.089977     1.435017
C      -0.103851    -1.299983     2.091362
C      -1.091826    -1.891676     2.873073
C      -2.319106    -1.254246     3.042140
C      -2.569712    -0.018815     2.481299
C      -1.738579     1.919841     1.119604
C      -0.810061     2.302151     0.021687
C      -0.672925     3.765452    -0.202869
C      -1.624807     4.617085     0.237114
C      -2.698237     4.143773     1.048934
C      -2.711308     2.831515     1.503212
H      -0.916056    -2.837931     3.366025
H      -3.078802    -1.732466     3.652172
H      -3.522920     0.466472     2.651059
H      -1.371586     1.968693    -0.919294
H       0.164644     4.091078    -0.809713
H      -1.570824     5.672763    -0.008314
H      -3.472967     4.831473     1.368929
H      -3.472687     2.536416     2.217056
C       0.592920     0.489844     0.513349
N       0.440723     1.589262    -0.107958
C       2.207684    -1.270595     1.310752
O       3.369283    -1.508581     1.561278
C       1.794746    -0.378125     0.138972
C       1.228230    -1.277597    -1.009197
H       0.714016    -0.599304    -1.695514
H       0.458990    -1.930600    -0.581735
C       2.978274     0.479125    -0.300441
H       3.848334    -0.138292    -0.519449
H       2.710489     1.059774    -1.182397
H       3.250317     1.174169     0.497229
N       1.181441    -1.867712     2.025047
C       1.540414    -2.904887     2.986339
H       0.966424    -3.816175     2.797865
H       2.600366    -3.115511     2.869085
H       1.354189    -2.567643     4.010530
C       2.140816    -2.185278    -1.872821
C       1.214345    -3.004515    -2.797719
C       3.030135    -3.147435    -1.069637
H       0.597343    -3.677333    -2.194809
H       0.556248    -2.350798    -3.376866
H       1.802516    -3.605649    -3.495217
H       2.411445    -3.721686    -0.372609
H       3.520999    -3.848627    -1.749865
H       3.793680    -2.624396    -0.495836
C       2.995816    -1.367526    -2.759106
N       3.642509    -0.765419    -3.493876
C      -2.445157     1.239664    -2.413863
C      -1.358929     1.379720    -3.440291
C      -2.704966    -0.096922    -1.782667
H      -0.399785     1.042515    -3.033835
H      -1.579996     0.759162    -4.319666
H      -1.250545     2.413677    -3.772285
H      -3.158465    -0.783667    -2.510905
H      -1.769465    -0.552469    -1.444400
H      -3.379376    -0.014703    -0.928445
C      -3.425428     2.241686    -2.312126
N      -4.218560     3.080833    -2.204331
59
     -1302.784789     -1302.359136  10.28   9.44
C      -0.343634     2.105841     1.055219
C      -0.158187     0.750802     1.399472
C      -0.723636     0.234838     2.575602
C      -1.536434     1.054957     3.353830
C      -1.751098     2.380212     2.983754
C      -1.154811     2.914874     1.860698
C       0.331832     2.598040    -0.132563
C       0.770550     1.565171    -1.102511
C       1.668137     2.042492    -2.181364
C       1.813668     3.365093    -2.428453
C       1.202167     4.333238    -1.580344
C       0.503684     3.936115    -0.443743
H      -1.995951     0.683367     4.258735
H      -2.389410     3.001289     3.603885
H      -1.335690     3.948824     1.593120
H      -0.202186     1.296190    -1.673787
H       2.128913     1.276078    -2.793941
H       2.421393     3.700285    -3.263211
H       1.326982     5.389496    -1.792597
H       0.123790     4.697772     0.229175
C       0.691982    -0.086451     0.553984
N       1.178312     0.288904    -0.560134
C       0.508228    -1.872976     2.388978
O       0.886767    -2.899574     2.918876
C       1.024785    -1.506855     0.989243
C       0.255520    -2.532861     0.087554
H      -0.773996    -2.173015     0.003763
H       0.219184    -3.467652     0.653851
C       2.550732    -1.678794     1.016988
H       2.817515    -2.710715     1.243750
H       2.974309    -1.369290     0.062524
H       2.980773    -1.038836     1.794102
N      -0.447330    -1.079185     2.988745
C      -1.044024    -1.570213     4.226955
H      -0.687905    -0.998550     5.089784
H      -2.133093    -1.499991     4.170510
H      -0.752815    -2.610075     4.347253
C       0.697083    -2.980305    -1.332114
C      -0.423034    -3.922292    -1.838670
C       2.029156    -3.755384    -1.355034
H      -0.190668    -4.282869    -2.843611
H      -0.503509    -4.783225    -1.168581
H      -1.381521    -3.400897    -1.866673
H       2.162328    -4.227618    -2.331962
H       2.889070    -3.112778    -1.174582
H       2.010025    -4.539411    -0.592565
C       0.785448    -1.906542    -2.342685
N       0.845634    -1.184046    -3.234305
C      -1.935733     1.196978    -2.521404
C      -2.522682     2.438094    -1.912438
C      -1.451334     1.237278    -3.940889
H      -2.690273     2.322948    -0.839702
H      -1.859647     3.292524    -2.077869
H      -3.486210     2.672345    -2.386361
H      -0.806283     2.108641    -4.090096
H      -0.892726     0.338116    -4.200164
H      -2.303443     1.337319    -4.627876
C      -2.253569    -0.042042    -1.934074
N      -2.492169    -1.050817    -1.415475
59
     -1302.780278     -1302.357349  13.11  10.56
C      -0.402891     2.450116    -0.455927
C      -0.547996     1.384810     0.453925
C      -1.407856     1.495947     1.554814
C      -2.094738     2.687571     1.764989
C      -1.925036     3.749531     0.878727
C      -1.099547     3.643725    -0.222761
C       0.452310     2.225151    -1.606802
C       0.761690     0.800709    -1.908993
C       1.804125     0.589709    -2.943229
C       2.211053     1.600611    -3.743809
C       1.734203     2.926997    -3.537798
C       0.890753     3.214957    -2.469352
H      -2.756041     2.803774     2.613016
H      -2.466442     4.673027     1.057690
H      -1.012651     4.474512    -0.912324
H      -0.195398     0.400864    -2.405024
H       2.161722    -0.425351    -3.073352
H       2.921209     1.409588    -4.541749
H       2.065244     3.725747    -4.192470
H       0.603923     4.246579    -2.293094
C       0.281565     0.187441     0.290553
N       0.928243    -0.084232    -0.769352
C      -0.819755    -0.736966     2.360081
O      -1.115489    -1.728483     2.994003
C       0.480072    -0.667926     1.546459
C       0.930488    -2.095233     1.149396
H       1.448040    -1.996836     0.195257
H       0.025380    -2.674254     0.947341
C       1.491361     0.129289     2.408159
H       1.672595    -0.357210     3.367228
H       2.433996     0.231735     1.867448
H       1.107128     1.133017     2.606915
N      -1.606448     0.396586     2.405347
C      -2.752960     0.400262     3.307868
H      -2.850302    -0.598038     3.726387
H      -2.606484     1.117381     4.121291
H      -3.663345     0.657318     2.760214
C       1.854707    -2.978599     2.044907
C       1.347016    -3.288625     3.464546
C       3.314178    -2.476529     2.102686
H       2.039962    -3.982369     3.950045
H       1.287579    -2.381219     4.066933
H       0.353358    -3.733828     3.441096
H       3.666094    -2.174247     1.112592
H       3.411397    -1.631000     2.783113
H       3.965868    -3.275236     2.467427
C       1.902231    -4.273977     1.323239
N       1.948884    -5.277513     0.764745
C      -1.829773    -0.239133    -3.158663
C      -2.174083    -1.230860    -2.085239
C      -2.525640     1.091470    -3.193705
H      -2.246427    -0.730700    -1.114747
H      -3.148923    -1.696218    -2.289323
H      -1.428303    -2.025294    -2.017372
H      -2.588283     1.516375    -2.187530
H      -2.006250     1.799199    -3.843649
H      -3.552747     0.979949    -3.568896
C      -1.196640    -0.701237    -4.329120
N      -0.640101    -1.068008    -5.277615
