59
     -1302.796373     -1302.373001   0.00   0.00
C      -1.922051    -0.209342    -1.124331
C      -1.452705    -0.015713     0.186038
C      -2.089708     0.873040     1.057656
C      -3.219456     1.553792     0.618678
C      -3.699186     1.342121    -0.672509
C      -3.068166     0.475518    -1.543816
C      -1.135429    -1.084137    -1.980647
C       0.267123    -1.294799    -1.538598
C       1.045129    -2.274364    -2.326049
C       0.574613    -2.758589    -3.501255
C      -0.727745    -2.414491    -3.960031
C      -1.559154    -1.603927    -3.188865
H      -3.736956     2.247084     1.267722
H      -4.582514     1.882345    -0.997608
H      -3.443158     0.354805    -2.553275
H       0.776883    -0.268608    -1.769465
H       2.020065    -2.539354    -1.931933
H       1.180727    -3.439056    -4.091213
H      -1.089305    -2.815132    -4.900806
H      -2.567185    -1.401572    -3.536507
C      -0.314513    -0.799051     0.654693
N       0.469664    -1.446094    -0.109162
C      -0.656687     0.257841     2.944230
O      -0.296832     0.430771     4.093580
C      -0.161366    -0.956719     2.151130
C       1.265799    -1.335915     2.588578
H       1.474180    -2.336511     2.202508
H       1.237580    -1.397304     3.678202
C      -1.105139    -2.113931     2.571873
H      -2.144713    -1.880628     2.323474
H      -0.819157    -3.022966     2.037196
H      -1.031223    -2.285613     3.648431
N      -1.568548     1.095535     2.345347
C      -2.034772     2.252450     3.101047
H      -1.979395     3.144533     2.472949
H      -3.063345     2.111333     3.447862
H      -1.386614     2.371769     3.965235
C       2.468869    -0.419999     2.224952
C       3.585678    -0.675936     3.259482
C       2.143488     1.083300     2.196253
H       3.242364    -0.356534     4.247033
H       3.842781    -1.738003     3.303330
H       4.487038    -0.113951     3.001374
H       1.839106     1.413381     3.190723
H       3.032161     1.645874     1.896859
H       1.351150     1.323751     1.484907
C       3.048828    -0.784378     0.913112
N       3.595713    -1.031649    -0.067390
C       1.250973     1.428340    -2.410626
C       0.427160     1.374729    -3.666665
C       2.732676     1.208623    -2.511991
H      -0.637873     1.489103    -3.457370
H       0.730867     2.178858    -4.351276
H       0.584024     0.424608    -4.187365
H       2.942538     0.278903    -3.049137
H       3.196815     2.028061    -3.078428
H       3.206356     1.147949    -1.532808
C       0.738739     2.150753    -1.314441
N       0.292471     2.708397    -0.401154
59
     -1302.796373     -1302.372680   0.00   0.20
C      -1.887117    -0.204439    -1.176212
C      -1.410747     0.017358     0.127137
C      -2.054564     0.910311     0.989405
C      -3.197743     1.566923     0.548425
C      -3.684004     1.327310    -0.735415
C      -3.046618     0.456278    -1.597622
C      -1.093924    -1.081075    -2.024553
C       0.315056    -1.263097    -1.590379
C       1.102066    -2.242970    -2.368396
C       0.629924    -2.753361    -3.531824
C      -0.681243    -2.437005    -3.985434
C      -1.519058    -1.626923    -3.220713
H      -3.720749     2.262722     1.190334
H      -4.577838     1.848926    -1.062191
H      -3.427409     0.313631    -2.602038
H       0.806996    -0.232882    -1.841329
H       2.084126    -2.486374    -1.978064
H       1.241955    -3.433760    -4.115720
H      -1.043918    -2.858415    -4.916658
H      -2.532796    -1.445724    -3.563399
C      -0.257253    -0.741126     0.599285
N       0.530770    -1.388504    -0.160334
C      -0.598901     0.346423     2.874636
O      -0.234060     0.542373     4.018707
C      -0.090402    -0.872559     2.096803
C       1.345802    -1.222382     2.529226
H       1.567188    -2.225440     2.157022
H       1.326493    -1.267313     3.619854
C      -1.012550    -2.037659     2.542983
H      -0.927980    -2.190967     3.621524
H      -2.057501    -1.824727     2.298862
H      -0.716143    -2.950465     2.020554
N      -1.527249     1.161088     2.269356
C      -2.005652     2.322447     3.010473
H      -1.353093     2.465179     3.867770
H      -1.968576     3.205300     2.368145
H      -3.029368     2.171139     3.367224
C       2.531640    -0.293560     2.142660
C       3.660683    -0.518062     3.171209
C       2.183093     1.204074     2.095816
H       3.320756    -0.189962     4.157081
H       3.934211    -1.575416     3.227722
H       4.551257     0.053726     2.897664
H       1.881366     1.543288     3.088019
H       3.060715     1.775830     1.781594
H       1.381752     1.422515     1.387451
C       3.106387    -0.667478     0.831218
N       3.649048    -0.920071    -0.150269
C       1.249476     1.460012    -2.514299
C       0.414695     1.374615    -3.761302
C       2.733283     1.260960    -2.626827
H      -0.649805     1.477859    -3.543708
H       0.700916     2.171461    -4.461778
H       0.579792     0.418329    -4.267999
H       3.217063     1.221798    -1.651504
H       2.951934     0.326650    -3.152390
H       3.179599     2.078771    -3.209711
C       0.736913     2.191750    -1.424466
N       0.290793     2.756704    -0.515617
59
     -1302.797547     -1302.372002  -0.74   0.63
C      -1.714737    -0.122896    -1.338814
C      -1.414254    -0.047567     0.033060
C      -2.239732     0.666003     0.912960
C      -3.375928     1.293330     0.410083
C      -3.678946     1.203798    -0.946785
C      -2.867760     0.508315    -1.821310
C      -0.778545    -0.848980    -2.181467
C       0.576509    -1.057097    -1.611919
C       1.435956    -1.997982    -2.365728
C       1.118221    -2.388843    -3.622418
C      -0.115517    -1.992782    -4.211703
C      -1.042643    -1.258965    -3.477550
H      -4.037638     1.845604     1.063360
H      -4.570324     1.699201    -1.318098
H      -3.112904     0.476504    -2.875977
H       1.107617    -0.018763    -1.766113
H       2.355394    -2.308211    -1.881863
H       1.791579    -3.032015    -4.180365
H      -0.356448    -2.307943    -5.221059
H      -2.008958    -1.043636    -3.921586
C      -0.259611    -0.778749     0.547246
N       0.660425    -1.272943    -0.180549
C      -0.941587     0.005516     2.873513
O      -0.676301     0.122816     4.054612
C      -0.252394    -1.073155     2.036331
C       1.160560    -1.337867     2.579920
H       1.574594    -2.154799     1.987756
H       1.053291    -1.682003     3.609567
C      -1.098823    -2.355096     2.237929
H      -2.118440    -2.214543     1.867170
H      -0.641917    -3.178918     1.683930
H      -1.143731    -2.612424     3.298942
N      -1.917733     0.767399     2.275802
C      -2.606029     1.758146     3.095003
H      -2.093294     1.811463     4.051650
H      -2.571210     2.734896     2.606381
H      -3.648963     1.472713     3.264353
C       2.183433    -0.154461     2.568381
C       3.440902    -0.535527     1.765489
C       2.585963     0.237178     4.003676
H       3.929294    -1.382438     2.257137
H       3.178775    -0.818247     0.745555
H       4.142460     0.299849     1.717012
H       3.288350     1.075206     3.987007
H       1.709876     0.514161     4.591415
H       3.078270    -0.615128     4.481683
C       1.581974     1.036428     1.942083
N       1.082630     1.955154     1.464544
C       1.820847     1.582065    -2.364427
C       0.733544     2.521495    -1.924615
C       1.905391     1.204733    -3.817912
H      -0.229926     2.198602    -2.329885
H       0.663912     2.579376    -0.838235
H       0.929374     3.531354    -2.312223
H       2.190406     2.078043    -4.421496
H       2.642309     0.418042    -3.989345
H       0.932675     0.857637    -4.178650
C       3.008559     1.511690    -1.602526
N       3.983877     1.414408    -0.985769
59
     -1302.797547     -1302.371998  -0.74   0.63
C      -1.707488    -0.005390    -1.408717
C      -1.448082     0.019295    -0.026650
C      -2.284165     0.723830     0.850524
C      -3.389704     1.393461     0.334046
C      -3.652408     1.354187    -1.033568
C      -2.830420     0.667823    -1.905203
C      -0.762240    -0.726238    -2.245738
C       0.569446    -0.984205    -1.642474
C       1.430371    -1.920730    -2.400020
C       1.143068    -2.263849    -3.677801
C      -0.062489    -1.820232    -4.291045
C      -0.995148    -1.088463    -3.561876
H      -4.058690     1.940245     0.984523
H      -4.520390     1.882031    -1.415458
H      -3.043377     0.675260    -2.967287
H       1.128395     0.045680    -1.746837
H       2.327074    -2.267806    -1.898826
H       1.818703    -2.904696    -4.235673
H      -0.279009    -2.097360    -5.316955
H      -1.942088    -0.836391    -4.027776
C      -0.326719    -0.754795     0.498280
N       0.604052    -1.247213    -0.216963
C      -1.062560    -0.028756     2.827013
O      -0.831243     0.044943     4.018728
C      -0.372352    -1.096352     1.976572
C       1.016658    -1.411522     2.553893
H       1.430231    -2.218963     1.948536
H       0.869631    -1.785311     3.568179
C      -1.253497    -2.363648     2.110781
H      -2.257643    -2.187342     1.713992
H      -0.798385    -3.180094     1.544524
H      -1.337197    -2.653317     3.161054
N      -2.002485     0.774257     2.225085
C      -2.693500     1.754319     3.054782
H      -2.620975     2.745181     2.599860
H      -3.747510     1.488546     3.182381
H      -2.210172     1.764592     4.028023
C       2.066016    -0.252911     2.611584
C       3.338665    -0.637908     1.834914
C       2.432902     0.083228     4.070312
H       3.101774    -0.881681     0.798888
H       4.060200     0.181712     1.834820
H       3.792271    -1.511406     2.313189
H       3.154244     0.904553     4.102042
H       1.545612     0.361962     4.640147
H       2.890850    -0.795244     4.534914
C       1.511329     0.971200     2.006525
N       1.047911     1.916195     1.544279
C       1.895848     1.647464    -2.270805
C       0.816903     2.597743    -1.833737
C       2.016863     1.314766    -3.732593
H       1.046803     3.614328    -2.183176
H      -0.140803     2.310051    -2.277382
H       0.715681     2.623430    -0.748608
H       2.740439     0.516462    -3.907145
H       1.048107     1.002830    -4.133827
H       2.340588     2.199776    -4.298433
C       3.057481     1.524836    -1.476031
N       4.010752     1.384937    -0.833532
59
     -1302.791504     -1302.366027   3.06   4.38
C      -1.588899    -0.517614    -1.530805
C      -1.290508     0.389093    -0.493870
C      -1.838375     1.676898    -0.495909
C      -2.666040     2.060529    -1.549937
C      -2.956190     1.162753    -2.572395
C      -2.435366    -0.116784    -2.570381
C      -0.976861    -1.834611    -1.466427
C       0.236465    -1.934379    -0.590268
C       0.693873    -3.335075    -0.334887
C       0.214653    -4.377405    -1.045657
C      -0.822844    -4.189405    -2.009030
C      -1.408416    -2.934320    -2.178490
H      -3.103346     3.048886    -1.577276
H      -3.605221     1.480000    -3.382270
H      -2.658559    -0.792991    -3.386912
H       1.069483    -1.451481    -1.145302
H       1.477471    -3.454305     0.405251
H       0.605439    -5.376365    -0.878360
H      -1.190343    -5.036169    -2.577908
H      -2.253148    -2.839551    -2.853272
C      -0.472139    -0.065097     0.634056
N       0.157959    -1.169073     0.650686
C      -0.965047     2.204576     1.727859
O      -0.855279     2.997240     2.643341
C      -0.447595     0.764981     1.905234
C       0.984560     0.984620     2.481968
H       0.831326     1.502466     3.430980
H       1.485974     1.699571     1.823372
C      -1.418348     0.112091     2.915741
H      -2.445660     0.165079     2.540238
H      -1.171231    -0.938384     3.061223
H      -1.374297     0.640473     3.870495
N      -1.565997     2.572688     0.546616
C      -1.947322     3.972081     0.391413
H      -1.566359     4.353159    -0.559015
H      -3.034515     4.094264     0.426922
H      -1.502998     4.530210     1.210648
C       2.009597    -0.143499     2.763663
C       1.467488    -1.349823     3.544246
C       3.149375     0.508411     3.582258
H       2.293129    -2.007680     3.830527
H       0.973432    -1.002181     4.456061
H       0.762101    -1.921109     2.943568
H       3.964455    -0.202379     3.739885
H       3.550094     1.383389     3.064136
H       2.765590     0.823444     4.556484
C       2.650974    -0.615493     1.518171
N       3.252528    -0.956276     0.599379
C       2.082586     0.718834    -2.601701
C       1.065986     0.464440    -3.669842
C       3.440493     0.093732    -2.659243
H       0.157465     1.047269    -3.513800
H       1.481980     0.708907    -4.654931
H       0.793620    -0.599173    -3.695899
H       3.648171    -0.470268    -1.743806
H       3.518512    -0.574694    -3.519592
H       4.218633     0.861329    -2.747523
C       1.767058     1.575926    -1.544176
N       1.489941     2.295178    -0.674631
59
     -1302.790969     -1302.365735   3.39   4.56
C      -1.896816     0.373169     1.323286
C      -1.025971     1.040754     0.442473
C      -1.525515     1.942425    -0.506322
C      -2.897560     2.158264    -0.578677
C      -3.754797     1.494235     0.294984
C      -3.272665     0.615112     1.243690
C      -1.302177    -0.571019     2.254596
C       0.039426    -1.073321     1.865068
C       0.716040    -1.913762     2.879151
C       0.048954    -2.391270     3.956540
C      -1.300317    -2.009157     4.201973
C      -1.937148    -1.095749     3.364736
H      -3.313308     2.846093    -1.301841
H      -4.822181     1.676163     0.221638
H      -3.961030     0.094956     1.899028
H      -0.201820    -1.806986     0.992086
H       1.756126    -2.158742     2.692831
H       0.550431    -3.047898     4.660787
H      -1.820695    -2.398470     5.070142
H      -2.943095    -0.770899     3.610060
C       0.414495     0.825969     0.566402
N       0.938035    -0.111174     1.253773
C       0.703113     2.707693    -1.157188
O       1.395120     3.464153    -1.809656
C       1.329159     1.877976    -0.031881
C       2.709569     1.349272    -0.481883
H       3.197754     0.931242     0.401336
H       3.276583     2.230261    -0.788966
C       1.584525     2.901779     1.107722
H       0.642813     3.338342     1.454762
H       2.057483     2.390498     1.949083
H       2.232757     3.704356     0.750650
N      -0.653165     2.616358    -1.376885
C      -1.210581     3.387400    -2.482163
H      -1.734644     4.277997    -2.120702
H      -0.388621     3.701029    -3.120245
H      -1.902565     2.764163    -3.052880
C       2.834986     0.299473    -1.626704
C       2.013218     0.628301    -2.886585
C       2.518603    -1.139307    -1.181805
H       0.943723     0.561852    -2.666852
H       2.242708     1.623252    -3.268486
H       2.233756    -0.107650    -3.664724
H       2.811889    -1.838610    -1.970569
H       3.049331    -1.397211    -0.262800
H       1.450241    -1.241403    -1.004076
C       4.266505     0.321543    -2.009847
N       5.377645     0.327476    -2.304598
C      -1.004879    -2.951104    -0.293438
C      -2.233984    -3.278525     0.504766
C       0.099189    -3.967599    -0.358981
H      -2.753137    -4.138971     0.060494
H      -1.963917    -3.552397     1.529673
H      -2.929870    -2.438819     0.536469
H       0.386413    -4.277027     0.651044
H      -0.242353    -4.866763    -0.890174
H       0.981052    -3.584557    -0.873657
C      -1.104134    -1.970378    -1.299393
N      -1.174377    -1.125061    -2.089744
59
     -1302.790969     -1302.365732   3.39   4.56
C      -1.913046     0.657981     0.997149
C      -0.660183     1.150865     0.588157
C      -0.555031     2.402006    -0.033421
C      -1.708564     3.146120    -0.256995
C      -2.945913     2.653057     0.149121
C      -3.059854     1.428510     0.775903
C      -1.940097    -0.662620     1.603537
C      -0.766096    -1.517100     1.294493
C      -0.711452    -2.801727     2.028831
C      -1.779441    -3.262153     2.722512
C      -2.954890    -2.469870     2.854364
C      -3.003215    -1.186153     2.315322
H      -1.659902     4.113875    -0.736580
H      -3.833965     3.249010    -0.035238
H      -4.035810     1.056965     1.064592
H      -0.952770    -1.822875     0.185325
H       0.209053    -3.369752     1.948054
H      -1.735366    -4.230624     3.211106
H      -3.801349    -2.851547     3.414637
H      -3.885652    -0.577828     2.485286
C       0.540372     0.366608     0.871063
N       0.523069    -0.851905     1.244878
C       1.888482     2.387370     0.037963
O       2.939598     2.964037    -0.160607
C       1.867885     1.100756     0.869154
C       3.086673     0.224873     0.501809
H       3.139399    -0.579062     1.239414
H       3.961222     0.862963     0.643045
C       2.078037     1.581084     2.331070
H       3.016696     2.132653     2.411855
H       1.258151     2.234041     2.646157
H       2.100566     0.712939     2.993492
N       0.698123     2.897007    -0.430459
C       0.756847     4.099811    -1.253060
H       0.107266     3.982040    -2.123208
H       0.450230     4.984423    -0.685692
H       1.785031     4.233247    -1.578889
C       3.214514    -0.425173    -0.908698
C       2.943353     0.535688    -2.080852
C       2.354614    -1.689032    -1.085781
H       3.569605     1.426230    -2.024418
H       3.145699     0.021494    -3.024473
H       1.890563     0.832469    -2.089006
H       2.484756    -2.379026    -0.249282
H       1.304235    -1.412299    -1.145193
H       2.637204    -2.196379    -2.013107
C       4.629353    -0.856147    -1.003691
N       5.723321    -1.201239    -1.079126
C      -1.652360    -2.154687    -1.548670
C      -3.100336    -2.186302    -1.151931
C      -0.947048    -3.458524    -1.791714
H      -3.242419    -2.818329    -0.269474
H      -3.480837    -1.187178    -0.934361
H      -3.703796    -2.614965    -1.963935
H      -1.079743    -4.124105    -0.932764
H      -1.376497    -3.966273    -2.666399
H       0.120238    -3.322048    -1.969385
C      -1.143830    -0.974193    -2.124386
N      -0.714278     0.015910    -2.547861
59
     -1302.790969     -1302.365730   3.39   4.56
C      -1.768737     0.420687     1.489741
C      -0.710991     1.087234     0.844169
C      -0.880986     2.389998     0.357665
C      -2.115838     3.012463     0.506010
C      -3.159362     2.347760     1.144994
C      -2.998916     1.069871     1.641587
C      -1.521138    -0.940542     1.934897
C      -0.392063    -1.625078     1.256290
C      -0.036517    -2.952050     1.808761
C      -0.846811    -3.589143     2.687011
C      -2.016741    -2.951437     3.188379
C      -2.316437    -1.641058     2.822441
H      -2.278473     4.016286     0.138847
H      -4.115221     2.850853     1.249947
H      -3.831609     0.565428     2.117019
H      -0.826293    -1.855942     0.199504
H       0.880647    -3.401448     1.443577
H      -0.592533    -4.583743     3.040162
H      -2.654783    -3.473843     3.892702
H      -3.177899    -1.154886     3.268713
C       0.587858     0.425456     0.737084
N       0.776463    -0.814041     0.967076
C       1.491274     2.650943    -0.171783
O       2.400709     3.359514    -0.556069
C       1.799221     1.305114     0.491993
C       2.958358     0.609492    -0.256391
H       3.269605    -0.242231     0.352579
H       3.778643     1.329926    -0.263610
C       2.330265     1.681592     1.902072
H       2.598898     0.769120     2.438929
H       3.204828     2.328712     1.811466
H       1.562088     2.207019     2.477987
N       0.179879     3.057675    -0.276231
C      -0.081565     4.324201    -0.950340
H      -0.312391     5.116694    -0.231221
H       0.813477     4.602096    -1.500618
H      -0.917760     4.206095    -1.643023
C       2.781107     0.099568    -1.718233
C       2.134684     1.118024    -2.675109
C       2.022390    -1.235526    -1.818165
H       1.092147     1.291168    -2.392891
H       2.671504     2.066850    -2.675517
H       2.135705     0.711836    -3.690377
H       2.104043    -1.626963    -2.836645
H       2.423220    -1.973942    -1.120426
H       0.970979    -1.077683    -1.587918
C       4.158103    -0.155991    -2.203098
N       5.223380    -0.365166    -2.581217
C      -1.910911    -2.119152    -1.336874
C      -3.201329    -2.350746    -0.604604
C      -1.175633    -3.307895    -1.887138
H      -3.056484    -3.067047     0.210446
H      -3.602718    -1.424042    -0.191716
H      -3.950176    -2.776114    -1.286921
H      -1.024613    -4.054224    -1.100635
H      -1.765726    -3.786363    -2.680969
H      -0.205560    -3.034851    -2.303904
C      -1.674551    -0.843682    -1.885453
N      -1.458201     0.221410    -2.289087
59
     -1302.789818     -1302.364551   4.11   5.30
C      -2.088664    -0.657012    -0.532959
C      -1.303595     0.043998     0.405572
C      -1.740221     1.275886     0.920586
C      -2.895251     1.853916     0.397305
C      -3.631488     1.185199    -0.575982
C      -3.258188    -0.065645    -1.025668
C      -1.646338    -1.984959    -0.918873
C      -0.222676    -2.321387    -0.642297
C       0.102812    -3.771102    -0.696440
C      -0.721098    -4.642100    -1.321065
C      -1.985317    -4.209973    -1.821340
C      -2.433152    -2.914299    -1.579501
H      -3.236031     2.817509     0.748583
H      -4.528027     1.653822    -0.969192
H      -3.858227    -0.571142    -1.772419
H       0.333217    -1.899614    -1.547206
H       1.061215    -4.068490    -0.285505
H      -0.438424    -5.685179    -1.423954
H      -2.632236    -4.915764    -2.330878
H      -3.444425    -2.650940    -1.871153
C      -0.044237    -0.539548     0.866250
N       0.440940    -1.638566     0.445361
C       0.057911     1.352617     2.571308
O       0.472167     1.759710     3.637769
C       0.835538     0.299745     1.786468
C       1.785315     1.028664     0.776721
H       1.180792     1.341220    -0.082284
H       2.469384     0.264211     0.399177
C       1.591923    -0.610787     2.759519
H       2.244888    -1.278929     2.197805
H       2.168718    -0.031051     3.474897
H       0.883691    -1.226741     3.320712
N      -1.069375     1.892199     1.986191
C      -1.670411     3.061213     2.621702
H      -2.681708     2.831129     2.969471
H      -1.046985     3.332971     3.468390
H      -1.691585     3.899547     1.922267
C       2.637019     2.260086     1.174630
C       3.546359     2.581958    -0.030485
C       3.502684     2.072463     2.430647
H       2.957837     2.726608    -0.940065
H       4.121793     3.491966     0.157185
H       4.236691     1.751814    -0.199690
H       2.892962     1.996345     3.330305
H       4.107677     1.167921     2.323312
H       4.177389     2.925783     2.542907
C       1.756981     3.433270     1.364173
N       1.080902     4.357104     1.467606
C       1.129953    -1.082219    -3.213055
C       0.119989     0.011713    -3.393661
C       0.992853    -2.356062    -3.993008
H       0.198232     0.770395    -2.612549
H       0.262111     0.507992    -4.363800
H      -0.893757    -0.398932    -3.383224
H      -0.026736    -2.745908    -3.909001
H       1.189814    -2.176007    -5.059141
H       1.690222    -3.118995    -3.642843
C       2.356387    -0.784393    -2.595710
N       3.359110    -0.550123    -2.061330
59
     -1302.785290     -1302.363455   6.95   5.99
C      -1.834040    -0.299418    -1.388758
C      -1.300600     0.367390    -0.270852
C      -1.961871     1.467132     0.291737
C      -3.182681     1.870188    -0.239345
C      -3.723256     1.186437    -1.327252
C      -3.064826     0.121273    -1.908860
C      -1.041639    -1.377526    -1.953439
C       0.396072    -1.383736    -1.565649
C       1.146624    -2.597923    -1.969403
C       0.639544    -3.466593    -2.873078
C      -0.684297    -3.303469    -3.374579
C      -1.500537    -2.288781    -2.887579
H      -3.720952     2.708544     0.182366
H      -4.676018     1.513965    -1.730981
H      -3.487280    -0.364400    -2.779638
H       0.851053    -0.545558    -2.207608
H       2.140362    -2.718451    -1.551582
H       1.231474    -4.313813    -3.205179
H      -1.070841    -3.999467    -4.110486
H      -2.526492    -2.230527    -3.235016
C      -0.078435    -0.147721     0.354393
N       0.708847    -0.972765    -0.206559
C      -0.235293     1.731082     1.999083
O       0.399642     2.462425     2.730595
C       0.130850     0.252245     1.817447
C       1.593287    -0.001015     2.244331
H       2.186322     0.866006     1.939720
H       1.943586    -0.842395     1.645961
C      -0.905765    -0.580774     2.613879
H      -0.698786    -1.644412     2.484925
H      -0.874635    -0.348833     3.679110
H      -1.916740    -0.380884     2.251917
N      -1.362620     2.183325     1.341317
C      -1.845567     3.525729     1.644746
H      -1.905901     4.123200     0.731076
H      -2.832799     3.486337     2.114815
H      -1.140710     3.985686     2.332606
C       1.990638    -0.314566     3.714094
C       1.580844     0.718946     4.777761
C       3.530613    -0.447181     3.732168
H       0.500686     0.845475     4.848336
H       1.955413     0.397298     5.754045
H       2.009651     1.690037     4.530227
H       3.879573    -0.744641     4.724416
H       3.870878    -1.192326     3.008306
H       3.981297     0.516813     3.480151
C       1.464472    -1.635265     4.123170
N       1.097328    -2.668548     4.468472
C       1.475238     0.854175    -3.348622
C       2.873805     0.315178    -3.440241
C       1.187738     2.012230    -2.437519
H       2.902965    -0.633827    -3.979323
H       3.527421     1.025002    -3.966132
H       3.290962     0.166592    -2.439223
H       0.117249     2.213986    -2.368044
H       1.576347     1.814780    -1.433197
H       1.682383     2.921269    -2.807638
C       0.564570     0.555438    -4.379233
N      -0.198683     0.284352    -5.208652
59
     -1302.785450     -1302.362048   6.85   6.87
C      -1.918296     0.413872    -1.341296
C      -1.428608     0.406884    -0.020661
C      -1.708385     1.474351     0.844568
C      -2.388481     2.583500     0.353775
C      -2.827418     2.604193    -0.967301
C      -2.622598     1.529635    -1.805952
C      -1.656249    -0.753478    -2.161909
C      -0.557913    -1.646007    -1.708482
C      -0.513981    -2.976614    -2.364146
C      -1.178510    -3.201872    -3.520555
C      -2.040540    -2.205378    -4.065022
C      -2.286634    -1.028814    -3.364344
H      -2.588784     3.437657     0.985001
H      -3.348737     3.482585    -1.333116
H      -2.970294     1.571990    -2.830506
H       0.385115    -1.118774    -2.107144
H       0.127833    -3.723072    -1.909098
H      -1.081434    -4.155782    -4.029658
H      -2.559132    -2.394156    -4.998535
H      -3.026216    -0.335994    -3.751386
C      -0.627198    -0.723842     0.439299
N      -0.265360    -1.701047    -0.294381
C      -0.737295     0.315446     2.768738
O      -0.682436     0.173596     3.976247
C      -0.027002    -0.663859     1.841490
C       1.419574    -0.137927     1.546397
H       1.333725     0.677599     0.820089
H       1.905932    -0.963235     1.019517
C      -0.040592    -2.061304     2.471927
H       0.577322    -2.734793     1.877800
H       0.308714    -2.035286     3.500517
H      -1.060150    -2.457370     2.473983
N      -1.353701     1.411460     2.206704
C      -1.859434     2.439675     3.110306
H      -1.572505     2.165706     4.122034
H      -1.428396     3.412935     2.859649
H      -2.949790     2.503589     3.051778
C       2.384290     0.367585     2.655901
C       2.568873    -0.592598     3.842697
C       2.033912     1.781473     3.161366
H       2.802214    -1.603977     3.500668
H       3.393245    -0.245693     4.471999
H       1.659884    -0.615401     4.444765
H       2.870944     2.189326     3.734455
H       1.829245     2.455693     2.325359
H       1.162408     1.745273     3.814979
C       3.690929     0.467786     1.962521
N       4.697090     0.533397     1.410224
C       1.810791     0.079377    -2.750300
C       1.442998    -0.189892    -4.181000
C       2.991346    -0.621404    -2.143943
H       0.464276     0.225948    -4.428100
H       2.185830     0.255043    -4.857602
H       1.424590    -1.266955    -4.375315
H       2.859880    -1.707784    -2.192561
H       3.902488    -0.383087    -2.708924
H       3.154820    -0.330414    -1.105904
C       1.305225     1.231544    -2.125118
N       0.861672     2.159940    -1.589208
59
     -1302.787082     -1302.361871   5.83   6.98
C      -1.927014    -0.012102     1.322074
C      -0.931270     0.684645     0.616560
C      -1.119685     2.017763     0.237099
C      -2.286994     2.671028     0.618210
C      -3.250247     1.993596     1.362197
C      -3.089101     0.665716     1.709193
C      -1.699490    -1.431572     1.540766
C      -0.677525    -2.040372     0.639155
C      -0.345053    -3.455555     0.935421
C      -1.094750    -4.191164     1.788196
C      -2.174226    -3.599934     2.506512
C      -2.439642    -2.236902     2.383792
H      -2.456022     3.703310     0.341890
H      -4.153274     2.519910     1.654629
H      -3.873300     0.149764     2.250163
H      -1.193168    -2.032859    -0.375360
H       0.504127    -3.877302     0.408240
H      -0.860011    -5.238167     1.953799
H      -2.767319    -4.205983     3.182352
H      -3.230251    -1.799955     2.985639
C       0.344421     0.021978     0.328407
N       0.511139    -1.237374     0.377047
C       1.067697     2.103018    -0.832435
O       1.780851     2.534885    -1.714072
C       1.526144     0.962501     0.089614
C       2.702710     0.191068    -0.545451
H       2.516111     0.126446    -1.620738
H       2.643075    -0.827206    -0.159768
C       1.856944     1.575095     1.473039
H       0.982791     2.081517     1.887733
H       2.155835     0.784757     2.163993
H       2.668853     2.300457     1.406862
N      -0.167741     2.657917    -0.570431
C      -0.592428     3.801078    -1.371620
H      -0.752986     4.680617    -0.741545
H       0.196386     4.014548    -2.087962
H      -1.512951     3.558638    -1.908294
C       4.181538     0.637879    -0.373761
C       4.527985     2.072178    -0.809936
C       5.036460    -0.344462    -1.206386
H       4.274949     2.206996    -1.861402
H       3.983602     2.827194    -0.242972
H       5.599953     2.241164    -0.670763
H       4.793505    -0.228422    -2.266214
H       6.101497    -0.139652    -1.069706
H       4.843205    -1.380188    -0.914913
C       4.614559     0.463673     1.030083
N       4.996390     0.315256     2.104319
C      -2.081483    -2.019913    -2.123204
C      -3.441455    -2.298667    -1.555390
C      -1.253828    -3.141804    -2.675139
H      -4.124369    -2.642768    -2.344177
H      -3.385398    -3.094047    -0.804166
H      -3.873133    -1.409230    -1.093125
H      -1.640899    -3.463050    -3.651910
H      -0.211966    -2.842040    -2.805460
H      -1.293063    -4.007189    -2.006434
C      -1.719790    -0.695162    -2.420701
N      -1.404566     0.400912    -2.634063
59
     -1302.785393     -1302.361858   6.89   6.99
C      -1.673652     0.641015    -1.519947
C      -1.325839     0.686018    -0.154607
C      -1.579870     1.840574     0.604658
C      -2.058065     2.981032    -0.036540
C      -2.332206     2.950016    -1.401209
C      -2.171028     1.794707    -2.138889
C      -1.518720    -0.626723    -2.209726
C      -0.622103    -1.627514    -1.571818
C      -0.764969    -3.015596    -2.082229
C      -1.364236    -3.258103    -3.269808
C      -1.990789    -2.200302    -3.993000
C      -2.086915    -0.927912    -3.437187
H      -2.237360     3.893218     0.515430
H      -2.702672     3.849480    -1.882525
H      -2.408701     1.792589    -3.195669
H       0.422725    -1.323456    -1.942297
H      -0.298216    -3.798502    -1.494935
H      -1.396555    -4.266532    -3.670500
H      -2.457441    -2.405391    -4.950261
H      -2.668828    -0.175186    -3.958752
C      -0.731946    -0.495080     0.474747
N      -0.450696    -1.574036    -0.137787
C      -1.078922     0.672414     2.687182
O      -1.348175     0.540890     3.861427
C      -0.262088    -0.366665     1.922902
C       1.206321     0.146419     1.749442
H       1.170656     1.087478     1.187602
H       1.694667    -0.582453     1.098101
C      -0.338604    -1.711624     2.642923
H       0.334072    -2.423915     2.165974
H      -0.075709    -1.604468     3.693505
H      -1.354986    -2.109066     2.585045
N      -1.424568     1.827840     2.000747
C      -1.975496     2.931794     2.779050
H      -1.846059     2.694699     3.831890
H      -1.446862     3.860413     2.548100
H      -3.042335     3.063529     2.573044
C       2.160618     0.405923     2.942376
C       1.661842     1.471100     3.934847
C       3.504156     0.867508     2.334821
H       0.819042     1.119414     4.528267
H       2.472431     1.748735     4.613945
H       1.355411     2.367342     3.385244
H       4.251782     1.001341     3.120488
H       3.878815     0.142543     1.608791
H       3.361368     1.826395     1.827067
C       2.445876    -0.836114     3.691162
N       2.724931    -1.776583     4.289865
C       2.071284    -0.608163    -2.793376
C       1.602613     0.807228    -2.960992
C       2.012116    -1.553270    -3.957179
H       0.670931     0.835078    -3.532259
H       1.437979     1.296121    -1.998405
H       2.347835     1.394633    -3.515481
H       2.217835    -2.580491    -3.651101
H       1.024333    -1.516448    -4.427069
H       2.751769    -1.269869    -4.719238
C       2.905000    -0.918774    -1.704430
N       3.569634    -1.183412    -0.791717
59
     -1302.783837     -1302.360861   7.87   7.62
C      -1.830086    -1.517589     0.171335
C      -0.960981    -0.727623     0.951019
C      -1.457739     0.030345     2.023471
C      -2.832914     0.088710     2.231489
C      -3.692188    -0.643631     1.415536
C      -3.208933    -1.457798     0.412098
C      -1.232840    -2.386671    -0.825893
C       0.157917    -2.070684    -1.242398
C       0.862981    -3.153067    -1.973268
C       0.171907    -4.174176    -2.529390
C      -1.229713    -4.305570    -2.306965
C      -1.890628    -3.439808    -1.441469
H      -3.249197     0.687572     3.029495
H      -4.761266    -0.583603     1.592501
H      -3.898188    -2.028084    -0.198443
H       0.025981    -1.274358    -2.063850
H       1.929169    -3.025018    -2.120613
H       0.685883    -4.913952    -3.134583
H      -1.772519    -5.125587    -2.764539
H      -2.932718    -3.631511    -1.208274
C       0.469827    -0.730732     0.652490
N       1.008208    -1.370360    -0.306523
C       0.791284     0.626152     2.783516
O       1.525302     0.967748     3.690538
C       1.358880     0.242180     1.422597
C       1.336019     1.499674     0.488956
H       0.299288     1.653802     0.170510
H       1.885718     1.191581    -0.405065
C       2.759684    -0.352164     1.597351
H       3.385821     0.283342     2.217625
H       2.688510    -1.329413     2.082756
H       3.218382    -0.499212     0.619440
N      -0.581272     0.673468     2.917522
C      -1.122908     1.231533     4.152403
H      -0.287426     1.564106     4.762640
H      -1.775233     2.082036     3.934380
H      -1.689478     0.474283     4.701531
C       1.863420     2.894433     0.928972
C       3.296665     2.893243     1.484258
C       0.916947     3.627124     1.901334
H       3.978075     2.354191     0.821515
H       3.655278     3.921570     1.582470
H       3.310267     2.428002     2.470842
H      -0.120102     3.566712     1.559587
H       0.991141     3.199198     2.900936
H       1.195791     4.682471     1.962734
C       1.868439     3.673341    -0.332297
N       1.856521     4.257704    -1.322122
C      -0.222412    -0.093396    -3.596246
C      -0.433625     1.201896    -2.869083
C      -1.411640    -0.852619    -4.110209
H      -0.937370     1.926999    -3.522520
H      -1.084992     1.048318    -2.001225
H       0.505273     1.645768    -2.537238
H      -1.146904    -1.874319    -4.389543
H      -2.196483    -0.891485    -3.348511
H      -1.833294    -0.353467    -4.993905
C       1.048848    -0.395556    -4.116839
N       2.101245    -0.677826    -4.513588
59
     -1302.782628     -1302.358727   8.63   8.96
C      -1.788922    -1.207042     1.147963
C      -1.186841     0.066297     1.095278
C      -1.974340     1.229519     1.094162
C      -3.358818     1.108717     1.019092
C      -3.946604    -0.154284     0.998639
C      -3.186210    -1.302255     1.085513
C      -0.916236    -2.354428     1.309505
C       0.533247    -2.148974     1.042582
C       1.434680    -3.180977     1.615917
C       0.953082    -4.395689     1.961842
C      -0.449427    -4.655626     1.917266
C      -1.347435    -3.632106     1.636946
H      -3.990990     1.985447     0.987844
H      -5.027597    -0.228463     0.936817
H      -3.672660    -2.269769     1.088582
H       0.626657    -2.342838    -0.085369
H       2.490964    -2.938814     1.651140
H       1.626950    -5.176503     2.300286
H      -0.822173    -5.639575     2.180355
H      -2.409177    -3.833015     1.732227
C       0.271121     0.172993     1.074977
N       1.072831    -0.813177     1.123874
C      -0.009351     2.665651     1.333187
O       0.469126     3.684691     1.784405
C       0.860790     1.546494     0.762967
C       0.763094     1.567143    -0.801416
H      -0.301522     1.553153    -1.057381
H       1.176711     0.613538    -1.137141
C       2.282911     1.664638     1.303334
H       2.662933     2.676892     1.174274
H       2.292271     1.440580     2.372818
H       2.931273     0.945970     0.803146
N      -1.380621     2.496118     1.239865
C      -2.229276     3.634868     1.573813
H      -1.581377     4.482179     1.783199
H      -2.888611     3.881041     0.736761
H      -2.835873     3.419096     2.458311
C       1.433986     2.665600    -1.674089
C       2.959213     2.486464    -1.796344
C       1.082611     4.105485    -1.267001
H       3.348650     3.138916    -2.582596
H       3.451183     2.753132    -0.861427
H       3.211116     1.452404    -2.044674
H       1.532918     4.353875    -0.305544
H       1.455314     4.803760    -2.021411
H       0.000377     4.240378    -1.182365
C       0.865925     2.435685    -3.024320
N       0.408781     2.246400    -4.061962
C       0.830362    -2.583162    -2.043483
C      -0.420652    -1.885721    -2.491130
C       0.832353    -4.077445    -1.903894
H      -0.291547    -0.804391    -2.546480
H      -0.714991    -2.241774    -3.487486
H      -1.250388    -2.110086    -1.811326
H       1.741489    -4.434127    -1.416965
H      -0.031099    -4.406494    -1.316320
H       0.761033    -4.554437    -2.891266
C       2.054894    -1.896193    -2.093654
N       3.057123    -1.312255    -2.094717
59
     -1302.781777     -1302.356825   9.16  10.15
C      -1.695775     0.339150    -1.055580
C      -1.496997     0.005666     0.296788
C      -2.432559     0.398321     1.264972
C      -3.453327     1.272067     0.902656
C      -3.572409     1.694677    -0.419545
C      -2.731869     1.213654    -1.402186
C      -0.870018    -0.348226    -2.030304
C       0.397066    -0.942619    -1.559723
C       0.900237    -2.066285    -2.386064
C       0.470603    -2.240927    -3.656525
C      -0.560712    -1.411326    -4.186172
C      -1.232318    -0.518960    -3.360965
H      -4.166744     1.624756     1.634719
H      -4.367163     2.386483    -0.679481
H      -2.863682     1.527067    -2.430611
H       1.215039    -0.092906    -1.788235
H       1.674154    -2.683444    -1.943483
H       0.896800    -3.023148    -4.277072
H      -0.884093    -1.542653    -5.213309
H      -2.110900    -0.011783    -3.745264
C      -0.323061    -0.773657     0.674901
N       0.548704    -1.205270    -0.150289
C      -1.415942    -1.042427     2.956711
O      -1.532746    -1.695144     3.973091
C      -0.103334    -1.053590     2.160023
C       0.682753     0.083616     2.904731
H       1.019282    -0.348043     3.852656
H      -0.024607     0.879001     3.163096
C       0.567766    -2.418366     2.349474
H       0.684651    -2.632518     3.411867
H      -0.051867    -3.204392     1.909517
H       1.534447    -2.441835     1.852096
N      -2.389080    -0.144697     2.561207
C      -3.526406     0.061879     3.450722
H      -3.616398     1.118696     3.717428
H      -4.454454    -0.269828     2.975907
H      -3.354746    -0.522606     4.350951
C       1.895263     0.787882     2.255212
C       3.013002    -0.158261     1.796844
C       2.465764     1.781566     3.289128
H       3.873940     0.418056     1.455066
H       3.311406    -0.784915     2.642907
H       2.687459    -0.793684     0.974512
H       1.694576     2.469580     3.646105
H       2.867098     1.228930     4.143565
H       3.272412     2.368505     2.844332
C       1.383771     1.602108     1.135927
N       0.921205     2.271829     0.326209
C       2.322361     1.110698    -2.662511
C       1.303865     2.179053    -2.953164
C       2.807933     0.269984    -3.814159
H       0.904631     2.611749    -2.036579
H       1.763875     2.982099    -3.546577
H       0.484909     1.760814    -3.543603
H       1.967700    -0.070061    -4.421727
H       3.469300     0.867870    -4.457232
H       3.372816    -0.599672    -3.471906
C       3.281706     1.353028    -1.645448
N       4.091871     1.518763    -0.836367
59
     -1302.778172     -1302.355182  11.42  11.18
C      -2.014470     0.018558    -1.217428
C      -1.307382     0.773607    -0.261594
C      -1.686764     2.089041     0.033202
C      -2.803019     2.632830    -0.595732
C      -3.519985     1.869892    -1.514892
C      -3.138103     0.582401    -1.835692
C      -1.504263    -1.305399    -1.523632
C      -0.097381    -1.560322    -1.113213
C       0.343332    -2.972198    -1.229952
C      -0.378557    -3.877868    -1.927290
C      -1.647264    -3.528272    -2.472834
C      -2.190419    -2.268444    -2.243131
H      -3.127662     3.640562    -0.374971
H      -4.389263     2.308067    -1.994758
H      -3.694270     0.024937    -2.579464
H       0.538662    -1.013070    -1.901744
H       1.306475    -3.221742    -0.799232
H      -0.002406    -4.886883    -2.061304
H      -2.212149    -4.263507    -3.035453
H      -3.190435    -2.055682    -2.606700
C      -0.211163     0.144141     0.478993
N       0.338886    -0.947527     0.129424
C       0.041466     2.320524     1.751920
O       0.704111     3.036010     2.473936
C       0.165870     0.778667     1.807200
C       1.611375     0.511454     2.299829
H       1.706717     1.141941     3.183153
H       2.289329     0.952853     1.562736
C      -0.922446     0.364518     2.834743
H      -1.081197    -0.712465     2.815437
H      -0.624744     0.669172     3.841259
H      -1.875616     0.844849     2.595849
N      -0.920176     2.858846     0.920694
C      -1.135450     4.301660     0.970196
H      -2.088452     4.539527     1.453213
H      -0.326993     4.741318     1.547886
H      -1.129871     4.714905    -0.041338
C       2.199643    -0.899116     2.663282
C       3.129652    -1.432301     1.554033
C       1.196790    -1.992284     3.073025
H       3.914490    -0.705152     1.325834
H       3.610086    -2.359390     1.879512
H       2.547860    -1.619630     0.653818
H       1.747072    -2.897224     3.345654
H       0.603690    -1.690785     3.938395
H       0.537001    -2.224047     2.236813
C       3.066518    -0.666752     3.844220
N       3.742492    -0.498288     4.758895
C       1.600729    -0.038494    -3.139784
C       2.221244     0.937149    -2.181546
C       0.452923     0.397234    -4.004944
H       2.870788     0.435573    -1.461682
H       2.824885     1.677952    -2.725011
H       1.444716     1.483137    -1.637304
H      -0.265675     0.979583    -3.420545
H       0.807986     1.037734    -4.824506
H      -0.063156    -0.458002    -4.447011
C       2.342661    -1.174012    -3.520814
N       2.932384    -2.130442    -3.805990
