48
     -1091.843149     -1091.502444   0.00   0.00
C       1.090143     0.707069    -2.288934
C       0.747667     0.694640    -0.927970
C       0.756931     1.876949    -0.173197
C       1.107405     3.071502    -0.804571
C       1.462794     3.080912    -2.143858
C       1.453384     1.907842    -2.886610
C       1.065291    -0.541264    -3.099930
C      -0.052837    -1.375577    -3.106847
C      -0.070831    -2.524139    -3.885662
C       1.028549    -2.854835    -4.670424
C       2.145807    -2.028844    -4.670895
C       2.162664    -0.879088    -3.891253
H       1.094790     3.998513    -0.245081
H       1.737086     4.019286    -2.615422
H       1.708511     1.922808    -3.940420
H      -0.919148    -1.119285    -2.506194
H      -0.948716    -3.162503    -3.880945
H       1.013789    -3.753633    -5.278616
H       3.009734    -2.280694    -5.277925
H       3.042581    -0.243283    -3.881057
C       0.412424    -0.549943    -0.253863
N      -0.361324    -0.849677     0.642512
C      -0.620757     1.332050     1.840841
O      -1.015813     1.786472     2.896106
C      -1.335157     0.105309     1.236586
C      -2.094193    -0.616468     2.357113
H      -2.763953    -1.343622     1.887661
H      -2.710137     0.130397     2.857908
C      -2.337355     0.578517     0.174146
H      -1.850775     1.145296    -0.622073
H      -2.832566    -0.288887    -0.270180
H      -3.092910     1.216660     0.640111
N       0.468352     1.904235     1.214467
C       1.190102     2.881994     2.036921
H       0.655805     3.834227     2.109294
H       1.301456     2.469072     3.038662
H       2.177197     3.037885     1.601515
C      -1.261020    -1.385457     3.424976
C      -1.113453    -2.871929     3.043944
C      -1.958619    -1.261157     4.792942
H      -2.103137    -3.338217     3.017521
H      -0.646575    -2.974012     2.063403
H      -0.503124    -3.396847     3.783949
H      -1.420090    -1.829943     5.555745
H      -2.007041    -0.215214     5.104895
H      -2.977631    -1.653703     4.720768
C       0.102866    -0.837894     3.582028
N       1.171007    -0.443279     3.739128
48
     -1091.843475     -1091.502288  -0.20   0.10
C       1.103618     0.385255    -1.732888
C       0.171674     1.018034    -0.896417
C       0.527247     2.154128    -0.153976
C       1.827893     2.646431    -0.258941
C       2.745766     2.028906    -1.094522
C       2.391130     0.903049    -1.824795
C       0.748643    -0.846590    -2.490646
C       1.573081    -1.969053    -2.408489
C       1.266941    -3.126384    -3.113522
C       0.131681    -3.173736    -3.913022
C      -0.693675    -2.057839    -4.002937
C      -0.387944    -0.902222    -3.297708
H       2.125065     3.508509     0.325903
H       3.752134     2.428493    -1.168558
H       3.110908     0.426144    -2.481077
H       2.454183    -1.938321    -1.774635
H       1.916434    -3.992741    -3.035735
H      -0.110327    -4.076405    -4.464864
H      -1.581150    -2.086271    -4.627198
H      -1.030653    -0.032542    -3.377112
C      -1.166049     0.477110    -0.714665
N      -1.917933     0.373963     0.241359
C      -1.253680     2.281255     1.615139
O      -1.812111     3.006345     2.412298
C      -1.519665     0.755916     1.634273
C      -0.237445     0.049061     2.128618
H       0.039569     0.533796     3.071538
H       0.578482     0.243337     1.431310
C      -2.717255     0.490531     2.538379
H      -3.562687     1.098910     2.217329
H      -3.004093    -0.559925     2.477179
H      -2.484781     0.737527     3.574396
N      -0.396055     2.835262     0.679127
C      -0.295361     4.298422     0.726302
H       0.328997     4.638653     1.558904
H       0.121537     4.650648    -0.217361
H      -1.292299     4.714595     0.860714
C      -0.237752    -1.483472     2.363303
C       1.222686    -1.907404     2.630423
C      -0.792182    -2.296204     1.181230
H       1.650122    -1.346745     3.466209
H       1.276273    -2.972835     2.866715
H       1.825784    -1.718778     1.737407
H      -0.215366    -2.076423     0.278991
H      -0.703015    -3.364874     1.395280
H      -1.838456    -2.067852     0.978809
C      -1.001568    -1.824521     3.582012
N      -1.554118    -2.119767     4.545527
48
     -1091.843475     -1091.502286  -0.20   0.10
C      -0.176916    -1.571080    -1.357073
C       0.752346    -0.914278    -0.536284
C       1.377852    -1.588072     0.523481
C       1.059183    -2.926607     0.751154
C       0.150167    -3.579638    -0.066933
C      -0.469158    -2.908583    -1.112274
C      -0.878717    -0.852428    -2.456464
C      -0.174671    -0.121244    -3.413522
C      -0.849190     0.532340    -4.435347
C      -2.236019     0.464183    -4.516481
C      -2.945050    -0.263703    -3.569003
C      -2.269339    -0.918558    -2.546854
H       1.515509    -3.454240     1.579950
H      -0.082154    -4.623020     0.120969
H      -1.175867    -3.424758    -1.752861
H       0.907108    -0.071101    -3.359096
H      -0.288018     1.097117    -5.173069
H      -2.760960     0.977034    -5.316063
H      -4.027732    -0.321509    -3.623063
H      -2.826326    -1.476739    -1.800359
C       1.042035     0.500401    -0.709207
N       1.254130     1.424228     0.059889
C       2.249203     0.273123     1.970662
O       3.048205     0.568408     2.835222
C       1.154007     1.282948     1.548085
C      -0.211513     0.742714     2.029349
H      -0.099206     0.524102     3.097243
H      -0.420157    -0.209735     1.540446
C       1.492343     2.638185     2.157117
H       1.423620     2.604010     3.244542
H       2.507987     2.922127     1.881802
H       0.806562     3.397475     1.779412
N       2.342085    -0.964204     1.355068
C       3.470997    -1.789695     1.799282
H       4.354511    -1.159368     1.884382
H       3.284387    -2.245468     2.777164
H       3.649165    -2.567150     1.056189
C      -1.491340     1.599397     1.850817
C      -2.696470     0.706358     2.217006
C      -1.682312     2.147587     0.426653
H      -2.763423    -0.123782     1.507662
H      -2.592821     0.297245     3.225699
H      -3.626369     1.278197     2.170789
H      -1.707819     1.320148    -0.287315
H      -2.631944     2.686172     0.363822
H      -0.878857     2.823327     0.134008
C      -1.501524     2.727478     2.805964
N      -1.559398     3.590941     3.562222
48
     -1091.842952     -1091.502134   0.12   0.19
C       0.275466     0.795933    -2.412003
C       0.418596     1.123694    -1.055718
C      -0.072927     2.338471    -0.556330
C      -0.734170     3.207002    -1.423596
C      -0.880118     2.881954    -2.763265
C      -0.378384     1.686148    -3.257665
C       0.794109    -0.488360    -2.958865
C       2.110972    -0.890776    -2.734821
C       2.584436    -2.079641    -3.272298
C       1.749759    -2.881749    -4.043175
C       0.437534    -2.487163    -4.273241
C      -0.035984    -1.297052    -3.735160
H      -1.143830     4.135321    -1.043800
H      -1.392810     3.571098    -3.426751
H      -0.480103     1.442344    -4.309453
H       2.767611    -0.264440    -2.141106
H       3.611373    -2.380019    -3.089529
H       2.121860    -3.811348    -4.462012
H      -0.222026    -3.108181    -4.871390
H      -1.065912    -0.997870    -3.904154
C       1.018800     0.188793    -0.112949
N       0.790548    -0.090383     1.054063
C      -0.108487     1.992216     1.933243
O      -0.074630     2.536976     3.018866
C      -0.368804     0.470906     1.818894
C      -0.317601    -0.102093     3.243431
H      -0.984357     0.495731     3.867785
H       0.694425     0.066083     3.620477
C      -1.709985     0.199974     1.127066
H      -1.824841    -0.864479     0.918258
H      -2.525353     0.505771     1.786656
H      -1.810884     0.738343     0.186027
N       0.113926     2.739008     0.792449
C       0.412354     4.156698     1.028731
H       1.101383     4.236149     1.867960
H       0.879198     4.569359     0.134387
H      -0.489317     4.727142     1.274237
C      -0.647861    -1.598007     3.481283
C      -0.295741    -1.912178     4.951531
C       0.102720    -2.577227     2.561920
H      -0.807359    -1.227151     5.632725
H      -0.583988    -2.934766     5.208063
H       0.782966    -1.807339     5.096314
H      -0.178258    -2.458722     1.515084
H       1.177806    -2.402357     2.641635
H      -0.112882    -3.605888     2.864744
C      -2.099834    -1.837895     3.341044
N      -3.227997    -2.045102     3.264389
48
     -1091.842952     -1091.502134   0.12   0.19
C       0.934128    -1.093918    -2.029968
C       0.702004    -1.142792    -0.647524
C       1.759520    -1.350687     0.249751
C       3.054318    -1.479841    -0.250809
C       3.285370    -1.427168    -1.616644
C       2.234440    -1.237331    -2.503003
C      -0.177874    -0.876851    -2.996294
C      -0.059347     0.103985    -3.980967
C      -1.076537     0.304953    -4.905656
C      -2.224894    -0.475798    -4.858048
C      -2.349523    -1.457547    -3.880833
C      -1.333125    -1.657958    -2.957135
H       3.883425    -1.611853     0.434023
H       4.298446    -1.534627    -1.990963
H       2.416617    -1.212767    -3.571766
H       0.830789     0.724929    -4.011053
H      -0.971679     1.075464    -5.663141
H      -3.021183    -0.320333    -5.579014
H      -3.242720    -2.072859    -3.838145
H      -1.430985    -2.429988    -2.201913
C      -0.627428    -0.912886    -0.097204
N      -1.034915    -0.353462     0.909251
C       0.805266    -0.660541     2.470610
O       0.878600    -0.796457     3.675867
C      -0.140547     0.395219     1.849305
C      -1.009206     0.947054     2.989990
H      -0.342806     1.254895     3.798025
H      -1.599887     0.112274     3.375840
C       0.661718     1.493156     1.140999
H       1.189329     2.093176     1.885980
H       1.395046     1.090924     0.443850
H      -0.003366     2.154085     0.583604
N       1.557611    -1.477477     1.648931
C       2.368131    -2.481775     2.348334
H       1.772045    -2.921500     3.146269
H       2.653374    -3.257376     1.637584
H       3.264307    -2.041094     2.797068
C      -1.995536     2.109872     2.709976
C      -2.864886     2.281866     3.974480
C      -2.911823     1.897898     1.492210
H      -3.475932     1.386684     4.118817
H      -2.242925     2.426490     4.861771
H      -3.528687     3.144205     3.872892
H      -3.637089     2.714273     1.430167
H      -2.353143     1.859700     0.556647
H      -3.449714     0.953488     1.599486
C      -1.262473     3.381408     2.533230
N      -0.717728     4.387288     2.419123
48
     -1091.843014     -1091.502108   0.08   0.21
C       0.516372    -1.439189    -2.052422
C       0.440505    -1.322379    -0.657012
C       1.506857    -1.730880     0.157506
C       2.652809    -2.248606    -0.445725
C       2.720173    -2.382996    -1.823881
C       1.660641    -1.981549    -2.625994
C      -0.600399    -0.978472    -2.922094
C      -1.139477     0.300753    -2.782192
C      -2.166540     0.727683    -3.612024
C      -2.668431    -0.117721    -4.595560
C      -2.135419    -1.392279    -4.743733
C      -1.106925    -1.818766    -3.912670
H       3.496877    -2.541684     0.166625
H       3.617382    -2.793890    -2.275659
H       1.726826    -2.064755    -3.705223
H      -0.744160     0.970792    -2.026119
H      -2.574927     1.726147    -3.491302
H      -3.472241     0.216620    -5.243680
H      -2.522813    -2.059701    -5.507085
H      -0.702349    -2.820541    -4.019857
C      -0.746187    -0.785198    -0.008007
N      -0.916754    -0.078373     0.974583
C       0.991687    -0.647819     2.369852
O       1.183575    -0.689437     3.568745
C       0.218240     0.533814     1.735870
C      -0.375777     1.355504     2.890163
H       0.431173     1.581828     3.589736
H      -1.074095     0.703851     3.421514
C       1.142879     1.367859     0.841261
H       1.866060     1.899062     1.464283
H       1.692295     0.759550     0.124436
H       0.570340     2.111440     0.284576
N       1.445827    -1.684018     1.574215
C       2.088171    -2.784604     2.302652
H       3.114373    -2.537103     2.593079
H       1.519337    -2.984912     3.208762
H       2.086387    -3.671418     1.668940
C      -1.130381     2.674402     2.582044
C      -1.787459     3.139856     3.899519
C      -2.211179     2.559183     1.492966
H      -2.546151     2.413258     4.202846
H      -1.046605     3.224970     4.698811
H      -2.268818     4.112385     3.768916
H      -2.756235     3.504078     1.413178
H      -1.789066     2.319960     0.516365
H      -2.913579     1.765689     1.756699
C      -0.180063     3.737809     2.192598
N       0.540664     4.588821     1.913414
48
     -1091.842176     -1091.501616   0.61   0.52
C       0.829226     0.530046    -1.988252
C      -0.144354     0.784555    -1.010880
C       0.039988     1.805587    -0.066725
C       1.222105     2.544750    -0.090740
C       2.187384     2.289671    -1.052608
C       1.993247     1.292682    -1.998165
C       0.649554    -0.546079    -3.001699
C       1.674858    -1.464501    -3.227895
C       1.534348    -2.460537    -4.186075
C       0.365680    -2.548602    -4.932419
C      -0.660460    -1.635604    -4.714311
C      -0.519713    -0.640657    -3.756935
H       1.386357     3.318226     0.650534
H       3.099706     2.877446    -1.062772
H       2.742106     1.108267    -2.760534
H       2.583209    -1.407054    -2.635934
H       2.339489    -3.170622    -4.347238
H       0.253313    -3.326195    -5.681259
H      -1.575944    -1.696674    -5.294274
H      -1.319661     0.073517    -3.596070
C      -1.327099    -0.060192    -0.890464
N      -1.977055    -0.483716     0.052298
C      -1.689675     1.293565     1.685381
O      -2.441801     1.760966     2.517546
C      -1.594178    -0.234610     1.492634
C      -0.189087    -0.836300     1.723104
H       0.535604    -0.328855     1.086183
H      -0.238551    -1.870339     1.366930
C      -2.656019    -0.908798     2.350609
H      -3.644248    -0.558937     2.052557
H      -2.602851    -1.990206     2.206667
H      -2.519454    -0.682358     3.407244
N      -0.951638     2.146431     0.887677
C      -1.171824     3.576651     1.136446
H      -2.237804     3.751249     1.273574
H      -0.653311     3.916602     2.039064
H      -0.818803     4.141733     0.273797
C       0.431674    -0.844020     3.143266
C       0.385749     0.527290     3.838293
C       1.899814    -1.298925     3.002331
H       0.857316     1.278102     3.196307
H      -0.634240     0.846164     4.055391
H       0.939748     0.487109     4.779706
H       2.373643    -1.380754     3.983489
H       1.963941    -2.270986     2.505998
H       2.453565    -0.566185     2.407783
C      -0.235123    -1.839690     4.007929
N      -0.703449    -2.630277     4.697983
48
     -1091.842176     -1091.501616   0.61   0.52
C       1.998193     0.887676     0.754620
C       0.628719     0.737147     1.018758
C       0.162870    -0.339681     1.787747
C       1.077455    -1.280531     2.259631
C       2.430365    -1.135686     1.993785
C       2.890605    -0.058200     1.250175
C       2.512313     2.026458    -0.055478
C       2.148754     3.342083     0.233431
C       2.656565     4.393402    -0.517005
C       3.536496     4.145562    -1.565049
C       3.905378     2.838500    -1.858451
C       3.396886     1.786456    -1.107068
H       0.725347    -2.130703     2.832307
H       3.131118    -1.872578     2.373062
H       3.951417     0.062081     1.059867
H       1.469002     3.541211     1.054480
H       2.364691     5.411753    -0.280425
H       3.932025     4.969164    -2.150947
H       4.589302     2.635146    -2.676584
H       3.675322     0.765034    -1.347880
C      -0.354089     1.638119     0.427723
N      -1.480553     1.492029    -0.019887
C      -2.309322    -0.353516     1.327472
O      -3.410931    -0.599616     1.777527
C      -2.154727     0.143842    -0.125224
C      -1.285243    -0.753970    -1.034817
H      -0.305880    -0.898485    -0.578407
H      -1.113901    -0.182312    -1.952637
C      -3.537212     0.390634    -0.713429
H      -3.433440     0.757216    -1.737069
H      -4.137497    -0.518228    -0.719053
H      -4.059783     1.139940    -0.119044
N      -1.202023    -0.485893     2.142810
C      -1.489538    -0.916965     3.516641
H      -2.366674    -0.382620     3.878179
H      -1.700003    -1.990273     3.570064
H      -0.632740    -0.677686     4.146521
C      -1.777141    -2.169043    -1.432141
C      -2.236327    -3.015970    -0.233172
C      -0.607587    -2.880515    -2.145015
H      -2.457781    -4.035396    -0.559538
H      -1.434024    -3.062026     0.510085
H      -3.128679    -2.608112     0.242800
H       0.223319    -3.008194    -1.444780
H      -0.916364    -3.865859    -2.502272
H      -0.256227    -2.297703    -3.000724
C      -2.880742    -2.091062    -2.411733
N      -3.714045    -2.070696    -3.202760
48
     -1091.842152     -1091.501529   0.63   0.57
C       1.406722    -0.695649    -2.103080
C       1.110988    -0.474454    -0.749804
C       2.120351    -0.121224     0.156763
C       3.422766     0.040632    -0.314798
C       3.715444    -0.173316    -1.652836
C       2.717193    -0.541508    -2.543371
C       0.347297    -1.076972    -3.077747
C      -0.514127    -2.145608    -2.828491
C      -1.479880    -2.502650    -3.759131
C      -1.596628    -1.798938    -4.953090
C      -0.740926    -0.735032    -5.210456
C       0.225658    -0.377907    -4.278554
H       4.208459     0.343937     0.366132
H       4.735599    -0.049137    -2.001901
H       2.952477    -0.724167    -3.586086
H      -0.421510    -2.701919    -1.902306
H      -2.143399    -3.336149    -3.551325
H      -2.352935    -2.079412    -5.679278
H      -0.826420    -0.178282    -6.138441
H       0.883776     0.462802    -4.475669
C      -0.261117    -0.540642    -0.261924
N      -0.882409     0.079714     0.584629
C       0.897940     0.818455     2.137456
O       1.024413     1.159310     3.297529
C      -0.344463     1.248867     1.328435
C      -1.432539     1.785883     2.273906
H      -2.092488     2.428682     1.682859
H      -0.934054     2.419228     3.009918
C       0.049475     2.379614     0.363704
H       0.884295     2.107827    -0.282996
H      -0.808864     2.627685    -0.265173
H       0.332328     3.264628     0.940630
N       1.878290     0.042527     1.548764
C       2.945656    -0.387184     2.460137
H       3.640109     0.426828     2.691731
H       2.496812    -0.722239     3.393847
H       3.484851    -1.215377     1.999844
C      -2.339172     0.787759     3.041315
C      -3.058136     1.573183     4.158647
C      -1.607627    -0.415980     3.659049
H      -3.587543     2.439780     3.752809
H      -3.783911     0.936567     4.671178
H      -2.323342     1.922851     4.889134
H      -1.116638    -1.024244     2.896652
H      -0.856874    -0.068017     4.370020
H      -2.328714    -1.050105     4.182585
C      -3.401399     0.283296     2.141156
N      -4.287775    -0.081815     1.506326
48
     -1091.842152     -1091.501525   0.63   0.58
C       0.477480     0.413757    -2.521553
C       0.520105     0.634227    -1.136894
C       0.646303     1.931472    -0.620471
C       0.695390     3.007337    -1.506413
C       0.648839     2.791080    -2.874940
C       0.543124     1.504197    -3.382743
C       0.349299    -0.958119    -3.086594
C      -0.623432    -1.222692    -4.050603
C      -0.742027    -2.490256    -4.606886
C       0.114014    -3.508895    -4.206939
C       1.088265    -3.252283    -3.248124
C       1.206455    -1.985854    -2.692720
H       0.761187     4.018176    -1.123195
H       0.694521     3.639247    -3.550593
H       0.523528     1.337194    -4.454055
H      -1.302696    -0.432020    -4.354260
H      -1.507222    -2.681955    -5.352650
H       0.022937    -4.500120    -4.639600
H       1.762039    -4.042224    -2.931604
H       1.972524    -1.788184    -1.951134
C       0.368340    -0.469700    -0.197036
N      -0.163643    -0.575695     0.895335
C      -0.061485     1.733931     1.779595
O      -0.076362     2.311795     2.849053
C      -0.957733     0.498520     1.547282
C      -1.500149    -0.022525     2.889167
H      -2.404849    -0.600249     2.675089
H      -1.800551     0.848813     3.473854
C      -2.156434     0.902965     0.673199
H      -1.853646     1.370497    -0.264212
H      -2.745793     0.012658     0.441271
H      -2.784169     1.608380     1.224958
N       0.765083     2.194381     0.772319
C       1.643069     3.303983     1.162689
H       2.443017     3.391104     0.427147
H       1.099447     4.251416     1.236014
H       2.071958     3.085876     2.139425
C      -0.597147    -0.909244     3.786608
C      -1.243865    -0.968662     5.186795
C       0.858698    -0.431687     3.921416
H      -0.697943    -1.659765     5.834149
H      -1.222107     0.025881     5.640898
H      -2.283379    -1.302958     5.126561
H       1.405993    -1.114256     4.577720
H       1.368195    -0.413225     2.955821
H       0.881256     0.570768     4.351273
C      -0.592647    -2.298622     3.274048
N      -0.613880    -3.404807     2.961179
48
     -1091.842070     -1091.501524   0.68   0.58
C       0.883611     0.239852    -2.427528
C       0.759720     0.516789    -1.058122
C       0.945591     1.817333    -0.567756
C       1.237514     2.839483    -1.471110
C       1.374596     2.563689    -2.822737
C       1.200666     1.273020    -3.302066
C       0.673502    -1.135474    -2.957330
C       1.617184    -1.703060    -3.812820
C       1.425061    -2.976975    -4.332786
C       0.284069    -3.698763    -4.004695
C      -0.662906    -3.139041    -3.153961
C      -0.470144    -1.866481    -2.634820
H       1.352779     3.856212    -1.116934
H       1.608246     3.370835    -3.509660
H       1.286766     1.064936    -4.362828
H       2.516937    -1.147161    -4.057951
H       2.171047    -3.407129    -4.993656
H       0.132633    -4.694307    -4.409552
H      -1.558212    -3.694857    -2.893878
H      -1.219684    -1.433506    -1.980941
C       0.447891    -0.538188    -0.104139
N      -0.212504    -0.574120     0.921639
C      -0.086421     1.764895     1.722389
O      -0.207470     2.394763     2.754878
C      -1.017239     0.568180     1.427867
C      -1.748263     0.137971     2.711462
H      -2.651523    -0.401793     2.409849
H      -2.067691     1.049242     3.220227
C      -2.074806     0.995587     0.397061
H      -1.633596     1.402225    -0.513608
H      -2.685114     0.128907     0.130908
H      -2.722449     1.758867     0.837490
N       0.894624     2.129912     0.818232
C       1.789432     3.193720     1.289289
H       2.051596     2.997395     2.327427
H       2.693390     3.184487     0.680010
H       1.316658     4.179918     1.240333
C      -1.011662    -0.752206     3.746893
C      -1.824779    -0.715168     5.058295
C       0.441794    -0.343455     4.040703
H      -1.400235    -1.402902     5.794169
H      -1.802446     0.296574     5.472659
H      -2.866511    -0.998818     4.884124
H       0.867469    -1.023018     4.784399
H       1.064022    -0.393569     3.144767
H       0.467968     0.674519     4.432283
C      -1.023549    -2.161533     3.292098
N      -1.069751    -3.277746     3.020295
48
     -1091.843136     -1091.501008   0.01   0.90
C       1.834333     1.356230     0.000500
C       0.848712     0.691194     0.747359
C       1.004732    -0.653715     1.111651
C       2.144646    -1.336600     0.686718
C       3.113508    -0.683771    -0.056811
C       2.966519     0.654589    -0.396164
C       1.686996     2.787766    -0.382702
C       1.368361     3.762012     0.563880
C       1.260124     5.095218     0.193811
C       1.471470     5.475370    -1.127139
C       1.792126     4.512459    -2.076094
C       1.900225     3.178127    -1.704890
H       2.254226    -2.388352     0.914223
H       3.993087    -1.231494    -0.379341
H       3.737988     1.164783    -0.962430
H       1.211339     3.472196     1.596865
H       1.011438     5.841262     0.942016
H       1.385884     6.518466    -1.414678
H       1.956705     4.798953    -3.110168
H       2.137557     2.426062    -2.451088
C      -0.396229     1.357178     1.096922
N      -1.557502     0.996114     1.198247
C      -1.298148    -1.383105     1.791649
O      -1.945848    -2.202641     2.414722
C      -2.028857    -0.393977     0.864427
C      -1.757870    -0.661301    -0.637088
H      -0.766407    -0.283030    -0.893071
H      -2.472819    -0.046819    -1.194134
C      -3.519313    -0.395654     1.202568
H      -3.652735    -0.081043     2.238380
H      -4.025513     0.325052     0.554828
H      -3.971401    -1.375949     1.088978
N       0.072345    -1.333805     1.938508
C       0.622856    -2.320639     2.876624
H       0.660542    -3.317962     2.428671
H       1.623951    -2.002084     3.167489
H      -0.017055    -2.358982     3.756130
C      -1.850055    -2.098042    -1.218444
C      -1.645402    -1.986853    -2.743585
C      -3.171027    -2.830495    -0.926754
H      -1.619029    -2.978541    -3.201562
H      -2.472449    -1.422061    -3.183362
H      -0.708204    -1.474122    -2.976343
H      -4.017893    -2.203630    -1.217941
H      -3.210741    -3.757357    -1.505073
H      -3.259841    -3.088583     0.129025
C      -0.754581    -2.945876    -0.702143
N       0.084476    -3.638173    -0.331598
48
     -1091.840823     -1091.500173   1.46   1.43
C       1.008795     0.492645    -2.400612
C       0.749100     0.708380    -1.039060
C       0.773739     2.002167    -0.498753
C       1.042977     3.077443    -1.345729
C       1.315179     2.863111    -2.687908
C       1.300173     1.579812    -3.216164
C       0.967355    -0.876016    -2.984907
C       2.029977    -1.332759    -3.763805
C       1.995223    -2.598969    -4.334466
C       0.894749    -3.423422    -4.134899
C      -0.170180    -2.974232    -3.361591
C      -0.134433    -1.709382    -2.791350
H       1.034721     4.087211    -0.955116
H       1.529079     3.711829    -3.329700
H       1.491423     1.417391    -4.271133
H       2.897147    -0.695693    -3.908323
H       2.832102    -2.942615    -4.934329
H       0.866270    -4.412984    -4.579772
H      -1.034984    -3.610774    -3.202909
H      -0.974627    -1.361948    -2.199381
C       0.462800    -0.401881    -0.143116
N      -0.269433    -0.535071     0.825971
C      -0.439003     1.781400     1.690712
O      -0.713836     2.375295     2.713580
C      -1.219566     0.508046     1.296189
C      -2.019525    -0.023029     2.500804
H      -2.828532    -0.645614     2.106176
H      -2.483165     0.844595     2.972645
C      -2.224154     0.868018     0.188118
H      -1.747739     1.341294    -0.671175
H      -2.727120    -0.041333    -0.150577
H      -2.974067     1.555647     0.588638
N       0.581186     2.258709     0.885689
C       1.324282     3.387917     1.457414
H       0.764579     4.326182     1.387655
H       1.512817     3.186372     2.510405
H       2.274563     3.481703     0.931414
C      -1.298040    -0.863972     3.596233
C       0.065544    -0.303425     4.038813
C      -1.153229    -2.344283     3.188027
H       0.766461    -0.318636     3.200016
H      -0.024366     0.718587     4.406661
H       0.475389    -0.931150     4.834972
H      -0.483293    -2.428561     2.332540
H      -0.746518    -2.924345     4.021055
H      -2.124422    -2.769104     2.918309
C      -2.195506    -0.835249     4.773654
N      -2.895075    -0.826932     5.685952
48
     -1091.840823     -1091.500173   1.46   1.43
C       1.363379    -1.399446    -1.765721
C       1.032020    -0.833165    -0.525830
C       2.022668    -0.565164     0.429793
C       3.351148    -0.854605     0.117641
C       3.677056    -1.428743    -1.101222
C       2.691990    -1.702094    -2.039868
C       0.319475    -1.670741    -2.791886
C      -0.578375    -0.678776    -3.186565
C      -1.531464    -0.938299    -4.161536
C      -1.599494    -2.193146    -4.757003
C      -0.707655    -3.186329    -4.371250
C       0.246481    -2.925569    -3.395658
H       4.134780    -0.625340     0.828722
H       4.715535    -1.652949    -1.323186
H       2.952617    -2.130562    -3.001329
H      -0.524233     0.306496    -2.735598
H      -2.222534    -0.155854    -4.458947
H      -2.345652    -2.395427    -5.518769
H      -0.755461    -4.169522    -4.828788
H       0.932766    -3.707267    -3.084717
C      -0.348238    -0.521793    -0.186268
N      -0.876022     0.371544     0.459044
C       0.926157     1.036766     2.025006
O       1.072110     1.599049     3.091326
C      -0.138525     1.533852     1.022151
C      -1.126695     2.487093     1.720664
H      -1.591741     3.101570     0.943499
H      -0.527785     3.154586     2.342054
C       0.565489     2.324038    -0.094346
H       1.011102     3.228825     0.328039
H       1.352934     1.748314    -0.582014
H      -0.170484     2.614388    -0.848434
N       1.723612    -0.053450     1.721414
C       2.585909    -0.497086     2.823141
H       2.919615    -1.514167     2.616518
H       3.451246     0.159724     2.958300
H       2.008704    -0.486948     3.746011
C      -2.284120     1.901881     2.584141
C      -1.867122     0.752057     3.518737
C      -3.488869     1.471664     1.722505
H      -1.067583     1.057355     4.193595
H      -2.729289     0.435309     4.112218
H      -1.527458    -0.104200     2.930055
H      -3.208187     0.632368     1.086441
H      -4.321178     1.172240     2.365488
H      -3.826811     2.296611     1.088712
C      -2.749796     3.021183     3.434377
N      -3.123698     3.890573     4.087150
48
     -1091.840924     -1091.500088   1.40   1.48
C       0.253414     1.000916    -2.423254
C       0.267779     1.032007    -1.020807
C       0.035942     2.228107    -0.327527
C      -0.244215     3.384616    -1.054589
C      -0.264012     3.353938    -2.440307
C      -0.014941     2.172195    -3.123575
C       0.504241    -0.259901    -3.175055
C       1.631795    -1.040915    -2.921168
C       1.863112    -2.200010    -3.648885
C       0.972434    -2.593192    -4.642049
C      -0.151716    -1.819469    -4.903108
C      -0.382818    -0.659256    -4.174630
H      -0.456601     4.309977    -0.533565
H      -0.477908     4.264606    -2.990711
H      -0.014862     2.154671    -4.207859
H       2.333049    -0.733322    -2.153211
H       2.744766    -2.797977    -3.440629
H       1.154751    -3.500218    -5.209581
H      -0.853647    -2.120111    -5.674701
H      -1.269014    -0.063413    -4.370692
C       0.457056    -0.186255    -0.244592
N       0.005138    -0.588300     0.816153
C      -0.533413     1.514568     2.010664
O      -0.696447     1.921649     3.143281
C      -1.044312     0.115969     1.601199
C      -1.400468    -0.710573     2.851178
H      -2.101273    -1.490403     2.537437
H      -1.943441    -0.041657     3.520615
C      -2.327306     0.281124     0.768095
H      -2.649858    -0.698444     0.407015
H      -3.115251     0.702340     1.398551
H      -2.186584     0.936542    -0.091863
N       0.112288     2.318889     1.089310
C       0.645889     3.569319     1.642497
H       1.140427     3.352349     2.587950
H       1.371748     3.979142     0.939829
H      -0.143201     4.303453     1.834522
C      -0.271638    -1.419236     3.658066
C       0.978063    -0.555490     3.905851
C       0.134078    -2.766080     3.025409
H       0.726355     0.370270     4.422983
H       1.693404    -1.117134     4.513147
H       1.458490    -0.311072     2.954857
H      -0.740332    -3.408328     2.886477
H       0.600623    -2.594308     2.055655
H       0.841076    -3.287909     3.676338
C      -0.865231    -1.733495     4.977699
N      -1.325542    -1.991610     5.999093
48
     -1091.840282     -1091.499379   1.80   1.92
C       2.038471    -1.691028    -0.244802
C       0.736166    -1.300686     0.102135
C       0.337912    -1.256314     1.446655
C       1.264579    -1.574049     2.438385
C       2.552588    -1.954900     2.096165
C       2.938551    -2.017632     0.764433
C       2.477921    -1.749164    -1.666418
C       3.673528    -1.140825    -2.048638
C       4.110663    -1.204794    -3.365773
C       3.357298    -1.881343    -4.317225
C       2.165273    -2.492532    -3.943634
C       1.728823    -2.428280    -2.627666
H       0.974821    -1.513480     3.480963
H       3.261244    -2.205381     2.879101
H       3.941617    -2.333323     0.499505
H       4.256560    -0.598909    -1.310297
H       5.040957    -0.722200    -3.648782
H       3.696502    -1.932234    -5.346982
H       1.571774    -3.024464    -4.680507
H       0.802677    -2.913275    -2.339698
C      -0.206932    -0.851150    -0.912514
N      -1.075690     0.006561    -0.952944
C      -1.811285     0.045789     1.345613
O      -2.933889     0.166466     1.798021
C      -1.319544     0.955917     0.200868
C      -2.459375     1.869787    -0.289033
H      -3.374592     1.275728    -0.296923
H      -2.221284     2.101692    -1.330947
C      -0.043854     1.735675     0.526741
H       0.238146     2.341743    -0.336238
H      -0.207820     2.407363     1.370581
H       0.793420     1.087362     0.774803
N      -0.990540    -0.949196     1.836352
C      -1.576172    -1.770022     2.904674
H      -1.560623    -1.249247     3.867497
H      -2.612719    -1.990405     2.654323
H      -1.014605    -2.700798     2.980469
C      -2.785385     3.213560     0.415558
C      -2.984848     3.139904     1.939735
C      -4.077175     3.762399    -0.228959
H      -2.094961     2.781034     2.459668
H      -3.223382     4.136185     2.322944
H      -3.801875     2.457045     2.170938
H      -3.972362     3.839811    -1.314401
H      -4.908768     3.088887    -0.005320
H      -4.314627     4.753047     0.167150
C      -1.728350     4.208884     0.133362
N      -0.935037     5.010119    -0.090635
48
     -1091.840282     -1091.499367   1.80   1.93
C       2.302873    -1.388945    -0.091385
C       0.962117    -1.199694     0.276313
C       0.600798    -1.087520     1.627318
C       1.597205    -1.133675     2.601046
C       2.922387    -1.315718     2.237792
C       3.275272    -1.446648     0.901876
C       2.705018    -1.515329    -1.519584
C       2.062479    -2.410458    -2.375281
C       2.465777    -2.532457    -3.697728
C       3.518111    -1.763736    -4.183204
C       4.165029    -0.871358    -3.337204
C       3.761135    -0.749629    -2.013554
H       1.331055    -1.017842     3.645242
H       3.686466    -1.355865     3.007528
H       4.310736    -1.607006     0.622431
H       1.246631    -3.017923    -1.999422
H       1.956285    -3.233132    -4.351677
H       3.831520    -1.860209    -5.217861
H       4.985542    -0.265035    -3.708105
H       4.258554    -0.040816    -1.358646
C      -0.074926    -1.029745    -0.731997
N      -1.084090    -0.346500    -0.814507
C      -1.748734    -0.199645     1.501383
O      -2.861169    -0.230917     1.992266
C      -1.460961     0.659325     0.252378
C      -2.759638     1.303588    -0.269899
H      -3.553478     0.560660    -0.177874
H      -2.596863     1.464901    -1.339267
C      -0.336894     1.680175     0.441864
H       0.609807     1.217891     0.711918
H      -0.193014     2.234175    -0.487629
H      -0.594324     2.395944     1.223870
N      -0.749614    -0.979963     2.046614
C      -1.147943    -1.775967     3.215220
H      -1.198041    -1.164084     4.121630
H      -2.135145    -2.199001     3.035915
H      -0.427006    -2.581227     3.354025
C      -3.300715     2.634784     0.316230
C      -3.439825     2.684973     1.848037
C      -4.687880     2.879146    -0.317310
H      -4.114076     1.896808     2.181910
H      -2.485413     2.543506     2.358037
H      -3.842073     3.658051     2.144076
H      -4.629873     2.861110    -1.408857
H      -5.378642     2.097097     0.008917
H      -5.087394     3.848401    -0.008112
C      -2.447566     3.765440    -0.109659
N      -1.817229     4.665862    -0.446427
48
     -1091.840114     -1091.499262   1.90   2.00
C      -0.286761     0.805117    -2.576843
C       0.235729     0.889005    -1.277699
C      -0.063746     1.985405    -0.454938
C      -0.907128     2.983586    -0.941523
C      -1.411914     2.907584    -2.230136
C      -1.103226     1.828013    -3.046393
C       0.011007    -0.361179    -3.453202
C      -0.171573    -1.668671    -3.002064
C       0.089657    -2.745272    -3.838182
C       0.535351    -2.530480    -5.137696
C       0.717613    -1.231474    -5.595890
C       0.455669    -0.154307    -4.758597
H      -1.171103     3.819887    -0.305082
H      -2.061884     3.696091    -2.595736
H      -1.516974     1.760958    -4.046548
H      -0.530225    -1.846248    -1.993922
H      -0.057747    -3.756599    -3.472638
H       0.740010    -3.373255    -5.790253
H       1.067904    -1.054328    -6.607914
H       0.613611     0.859473    -5.113558
C       1.090857    -0.159085    -0.741491
N       1.226425    -0.668923     0.361022
C       0.703238     1.190971     1.807728
O       1.202036     1.517134     2.867832
C       0.343831    -0.283929     1.528707
C       0.822843    -1.183942     2.684665
H       1.798953    -0.814920     3.003453
H       0.985478    -2.169871     2.239993
C      -1.129625    -0.510950     1.183549
H      -1.769294    -0.230895     2.021544
H      -1.452182     0.060016     0.315723
H      -1.293346    -1.570833     0.978137
N       0.506289     2.149500     0.832829
C       0.929240     3.507029     1.201852
H       1.085847     4.085850     0.291966
H       0.185579     4.004117     1.833105
H       1.862400     3.446659     1.759002
C      -0.032910    -1.394947     3.962090
C      -0.524894    -0.114062     4.658981
C       0.828806    -2.202502     4.957494
H       0.328973     0.496804     4.950538
H      -1.162439     0.493171     4.014155
H      -1.100603    -0.383735     5.548993
H       1.690819    -1.602585     5.261162
H       0.250198    -2.457582     5.849013
H       1.190260    -3.128796     4.503059
C      -1.208883    -2.238166     3.655708
N      -2.117236    -2.912284     3.450702
48
     -1091.840114     -1091.499260   1.90   2.00
C      -0.384581     0.707383    -2.610968
C       0.127591     0.910960    -1.320992
C      -0.305011     1.994550    -0.541629
C      -1.269247     2.857240    -1.061658
C      -1.764818     2.664152    -2.341595
C      -1.325188     1.598672    -3.115230
C       0.054950    -0.447955    -3.440982
C       0.465422    -0.241837    -4.757647
C       0.858303    -1.311703    -5.551999
C       0.843022    -2.602884    -5.038970
C       0.432510    -2.817230    -3.727845
C       0.040402    -1.747884    -2.934651
H      -1.634442     3.679672    -0.458021
H      -2.510327     3.348462    -2.733776
H      -1.730600     1.438046    -4.108122
H       0.492936     0.767922    -5.155544
H       1.179924    -1.134586    -6.573500
H       1.150139    -3.439876    -5.657928
H       0.415183    -3.822785    -3.319567
H      -0.289476    -1.926648    -1.916938
C       1.109968     0.002388    -0.749417
N       1.312520    -0.439504     0.371989
C       0.563750     1.398863     1.745167
O       1.020987     1.829508     2.786551
C       0.392362    -0.119973     1.530380
C       0.985015    -0.903095     2.718313
H       1.907827    -0.401009     3.013138
H       1.269262    -1.878509     2.313333
C      -1.041831    -0.545053     1.207663
H      -1.071168    -1.624795     1.047508
H      -1.708869    -0.312898     2.038931
H      -1.436833    -0.056180     0.319888
N       0.244176     2.283119     0.733259
C       0.493706     3.697406     1.042239
H       1.428856     3.778493     1.593387
H       0.573043     4.252544     0.107904
H      -0.304637     4.123027     1.658766
C       0.167032    -1.166293     4.010712
C      -0.480397     0.070574     4.658297
C       1.127129    -1.816223     5.031163
H       0.290488     0.795867     4.917024
H      -1.191627     0.564984     3.994437
H      -1.014510    -0.231803     5.563602
H       0.588339    -2.104431     5.937419
H       1.601118    -2.707887     4.612292
H       1.907513    -1.100229     5.302334
C      -0.894096    -2.163103     3.749591
N      -1.710744    -2.954327     3.580422
48
     -1091.838271     -1091.498298   3.06   2.60
C       0.410507     2.314539     0.142256
C      -0.460246     1.282679    -0.238925
C      -1.487108     0.860775     0.618173
C      -1.607166     1.453193     1.874255
C      -0.742740     2.468128     2.254500
C       0.256430     2.901345     1.394514
C       1.501226     2.782569    -0.757025
C       1.246916     3.124065    -2.085632
C       2.270938     3.581978    -2.902887
C       3.562927     3.707633    -2.403762
C       3.824617     3.371847    -1.081135
C       2.799306     2.913520    -0.263442
H      -2.377214     1.112607     2.556572
H      -0.852975     2.925133     3.232720
H       0.918568     3.708642     1.687510
H       0.239629     3.035480    -2.477280
H       2.057967     3.843873    -3.934512
H       4.362413     4.065449    -3.044724
H       4.830562     3.463956    -0.683608
H       3.009459     2.637941     0.765490
C      -0.267580     0.562567    -1.491761
N      -0.408436    -0.600567    -1.836399
C      -2.216807    -1.330780    -0.377034
O      -3.147885    -2.094228    -0.547773
C      -0.807144    -1.704081    -0.884040
C       0.279450    -1.789358     0.214184
H       0.316005    -0.839388     0.746859
H       1.236713    -1.876968    -0.309661
C      -0.912621    -2.969600    -1.727183
H      -1.523455    -2.764764    -2.606709
H       0.084471    -3.272916    -2.056097
H      -1.387297    -3.779127    -1.176108
N      -2.442979    -0.116609     0.237560
C      -3.838350     0.135164     0.620490
H      -3.969677     1.204566     0.785112
H      -4.490896    -0.190725    -0.187996
H      -4.116645    -0.415800     1.524937
C       0.221349    -2.906284     1.296997
C       0.684727    -4.287681     0.795364
C      -1.151377    -3.015501     1.984120
H       0.817770    -4.964778     1.643359
H      -0.051083    -4.728011     0.124241
H       1.639005    -4.210370     0.267715
H      -1.902969    -3.389282     1.286342
H      -1.091564    -3.705977     2.829432
H      -1.479757    -2.043697     2.363430
C       1.200955    -2.488944     2.327374
N       1.964762    -2.172322     3.125565
48
     -1091.838271     -1091.498297   3.06   2.60
C       1.800921    -1.295687     0.582514
C       0.822198    -0.392813     1.024283
C      -0.393232    -0.856279     1.548679
C      -0.634474    -2.228637     1.588094
C       0.329343    -3.121313     1.145266
C       1.541375    -2.661058     0.650555
C       3.101012    -0.823601     0.030857
C       3.567710    -1.335149    -1.180050
C       4.789664    -0.924566    -1.697931
C       5.561887     0.002208    -1.008485
C       5.104666     0.515357     0.200555
C       3.883840     0.104886     0.717575
H      -1.583086    -2.595997     1.961873
H       0.130365    -4.187343     1.188935
H       2.300634    -3.362671     0.323042
H       2.959572    -2.048392    -1.728012
H       5.137089    -1.328408    -2.643787
H       6.516678     0.324935    -1.411304
H       5.702790     1.238416     0.746109
H       3.535467     0.501908     1.664608
C       1.002795     1.045363     0.868342
N       0.255166     1.974438     0.604967
C      -1.851328     1.193052     1.545861
O      -2.765785     1.774050     2.098238
C      -1.208564     1.792121     0.276401
C      -1.297288     0.898230    -0.983418
H      -0.847305    -0.068895    -0.760470
H      -0.651209     1.364115    -1.734400
C      -1.769194     3.193292     0.062004
H      -1.475676     3.828845     0.897803
H      -1.357872     3.613743    -0.859090
H      -2.856534     3.186699     0.017481
N      -1.372642     0.018018     2.087381
C      -2.036500    -0.410976     3.325258
H      -1.397562    -1.132474     3.834342
H      -2.185715     0.457216     3.965297
H      -3.015705    -0.858879     3.126326
C      -2.673955     0.607105    -1.649314
C      -3.218333     1.774496    -2.495165
C      -3.740660     0.121411    -0.651976
H      -3.558142     2.592394    -1.861694
H      -2.451199     2.153152    -3.175726
H      -4.067550     1.434363    -3.093827
H      -4.632960    -0.207607    -1.190895
H      -3.371815    -0.721869    -0.061260
H      -4.026159     0.925412     0.028885
C      -2.412366    -0.503560    -2.594550
N      -2.212266    -1.360389    -3.333850
48
     -1091.839464     -1091.498182   2.31   2.67
C       0.304737    -1.204326    -1.672236
C       0.937687    -0.550744    -0.602751
C       1.651727    -1.277656     0.363137
C       1.688839    -2.668580     0.266440
C       1.063005    -3.314669    -0.788210
C       0.379596    -2.590628    -1.754713
C      -0.436031    -0.447206    -2.719261
C      -0.208941    -0.729432    -4.066708
C      -0.902320    -0.048320    -5.059215
C      -1.832485     0.925905    -4.716160
C      -2.064560     1.213262    -3.375956
C      -1.373727     0.529580    -2.385555
H       2.205735    -3.247146     1.022227
H       1.105429    -4.397364    -0.850722
H      -0.120479    -3.101839    -2.569800
H       0.530743    -1.476096    -4.339022
H      -0.711278    -0.276751    -6.103064
H      -2.372934     1.460730    -5.490907
H      -2.784195     1.973728    -3.091001
H      -1.575009     0.766229    -1.349099
C       0.878845     0.895111    -0.460736
N       0.824674     1.658247     0.491101
C       1.980309     0.380389     2.232290
O       2.638784     0.649498     3.216825
C       0.708675     1.198720     1.910411
C      -0.512566     0.284461     2.155762
H      -0.370783    -0.185343     3.135994
H      -0.493254    -0.524476     1.425388
C       0.711915     2.449044     2.782104
H       0.627230     2.190056     3.838162
H       1.646408     2.991025     2.637476
H      -0.108192     3.104351     2.483689
N       2.385188    -0.652043     1.405622
C       3.654999    -1.281161     1.789973
H       4.351855    -0.504107     2.098822
H       3.529494    -1.976241     2.626479
H       4.059243    -1.809750     0.926723
C      -1.949831     0.873016     2.150618
C      -2.352935     1.483657     3.506863
C      -2.927111    -0.274683     1.817206
H      -2.274007     0.719007     4.285331
H      -1.724489     2.328068     3.784566
H      -3.389395     1.828747     3.467012
H      -3.959661     0.082822     1.825556
H      -2.715066    -0.696603     0.831449
H      -2.827093    -1.068345     2.564014
C      -2.129980     1.903375     1.108168
N      -2.350415     2.695703     0.305963
48
     -1091.839464     -1091.498181   2.31   2.68
C       1.339306    -1.365224    -0.721964
C       1.176041     0.007792    -0.477499
C       2.012480     0.681790     0.426544
C       2.986156    -0.044750     1.111739
C       3.147000    -1.400509     0.872094
C       2.334744    -2.057750    -0.040973
C       0.477308    -2.090972    -1.695864
C      -0.911574    -1.967705    -1.672271
C      -1.698071    -2.664323    -2.578753
C      -1.107460    -3.500342    -3.519408
C       0.275870    -3.632720    -3.549067
C       1.062129    -2.931978    -2.643244
H       3.616936     0.452454     1.838401
H       3.912503    -1.949903     1.410710
H       2.455138    -3.121370    -0.214166
H      -1.393746    -1.327232    -0.945591
H      -2.776177    -2.546402    -2.544626
H      -1.722743    -4.045294    -4.228499
H       0.746410    -4.279925    -4.282564
H       2.143330    -3.023050    -2.682015
C       0.142110     0.776572    -1.151353
N      -0.571161     1.714252    -0.829937
C       0.819774     2.865666     0.825258
O       0.946725     4.010876     1.209569
C      -0.591900     2.299998     0.546847
C      -0.906015     1.259976     1.645569
H      -0.657872     1.723478     2.607475
H      -0.225441     0.416356     1.530157
C      -1.575667     3.463842     0.517908
H      -1.645366     3.941737     1.495794
H      -1.237328     4.208448    -0.202527
H      -2.555772     3.105649     0.198298
N       1.945277     2.085052     0.632620
C       3.218351     2.782208     0.854416
H       4.012735     2.227975     0.354614
H       3.149589     3.781570     0.428558
H       3.448529     2.882681     1.920039
C      -2.338322     0.677371     1.791247
C      -3.271532     1.579886     2.621525
C      -2.220325    -0.690747     2.496782
H      -4.245139     1.097953     2.742994
H      -2.836963     1.733686     3.613708
H      -3.429449     2.551748     2.157155
H      -1.615238    -1.384910     1.907966
H      -1.745666    -0.558259     3.473905
H      -3.207702    -1.134150     2.646851
C      -2.978396     0.429501     0.483706
N      -3.529757     0.188915    -0.495083
48
     -1091.837626     -1091.497860   3.47   2.88
C       0.944210     0.912196    -2.237384
C       0.798070     1.030573    -0.847089
C       0.596773     2.283904    -0.251573
C       0.510341     3.411856    -1.066721
C       0.648456     3.295208    -2.441046
C       0.866597     2.055600    -3.025578
C       1.165597    -0.410163    -2.885298
C       0.371759    -0.794807    -3.965850
C       0.580468    -2.014073    -4.598223
C       1.589009    -2.862746    -4.158706
C       2.386670    -2.485034    -3.083835
C       2.177744    -1.266904    -2.452104
H       0.325037     4.382355    -0.622535
H       0.584152     4.183878    -3.060831
H       0.991200     1.969847    -4.099411
H      -0.425858    -0.139323    -4.301958
H      -0.048626    -2.301909    -5.434789
H       1.753549    -3.815975    -4.650959
H       3.178022    -3.141630    -2.736128
H       2.807227    -0.972354    -1.619558
C       0.779755    -0.146578     0.010951
N       0.162250    -0.441463     1.023139
C      -0.248798     1.741029     2.053966
O      -0.394111     2.165847     3.182710
C      -0.906155     0.406335     1.623953
C      -1.441741    -0.274219     2.902863
H      -2.379707     0.226096     3.157832
H      -0.758002    -0.052462     3.722307
C      -2.036857     0.703569     0.624330
H      -2.819476     1.272353     1.133807
H      -1.693996     1.287340    -0.229204
H      -2.468660    -0.220900     0.244979
N       0.519358     2.456854     1.155591
C       1.149897     3.661561     1.709576
H       1.554403     3.426209     2.692585
H       1.959730     3.967495     1.047256
H       0.433083     4.480976     1.824851
C      -1.674918    -1.815284     2.918095
C      -0.373518    -2.598770     3.182602
C      -2.387115    -2.386877     1.679905
H      -0.595849    -3.660685     3.320579
H       0.307289    -2.481334     2.339940
H       0.120206    -2.230552     4.085863
H      -3.342744    -1.888010     1.500778
H      -1.751040    -2.281291     0.798358
H      -2.586668    -3.451112     1.831041
C      -2.562986    -2.055757     4.078701
N      -3.255115    -2.244308     4.977019
48
     -1091.837626     -1091.497857   3.47   2.88
C       1.532946    -0.686037    -1.934422
C       1.313537    -0.408478    -0.576809
C       2.273595     0.279951     0.178407
C       3.439857     0.715822    -0.449337
C       3.654882     0.447474    -1.792171
C       2.711053    -0.250771    -2.532127
C       0.527043    -1.422123    -2.749145
C       0.006636    -2.644422    -2.323390
C      -0.911294    -3.329592    -3.107303
C      -1.319866    -2.804311    -4.328543
C      -0.804341    -1.588763    -4.761274
C       0.114578    -0.903333    -3.976521
H       4.176431     1.274999     0.114831
H       4.570576     0.788953    -2.264292
H       2.889793    -0.473950    -3.578187
H       0.328963    -3.061360    -1.375546
H      -1.307829    -4.279755    -2.763491
H      -2.038234    -3.341303    -4.939787
H      -1.119580    -1.170011    -5.711916
H       0.505608     0.053056    -4.310040
C       0.057295    -0.762172     0.070502
N      -0.628988    -0.225651     0.927212
C       1.023049     1.028850     2.227920
O       1.136916     1.399432     3.379158
C      -0.342454     1.118884     1.502845
C      -1.406947     1.456943     2.569704
H      -1.324659     2.528563     2.769615
H      -1.129898     0.962057     3.500562
C      -0.263005     2.205885     0.417396
H       0.561121     2.041298    -0.275850
H      -1.184405     2.240651    -0.161237
H      -0.114824     3.176542     0.898480
N       2.124678     0.514958     1.570747
C       3.337032     0.410941     2.392437
H       3.816334     1.384477     2.537524
H       3.065679     0.019123     3.371298
H       4.030407    -0.275136     1.906000
C      -2.903200     1.109398     2.305268
C      -3.222494    -0.366339     2.617846
C      -3.427241     1.472741     0.905119
H      -2.893853    -0.625315     3.627872
H      -4.300335    -0.539591     2.551707
H      -2.710674    -1.014615     1.907108
H      -3.265858     2.529432     0.678092
H      -2.934049     0.858862     0.148299
H      -4.501931     1.278442     0.854617
C      -3.663070     1.927388     3.278402
N      -4.255087     2.564044     4.030569
48
     -1091.839066     -1091.497469   2.56   3.12
C       0.543061    -1.521560    -1.490803
C       0.950780    -0.401491    -0.750367
C       1.618959    -0.553110     0.472023
C       1.865774    -1.840553     0.948988
C       1.478996    -2.947762     0.210138
C       0.821279    -2.793076    -1.002635
C      -0.187627    -1.368755    -2.778754
C       0.241075    -2.064928    -3.908337
C      -0.442904    -1.950288    -5.112045
C      -1.567327    -1.138789    -5.199855
C      -2.003199    -0.443452    -4.077320
C      -1.319118    -0.557929    -2.875174
H       2.356104    -1.976118     1.905319
H       1.683847    -3.942333     0.593195
H       0.499666    -3.661546    -1.566866
H       1.128300    -2.687553    -3.845743
H      -0.093879    -2.494677    -5.983853
H      -2.102724    -1.047726    -6.139545
H      -2.882314     0.190468    -4.136314
H      -1.675687    -0.021230    -2.002358
C       0.707868     0.949963    -1.229529
N       0.424229     2.005986    -0.685715
C       1.410149     1.706231     1.550345
O       1.837428     2.420799     2.437085
C       0.137730     2.122030     0.788871
C      -1.104085     1.250885     1.107518
H      -1.015681     0.295487     0.587103
H      -1.952652     1.768815     0.649435
C      -0.116727     3.610776     1.026770
H       0.734996     4.184699     0.659030
H      -1.003153     3.907917     0.460572
H      -0.254307     3.846936     2.077501
N       2.098812     0.554062     1.219980
C       3.365402     0.370152     1.937264
H       3.978097    -0.343777     1.386492
H       3.881245     1.327276     1.988169
H       3.210873     0.014016     2.961516
C      -1.481849     0.910404     2.579537
C      -1.579630     2.123663     3.519616
C      -0.559530    -0.154384     3.204225
H      -2.209830     2.908123     3.094684
H      -2.015907     1.813824     4.472911
H      -0.584387     2.527254     3.715814
H       0.434782     0.257528     3.386751
H      -0.968015    -0.478329     4.165062
H      -0.470631    -1.029909     2.556943
C      -2.833511     0.310501     2.486829
N      -3.882313    -0.152974     2.409966
48
     -1091.839065     -1091.497469   2.56   3.12
C      -0.520590    -2.042581    -0.868713
C       0.417396    -1.198492    -0.254930
C       0.624191    -1.241778     1.130368
C      -0.126756    -2.134364     1.895410
C      -1.041111    -2.980862     1.288117
C      -1.239633    -2.937900    -0.085230
C      -0.762562    -1.986363    -2.336488
C      -1.030884    -0.776739    -2.978221
C      -1.277073    -0.743308    -4.343688
C      -1.260214    -1.918302    -5.087105
C      -0.996235    -3.127491    -4.455642
C      -0.750457    -3.160396    -3.088750
H       0.000065    -2.161447     2.970843
H      -1.613028    -3.673246     1.897529
H      -1.972362    -3.585482    -0.554034
H      -1.059510     0.144357    -2.405720
H      -1.485236     0.205302    -4.828441
H      -1.452084    -1.890643    -6.154991
H      -0.978397    -4.049329    -5.028464
H      -0.529355    -4.104279    -2.599929
C       1.214317    -0.262942    -1.032552
N       1.634301     0.866199    -0.832490
C       1.825325     0.909215     1.621795
O       2.484954     1.504753     2.452279
C       1.287360     1.668501     0.394659
C      -0.247040     1.887518     0.408104
H      -0.745457     0.953798     0.141308
H      -0.452136     2.585639    -0.409649
C       2.062782     2.977603     0.244062
H       3.121245     2.754669     0.102607
H       1.698244     3.498582    -0.644937
H       1.966722     3.620772     1.113453
N       1.605030    -0.446375     1.779074
C       2.300301    -1.051906     2.920344
H       1.799639    -0.834918     3.870112
H       2.349972    -2.130065     2.766900
H       3.308990    -0.646060     2.971419
C      -0.965459     2.413754     1.685768
C      -0.362801     3.695348     2.285457
C      -1.096743     1.341224     2.784460
H       0.603852     3.476605     2.743302
H      -0.235327     4.469855     1.525860
H      -1.027479     4.084003     3.061511
H      -1.522835     0.417284     2.386715
H      -0.123211     1.123892     3.227908
H      -1.751702     1.706296     3.579922
C      -2.338330     2.738519     1.232755
N      -3.401524     2.990119     0.876355
48
     -1091.837549     -1091.497422   3.51   3.15
C       0.620940     1.101228    -2.293735
C       0.523483     1.178731    -0.896599
C       0.142349     2.373067    -0.267735
C      -0.153622     3.483018    -1.058962
C      -0.039430     3.412070    -2.438643
C       0.345936     2.230209    -3.056404
C       1.000262    -0.170680    -2.967702
C       2.021175    -0.179635    -3.917294
C       2.369942    -1.355988    -4.569050
C       1.699060    -2.538110    -4.280698
C       0.677337    -2.536822    -3.337306
C       0.330200    -1.361387    -2.686334
H      -0.479428     4.404586    -0.592593
H      -0.267128     4.288199    -3.037390
H       0.411727     2.171073    -4.137227
H       2.556197     0.740134    -4.132945
H       3.170316    -1.348559    -5.302260
H       1.970694    -3.457834    -4.788890
H       0.145635    -3.455193    -3.108825
H      -0.477062    -1.364942    -1.961540
C       0.822898     0.030234    -0.055184
N       0.348604    -0.393380     0.989030
C      -0.472803     1.646814     2.063074
O      -0.661547     2.029612     3.200103
C      -0.846837     0.201583     1.649731
C      -1.159478    -0.581627     2.944087
H      -2.171662    -0.301505     3.247490
H      -0.503687    -0.216299     3.734404
C      -2.063839     0.249456     0.710242
H      -2.925582     0.629793     1.265378
H      -1.901016     0.899689    -0.148730
H      -2.303184    -0.745592     0.338180
N       0.093563     2.511919     1.143897
C       0.493328     3.812885     1.694642
H       0.957682     3.654564     2.666256
H       1.214617     4.271495     1.018286
H      -0.364397     4.479084     1.832632
C      -1.045327    -2.136282     2.949678
C       0.407458    -2.611841     3.151470
C      -1.664471    -2.847287     1.733793
H       0.433038    -3.697745     3.279031
H       1.010278    -2.337503     2.286039
H       0.842549    -2.150734     4.042137
H      -2.714300    -2.574647     1.601031
H      -1.105934    -2.597519     0.828893
H      -1.614194    -3.929824     1.877650
C      -1.809070    -2.572066     4.141337
N      -2.404864    -2.912638     5.063603
48
     -1091.837618     -1091.496765   3.47   3.56
C       0.945050     0.913285    -2.258838
C       0.824612     1.062214    -0.869238
C       0.495533     2.304105    -0.307231
C       0.259048     3.386751    -1.153286
C       0.372666     3.239476    -2.527005
C       0.714887     2.012988    -3.079068
C       1.298511    -0.397172    -2.871295
C       0.529037    -0.903239    -3.918946
C       0.857507    -2.112908    -4.518032
C       1.962825    -2.830448    -4.077624
C       2.736717    -2.331174    -3.035463
C       2.408231    -1.122648    -2.437091
H      -0.024397     4.344268    -0.732993
H       0.190588     4.093161    -3.172028
H       0.819137     1.905555    -4.153152
H      -0.343256    -0.351297    -4.255526
H       0.246162    -2.496063    -5.329151
H       2.221120    -3.776008    -4.543699
H       3.602933    -2.884804    -2.687039
H       3.019275    -0.733133    -1.630296
C       0.972821    -0.075232     0.028706
N       0.418954    -0.404659     1.066514
C      -0.215324     1.736522     2.037079
O      -0.342734     2.155752     3.169837
C      -0.747472     0.334553     1.645153
C      -1.150747    -0.367922     2.952407
H      -1.817778     0.301138     3.499403
H      -0.241318    -0.447798     3.551832
C      -1.903752     0.466921     0.644648
H      -1.687659     1.181098    -0.148809
H      -2.112255    -0.494738     0.173765
H      -2.799578     0.807828     1.169219
N       0.432745     2.512886     1.095627
C       0.952841     3.789732     1.599991
H       1.417688     3.621531     2.570052
H       1.699065     4.164076     0.899200
H       0.157837     4.531480     1.728181
C      -1.815098    -1.775899     2.909098
C      -1.076550    -2.805753     2.034977
C      -3.315006    -1.745879     2.545742
H      -1.532045    -3.791761     2.164260
H      -1.138064    -2.530386     0.980486
H      -0.021339    -2.867482     2.305049
H      -3.842286    -0.981443     3.122791
H      -3.460100    -1.545856     1.484281
H      -3.769917    -2.714813     2.768724
C      -1.744982    -2.261297     4.307611
N      -1.700301    -2.640613     5.391703
48
     -1091.837618     -1091.496765   3.47   3.56
C       1.484834    -2.078236    -0.205353
C       0.407557    -1.415001     0.400675
C       0.237021    -1.447355     1.792188
C       1.173345    -2.125309     2.571630
C       2.241276    -2.776729     1.974236
C       2.397824    -2.756750     0.595375
C       1.677568    -2.057784    -1.681758
C       0.641743    -2.400480    -2.551212
C       0.846055    -2.398907    -3.924071
C       2.088628    -2.057598    -4.447333
C       3.126464    -1.717669    -3.588325
C       2.921658    -1.719429    -2.214227
H       1.068917    -2.133202     3.649989
H       2.958778    -3.304603     2.594335
H       3.225142    -3.281395     0.130231
H      -0.326425    -2.675256    -2.147279
H       0.030812    -2.667607    -4.588461
H       2.246036    -2.056403    -5.521226
H       4.099003    -1.447423    -3.987827
H       3.730194    -1.439870    -1.545691
C      -0.529022    -0.620991    -0.383176
N      -1.122341     0.426453    -0.175404
C      -1.381196     0.423186     2.245741
O      -2.215130     0.856000     3.015385
C      -0.897672     1.270038     1.041021
C      -1.832933     2.487501     0.951112
H      -1.861003     2.960798     1.934462
H      -2.835772     2.092573     0.774768
C       0.578793     1.649696     1.218295
H       0.993323     2.017070     0.278510
H       0.663045     2.433578     1.974817
H       1.189440     0.806872     1.539354
N      -0.877062    -0.848902     2.437336
C      -1.459524    -1.580219     3.569209
H      -1.062143    -1.231161     4.527802
H      -2.536850    -1.422899     3.572576
H      -1.247506    -2.642167     3.445083
C      -1.568152     3.598682    -0.107568
C      -1.340952     3.078525    -1.538637
C      -0.444507     4.580429     0.287718
H      -1.293755     3.922105    -2.233294
H      -0.403170     2.523470    -1.602193
H      -2.147340     2.412241    -1.848517
H      -0.474030     5.458909    -0.362587
H      -0.564789     4.917512     1.320810
H       0.537519     4.119883     0.181489
C      -2.817039     4.396346    -0.127037
N      -3.780157     5.023499    -0.141746
48
     -1091.835350     -1091.494211   4.89   5.17
C      -0.799064    -1.765147    -0.791261
C       0.229900    -1.099318    -0.105542
C       0.520026    -1.403836     1.230873
C      -0.239932    -2.390325     1.863129
C      -1.248159    -3.052030     1.183728
C      -1.536310    -2.742649    -0.137309
C      -1.137001    -1.419356    -2.201427
C      -0.178642    -1.467838    -3.213359
C      -0.521376    -1.158196    -4.522194
C      -1.826813    -0.796275    -4.838148
C      -2.788048    -0.747138    -3.836345
C      -2.444203    -1.059300    -2.526558
H      -0.074534    -2.619044     2.906132
H      -1.826951    -3.808971     1.703229
H      -2.326065    -3.262438    -0.668218
H       0.838793    -1.754889    -2.971668
H       0.234777    -1.200930    -5.299786
H      -2.092308    -0.553483    -5.862177
H      -3.809065    -0.464061    -4.072844
H      -3.192298    -1.010846    -1.741110
C       0.970192    -0.053889    -0.791388
N       1.570049     0.959398    -0.485326
C       1.754780     0.613981     2.056776
O       2.102060     1.095170     3.115963
C       1.765376     1.564733     0.841132
C       0.797497     2.743995     1.061992
H       0.989942     3.472997     0.268485
H       1.106792     3.197932     2.007200
C       3.196057     2.138561     0.806371
H       3.916809     1.326710     0.678565
H       3.282851     2.811049    -0.049345
H       3.422582     2.671856     1.729247
N       1.553889    -0.760423     1.964202
C       2.062938    -1.484582     3.136206
H       1.410468    -1.372013     4.007024
H       2.162942    -2.538435     2.874939
H       3.041811    -1.083609     3.393142
C      -0.737330     2.538473     1.118215
C      -1.378270     2.263932    -0.255505
C      -1.354785     3.825772     1.706209
H      -1.060447     3.032950    -0.965230
H      -1.107019     1.292067    -0.660216
H      -2.468010     2.300667    -0.170468
H      -0.964065     4.027011     2.706655
H      -1.114594     4.674633     1.059083
H      -2.441865     3.735522     1.771798
C      -1.087371     1.437225     2.035881
N      -1.386130     0.595875     2.759967
48
     -1091.835350     -1091.494209   4.89   5.17
C       1.122218    -1.522131    -0.886771
C       1.036938    -0.179640    -0.483348
C       1.847561     0.316469     0.546059
C       2.745942    -0.559524     1.159242
C       2.835292    -1.880342     0.754996
C       2.026103    -2.368877    -0.260107
C       0.236242    -2.064982    -1.955743
C      -0.553020    -3.183763    -1.692075
C      -1.375933    -3.718026    -2.676247
C      -1.414919    -3.140340    -3.939083
C      -0.627604    -2.026219    -4.210832
C       0.192415    -1.492268    -3.226525
H       3.354023    -0.223500     1.986798
H       3.537581    -2.539651     1.254939
H       2.097849    -3.403696    -0.575954
H      -0.529882    -3.628085    -0.701639
H      -1.988081    -4.586632    -2.454123
H      -2.056256    -3.555533    -4.710039
H      -0.651012    -1.570547    -5.195747
H       0.808948    -0.626964    -3.443604
C       0.061841     0.686494    -1.123922
N      -0.582321     1.674793    -0.826309
C       0.649887     2.376994     1.319454
O       0.674168     3.140906     2.262783
C      -0.619228     2.418702     0.442277
C      -1.866355     2.047024     1.268569
H      -2.742047     2.279697     0.654436
H      -1.866917     2.737215     2.116377
C      -0.759978     3.897407     0.028814
H      -0.861986     4.537126     0.905040
H       0.121639     4.208182    -0.537836
H      -1.634767     3.998746    -0.616554
N       1.800094     1.667525     0.985398
C       2.991110     2.161489     1.688684
H       2.983522     3.249683     1.661049
H       3.011730     1.848414     2.736669
H       3.876602     1.794416     1.169042
C      -2.077750     0.616606     1.825625
C      -2.475254    -0.415464     0.753197
C      -3.201326     0.693348     2.881947
H      -2.774187    -1.352028     1.232365
H      -3.324275    -0.034288     0.178759
H      -1.666323    -0.637057     0.061519
H      -2.933594     1.377594     3.690760
H      -4.121728     1.051016     2.410816
H      -3.391977    -0.292680     3.312751
C      -0.867312     0.138723     2.521222
N       0.056857    -0.248317     3.084726
48
     -1091.835114     -1091.493668   5.04   5.51
C       0.036314    -1.472492    -1.695443
C       0.591795    -0.832227    -0.575081
C       1.099978    -1.577583     0.502911
C       1.007690    -2.971432     0.438967
C       0.473724    -3.599578    -0.675551
C      -0.008077    -2.860421    -1.743403
C      -0.503301    -0.689944    -2.842811
C      -1.455580     0.308576    -2.646177
C      -1.958954     1.023065    -3.723762
C      -1.523378     0.741292    -5.013985
C      -0.580299    -0.258994    -5.219532
C      -0.073431    -0.970909    -4.138970
H       1.346032    -3.581135     1.264365
H       0.425540    -4.683814    -0.697907
H      -0.443017    -3.351342    -2.606560
H      -1.812446     0.535838    -1.649865
H      -2.692356     1.802370    -3.544700
H      -1.917162     1.300195    -5.857250
H      -0.233628    -0.483832    -6.223402
H       0.675743    -1.740578    -4.298400
C       0.672441     0.620362    -0.579756
N       0.820121     1.516631     0.228060
C       1.293910     0.132607     2.346805
O       1.358251     0.126169     3.559577
C       1.006304     1.489767     1.679702
C      -0.162381     2.210980     2.371194
H      -0.114716     3.263326     2.076120
H       0.032886     2.157692     3.444947
C       2.297252     2.298335     1.937304
H       2.462384     2.426801     3.008372
H       3.155859     1.781551     1.499884
H       2.199175     3.272209     1.454760
N       1.725167    -0.992932     1.639838
C       2.550286    -1.887629     2.463246
H       3.164734    -2.500363     1.802801
H       3.199954    -1.280447     3.090765
H       1.949485    -2.527067     3.117473
C      -1.607639     1.712836     2.140986
C      -2.522394     2.419215     3.163178
C      -1.761429     0.189880     2.284871
H      -3.569214     2.159537     2.986874
H      -2.250462     2.106288     4.175018
H      -2.421212     3.505583     3.093614
H      -1.213493    -0.352365     1.511820
H      -1.397545    -0.127566     3.265466
H      -2.814848    -0.089341     2.195542
C      -2.089469     2.116020     0.801853
N      -2.533211     2.444516    -0.206064
48
     -1091.835114     -1091.493665   5.04   5.51
C      -1.317480    -1.268196    -1.343667
C      -0.333420    -1.097097    -0.355706
C      -0.422283    -1.771051     0.874642
C      -1.533476    -2.590684     1.095698
C      -2.493747    -2.769409     0.111942
C      -2.390992    -2.117750    -1.106081
C      -1.230077    -0.558783    -2.651012
C      -1.326437    -1.279574    -3.840519
C      -1.262036    -0.628282    -5.066506
C      -1.101159     0.751577    -5.114623
C      -1.008673     1.476206    -3.931336
C      -1.077644     0.825443    -2.707890
H      -1.663756    -3.092762     2.043559
H      -3.339244    -3.420270     0.311704
H      -3.151924    -2.242783    -1.868031
H      -1.435076    -2.359348    -3.803696
H      -1.333135    -1.201505    -5.985664
H      -1.047259     1.260587    -6.071983
H      -0.880056     2.553406    -3.950248
H      -1.012359     1.406663    -1.797091
C       0.805285    -0.242988    -0.656367
N       1.675318     0.346001    -0.044977
C       1.219589    -0.529984     2.332815
O       1.412019    -0.379216     3.522450
C       1.962232     0.431833     1.387822
C       1.829344     1.888293     1.862381
H       2.609735     2.466330     1.358754
H       2.054320     1.887148     2.931635
C       3.440651     0.006951     1.530812
H       4.043578     0.614294     0.853678
H       3.781393     0.142904     2.558609
H       3.557088    -1.043015     1.248629
N       0.567757    -1.685218     1.893344
C       0.541070    -2.736438     2.919762
H       1.498743    -2.740547     3.436844
H      -0.244569    -2.574571     3.664361
H       0.397953    -3.699264     2.428176
C       0.486117     2.630439     1.675539
C       0.550034     3.940735     2.487728
C      -0.734840     1.810683     2.123890
H       1.419655     4.537518     2.199833
H      -0.348442     4.540467     2.322176
H       0.622810     3.707361     3.553528
H      -1.641026     2.417812     2.047321
H      -0.883014     0.923821     1.504700
H      -0.609505     1.499325     3.164130
C       0.302234     3.024767     0.261784
N       0.129761     3.398780    -0.811101
48
     -1091.834707     -1091.493560   5.30   5.57
C      -0.507651     0.694945    -2.640012
C       0.089403     0.840395    -1.378376
C      -0.134052     1.993402    -0.610788
C      -0.986754     2.980112    -1.103204
C      -1.580926     2.834248    -2.346870
C      -1.341324     1.702641    -3.114044
C      -0.276969    -0.518124    -3.472264
C       1.012673    -0.985267    -3.727365
C       1.211060    -2.103677    -4.524959
C       0.124113    -2.769624    -5.080931
C      -1.163523    -2.309684    -4.834047
C      -1.361718    -1.190082    -4.035766
H      -1.189292     3.860336    -0.504211
H      -2.237285     3.613943    -2.719960
H      -1.793067     1.600514    -4.094607
H       1.864011    -0.464655    -3.302981
H       2.220255    -2.455497    -4.714512
H       0.281374    -3.644432    -5.703846
H      -2.018168    -2.824732    -5.261528
H      -2.369758    -0.841726    -3.832653
C       0.881802    -0.233238    -0.795420
N       1.032706    -0.670317     0.335490
C       0.718482     1.325979     1.660896
O       1.298024     1.697632     2.662499
C       0.249935    -0.137863     1.517141
C       0.747287    -0.985324     2.706684
H       1.768022    -0.663653     2.915683
H       0.815185    -2.008620     2.327262
C      -1.252037    -0.277380     1.259169
H      -1.824630     0.187731     2.063003
H      -1.559626     0.187298     0.325288
H      -1.511940    -1.336600     1.207063
N       0.516828     2.219749     0.628652
C       1.031040     3.574681     0.870741
H       2.007116     3.503017     1.348052
H       1.130551     4.088452    -0.085053
H       0.369180     4.144889     1.530440
C      -0.024733    -1.056782     4.059486
C      -1.280105    -1.955242     4.004240
C      -0.379494     0.299694     4.695950
H      -1.613744    -2.186939     5.019262
H      -2.100764    -1.455448     3.489964
H      -1.066654    -2.897377     3.492441
H      -1.069288     0.858416     4.059184
H      -0.867511     0.130415     5.660104
H       0.507896     0.912487     4.843805
C       0.913573    -1.735380     4.985171
N       1.627524    -2.272341     5.708387
48
     -1091.835187     -1091.492945   5.00   5.96
C       1.025248    -1.389231    -0.953801
C       0.883266    -0.050166    -0.556257
C       1.824304     0.548543     0.295035
C       2.820700    -0.244551     0.861415
C       2.917599    -1.586493     0.528386
C       2.046297    -2.148631    -0.391959
C       0.159963    -2.005477    -2.001073
C      -1.230020    -1.895539    -1.997474
C      -1.987005    -2.498959    -2.992150
C      -1.371140    -3.220250    -4.008199
C       0.013433    -3.332719    -4.024108
C       0.770168    -2.728366    -3.028549
H       3.522850     0.192773     1.561302
H       3.695264    -2.193898     0.980261
H       2.137863    -3.194345    -0.661567
H      -1.728273    -1.359968    -1.202217
H      -3.068221    -2.407678    -2.966529
H      -1.967608    -3.690980    -4.783371
H       0.508238    -3.888236    -4.814643
H       1.852669    -2.803125    -3.056871
C      -0.252242     0.746633    -0.988658
N      -0.888761     1.671244    -0.505349
C       0.843430     2.816598     0.816313
O       1.091132     3.973019     1.098057
C      -0.619650     2.320144     0.810664
C      -0.784561     1.408274     2.055455
H      -0.841852     2.101814     2.900196
H       0.126254     0.823684     2.211187
C      -1.524808     3.550951     0.886495
H      -2.568476     3.256238     0.792210
H      -1.374146     4.084366     1.825752
H      -1.287101     4.229816     0.067089
N       1.875523     1.952098     0.523398
C       3.211246     2.564118     0.536984
H       3.154176     3.545115     0.068236
H       3.585673     2.696316     1.557138
H       3.893423     1.929034    -0.027452
C      -1.974988     0.417794     2.189949
C      -3.295392     0.860019     1.541461
C      -2.205781     0.162344     3.695807
H      -3.176964     1.048014     0.473316
H      -4.045256     0.075070     1.672371
H      -3.664325     1.766375     2.027216
H      -1.283665    -0.164778     4.183812
H      -2.549234     1.083172     4.175571
H      -2.963561    -0.611563     3.840881
C      -1.586562    -0.888148     1.619778
N      -1.299398    -1.939968     1.257620
48
     -1091.835187     -1091.492941   5.00   5.96
C       1.480297     0.312216    -1.345420
C       0.364161     0.807409    -0.652370
C       0.474065     1.941247     0.166801
C       1.736854     2.481988     0.402482
C       2.852408     1.947214    -0.222550
C       2.723537     0.890112    -1.110313
C       1.368253    -0.767807    -2.368289
C       1.994180    -0.583190    -3.603098
C       1.932275    -1.559782    -4.588727
C       1.237938    -2.739890    -4.353821
C       0.608016    -2.930596    -3.129592
C       0.670595    -1.954229    -2.145060
H       1.843562     3.325525     1.074170
H       3.830496     2.374809    -0.026590
H       3.597223     0.487365    -1.609369
H       2.521596     0.345013    -3.799236
H       2.424260    -1.394923    -5.542219
H       1.186737    -3.506822    -5.120271
H       0.066223    -3.850211    -2.932662
H       0.195564    -2.131117    -1.190820
C      -0.927962     0.148432    -0.738326
N      -1.879094     0.017121     0.017815
C      -1.776885     2.116871     1.298291
O      -2.595598     2.872163     1.785414
C      -1.985253     0.588804     1.391602
C      -0.950542     0.060963     2.420679
H      -1.357967     0.349353     3.394692
H      -0.010244     0.609274     2.316889
C      -3.421841     0.346716     1.858009
H      -4.114709     0.844970     1.179433
H      -3.644980    -0.718706     1.850127
H      -3.576283     0.749912     2.859516
N      -0.657168     2.632901     0.683198
C      -0.601926     4.100555     0.640424
H       0.098029     4.402305    -0.138226
H      -1.593967     4.483901     0.407538
H      -0.291838     4.522251     1.601883
C      -0.577685    -1.445784     2.504221
C      -1.699059    -2.437113     2.158743
C      -0.071643    -1.725786     3.936572
H      -2.083622    -2.275646     1.150608
H      -1.313215    -3.458293     2.221164
H      -2.517570    -2.339063     2.875663
H       0.304903    -2.748564     4.016240
H       0.736203    -1.040783     4.207884
H      -0.893191    -1.598646     4.647168
C       0.572812    -1.710997     1.616825
N       1.513033    -1.944901     0.999394
