48
     -1091.843148     -1091.502671   0.00   0.00
C      -1.505358    -0.166257    -2.169976
C      -0.733836     0.344263    -1.114461
C      -0.053187     1.562998    -1.247914
C      -0.135259     2.250159    -2.459428
C      -0.894081     1.745135    -3.503158
C      -1.576273     0.544362    -3.363073
C      -2.240410    -1.455648    -2.043943
C      -2.100845    -2.432225    -3.030067
C      -2.798694    -3.630430    -2.943460
C      -3.648112    -3.865263    -1.869294
C      -3.795026    -2.895282    -0.883510
C      -3.097641    -1.698396    -0.970547
H       0.406363     3.179510    -2.586135
H      -0.950696     2.295743    -4.436860
H      -2.181874     0.159248    -4.176004
H      -1.427463    -2.256229    -3.863351
H      -2.675855    -4.382632    -3.716470
H      -4.193992    -4.800740    -1.799090
H      -4.458409    -3.070097    -0.042345
H      -3.221711    -0.941391    -0.204105
C      -0.585289    -0.398304     0.129322
N       0.322265    -0.537328     0.933668
C       1.670446     1.537461     0.560177
O       2.524257     2.211967     1.101399
C       1.693885     0.005885     0.737867
C       2.523193    -0.326865     1.983905
H       3.481008     0.181746     1.874907
H       2.712887    -1.404565     1.976039
C       2.353271    -0.635173    -0.491655
H       3.385112    -0.284360    -0.578688
H       2.356112    -1.721996    -0.376866
H       1.824317    -0.387612    -1.413879
N       0.686996     2.148587    -0.188715
C       0.659004     3.611134    -0.072431
H       1.480141     4.083728    -0.620077
H      -0.298641     3.969460    -0.450382
H       0.749996     3.872002     0.981387
C       1.919344     0.021656     3.376845
C       3.051013     0.478184     4.317102
C       1.192612    -1.195948     3.981684
H       3.803906    -0.312377     4.393711
H       3.528847     1.381458     3.930614
H       2.663067     0.687156     5.317735
H       0.746563    -0.934816     4.945289
H       0.406768    -1.547580     3.311745
H       1.912740    -2.004440     4.140925
C       0.938533     1.125427     3.310791
N       0.170954     1.981076     3.308069
48
     -1091.843475     -1091.502290  -0.21   0.24
C      -1.974145     0.516353     0.386924
C      -0.874646     0.965396    -0.360120
C      -0.312350     2.228745    -0.123199
C      -0.864222     3.034808     0.872169
C      -1.958200     2.596730     1.602459
C      -2.509506     1.344757     1.367425
C      -2.550002    -0.840217     0.173018
C      -2.915473    -1.283349    -1.098334
C      -3.459802    -2.548106    -1.272599
C      -3.647782    -3.387726    -0.179793
C      -3.288865    -2.953698     1.090268
C      -2.744880    -1.687212     1.264344
H      -0.426813     4.003055     1.083606
H      -2.378666     3.239079     2.369611
H      -3.368433     1.008148     1.937656
H      -2.777913    -0.629856    -1.952587
H      -3.739780    -2.879098    -2.267676
H      -4.072782    -4.376602    -0.319112
H      -3.430318    -3.602379     1.949145
H      -2.453724    -1.354672     2.256160
C      -0.237394     0.111230    -1.349791
N       0.920179    -0.083781    -1.684375
C       1.960533     2.068872    -1.184367
O       2.893466     2.701402    -1.634482
C       2.086449     0.539148    -0.979761
C       2.116339     0.256722     0.539270
H       1.178590     0.584130     0.989991
H       2.900861     0.897026     0.958005
C       3.350567     0.064564    -1.686042
H       3.403174    -1.024551    -1.662797
H       3.333934     0.387630    -2.726861
H       4.240371     0.475403    -1.208712
N       0.780495     2.726038    -0.877443
C       0.774432     4.159441    -1.191326
H       1.337285     4.741730    -0.454481
H       1.239597     4.307533    -2.164384
H      -0.258800     4.505292    -1.225785
C       2.353152    -1.185846     1.055653
C       1.443216    -2.240055     0.403056
C       2.105310    -1.174537     2.579594
H       1.624869    -3.216751     0.860101
H       0.395195    -1.974048     0.564135
H       1.611203    -2.321538    -0.670698
H       1.057225    -0.930384     2.776294
H       2.320068    -2.155178     3.010954
H       2.736624    -0.433128     3.076922
C       3.763971    -1.583399     0.864552
N       4.861962    -1.908589     0.767026
48
     -1091.843475     -1091.502289  -0.21   0.24
C      -2.038628     0.669641    -0.042708
C      -0.805664     0.892903    -0.674028
C      -0.135832     2.117261    -0.530393
C      -0.715867     3.113380     0.254697
C      -1.939916     2.897853     0.868925
C      -2.597849     1.683910     0.727212
C      -2.735711    -0.641665    -0.153163
C      -3.169827    -1.292006     1.002247
C      -3.830254    -2.511765     0.923299
C      -4.067308    -3.095240    -0.315095
C      -3.640647    -2.451713    -1.471969
C      -2.980108    -1.233660    -1.392552
H      -0.200067     4.055613     0.394983
H      -2.379702     3.685872     1.471868
H      -3.557629     1.521443     1.205387
H      -2.974755    -0.843704     1.971797
H      -4.158085    -3.007118     1.831935
H      -4.582774    -4.048118    -0.380106
H      -3.824107    -2.900060    -2.443281
H      -2.656154    -0.732502    -2.297879
C      -0.147944    -0.157927    -1.434488
N       1.012824    -0.511896    -1.565914
C       2.222476     1.580870    -1.214717
O       3.273855     2.045420    -1.604406
C       2.141032     0.094415    -0.788582
C       1.937868     0.042197     0.742466
H       0.993689     0.522680     1.002046
H       2.729869     0.659443     1.181265
C       3.422913    -0.600829    -1.230708
H       4.284078    -0.210698    -0.687960
H       3.344553    -1.673982    -1.052712
H       3.581023    -0.437956    -2.296741
N       1.097157     2.387556    -1.176282
C       1.299710     3.751229    -1.678845
H       0.327449     4.186077    -1.911191
H       1.824912     4.380660    -0.953046
H       1.902799     3.705627    -2.584028
C       1.934788    -1.322305     1.478578
C       1.001754    -2.369866     0.848271
C       1.491853    -1.057964     2.933873
H       1.006537    -3.279601     1.455050
H      -0.020081    -1.982723     0.816169
H       1.298726    -2.627807    -0.168135
H       1.532139    -1.978643     3.520879
H       2.134505    -0.314628     3.413485
H       0.462725    -0.686956     2.939625
C       3.302367    -1.878419     1.552357
N       4.358135    -2.319052     1.662086
48
     -1091.842952     -1091.502131   0.12   0.34
C      -2.389746     0.713956    -0.578925
C      -1.171492     1.038080     0.036073
C      -0.512407     2.238098    -0.267617
C      -1.071927     3.094926    -1.214465
C      -2.273629     2.773362    -1.826167
C      -2.931482     1.592530    -1.511544
C      -3.103818    -0.554660    -0.265603
C      -3.540304    -1.379063    -1.302673
C      -4.228684    -2.554656    -1.030224
C      -4.491456    -2.918763     0.284668
C      -4.061763    -2.100806     1.324197
C      -3.373983    -0.926452     1.051607
H      -0.557719     4.011155    -1.478957
H      -2.698897     3.453380    -2.557405
H      -3.879427     1.351769    -1.980031
H      -3.323401    -1.103862    -2.330311
H      -4.557795    -3.188257    -1.847966
H      -5.028593    -3.836976     0.500090
H      -4.264752    -2.377346     2.354029
H      -3.047889    -0.287581     1.864918
C      -0.520458     0.113042     0.954528
N       0.646660    -0.177542     1.167492
C       1.818359     1.878282     0.602555
O       2.826331     2.418109     1.013731
C       1.784859     0.351760     0.349905
C       3.087738    -0.227166     0.922273
H       3.077668    -0.036636     1.998489
H       3.918152     0.351225     0.512818
C       1.618299     0.052217    -1.144528
H       2.531124     0.334914    -1.673894
H       1.450484    -1.013600    -1.304917
H       0.783913     0.592845    -1.588487
N       0.684093     2.636067     0.383964
C       0.816243     4.059288     0.718199
H       1.352342     4.150963     1.661372
H       1.377388     4.606608    -0.046161
H      -0.180533     4.487661     0.823161
C       3.408325    -1.731797     0.730656
C       2.267392    -2.687934     1.119945
C       4.649068    -2.044969     1.594833
H       2.613633    -3.723028     1.049044
H       1.957322    -2.487664     2.147804
H       1.393440    -2.570838     0.478575
H       4.978338    -3.075501     1.439380
H       5.477869    -1.375961     1.348752
H       4.397459    -1.914960     2.650936
C       3.796647    -2.005819    -0.669186
N       4.128229    -2.239706    -1.744785
48
     -1091.843014     -1091.502107   0.08   0.35
C      -2.529068     0.521036     0.014703
C      -1.237531     0.896067     0.412008
C      -0.770297     2.201208     0.198189
C      -1.611031     3.121583    -0.427280
C      -2.894999     2.756883    -0.801890
C      -3.354950     1.465271    -0.584320
C      -3.017801    -0.871106     0.211809
C      -4.253839    -1.098781     0.815362
C      -4.729544    -2.392937     0.986313
C      -3.974967    -3.476056     0.552696
C      -2.742502    -3.257263    -0.053197
C      -2.268006    -1.964326    -0.223245
H      -1.255731     4.125297    -0.626373
H      -3.537694     3.488071    -1.281709
H      -4.350966     1.176469    -0.901473
H      -4.837885    -0.254579     1.168827
H      -5.691465    -2.554567     1.462565
H      -4.345047    -4.487596     0.686044
H      -2.147814    -4.097446    -0.397758
H      -1.311764    -1.801085    -0.708865
C      -0.344929    -0.048949     1.066387
N       0.861695    -0.237046     1.012932
C       1.717847     1.981402     0.504323
O       2.746438     2.573641     0.763463
C       1.752313     0.498859     0.060154
C       3.188835    -0.002694     0.272930
H       3.396282     0.063523     1.344010
H       3.864798     0.699923    -0.218188
C       1.295456     0.359818    -1.396852
H       2.050408     0.795056    -2.055593
H       1.182831    -0.691782    -1.665302
H       0.347216     0.859921    -1.587830
N       0.506675     2.635740     0.638087
C       0.601012     4.009258     1.147070
H       1.341768     4.038074     1.944053
H       0.912489     4.712298     0.367703
H      -0.370947     4.302780     1.543519
C       3.573888    -1.435781    -0.176348
C       2.621499    -2.541668     0.310954
C       4.992684    -1.715359     0.364941
H       2.526823    -2.490683     1.397688
H       1.622778    -2.443765    -0.115810
H       3.022152    -3.521210     0.034814
H       4.967381    -1.730401     1.457965
H       5.357556    -2.683082     0.011451
H       5.694982    -0.942055     0.042830
C       3.668435    -1.510452    -1.649810
N       3.775119    -1.587471    -2.791869
48
     -1091.843014     -1091.502107   0.08   0.35
C      -1.663678    -0.605180    -1.840953
C      -1.204888     0.353477    -0.926045
C      -0.957114     1.673211    -1.331421
C      -1.166144     2.016085    -2.667040
C      -1.638951     1.073783    -3.567282
C      -1.887120    -0.230180    -3.160778
C      -1.898441    -2.014104    -1.421918
C      -0.917623    -2.733527    -0.738530
C      -1.138886    -4.053202    -0.370768
C      -2.343677    -4.673730    -0.682807
C      -3.324816    -3.965562    -1.365758
C      -3.102299    -2.644443    -1.733845
H      -0.951950     3.023260    -3.003249
H      -1.801922     1.360037    -4.601409
H      -2.232869    -0.970983    -3.873314
H       0.029931    -2.260538    -0.503377
H      -0.365672    -4.599918     0.159823
H      -2.516291    -5.705641    -0.394157
H      -4.269151    -4.441205    -1.611166
H      -3.876139    -2.088027    -2.253749
C      -0.980827     0.016216     0.471831
N      -0.144440     0.361466     1.293682
C       0.425766     2.606244     0.552720
O       0.787139     3.619595     1.117014
C       1.022304     1.231781     0.941826
C       1.853848     1.445135     2.215967
H       1.165194     1.779458     2.996107
H       2.540783     2.273529     2.032456
C       1.856145     0.658245    -0.209990
H       1.318200     0.658238    -1.156747
H       2.762998     1.254966    -0.331916
H       2.157069    -0.367780     0.007565
N      -0.549350     2.685643    -0.424948
C      -1.095579     4.030491    -0.642969
H      -2.059310     3.939486    -1.143939
H      -1.232614     4.514352     0.322345
H      -0.422112     4.651788    -1.242242
C       2.668740     0.264939     2.804986
C       1.874272    -1.040400     2.984994
C       3.204945     0.724195     4.178196
H       0.984528    -0.847294     3.588003
H       1.547337    -1.459161     2.032677
H       2.495099    -1.782352     3.495250
H       3.769449     1.655894     4.087376
H       2.365108     0.889912     4.858475
H       3.859631    -0.036188     4.611530
C       3.854544    -0.016395     1.968129
N       4.797925    -0.236972     1.349267
48
     -1091.842152     -1091.501527   0.63   0.72
C      -2.587815     0.292199    -0.079230
C      -1.247368     0.592450     0.204982
C      -0.794396     1.919192     0.208195
C      -1.691946     2.938157    -0.109497
C      -3.015863     2.642289    -0.394968
C      -3.464901     1.329576    -0.378470
C      -3.086366    -1.111074    -0.081291
C      -3.819913    -1.584633    -1.168999
C      -4.313914    -2.883146    -1.177886
C      -4.082069    -3.723602    -0.096105
C      -3.353767    -3.257902     0.993417
C      -2.860518    -1.960638     1.001930
H      -1.350953     3.965595    -0.142260
H      -3.702624     3.448001    -0.634067
H      -4.504872     1.103000    -0.586099
H      -3.990167    -0.934342    -2.021588
H      -4.878995    -3.238812    -2.033818
H      -4.466427    -4.738619    -0.100995
H      -3.169838    -3.907681     1.843194
H      -2.299834    -1.599163     1.856826
C      -0.275094    -0.468086     0.439438
N       0.906323    -0.599829     0.166677
C       1.704083     1.740290     0.047290
O       2.741377     2.365790     0.150665
C       1.688968     0.363557    -0.651168
C       3.124635    -0.165016    -0.811763
H       3.742111     0.675857    -1.132666
H       3.116173    -0.894559    -1.627706
C       1.077634     0.516929    -2.053747
H       0.088532     0.975452    -2.032685
H       1.734605     1.139032    -2.668136
H       0.991976    -0.469467    -2.515769
N       0.537190     2.274231     0.560192
C       0.713176     3.532787     1.294729
H       1.582433     3.442101     1.944114
H       0.880263     4.380550     0.622490
H      -0.175206     3.709676     1.901368
C       3.830119    -0.840481     0.393700
C       3.647507    -0.123360     1.742074
C       5.335604    -0.928412     0.065005
H       2.596408    -0.074427     2.033792
H       4.187755    -0.669571     2.520501
H       4.043444     0.891229     1.678486
H       5.755493     0.079612     0.006850
H       5.867613    -1.483661     0.841781
H       5.501068    -1.431918    -0.891588
C       3.355171    -2.236207     0.533288
N       3.075308    -3.346296     0.639870
48
     -1091.842152     -1091.501524   0.63   0.72
C      -2.621770     0.442168    -0.009853
C      -1.261097     0.665256     0.248029
C      -0.745974     1.967851     0.305982
C      -1.602979     3.042252     0.069360
C      -2.946995     2.822856    -0.190036
C      -3.456964     1.533042    -0.227708
C      -3.186062    -0.934709    -0.069298
C      -2.970033    -1.850288     0.960817
C      -3.524245    -3.121293     0.900152
C      -4.304463    -3.494362    -0.189076
C      -4.526866    -2.587671    -1.218075
C      -3.971833    -1.315492    -1.156997
H      -1.214817     4.053298     0.079359
H      -3.601403     3.670708    -0.365759
H      -4.511968     1.365623    -0.414581
H      -2.368781    -1.561007     1.815626
H      -3.347233    -3.823212     1.708941
H      -4.736471    -4.488995    -0.234801
H      -5.132251    -2.870917    -2.073479
H      -4.135209    -0.613528    -1.968985
C      -0.333773    -0.449580     0.397143
N       0.831855    -0.620517     0.081539
C       1.735652     1.683687     0.058824
O       2.803896     2.254680     0.162315
C       1.635518     0.348187    -0.709214
C       3.039446    -0.236134    -0.941399
H       3.686557     0.591578    -1.237155
H       2.973255    -0.919920    -1.793534
C       0.992353     0.603739    -2.082353
H       0.846850    -0.351746    -2.591919
H       0.027123     1.105396    -2.006987
H       1.660305     1.226803    -2.683795
N       0.610399     2.242359     0.634605
C       0.866540     3.450655     1.427624
H       1.748754     3.285922     2.044140
H       1.054180     4.324522     0.795424
H       0.005200     3.635354     2.069893
C       3.746382    -1.006491     0.204844
C       3.636475    -0.354734     1.593676
C       5.236041    -1.145423    -0.174515
H       4.077888     0.642675     1.570610
H       2.597638    -0.273507     1.920050
H       4.172371    -0.965770     2.325536
H       5.701287    -0.155980    -0.193160
H       5.763178    -1.765090     0.555459
H       5.350132    -1.604175    -1.160669
C       3.210304    -2.384565     0.286349
N       2.881548    -3.484845     0.343683
48
     -1091.843135     -1091.501008   0.01   1.04
C      -1.972982    -0.645527     0.786750
C      -1.154396     0.331938     0.198534
C      -0.424625     1.231932     0.988012
C      -0.495564     1.117464     2.376597
C      -1.296349     0.148531     2.957653
C      -2.035684    -0.726287     2.172764
C      -2.762863    -1.599726    -0.039954
C      -2.712230    -2.965882     0.237688
C      -3.461609    -3.868518    -0.506352
C      -4.274740    -3.414924    -1.537664
C      -4.333328    -2.054277    -1.819263
C      -3.584438    -1.153149    -1.075465
H       0.102665     1.769628     2.998492
H      -1.338225     0.073918     4.039487
H      -2.675437    -1.470395     2.634435
H      -2.067335    -3.324460     1.034099
H      -3.407353    -4.928920    -0.280344
H      -4.860807    -4.118136    -2.120819
H      -4.967669    -1.691103    -2.621731
H      -3.640617    -0.092457    -1.293376
C      -0.980735     0.387421    -1.244508
N      -0.045517     0.654787    -1.981445
C       1.273412     2.201085    -0.585228
O       2.036237     3.126178    -0.789376
C       1.344296     0.954479    -1.486898
C       1.887051    -0.294492    -0.748704
H       2.085061    -1.046897    -1.519235
H       1.097773    -0.705816    -0.116670
C       2.145667     1.288926    -2.744573
H       3.157200     1.612719    -2.520461
H       2.171554     0.405317    -3.387836
H       1.646121     2.093975    -3.284978
N       0.344127     2.287166     0.430286
C       0.378725     3.546030     1.185952
H       0.494938     4.369731     0.484170
H      -0.563737     3.654459     1.722869
H       1.216735     3.565527     1.888872
C       3.162343    -0.205931     0.132478
C       4.392823     0.394736    -0.568706
C       3.486054    -1.636417     0.611249
H       5.273808     0.267620     0.065968
H       4.571079    -0.120096    -1.516389
H       4.264456     1.461237    -0.756483
H       4.330577    -1.628254     1.304501
H       2.626917    -2.082965     1.119076
H       3.747542    -2.259558    -0.248821
C       2.909496     0.602093     1.344344
N       2.754836     1.216757     2.302916
48
     -1091.841914     -1091.500998   0.77   1.05
C      -2.265881     0.002480     0.545334
C      -1.183684     0.472364    -0.213255
C      -0.501903     1.640963     0.158826
C      -0.899613     2.316101     1.312622
C      -1.975061     1.857131     2.057250
C      -2.658242     0.710598     1.676455
C      -2.995083    -1.239568     0.167004
C      -2.314479    -2.429938    -0.090246
C      -3.011929    -3.583865    -0.419468
C      -4.400203    -3.565472    -0.494562
C      -5.086535    -2.384939    -0.237789
C      -4.387663    -1.230498     0.091793
H      -0.363259     3.203479     1.627539
H      -2.275918     2.397419     2.949119
H      -3.487285     0.343748     2.271511
H      -1.232373    -2.458658    -0.022791
H      -2.467615    -4.502134    -0.616124
H      -4.944396    -4.468330    -0.752744
H      -6.170124    -2.360177    -0.296785
H      -4.925315    -0.305619     0.276788
C      -0.722188    -0.244727    -1.394745
N       0.377693    -0.460860    -1.880878
C       1.597360     1.536557    -1.227077
O       2.456856     2.184700    -1.790490
C       1.661900    -0.005534    -1.228439
C       1.746046    -0.655286     0.171399
H       1.592098    -1.728795     0.019150
H       0.914837    -0.310150     0.786724
C       2.797979    -0.452736    -2.138334
H       2.838662    -1.544143    -2.155096
H       2.621389    -0.088592    -3.150260
H       3.758098    -0.065239    -1.800138
N       0.542708     2.195256    -0.623000
C       0.570089     3.657633    -0.753117
H      -0.433146     4.045145    -0.576130
H       1.273350     4.115288    -0.049477
H       0.886051     3.915513    -1.762393
C       3.015762    -0.471037     1.041236
C       2.702184    -1.039764     2.441417
C       3.458881     0.995802     1.173161
H       2.379031    -2.082432     2.379063
H       3.584962    -0.990705     3.083367
H       1.902443    -0.453085     2.903225
H       4.280313     1.073921     1.890028
H       3.793496     1.413301     0.223021
H       2.623385     1.598000     1.544112
C       4.142560    -1.264714     0.508378
N       5.029467    -1.899155     0.145864
48
     -1091.841914     -1091.500994   0.77   1.05
C      -2.287895     0.023431    -0.085437
C      -1.061588     0.240555    -0.730746
C      -0.514703     1.530049    -0.814489
C      -1.196739     2.592308    -0.221480
C      -2.413283     2.379456     0.408145
C      -2.959804     1.105375     0.473805
C      -2.877796    -1.340023     0.017341
C      -4.209040    -1.548552    -0.342276
C      -4.783209    -2.808709    -0.232197
C      -4.032366    -3.877428     0.241845
C      -2.705089    -3.677757     0.604817
C      -2.132199    -2.418405     0.494372
H      -0.771355     3.588460    -0.253361
H      -2.934475     3.217709     0.859305
H      -3.902539     0.939201     0.983334
H      -4.793258    -0.718522    -0.727546
H      -5.819292    -2.955530    -0.520697
H      -4.479001    -4.862842     0.328067
H      -2.111675    -4.506301     0.978372
H      -1.099557    -2.271481     0.791679
C      -0.310125    -0.862843    -1.314641
N       0.879448    -1.127621    -1.401751
C       1.862485     1.091565    -1.518229
O       2.821571     1.524600    -2.125592
C       1.954854    -0.263819    -0.785691
C       1.704627    -0.199159     0.738124
H       1.613396    -1.236678     1.076548
H       0.741196     0.272893     0.932085
C       3.288121    -0.918228    -1.121430
H       3.358840    -1.073479    -2.197847
H       4.128015    -0.297911    -0.811361
H       3.352540    -1.885238    -0.617596
N       0.679280     1.806433    -1.527036
C       0.709845     3.044429    -2.316123
H       1.209617     3.856999    -1.778452
H       1.259280     2.861085    -3.237795
H      -0.313329     3.334705    -2.554502
C       2.717722     0.520633     1.664560
C       2.080423     0.604869     3.067785
C       3.086668     1.934706     1.185343
H       2.777149     1.052119     3.780768
H       1.180616     1.225708     3.023597
H       1.802520    -0.387268     3.433719
H       3.704969     2.433203     1.936314
H       3.636588     1.921445     0.243827
H       2.174256     2.523810     1.048374
C       3.955910    -0.272141     1.812665
N       4.916687    -0.879216     1.982675
48
     -1091.840823     -1091.500172   1.46   1.57
C      -2.618730     0.626035     0.143324
C      -1.229975     0.781457     0.265837
C      -0.638307     2.049945     0.180462
C      -1.455682     3.156965    -0.048625
C      -2.829542     3.005677    -0.153971
C      -3.411866     1.749547    -0.058206
C      -3.252257    -0.719246     0.215512
C      -4.336621    -0.933215     1.065708
C      -4.952491    -2.177049     1.126778
C      -4.492325    -3.222227     0.335297
C      -3.413103    -3.016141    -0.517146
C      -2.798012    -1.773417    -0.577133
H      -1.015475     4.140928    -0.150174
H      -3.449615     3.879790    -0.325462
H      -4.484681     1.631560    -0.163400
H      -4.687894    -0.121894     1.695859
H      -5.792517    -2.329866     1.797075
H      -4.972194    -4.194590     0.382130
H      -3.048981    -3.826413    -1.140946
H      -1.964297    -1.617640    -1.253680
C      -0.363146    -0.363369     0.501097
N       0.767489    -0.652404     0.138941
C       1.791668     1.571847    -0.243641
O       2.886272     2.092500    -0.316191
C       1.562305     0.157933    -0.822086
C       2.911754    -0.533847    -1.093188
H       3.553934     0.211789    -1.564354
H       2.732670    -1.319036    -1.834298
C       0.823690     0.287686    -2.165295
H       0.589590    -0.710189    -2.544833
H      -0.105157     0.852666    -2.079347
H       1.470278     0.794924    -2.886582
N       0.755204     2.259912     0.363798
C       1.155271     3.525197     0.990830
H       0.380667     3.824119     1.697329
H       2.091184     3.371220     1.524978
H       1.313678     4.318022     0.252717
C       3.690386    -1.194889     0.083439
C       3.162897    -2.608070     0.405310
C       3.748430    -0.348696     1.367977
H       3.800517    -3.083857     1.155568
H       2.144855    -2.544684     0.789170
H       3.163320    -3.235662    -0.490549
H       2.741682    -0.211099     1.771239
H       4.346889    -0.870365     2.120034
H       4.191714     0.629280     1.180984
C       5.078674    -1.361894    -0.403758
N       6.154686    -1.505813    -0.782225
48
     -1091.840823     -1091.500170   1.46   1.57
C      -2.641630     0.553001     0.004769
C      -1.265743     0.725857     0.216572
C      -0.690981     2.004838     0.199973
C      -1.510952     3.105175    -0.050983
C      -2.873094     2.936223    -0.244635
C      -3.439373     1.669460    -0.216782
C      -3.256092    -0.803018     0.003684
C      -2.736801    -1.829099    -0.785870
C      -3.333807    -3.082013    -0.795396
C      -4.459670    -3.326511    -0.016610
C      -4.984648    -2.309476     0.771191
C      -4.386815    -1.055413     0.779714
H      -1.081655     4.097926    -0.100260
H      -3.495846     3.805190    -0.431854
H      -4.501636     1.538282    -0.390877
H      -1.865895    -1.643173    -1.405561
H      -2.918829    -3.870088    -1.415865
H      -4.925385    -4.306824    -0.024080
H      -5.861517    -2.492375     1.384334
H      -4.789376    -0.266265     1.407339
C      -0.396169    -0.411695     0.475774
N       0.759142    -0.674209     0.176814
C       1.767970     1.574366    -0.085462
O       2.856218     2.113020    -0.077172
C       1.597841     0.172878    -0.712558
C       2.972598    -0.491325    -0.917368
H       3.630031     0.275934    -1.329024
H       2.852230    -1.259357    -1.687740
C       0.940844     0.326848    -2.095035
H       1.621932     0.862460    -2.762013
H       0.746940    -0.664092    -2.513423
H      -0.000727     0.875446    -2.052246
N       0.685027     2.230686     0.474136
C       1.024992     3.484881     1.156479
H       0.203732     3.753544     1.821203
H       1.928836     3.330895     1.743259
H       1.215217     4.299106     0.449848
C       3.688510    -1.171360     0.287922
C       3.165716    -2.600236     0.540764
C       3.653760    -0.358455     1.594608
H       2.125152    -2.562176     0.862567
H       3.231418    -3.203992    -0.368959
H       3.763931    -3.085997     1.316649
H       4.213559    -0.890720     2.368688
H       4.091449     0.630609     1.460131
H       2.622063    -0.246556     1.938372
C       5.106606    -1.304742    -0.116807
N       6.206014    -1.422574    -0.431722
48
     -1091.840282     -1091.499380   1.80   2.07
C      -2.544958    -0.267762    -0.893367
C      -1.547386     0.273965    -0.068678
C      -1.181235     1.623510    -0.182558
C      -1.799403     2.413687    -1.150382
C      -2.781387     1.877515    -1.968523
C      -3.156391     0.547324    -1.840550
C      -2.950657    -1.696354    -0.783726
C      -3.029210    -2.485494    -1.931215
C      -3.428218    -3.813776    -1.850709
C      -3.756503    -4.368681    -0.619917
C      -3.683029    -3.587830     0.528526
C      -3.284220    -2.260877     0.447694
H      -1.501739     3.449372    -1.265934
H      -3.258159     2.506677    -2.713348
H      -3.937637     0.135835    -2.470090
H      -2.758943    -2.058555    -2.892166
H      -3.479795    -4.416468    -2.752117
H      -4.068002    -5.406336    -0.554439
H      -3.939438    -4.013300     1.493620
H      -3.236210    -1.653924     1.345020
C      -0.808681    -0.565499     0.864405
N       0.350384    -0.603304     1.248051
C       0.970498     1.725606     1.115262
O       1.657725     2.388693     1.868595
C       1.413291     0.313085     0.680175
C       2.704794    -0.097076     1.413770
H       2.687148    -1.190023     1.448521
H       2.622171     0.254894     2.443275
C       1.518486     0.130484    -0.835474
H       2.269233     0.802705    -1.253342
H       1.824755    -0.894139    -1.054385
H       0.578432     0.321005    -1.348185
N      -0.239459     2.231647     0.685887
C      -0.567309     3.573066     1.187027
H      -0.021775     4.350931     0.643157
H      -1.639953     3.734510     1.083019
H      -0.290659     3.635938     2.238305
C       4.105261     0.321313     0.892141
C       5.134864    -0.110838     1.959152
C       4.291868     1.821177     0.602467
H       6.153329     0.080816     1.611783
H       4.966641     0.458341     2.877257
H       5.041520    -1.176122     2.186347
H       5.314450     1.999594     0.257768
H       3.607129     2.185758    -0.165145
H       4.109304     2.396264     1.509787
C       4.440823    -0.433599    -0.334697
N       4.738755    -1.024665    -1.274577
48
     -1091.840282     -1091.499378   1.80   2.07
C      -0.476526    -2.206108    -1.480177
C      -0.631596    -0.866927    -1.091232
C      -0.199518     0.174228    -1.926465
C       0.417398    -0.139759    -3.136432
C       0.575175    -1.462692    -3.518640
C       0.128762    -2.490774    -2.699997
C      -0.933480    -3.324463    -0.609567
C      -2.223236    -3.346653    -0.078171
C      -2.640465    -4.408584     0.712151
C      -1.775944    -5.464302     0.980684
C      -0.490430    -5.451290     0.453594
C      -0.073232    -4.388240    -0.337541
H       0.781497     0.657197    -3.774314
H       1.051813    -1.691538    -4.466463
H       0.237597    -3.524142    -3.010313
H      -2.903734    -2.529695    -0.291227
H      -3.646878    -4.411995     1.118720
H      -2.103984    -6.293476     1.599478
H       0.192300    -6.269582     0.660263
H       0.936640    -4.373346    -0.735890
C      -1.164470    -0.524193     0.220106
N      -0.925220     0.350055     1.038943
C      -0.240300     2.167748    -0.393843
O      -0.473864     3.357843    -0.301117
C       0.193965     1.350073     0.840420
C       0.155244     2.225332     2.108014
H      -0.007063     1.531673     2.937801
H      -0.732646     2.856218     2.043008
C       1.530943     0.625275     0.670838
H       1.755272     0.065787     1.580907
H       1.528599    -0.071345    -0.164380
H       2.338709     1.340085     0.507505
N      -0.412396     1.540255    -1.610836
C      -0.854679     2.414070    -2.705762
H      -0.028053     3.011456    -3.103627
H      -1.278018     1.797441    -3.498227
H      -1.616107     3.095575    -2.329664
C       1.345425     3.139803     2.502559
C       0.887324     3.984898     3.711404
C       1.857019     4.086034     1.401993
H       1.712580     4.592231     4.091883
H       0.077572     4.651209     3.402356
H       0.524894     3.346985     4.521882
H       1.050122     4.742316     1.077192
H       2.680516     4.688688     1.795674
H       2.220365     3.547496     0.525083
C       2.482971     2.322596     2.977731
N       3.373238     1.714059     3.375982
48
     -1091.840114     -1091.499258   1.90   2.14
C      -1.411282    -1.211329    -1.961967
C      -1.160970    -0.203489    -1.018892
C      -0.891031     1.110639    -1.429901
C      -0.855171     1.396949    -2.794140
C      -1.116424     0.404179    -3.725416
C      -1.396043    -0.892199    -3.315238
C      -1.682974    -2.612626    -1.538323
C      -0.835443    -3.275820    -0.650478
C      -1.090015    -4.589480    -0.281840
C      -2.194236    -5.259679    -0.796671
C      -3.042184    -4.607454    -1.683331
C      -2.786646    -3.292675    -2.052146
H      -0.617260     2.400879    -3.125292
H      -1.090738     0.645118    -4.783318
H      -1.578983    -1.671333    -4.047003
H       0.035061    -2.765433    -0.252684
H      -0.420973    -5.091972     0.409548
H      -2.392614    -6.286671    -0.506983
H      -3.908128    -5.121839    -2.088085
H      -3.459127    -2.779904    -2.732975
C      -1.161934    -0.490719     0.407564
N      -0.503442    -0.094707     1.358039
C      -0.006865     2.167202     0.677453
O       0.049277     3.185273     1.340312
C       0.653001     0.865126     1.179036
C       1.214860     1.058213     2.601270
H       1.209496     0.063380     3.055714
H       0.497502     1.664430     3.156693
C       1.688960     0.281246     0.215911
H       2.522515     0.971871     0.081520
H       2.087460    -0.645991     0.632789
H       1.276242     0.065396    -0.767065
N      -0.712132     2.174778    -0.510207
C      -1.331457     3.460927    -0.856880
H      -0.604660     4.155182    -1.290924
H      -2.139029     3.282193    -1.566347
H      -1.735593     3.912966     0.047094
C       2.622348     1.664414     2.846519
C       2.771459     1.863740     4.370838
C       2.908466     3.002355     2.141941
H       2.586214     0.930509     4.909307
H       3.778101     2.211093     4.617162
H       2.051255     2.612520     4.711153
H       3.917301     3.338529     2.397919
H       2.842851     2.924103     1.055401
H       2.184211     3.749795     2.464496
C       3.670535     0.698174     2.452179
N       4.505013    -0.043181     2.177213
48
     -1091.840114     -1091.499257   1.90   2.14
C      -2.629834    -0.142643    -0.609708
C      -1.529943     0.338615     0.115838
C      -1.166126     1.692179     0.050805
C      -1.903692     2.550663    -0.763689
C      -2.998945     2.077976    -1.469460
C      -3.364279     0.740932    -1.392847
C      -3.015577    -1.579921    -0.561174
C      -4.340203    -1.936135    -0.310077
C      -4.720577    -3.271995    -0.282466
C      -3.779675    -4.269102    -0.508429
C      -2.457264    -3.922181    -0.762193
C      -2.077828    -2.587380    -0.789338
H      -1.614184     3.591536    -0.846805
H      -3.566178     2.760708    -2.093953
H      -4.208817     0.369821    -1.962960
H      -5.073836    -1.159257    -0.117885
H      -5.754591    -3.533568    -0.080798
H      -4.074920    -5.313298    -0.486706
H      -1.716050    -4.694420    -0.942144
H      -1.046281    -2.326428    -0.999884
C      -0.728983    -0.549012     0.945219
N       0.462590    -0.629623     1.205011
C       1.128227     1.687535     1.087598
O       1.918537     2.306465     1.774136
C       1.481163     0.282236     0.555623
C       2.834237    -0.186398     1.125972
H       2.789180    -1.279198     1.126082
H       2.876130     0.129355     2.169591
C       1.415287     0.158877    -0.968246
H       0.435863     0.409513    -1.369593
H       2.145733     0.817375    -1.440119
H       1.653696    -0.866510    -1.258249
N      -0.112800     2.235976     0.828642
C      -0.345067     3.557578     1.426419
H      -1.419074     3.730163     1.491123
H       0.086199     3.573548     2.425713
H       0.122898     4.354327     0.839207
C       4.180252     0.214811     0.465731
C       5.308320    -0.283305     1.395707
C       4.378930     1.718996     0.208176
H       6.287234    -0.104996     0.943385
H       5.259915     0.255392     2.345781
H       5.209374    -1.353606     1.595329
H       3.624502     2.130305    -0.464624
H       4.316046     2.264435     1.149345
H       5.361793     1.882972    -0.242801
C       4.354681    -0.503000    -0.815730
N       4.527188    -1.066661    -1.802693
48
     -1091.839586     -1091.498485   2.24   2.63
C      -2.005779     0.076422    -0.665518
C      -0.700397    -0.001089    -1.172405
C      -0.137736     1.073881    -1.875798
C      -0.903083     2.222595    -2.073537
C      -2.199922     2.292814    -1.587994
C      -2.748665     1.231624    -0.881217
C      -2.586179    -1.037786     0.133704
C      -3.118183    -0.774915     1.396052
C      -3.670794    -1.797859     2.156670
C      -3.700076    -3.095687     1.661375
C      -3.172152    -3.364884     0.403004
C      -2.618330    -2.343367    -0.356100
H      -0.476163     3.070224    -2.595756
H      -2.783115     3.192837    -1.754546
H      -3.762625     1.290817    -0.500851
H      -3.079591     0.235756     1.790931
H      -4.077063    -1.579709     3.139454
H      -4.131582    -3.896208     2.253745
H      -3.191980    -4.376200     0.009353
H      -2.211571    -2.555875    -1.338721
C       0.133819    -1.165558    -0.922401
N       1.317807    -1.320499    -0.664867
C       2.329034     0.619472    -1.761138
O       3.409978     0.872954    -2.252843
C       2.253713    -0.175043    -0.431973
C       1.784721     0.802386     0.671508
H       0.798789     1.184393     0.406121
H       2.462680     1.662319     0.631708
C       3.630777    -0.775343    -0.166595
H       3.564531    -1.499964     0.645298
H       3.980664    -1.297770    -1.056792
H       4.356339     0.000343     0.082421
N       1.175807     1.025333    -2.409286
C       1.395421     1.691524    -3.698165
H       2.160534     1.146900    -4.248765
H       0.462433     1.677152    -4.261841
H       1.738280     2.723660    -3.571916
C       1.698476     0.336340     2.155184
C       3.063923     0.289700     2.869569
C       0.942983    -0.990869     2.345809
H       3.622747     1.215022     2.705104
H       2.914263     0.168911     3.945798
H       3.663548    -0.547960     2.516342
H      -0.058532    -0.945756     1.913314
H       1.481909    -1.811663     1.870317
H       0.844967    -1.207891     3.413180
C       0.910555     1.391369     2.835614
N       0.302706     2.212013     3.363340
48
     -1091.838271     -1091.498297   3.06   2.74
C      -1.882787    -1.256833    -0.088857
C      -0.845136    -0.575684    -0.742735
C      -0.988704     0.773216    -1.098995
C      -2.163000     1.442490    -0.758089
C      -3.186115     0.772008    -0.105710
C      -3.051778    -0.569462     0.222934
C      -1.753024    -2.691140     0.289763
C      -2.070025    -3.098092     1.585789
C      -1.978285    -4.435556     1.950098
C      -1.570139    -5.383914     1.020254
C      -1.254405    -4.986598    -0.274583
C      -1.346207    -3.650324    -0.638114
H      -2.271246     2.493238    -1.000458
H      -4.097677     1.304207     0.146753
H      -3.861654    -1.095852     0.715899
H      -2.375114    -2.357085     2.318346
H      -2.224011    -4.735953     2.963911
H      -1.497183    -6.429374     1.302624
H      -0.936433    -5.721568    -1.007323
H      -1.106647    -3.346732    -1.651182
C       0.438574    -1.221440    -0.988439
N       1.599451    -0.842378    -0.975322
C       1.362418     1.491922    -1.629558
O       2.058529     2.227204    -2.303132
C       2.008893     0.558509    -0.583438
C       1.544001     0.791233     0.873878
H       1.938217    -0.046819     1.457576
H       0.458868     0.700188     0.915341
C       3.523033     0.616157    -0.749602
H       3.893986     1.637251    -0.685597
H       3.997713    -0.004733     0.014305
H       3.791116     0.227249    -1.732212
N      -0.001113     1.474596    -1.838297
C      -0.478198     2.370199    -2.900074
H      -1.475860     2.053776    -3.204239
H      -0.505348     3.413611    -2.569037
H       0.199134     2.302788    -3.749985
C       1.910153     2.108445     1.618372
C       1.577520     3.375463     0.810620
C       3.365317     2.157230     2.123079
H       0.539667     3.361001     0.465998
H       1.714456     4.262410     1.434687
H       2.232165     3.461273    -0.058617
H       4.062752     2.284636     1.296602
H       3.492681     3.000703     2.806883
H       3.621969     1.240628     2.660674
C       1.051654     2.114445     2.826022
N       0.392468     2.119587     3.767408
48
     -1091.839464     -1091.498180   2.31   2.82
C      -2.139438     0.055284     0.141092
C      -1.026584     0.457498    -0.614800
C      -0.738240     1.818759    -0.801941
C      -1.554265     2.769476    -0.189045
C      -2.652198     2.373220     0.558557
C      -2.948279     1.027248     0.720143
C      -2.474372    -1.383676     0.329345
C      -1.510011    -2.310291     0.724486
C      -1.845693    -3.643994     0.909202
C      -3.153337    -4.070528     0.707428
C      -4.122718    -3.154188     0.316749
C      -3.784416    -1.820027     0.128801
H      -1.325945     3.823014    -0.294216
H      -3.279321     3.126243     1.025043
H      -3.799977     0.722159     1.317899
H      -0.487107    -2.000333     0.892853
H      -1.075941    -4.347022     1.210229
H      -3.415914    -5.113851     0.851954
H      -5.145549    -3.478566     0.152752
H      -4.540178    -1.110982    -0.195039
C      -0.140061    -0.517042    -1.230007
N       1.060868    -0.561800    -1.446962
C       1.622302     1.810670    -1.684314
O       2.458368     2.450595    -2.289959
C       2.021249     0.489579    -0.987258
C       1.974412     0.730913     0.538213
H       0.940041     0.913923     0.829388
H       2.516361     1.663663     0.733006
C       3.400093     0.080663    -1.491981
H       3.389189     0.031456    -2.580740
H       4.157826     0.804815    -1.190404
H       3.648725    -0.911571    -1.111572
N       0.318741     2.270634    -1.635447
C       0.071182     3.490809    -2.413793
H       0.425625     4.386215    -1.892980
H       0.604687     3.417482    -3.359735
H      -0.998683     3.572897    -2.605289
C       2.547123    -0.327256     1.520268
C       1.851424    -0.128718     2.884101
C       4.069446    -0.197306     1.721322
H       0.771566    -0.274631     2.798599
H       2.238657    -0.835967     3.621590
H       2.037531     0.887617     3.244731
H       4.625155    -0.365829     0.800518
H       4.301004     0.806404     2.089940
H       4.410847    -0.923861     2.463271
C       2.254312    -1.708913     1.088902
N       2.043958    -2.808036     0.828921
48
     -1091.839464     -1091.498178   2.31   2.82
C      -2.076571     0.374236     0.140704
C      -0.869673     0.846377    -0.399732
C      -0.377235     2.116307    -0.059177
C      -1.087452     2.888793     0.859657
C      -2.278210     2.422817     1.394771
C      -2.774393     1.177562     1.036221
C      -2.626237    -0.959878    -0.228399
C      -3.969022    -1.078214    -0.588620
C      -4.506962    -2.315739    -0.918638
C      -3.707252    -3.452328    -0.893391
C      -2.368327    -3.343055    -0.535738
C      -1.833254    -2.106732    -0.202919
H      -0.703883     3.856155     1.160024
H      -2.820505     3.038652     2.105121
H      -3.698955     0.811601     1.468699
H      -4.591989    -0.189877    -0.628161
H      -5.552523    -2.390456    -1.200631
H      -4.125809    -4.419486    -1.153722
H      -1.729163    -4.219651    -0.514964
H      -0.789980    -2.046846     0.077703
C      -0.093108     0.041798    -1.329102
N       1.100741    -0.108591    -1.537461
C       2.011220     2.062542    -0.861175
O       2.968898     2.740433    -1.175234
C       2.169218     0.532147    -0.708685
C       2.055963     0.196028     0.795208
H       1.041462     0.419209     1.125626
H       2.711901     0.892279     1.330608
C       3.505679     0.126751    -1.319172
H       3.583519    -0.961668    -1.337669
H       3.560383     0.486285    -2.346635
H       4.337655     0.558437    -0.761528
N       0.786786     2.671458    -0.653308
C       0.769211     4.115633    -0.917856
H      -0.262658     4.430631    -1.072914
H       1.212929     4.686676    -0.095873
H       1.348504     4.314255    -1.817733
C       2.404271    -1.226565     1.311990
C       1.654948    -1.439572     2.644880
C       3.912682    -1.422437     1.559191
H       1.886737    -2.421109     3.065476
H       1.960460    -0.671958     3.362554
H       0.573446    -1.370956     2.502255
H       4.096150    -2.416058     1.976303
H       4.498567    -1.323773     0.646998
H       4.260730    -0.676513     2.279879
C       1.945715    -2.285605     0.390603
N       1.597689    -3.162426    -0.265119
48
     -1091.837626     -1091.497860   3.47   3.02
C      -2.045961    -0.765572    -1.396450
C      -1.078249     0.188630    -1.048139
C      -0.451488     0.966227    -2.032269
C      -0.780628     0.753996    -3.370490
C      -1.732172    -0.192842    -3.716193
C      -2.364438    -0.947515    -2.738134
C      -2.726234    -1.594736    -0.363418
C      -3.337690    -1.009545     0.745535
C      -3.989421    -1.795404     1.685879
C      -4.041506    -3.176422     1.529817
C      -3.437417    -3.767042     0.426720
C      -2.785375    -2.980169    -0.514415
H      -0.282281     1.326654    -4.143289
H      -1.980900    -0.341745    -4.762121
H      -3.120673    -1.675488    -3.010460
H      -3.306396     0.067733     0.866507
H      -4.460903    -1.326450     2.543808
H      -4.551064    -3.789264     2.266571
H      -3.470882    -4.844455     0.298222
H      -2.302006    -3.444919    -1.368337
C      -0.644453     0.351488     0.333002
N       0.431969     0.602545     0.853658
C       1.567521     1.916566    -0.872236
O       2.402298     2.798701    -0.897355
C       1.713398     0.721559     0.101990
C       2.853667     1.067415     1.084737
H       2.827910     2.139981     1.277355
H       3.792824     0.885286     0.555663
C       2.027917    -0.548765    -0.706362
H       2.061033    -1.421015    -0.055911
H       1.289477    -0.739653    -1.484263
H       3.004124    -0.431445    -1.184724
N       0.476719     1.993415    -1.717099
C       0.416058     3.212740    -2.532796
H      -0.599697     3.329664    -2.910504
H       0.671302     4.066843    -1.907752
H       1.122841     3.180302    -3.368234
C       2.915986     0.363760     2.474150
C       2.680839    -1.156563     2.454673
C       1.979759     1.025857     3.504956
H       3.370954    -1.660570     1.773571
H       2.839509    -1.564451     3.456527
H       1.652711    -1.374018     2.157129
H       2.167553     2.101470     3.559882
H       0.940797     0.867006     3.217391
H       2.148710     0.596021     4.496333
C       4.300992     0.582234     2.951152
N       5.376553     0.747625     3.321805
48
     -1091.837625     -1091.497859   3.47   3.02
C      -2.528902     0.535615    -0.376634
C      -1.260870     0.888213     0.109225
C      -0.751078     2.179374    -0.088298
C      -1.511084     3.102048    -0.806125
C      -2.761474     2.752788    -1.291919
C      -3.271141     1.479815    -1.078212
C      -3.088188    -0.828845    -0.169541
C      -3.604596    -1.538772    -1.253539
C      -4.152868    -2.802691    -1.074748
C      -4.194003    -3.370907     0.192540
C      -3.683815    -2.668116     1.278850
C      -3.135896    -1.405453     1.099849
H      -1.116621     4.093683    -0.992040
H      -3.342640     3.484605    -1.843908
H      -4.256764     1.214944    -1.444802
H      -3.560772    -1.102409    -2.246759
H      -4.546407    -3.345128    -1.928762
H      -4.621461    -4.358411     0.334476
H      -3.714411    -3.104417     2.272309
H      -2.746601    -0.857216     1.950746
C      -0.408193    -0.091589     0.768907
N       0.797432    -0.289597     0.776359
C       1.709444     1.947414     0.377793
O       2.724302     2.547201     0.670996
C       1.770706     0.464250    -0.063692
C       3.200136    -0.042689     0.228477
H       3.557626     0.441799     1.137122
H       3.838677     0.331581    -0.576068
C       1.432099     0.372584    -1.561363
H       0.474324     0.833780    -1.799748
H       2.209615     0.887386    -2.132348
H       1.392327    -0.666162    -1.884517
N       0.493333     2.599526     0.451081
C       0.563729     3.975842     0.957633
H       0.945851     4.669687     0.201911
H      -0.433435     4.283021     1.272904
H       1.238419     4.001979     1.811702
C       3.457357    -1.569969     0.403793
C       2.779914    -2.476809    -0.638209
C       3.115416    -2.058859     1.825594
H       3.098429    -3.511445    -0.485449
H       1.694500    -2.434115    -0.524551
H       3.050556    -2.188930    -1.657061
H       3.626345    -1.448824     2.575283
H       2.040832    -1.989857     1.992562
H       3.433507    -3.097562     1.952267
C       4.919716    -1.732853     0.235047
N       6.054128    -1.862073     0.100944
48
     -1091.839059     -1091.497518   2.57   3.23
C      -2.283163     0.127297     0.102191
C      -1.080980     0.578008    -0.464953
C      -0.419096     1.698150     0.054798
C      -0.957874     2.345803     1.166142
C      -2.141188     1.897865     1.732081
C      -2.802604     0.797503     1.204877
C      -3.005659    -1.055066    -0.443379
C      -3.301757    -1.157983    -1.802850
C      -3.998697    -2.254809    -2.290176
C      -4.412061    -3.262958    -1.426014
C      -4.123779    -3.167241    -0.070192
C      -3.426165    -2.069209     0.417258
H      -0.442274     3.196630     1.595126
H      -2.550209     2.415372     2.593932
H      -3.737913     0.461286     1.638643
H      -2.989728    -0.370310    -2.479640
H      -4.221883    -2.321030    -3.350362
H      -4.956539    -4.120091    -1.809303
H      -4.440185    -3.950518     0.611553
H      -3.190129    -2.003975     1.475015
C      -0.454636    -0.133523    -1.569874
N       0.700275    -0.362400    -1.890446
C       1.901563     1.542333    -0.892931
O       2.924372     2.162437    -1.115181
C       1.892606     0.010818    -1.048411
C       1.793032    -0.760097     0.293092
H       1.978501    -1.809280     0.043571
H       0.764592    -0.714498     0.656769
C       3.106141    -0.409848    -1.877875
H       3.081570    -1.494951    -2.005965
H       3.046419     0.054637    -2.863174
H       4.045630    -0.113556    -1.421820
N       0.757816     2.229816    -0.536862
C       0.890538     3.691136    -0.547688
H       1.436839     4.061288     0.326610
H       1.441897     3.986959    -1.438599
H      -0.106153     4.132049    -0.573888
C       2.705765    -0.379424     1.496688
C       2.260697     0.916478     2.201658
C       4.206707    -0.297419     1.169831
H       2.825520     1.045038     3.128732
H       2.455955     1.784572     1.569219
H       1.197282     0.885954     2.449483
H       4.409132     0.580171     0.552877
H       4.778058    -0.201576     2.096905
H       4.550988    -1.192904     0.647777
C       2.526944    -1.482302     2.469814
N       2.392437    -2.338096     3.224960
48
     -1091.837549     -1091.497426   3.51   3.29
C      -2.493784     0.785572    -0.272028
C      -1.159168     1.055861     0.064479
C      -0.553184     2.263323    -0.312339
C      -1.298540     3.188569    -1.043089
C      -2.623049     2.929702    -1.359721
C      -3.221221     1.736711    -0.977761
C      -3.134170    -0.504767     0.103199
C      -2.533654    -1.723979    -0.211185
C      -3.150669    -2.921135     0.123519
C      -4.378532    -2.916280     0.776386
C      -4.985066    -1.706391     1.090913
C      -4.366854    -0.508454     0.754771
H      -0.837955     4.112888    -1.369327
H      -3.189211     3.664738    -1.922864
H      -4.250523     1.527038    -1.247170
H      -1.582375    -1.735361    -0.732673
H      -2.671741    -3.861921    -0.129197
H      -4.860233    -3.852823     1.038658
H      -5.942274    -1.693466     1.602615
H      -4.835010     0.436092     1.014372
C      -0.364346     0.100890     0.821422
N       0.813322    -0.225901     0.788413
C       1.905661     1.812195    -0.013856
O       2.998792     2.329217     0.099044
C       1.779359     0.282878    -0.225245
C       3.170552    -0.335143     0.037725
H       3.656069     0.234474     0.830149
H       3.769513    -0.161361    -0.860096
C       1.304477     0.014563    -1.663481
H       1.129447    -1.048818    -1.819753
H       0.384084     0.545912    -1.903676
H       2.079274     0.345604    -2.360284
N       0.772892     2.602790     0.062693
C       1.032743     4.015175     0.368129
H       1.388646     4.564196    -0.509632
H       0.113288     4.466602     0.740759
H       1.801502     4.072030     1.136569
C       3.282583    -1.838807     0.433272
C       2.418287    -2.804833    -0.395600
C       3.026840    -2.065052     1.936891
H       2.637269    -3.835179    -0.103119
H       1.359021    -2.615206    -0.208019
H       2.621967    -2.708870    -1.464901
H       1.987344    -1.839139     2.173610
H       3.239192    -3.104672     2.201861
H       3.671745    -1.418487     2.537942
C       4.697010    -2.197125     0.179762
N       5.793576    -2.478351    -0.020208
48
     -1091.837549     -1091.497422   3.51   3.29
C      -1.970597    -0.771959    -1.473354
C      -0.961949     0.154263    -1.169651
C      -0.211658     0.759827    -2.188243
C      -0.476481     0.413148    -3.513126
C      -1.485648    -0.488128    -3.814580
C      -2.231178    -1.079014    -2.803655
C      -2.752720    -1.436700    -0.395267
C      -4.146058    -1.443080    -0.446623
C      -4.886878    -2.078744     0.541986
C      -4.242214    -2.718873     1.593312
C      -2.852717    -2.719942     1.649923
C      -2.113668    -2.084098     0.662287
H       0.113423     0.847226    -4.310952
H      -1.681854    -0.740250    -4.851829
H      -3.004300    -1.801369    -3.041339
H      -4.651520    -0.930730    -1.259479
H      -5.971142    -2.070978     0.491381
H      -4.819719    -3.215581     2.366425
H      -2.341098    -3.220864     2.465791
H      -1.029753    -2.100694     0.705462
C      -0.667681     0.524254     0.206279
N       0.365585     0.793314     0.801891
C       1.773719     1.719144    -0.973124
O       2.688493     2.514498    -1.047909
C       1.718741     0.693689     0.186560
C       2.784790     1.112676     1.223147
H       2.839668     2.201178     1.239764
H       3.750711     0.774334     0.839012
C       1.997594    -0.711057    -0.374651
H       1.887814    -1.465696     0.402718
H       1.328448    -0.972150    -1.193932
H       3.023788    -0.745500    -0.750382
N       0.772914     1.748362    -1.927901
C       0.894865     2.834546    -2.908198
H       1.650712     2.615104    -3.669180
H      -0.074891     2.988053    -3.381533
H       1.192478     3.743686    -2.388953
C       2.642484     0.648292     2.704400
C       2.262515    -0.829962     2.898388
C       1.678849     1.546811     3.505359
H       2.964798    -1.494983     2.389817
H       2.278613    -1.075617     3.963520
H       1.252849    -1.010002     2.522423
H       1.968539     2.597144     3.415407
H       0.663598     1.430673     3.126675
H       1.702293     1.273047     4.563951
C       3.988869     0.830242     3.293811
N       5.034249     0.966909     3.752108
48
     -1091.837618     -1091.496765   3.47   3.71
C      -0.873719    -1.918199    -1.487295
C      -0.708174    -0.545659    -1.249803
C      -0.273515     0.311265    -2.271170
C       0.022123    -0.226090    -3.523250
C      -0.136110    -1.583194    -3.757628
C      -0.582469    -2.425872    -2.749253
C      -1.339051    -2.840862    -0.415150
C      -0.635647    -4.017998    -0.159530
C      -1.068213    -4.902085     0.820965
C      -2.212778    -4.620276     1.556563
C      -2.921229    -3.450039     1.305711
C      -2.488749    -2.566943     0.326125
H       0.386553     0.420769    -4.312294
H       0.093170    -1.985426    -4.739271
H      -0.720980    -3.484239    -2.940935
H       0.266821    -4.233628    -0.723335
H      -0.507424    -5.811837     1.011575
H      -2.552381    -5.309143     2.323478
H      -3.817472    -3.223718     1.874712
H      -3.048869    -1.659678     0.128261
C      -0.918619     0.023237     0.074630
N      -0.365384     0.910851     0.705825
C       0.450758     2.386904    -1.050348
O       0.637091     3.583638    -1.141097
C       0.866920     1.613506     0.226745
C       1.248842     2.668047     1.278929
H       0.351092     3.263906     1.457109
H       1.977272     3.343452     0.826167
C       2.004753     0.634532    -0.093351
H       2.936231     1.191088    -0.221774
H       2.129174    -0.083697     0.718226
H       1.823017     0.069714    -1.006736
N      -0.160642     1.715006    -2.091410
C      -0.571338     2.562899    -3.217298
H      -1.304648     2.020205    -3.813815
H      -1.023297     3.472751    -2.825772
H       0.279744     2.848686    -3.843909
C       1.804979     2.222996     2.663948
C       3.293495     1.815358     2.635574
C       0.970226     1.139801     3.371067
H       3.680195     1.752628     3.656370
H       3.426807     0.839947     2.168066
H       3.890473     2.551168     2.090071
H      -0.079644     1.429701     3.433938
H       1.026012     0.194792     2.827553
H       1.353918     0.982270     4.383178
C       1.733449     3.443859     3.501051
N       1.687413     4.389011     4.153510
48
     -1091.837618     -1091.496764   3.47   3.71
C      -2.546102     0.441757     0.148683
C      -1.234144     0.859045     0.417603
C      -0.802851     2.144158     0.058568
C      -1.690149     2.994957    -0.599227
C      -2.985349     2.581761    -0.870205
C      -3.414048     1.315171    -0.498550
C      -3.021330    -0.917601     0.527655
C      -2.855906    -1.406382     1.823823
C      -3.326327    -2.666628     2.165830
C      -3.970886    -3.454989     1.218564
C      -4.142265    -2.974684    -0.073908
C      -3.671373    -1.713174    -0.415886
H      -1.360229     3.979709    -0.907838
H      -3.665770     3.257684    -1.378275
H      -4.432918     1.001356    -0.697280
H      -2.361230    -0.791786     2.567854
H      -3.190358    -3.033903     3.178181
H      -4.337405    -4.440436     1.487976
H      -4.641917    -3.584013    -0.820586
H      -3.794096    -1.345773    -1.430173
C      -0.261283    -0.044392     1.017090
N       0.937976    -0.213999     0.857902
C       1.704523     1.994359     0.176413
O       2.735643     2.620661     0.316645
C       1.734009     0.490276    -0.196655
C       3.196221     0.030837    -0.070678
H       3.476738     0.180653     0.974128
H       3.813704     0.717528    -0.652867
C       1.149889     0.280588    -1.600347
H       1.872371     0.617674    -2.347532
H       0.931354    -0.774866    -1.768439
H       0.225434     0.835796    -1.753469
N       0.493394     2.628932     0.375238
C       0.592820     4.033198     0.791616
H       1.376062     4.122722     1.542559
H       0.848892     4.689579    -0.046383
H      -0.360786     4.337949     1.222721
C       3.594480    -1.422350    -0.464710
C       3.731809    -1.639449    -1.986769
C       2.706453    -2.518901     0.151019
H       2.755491    -1.680342    -2.469355
H       4.317231    -0.837893    -2.445201
H       4.241134    -2.587146    -2.181588
H       1.697748    -2.475572    -0.263949
H       3.131216    -3.502574    -0.068904
H       2.629837    -2.402655     1.233071
C       4.955189    -1.597929     0.095640
N       6.013577    -1.738133     0.521420
48
     -1091.835350     -1091.494209   4.89   5.31
C      -1.641173    -0.011557    -1.294300
C      -0.273316     0.236584    -1.095076
C       0.238635     1.539480    -1.152287
C      -0.647723     2.586058    -1.415871
C      -1.994281     2.339448    -1.620621
C      -2.497861     1.048642    -1.556558
C      -2.197810    -1.391110    -1.197737
C      -1.704358    -2.432637    -1.982923
C      -2.250641    -3.705014    -1.887822
C      -3.298084    -3.954198    -1.007065
C      -3.796707    -2.921842    -0.222446
C      -3.250291    -1.647822    -0.319936
H      -0.296180     3.607777    -1.422078
H      -2.660502     3.173531    -1.816317
H      -3.552891     0.857179    -1.717844
H      -0.891500    -2.240798    -2.674621
H      -1.857048    -4.505967    -2.505723
H      -3.723008    -4.950246    -0.933577
H      -4.612776    -3.106973     0.469145
H      -3.632191    -0.842819     0.300582
C       0.605975    -0.878319    -0.786533
N       1.646630    -1.049898    -0.180028
C       2.409672     1.391563     0.089854
O       3.228740     2.142583     0.578874
C       2.469594    -0.078249     0.556716
C       2.223281    -0.179215     2.075047
H       2.964256     0.481998     2.532109
H       2.467159    -1.203384     2.374604
C       3.925084    -0.513099     0.292552
H       4.623373     0.109448     0.851344
H       4.036107    -1.559572     0.583395
H       4.148187    -0.428474    -0.774211
N       1.615101     1.839011    -0.961931
C       2.082407     3.115661    -1.517723
H       1.835275     3.962938    -0.871378
H       3.165309     3.073350    -1.620339
H       1.632574     3.249675    -2.501875
C       0.845318     0.153880     2.700636
C       1.053113     0.303793     4.223293
C      -0.227430    -0.923089     2.450417
H       0.108800     0.543101     4.718468
H       1.433005    -0.636277     4.634371
H       1.770266     1.097810     4.445288
H      -0.538490    -0.974113     1.409974
H       0.165349    -1.901746     2.740362
H      -1.113145    -0.712335     3.056392
C       0.343057     1.450547     2.206855
N      -0.060434     2.466526     1.851303
48
     -1091.835114     -1091.493675   5.04   5.65
C      -1.779593    -0.733389    -1.295487
C      -0.551891    -0.062746    -1.166216
C      -0.404520     1.263057    -1.609376
C      -1.523395     1.902107    -2.152631
C      -2.728508     1.231421    -2.293048
C      -2.862529    -0.081615    -1.872588
C      -1.943782    -2.139381    -0.830335
C      -2.461983    -3.101482    -1.696093
C      -2.634863    -4.413034    -1.270233
C      -2.291419    -4.775099     0.027112
C      -1.778002    -3.818744     0.896382
C      -1.610026    -2.508649     0.471540
H      -1.466230     2.934824    -2.465264
H      -3.575355     1.753129    -2.727860
H      -3.810247    -0.599754    -1.965218
H      -2.714562    -2.823018    -2.714790
H      -3.034479    -5.153977    -1.955658
H      -2.422913    -5.800188     0.359439
H      -1.502065    -4.084499     1.911516
H      -1.217049    -1.775857     1.164524
C       0.576623    -0.790670    -0.606711
N       1.656106    -0.534750    -0.109845
C       1.734069     2.009102    -0.499112
O       2.260209     3.063524    -0.205233
C       2.327801     0.741333     0.141115
C       2.543329     0.931794     1.651570
H       3.045747     1.894405     1.773530
H       3.235009     0.151198     1.981773
C       3.710893     0.610583    -0.534598
H       3.591265     0.525038    -1.618107
H       4.331957     1.479085    -0.308928
H       4.191754    -0.298090    -0.168544
N       0.824724     1.978479    -1.559637
C       0.920670     3.171302    -2.412462
H       0.509618     2.931573    -3.393652
H       0.397775     4.033381    -1.986720
H       1.970756     3.435511    -2.522238
C       1.323741     0.925710     2.601578
C       0.162292     1.807292     2.114103
C       1.796331     1.419327     3.984904
H      -0.631352     1.828915     2.865968
H       0.516461     2.828279     1.950098
H      -0.276290     1.431987     1.187459
H       0.984801     1.355980     4.714120
H       2.633886     0.818640     4.349534
H       2.118930     2.461509     3.910888
C       0.825067    -0.452857     2.798771
N       0.426180    -1.506168     3.027115
48
     -1091.835114     -1091.493665   5.04   5.65
C      -1.766626    -1.251788    -0.893434
C      -0.525329    -0.599199    -0.977246
C      -0.280009     0.357684    -1.977277
C      -1.317432     0.661185    -2.864439
C      -2.535203     0.003097    -2.788314
C      -2.764827    -0.953003    -1.812640
C      -2.034367    -2.268279     0.162557
C      -1.831458    -1.974434     1.509788
C      -2.094925    -2.925535     2.485010
C      -2.574415    -4.180504     2.125918
C      -2.787752    -4.478559     0.785075
C      -2.519193    -3.526666    -0.191219
H      -1.186445     1.421776    -3.620640
H      -3.316632     0.255092    -3.498425
H      -3.723682    -1.453748    -1.741439
H      -1.466746    -1.000053     1.808448
H      -1.919929    -2.676763     3.526523
H      -2.780663    -4.924797     2.888824
H      -3.160061    -5.456548     0.496260
H      -2.669935    -3.765844    -1.239618
C       0.516497    -0.973828    -0.033416
N       1.559508    -0.511851     0.386549
C       1.785831     1.543461    -1.147516
O       2.331482     2.611957    -1.336122
C       2.264193     0.731329     0.069541
C       2.357405     1.615238     1.324197
H       2.890078     2.521327     1.025564
H       2.982494     1.085337     2.048935
C       3.692962     0.297148    -0.326452
H       3.663282    -0.291653    -1.247346
H       4.331078     1.169410    -0.477856
H       4.098781    -0.329224     0.469706
N       0.971524     1.012428    -2.151266
C       1.195058     1.658295    -3.452110
H       2.261560     1.840458    -3.570074
H       0.860530     0.981302    -4.238842
H       0.676559     2.618373    -3.537361
C       1.061554     2.058455     2.041327
C      -0.012959     2.602051     1.085466
C       1.434957     3.149484     3.066435
H       0.399343     3.424006     0.494578
H      -0.386321     1.831872     0.407743
H      -0.866741     2.976168     1.657072
H       2.210333     2.794604     3.750631
H       1.808991     4.032519     2.541042
H       0.561666     3.438194     3.656652
C       0.486742     0.937346     2.816390
N       0.023187     0.117593     3.475055
48
     -1091.835187     -1091.492940   5.00   6.11
C      -1.897173     0.671145     0.392355
C      -0.702672     0.764246    -0.339618
C       0.076897     1.929975    -0.294271
C      -0.271043     2.938381     0.602749
C      -1.410404     2.815793     1.382452
C      -2.232224     1.705991     1.259373
C      -2.846923    -0.467063     0.225933
C      -2.442193    -1.801235     0.244086
C      -3.371470    -2.821409     0.095054
C      -4.719361    -2.528829    -0.076670
C      -5.133305    -1.202923    -0.100633
C      -4.202726    -0.182695     0.048300
H       0.350970     3.821692     0.686218
H      -1.667330     3.606263     2.080334
H      -3.131115     1.623736     1.859223
H      -1.402290    -2.049000     0.401381
H      -3.036479    -3.853484     0.119876
H      -5.442325    -3.330249    -0.191998
H      -6.182032    -0.959541    -0.239598
H      -4.529166     0.851766     0.009242
C      -0.223062    -0.348471    -1.141527
N       0.879680    -0.759144    -1.471611
C       2.166764     1.336175    -1.581832
O       3.066259     1.761550    -2.280410
C       2.185656    -0.135101    -1.110532
C       2.523509    -0.112576     0.403926
H       2.037339     0.743080     0.880444
H       3.597518     0.094175     0.444210
C       3.259462    -0.864909    -1.919405
H       4.247327    -0.452216    -1.711457
H       3.246900    -1.928352    -1.687207
H       3.057807    -0.746275    -2.984322
N       1.146147     2.179103    -1.199465
C       1.238735     3.540941    -1.743279
H       1.556555     3.484345    -2.783050
H       0.256045     4.008305    -1.686925
H       1.969372     4.146179    -1.197165
C       2.255283    -1.340379     1.318721
C       3.225593    -1.253890     2.517530
C       2.391262    -2.718266     0.653506
H       3.143899    -0.285733     3.018983
H       3.003932    -2.037282     3.246482
H       4.253649    -1.382127     2.167227
H       3.420208    -2.871437     0.319798
H       2.150314    -3.498255     1.380927
H       1.718174    -2.822832    -0.198731
C       0.899932    -1.229355     1.895050
N      -0.115814    -1.143134     2.424933
