%mem=8GB
%chk=rxn_0211.chk
%nprocshared=8
#p opt=nomicro nosymm def2svpp external='gaussian_xtb.py' iop(2/9=2000)

Title Card Required

0 1
 C                 -2.06679400   -2.33448300    0.19439300
 C                 -3.16846600   -1.33317800   -0.12777600
 C                 -3.11474200   -0.16146300    0.84508300
 C                 -1.73344700    0.50266800    0.89768700
 C                 -0.55853500   -0.50044700    1.11036300
 C                 -0.71216900   -1.64757500    0.08829000
 H                 -3.84248900    0.59623500    0.54114800
 H                 -3.03545000   -0.97041500   -1.15048300
 H                 -4.14773800   -1.81326800   -0.07028900
 H                 -2.20348300   -2.73544700    1.19978200
 H                 -2.10404400   -3.17112500   -0.50693300
 H                 -1.55204300    0.93012200   -0.09808000
 H                 -0.61385600   -1.24413500   -0.92229000
 H                  0.09267000   -2.36705500    0.24744700
 H                 -3.40308200   -0.50814300    1.83620200
 C                 -1.74499000    1.64679100    1.87674600
 H                 -2.66820500    1.76269600    2.43356700
 C                 -0.76622700    2.51457600    2.06024500
 H                  0.16723700    2.45061200    1.53032800
 H                 -0.85514000    3.31392700    2.77767700
 C                 -0.40659600   -1.10100000    2.51017900
 C                  0.71086500   -1.75576600    2.79214100
 H                  1.50907900   -1.86160900    2.07945200
 H                  0.87810800   -2.19281500    3.76207100
 C                 -1.47216200   -0.96453000    3.55340600
 H                 -1.78294200    0.07104600    3.65603300
 H                 -2.34406200   -1.57017800    3.30995700
 H                 -1.08642400   -1.30681100    4.51101400
 O                  0.68924500    0.17938700    0.93472600
 C                  1.11052600    0.56558400   -0.35566100
 H                  0.29857000    1.01026500   -0.94656000
 H                  1.50238200   -0.30637100   -0.90839400
 C                  2.21839400    1.56118500   -0.18522400
 H                  2.94249900    1.28948700    0.56927000
 C                  2.32422000    2.68481100   -0.86773500
 H                  1.59866500    2.96902800   -1.61293700
 H                  3.14516800    3.36499100   -0.71889100

Refene: Auto
FixBond1: 18 22 3.19 3.04 2.89 2.74 2.58 2.43 2.28 2.13 1.98 1.82 1.67 1.52 0.00 0.00 0.00 0.00 0.00 0.00
FixBond2: 4 5 0.00 0.00 0.00 0.00 0.00 0.00 1.52 1.67 1.82 1.98 2.13 2.28 2.43 2.58 2.74 2.89 3.04 3.19


