%mem=1GB
%nprocs=1
#p opt=(nomicro,gdiis,loose,modredundant,maxstep=20,notrust,gic) def2svpp external='Gaussian_xtb.py' iop(2/9=2000) nosymm

F(8,12); F(4,15); 

0 1
 C                  0.81023800   -1.19519300    0.42565700
 H                  1.52726800   -1.91040600    0.85714100
 H                  0.76103100   -0.35356000    1.13622200
 C                  1.23028900   -0.75040400   -0.94170600
 H                  2.16663300   -0.24983000   -1.15760600
 C                  0.27028400   -1.08964300   -1.82893600
 H                  0.29258100   -0.90468800   -2.89750000
 C                 -0.52761400   -1.82575600    0.19027400
 H                 -1.13650300   -2.26608900    0.97077600
 C                 -0.82242400   -1.75880700   -1.12496200
 H                 -1.72108300   -2.13576400   -1.60091500
 C                 -1.16193760    1.45517041    0.90974748
 H                 -1.18960312    1.60488726    1.98587648
 H                 -1.99930300    0.95023095    0.44578138
 C                 -0.15310026    1.91777163    0.15854165
 H                 -0.16570999    1.76068198   -0.91991499
 N                  0.92567407    2.66369785    0.60376277
 H                  1.77685540    2.54838057    0.07543160
 H                  1.10268317    2.62011289    1.60024512

Refene: Auto
FixBond1: 8 12 3.19 3.04 2.89 2.74 2.58 2.43 2.28 2.13 1.98 1.82 1.67 1.52 0.00 0.00
FixBond2: 4 15 0.00 0.00 3.19 3.04 2.89 2.74 2.58 2.43 2.28 2.13 1.98 1.82 1.67 1.52

