%mem=1GB
%nprocs=1
#p opt=(nomicro,gdiis,loose,modredundant,maxstep=20,notrust,gic) def2svpp external='Gaussian_xtb.py' iop(2/9=2000) nosymm

F(3,10); 

0 1
 C             0.262793000000     -0.879729000000      0.106999000000
 C             1.634050000000     -0.815267000000     -0.389158000000
 C             2.337700000000      0.320902000000     -0.284342000000
 C            -0.414845000000      0.243844000000      0.382448000000
 H            -0.205829000000     -1.852988000000      0.229280000000
 H             2.082261000000     -1.709294000000     -0.814863000000
 H             3.375111000000      0.365028000000     -0.606651000000
 H            -1.448568000000      0.201854000000      0.720942000000
 C             0.208678000000      1.597580000000      0.143033000000
 H             0.040682000000      1.840389000000     -0.923233000000
 C             1.723014000000      1.527466000000      0.372887000000
 H             1.921041000000      1.472800000000      1.459233000000
 H             2.196558000000      2.450985000000      0.020238000000
 C            -0.437493000000      2.694968000000      0.987614000000
 H             0.003642000000      3.672778000000      0.766750000000
 H            -1.514045000000      2.758963000000      0.796058000000
 H            -0.296151000000      2.491806000000      2.055458000000

Refene: Auto
FixBond1: 3 10 2.25 2.14 2.03 1.93 1.82 1.71 1.60 1.50 1.39 1.28 1.18 1.07

