%mem=8GB
%chk=rxn_0214.chk
%nprocshared=8
#p opt=nomicro nosymm def2svpp external='gaussian_xtb.py' iop(2/9=2000)

Title Card Required

0 1
 C                 -0.49739327    3.55851878    0.23913759
 H                  0.41538449    4.09754532    0.48430017
 H                 -0.73388666    3.74218288   -0.80656195
 H                 -1.30577027    3.95149986    0.85139937
 C                 -0.31984642    2.06009715    0.48544838
 H                 -0.09693026    1.90089593    1.54545834
 H                 -1.25412837    1.54843620    0.25561004
 C                  0.81343943    1.52229668   -0.33200288
 H                  1.76551448    1.99335623   -0.11682463
 C                  0.76912516    0.59132784   -1.27282312
 H                  1.68762617    0.33151157   -1.78671336
 C                 -0.42232906   -0.18404821   -1.74133362
 H                 -0.63877748    0.10267840   -2.77550660
 H                 -1.30645970    0.04569938   -1.14958681
 C                 -0.15946304   -1.69377543   -1.71344807
 H                 -1.06507104   -2.21342877   -2.03562479
 H                  0.63313883   -1.93158165   -2.42741089
 C                  0.26350379   -2.21352139   -0.33787155
 H                  0.43580768   -3.29043815   -0.40842122
 H                  1.20282088   -1.73988993   -0.04684106
 C                 -0.77628752   -1.94016457    0.75197191
 H                 -1.51063617   -1.22587968    0.36779371
 H                 -1.30224849   -2.85359823    1.02792228
 C                 -0.15552571   -1.32201162    1.96715660
 H                 -0.70217448   -1.54938061    2.90581628
 O                  0.83555627   -0.64774051    1.97972247

Refene: Auto
FixBond1: 6 26 2.25 2.14 2.03 1.93 1.82 1.71 1.60 1.50 1.39 1.28 1.18 1.07
FixBond2: 10 24 2.98 2.84 2.70 2.56 2.41 2.27 2.13 1.99 1.85 1.70 1.56 1.42


