%mem=8GB
%chk=rxn_0217.chk
%nprocshared=8
#p opt=nomicro nosymm def2svpp external='gaussian_xtb.py' iop(2/9=2000)

Title Card Required

0 1
 C                 -0.81598500   -4.03514345    0.13246064
 H                 -1.81419908   -3.64163204   -0.02980101
 H                 -0.72576659   -4.38408325    1.15904874
 H                 -0.61651068   -4.87142376   -0.53187803
 C                  0.21246864   -2.95699869   -0.09557372
 O                  1.39520357   -3.12041851   -0.21692321
 O                 -0.41795355   -1.78296982   -0.16882566
 O                  0.40101420   -0.64632490   -0.29346297
 H                  1.05575907   -0.84467155   -1.03761326
 C                  0.23767666    2.63136627   -0.31380769
 H                  0.90794534    2.20286355   -1.07270553
 C                  1.06452823    3.06460458    0.89593869
 H                  1.77375935    3.82875200    0.58992323
 H                  0.41899665    3.48208301    1.66635320
 H                  1.62464993    2.22805922    1.31054326
 C                 -0.49519242    3.82281485   -0.93827799
 H                  0.20878821    4.62162781   -1.15404651
 H                 -0.98373419    3.52374253   -1.86147435
 H                 -1.25491027    4.18889641   -0.25228792
 N                 -0.74863967    1.60895294   -0.07749882
 C                 -0.92376643    1.02728550    1.01691444
 H                 -1.70216667    0.27745639    1.07360672
 H                 -0.35662509    1.19979065    1.93059158

Refene: Auto
FixBond1: 8 20 0.00 0.00 0.00 2.47 2.33 2.19 2.06 1.92 1.78 1.64 1.51 1.37 0.00 0.00 0.00 0.00 0.00 0.00







FixBond2: 7 8 0.00 0.00 0.00 0.00 0.00 0.00 1.32 1.45 1.58 1.72 1.85 1.98 2.11 2.24 2.38 2.51 2.64 2.77


