%mem=1GB
%nprocs=1
#p opt=(nomicro,gdiis,loose,maxstep=20,notrust,gic) nosymm def2svpp
external='gaussian_xtb.py' iop(2/9=2000)

F(11,14);

0 1
 C                  0.49886400    0.36856000   -0.09975500
 C                  1.84429500    0.35406900   -0.21331400
 C                 -0.20530700    1.59874900    0.17688600
 H                 -0.06753400   -0.55379300   -0.19104600
 H                  2.37770100   -0.57884400   -0.37631000
 C                  1.89058200    2.85040800    0.01202900
 C                  2.63417600    1.56138000   -0.03515700
 C                  3.96953400    1.47556900    0.14959600
 H                  4.57384700    2.34008300    0.40151200
 H                  4.47517200    0.51776900    0.07590500
 C                  2.47590600    4.04585800   -0.21811200
 H                  1.90135300    4.96385200   -0.14282000
 H                  3.51708300    4.13200000   -0.50893400
 N                  0.45737000    2.77339100    0.24277500
 N                 -1.66422063    1.56123509    0.35313508
 H                 -2.10885205    1.90488621   -0.47403286
 H                 -1.95553531    0.61953589    0.52147515

Refene: Auto
FixBond1: 8 11 0.00 0.00 2.89 2.74 2.58 2.43 2.28 2.13 1.98 1.82 1.67 1.52

