%mem=8GB
%chk=rxn_0203.chk
%nprocshared=8
#p opt=nomicro nosymm def2svpp external='gaussian_xtb.py' iop(2/9=2000)

Title Card Required

0 1
 C                  2.57131500   -0.50566400   -0.01629700
 C                  1.16357100   -0.49188500   -0.00789700
 C                  0.48345400    0.71074200    0.00821500
 C                  1.21508200    1.88955100    0.01598900
 C                  2.60232600    1.86519300    0.00767700
 C                  3.30275200    0.66847900   -0.00871800
 C                  0.71090300   -1.87795600   -0.01938700
 H                 -0.59579300    0.73438100    0.01476100
 H                  0.70013200    2.83842300    0.02865700
 H                  3.14996700    2.79631200    0.01401100
 H                  4.38263300    0.65395900   -0.01518900
 C                  1.94228800   -2.69239700   -0.03399200
 N                  3.00803500   -1.80560300   -0.03369400
 H                  3.97098500   -2.09122000   -0.03552200
 C                 -0.54717700   -2.32411100   -0.01715400
 H                 -0.77820300   -3.37428900   -0.02669900
 H                 -1.38020700   -1.64374200   -0.00579300
 C                  2.05966800   -4.02228500   -0.04567800
 H                  3.02187900   -4.50321800   -0.05551500
 H                  1.19580200   -4.65791700   -0.04617700
 C                  0.04635672   -1.82411958    3.20058482
 H                  0.39045591   -0.81486889    3.11165345
 H                 -0.98590621   -2.05201562    3.03506547
 C                  0.91345768   -2.81472879    3.52213784
 H                  0.56935849   -3.82397948    3.61106921
 H                  1.94572061   -2.58683275    3.68765719

Refene: Auto
FixBond1: 15 21 3.19 3.04 2.89 2.74 2.58 2.43 2.28 2.13 1.98 1.82 1.67 1.52
FixBond2: 18 24 3.19 3.04 2.89 2.74 2.58 2.43 2.28 2.13 1.98 1.82 1.67 1.52


