%mem=8GB
%chk=rxn_0220.chk
%nprocshared=8
#p opt=nomicro nosymm def2svpp external='gaussian_xtb.py' iop(2/9=2000)

Title Card Required

0 1
 C                  1.18238300   -1.30212500   -0.05392400
 C                  0.65119900    0.91146100   -0.03935400
 H                  1.61408900   -2.25545700    0.23156200
 H                  0.60411200    1.95330500    0.25918600
 C                  1.34147300    0.59945500   -1.34546400
 H                  1.52783200    1.33612500   -2.10334100
 C                  1.65221000   -0.69456000   -1.35385600
 H                  2.15068200   -1.25656900   -2.12033400
 C                 -0.63086000    0.11703200    0.02416100
 H                 -1.60252400    0.57051500    0.06834800
 C                 -0.32033200   -1.17682800    0.01589400
 H                 -0.98042600   -2.02227100    0.05174600
 C                  1.48787400   -0.06391300    0.81291400
 O                  2.14194000    0.08654100    1.78895900

Refene: Auto
FixBond1: 1 13 1.52 1.67 1.82 1.98 2.13 2.28 2.43 2.58 2.74 2.89 3.04 3.19
FixBond2: 2 13 1.52 1.67 1.82 1.98 2.13 2.28 2.43 2.58 2.74 2.89 3.04 3.19

