%mem=8GB
%chk=rxn_0212.chk
%nprocshared=8
#p opt=nomicro nosymm def2svpp external='gaussian_xtb.py' iop(2/9=2000)

Title Card Required

0 1
 C                 -0.05399455    0.37020976    0.01523933
 C                 -0.42585307    1.17612896    1.24314880
 C                  0.26401711    2.52513877    1.24768918
 C                 -0.02779611    3.29531658   -0.02440136
 C                  0.34483173    2.48968753   -1.25229174
 C                 -0.34355596    1.14004277   -1.25703867
 H                 -0.07888951    3.11962138    2.13389324
 H                 -1.53727706    1.32610227    1.26781868
 H                 -0.14232021    0.60641588    2.16600756
 H                  1.03707657    0.11258537    0.05488941
 H                 -1.11929348    3.55119401   -0.06322273
 H                  0.54440216    4.25916773   -0.01975497
 H                  0.06089546    3.05914540   -2.17513725
 H                  1.45646621    2.34090153   -1.27682083
 H                 -1.45090688    1.28652052   -1.36030593
 H                  0.00168332    0.54550465   -2.14243694
 H                  1.37136304    2.37750931    1.34848544
 C                 -0.84192493   -0.95293730    0.00834173
 H                 -1.44786317   -1.01181089    0.88826942
 H                 -1.46764744   -0.99092250   -0.85879636
 N                  0.09805469   -2.08287308   -0.01581317
 C                  0.16856528   -2.69026290    1.32097622
 H                 -0.82184785   -2.84327043    1.69590359
 H                  0.67577311   -3.63038672    1.25927193
 H                  0.70309461   -2.03924502    1.98078991
 C                 -0.36573135   -3.08542725   -0.98570370
 H                  0.30138053   -3.92198874   -0.98054693
 H                 -1.34913250   -3.41179618   -0.71867282
 H                 -0.38702770   -2.65224679   -1.96386584
 O                  1.33154238   -1.63878385   -0.37760439

Refene: Auto
FixBond1: 10 30 1.75 1.65 1.55 1.46 1.36 1.26 1.16 1.07 0.97 0.00 0.00 0.00
FixBond2: 18 21 0.00 0.00 0.00 1.47 1.62 1.76 1.91 2.06 2.21 2.35 2.50 2.65


