%mem=1GB
%nprocs=1
#p opt=(nomicro,gdiis,loose,modredundant,maxstep=20,notrust,gic) def2svpp external='Gaussian_xtb.py' iop(2/9=2000) nosymm

F(1,16); F(4,11); 

0 1
 C            -0.891511000000     -1.689201000000     -0.815987000000
 H            -1.248281000000     -2.191164000000     -1.713018000000
 H            -1.599426000000     -1.160290000000     -0.170823000000
 C             0.904374000000     -1.619131000000      1.606917000000
 H             0.528359000000     -2.634690000000      1.774005000000
 H             1.356614000000     -1.073571000000      2.432243000000
 C             0.543848000000      2.240502000000      1.085611000000
 H             1.562829000000      1.844921000000      1.028676000000
 H             0.612834000000      3.334594000000      1.031749000000
 H             0.075730000000      1.958907000000      2.030268000000
 C            -0.286334000000      1.744940000000     -0.075755000000
 C             0.372584000000      1.785058000000     -1.433001000000
 H             1.123318000000      0.986056000000     -1.471679000000
 H            -0.365866000000      1.622631000000     -2.219890000000
 H             0.899081000000      2.733080000000     -1.589377000000
 O            -1.425075000000      1.344827000000      0.074823000000
 N             0.853916000000     -1.042608000000      0.472523000000
 N             0.363267000000     -1.718336000000     -0.592734000000

Refene: Auto
FixBond1: 1 16 2.98 2.84 2.70 2.56 2.41 2.27 2.13 1.99 1.85 1.70 1.56 1.42 0.00
FixBond2: 4 11 0.00 3.19 3.04 2.89 2.74 2.58 2.43 2.28 2.13 1.98 1.82 1.67 1.52

