%mem=1GB
%nprocs=1
#p opt=(nomicro,gdiis,loose,modredundant,maxstep=20,notrust,gic) def2svpp external='Gaussian_xtb.py' iop(2/9=2000) nosymm

F(6,15); F(9,18); 

0 1
 C            -2.592704000000      1.218818000000     -0.777458000000
 H            -1.901273000000      2.012177000000     -0.467390000000
 H            -2.863930000000      1.399414000000     -1.822769000000
 H            -3.503451000000      1.325580000000     -0.179841000000
 C            -1.957634000000     -0.159950000000     -0.597863000000
 H            -1.121030000000     -0.270487000000     -1.301417000000
 H            -2.685166000000     -0.937576000000     -0.870094000000
 C            -1.447390000000     -0.423533000000      0.821745000000
 H            -0.894808000000     -1.372160000000      0.831287000000
 H            -0.721010000000      0.353566000000      1.098357000000
 C            -2.555004000000     -0.474983000000      1.873565000000
 H            -2.150052000000     -0.732075000000      2.857295000000
 H            -3.066251000000      0.488095000000      1.971699000000
 H            -3.308046000000     -1.228039000000      1.612595000000
 C             1.728163000000     -1.158448000000     -1.825608000000
 H             1.469342000000     -0.319546000000     -2.465965000000
 H             1.752376000000     -2.138677000000     -2.292522000000
 C             2.004111000000     -1.002638000000     -0.529919000000
 H             2.262744000000     -1.854392000000      0.096113000000
 C             1.995457000000      0.294859000000      0.189960000000
 O             2.277475000000      0.323690000000      1.376767000000
 C             1.638037000000      1.555534000000     -0.566350000000
 H             2.354577000000      1.735398000000     -1.375758000000
 H             0.644682000000      1.469419000000     -1.020818000000
 H             1.651721000000      2.399267000000      0.124554000000

Refene: Auto
FixBond1: 6 15 2.25 2.14 2.03 1.93 1.82 1.71 1.60 1.50 1.39 1.28 1.18 1.07 0.00 0.00
FixBond2: 9 18 0.00 0.00 2.25 2.14 2.03 1.93 1.82 1.71 1.60 1.50 1.39 1.28 1.18 1.07

