%mem=1GB
%nprocs=1
#p opt=(nomicro,gdiis,loose,modredundant,maxstep=20,notrust,gic) def2svpp external='Gaussian_xtb.py' iop(2/9=2000) nosymm

F(11,22); F(5,24); 

0 1
 C             0.762397000000     -0.198193000000     -1.396870000000
 H             1.101899000000     -0.568778000000     -2.373621000000
 C             0.931769000000     -1.275225000000     -0.278043000000
 H             1.359302000000     -2.207440000000     -0.671519000000
 C             1.741965000000     -0.866355000000      0.909283000000
 H             1.843127000000     -1.580367000000      1.725590000000
 C             2.399107000000      0.303316000000      0.945371000000
 H             3.029599000000      0.544964000000      1.797497000000
 C             2.241140000000      1.307297000000     -0.097468000000
 H             2.760497000000      2.255026000000      0.021284000000
 C             1.430102000000      1.115685000000     -1.149464000000
 H             1.295295000000      1.901709000000     -1.891356000000
 C            -0.793261000000     -0.346261000000     -1.303132000000
 C            -0.624019000000     -1.422263000000     -0.184902000000
 C            -1.723399000000      0.685453000000     -0.583540000000
 C            -1.489572000000     -0.799137000000      0.959591000000
 H            -1.002790000000     -2.418595000000     -0.430357000000
 H            -2.336131000000      1.307877000000     -1.237366000000
 H            -1.892943000000     -1.505288000000      1.686900000000
 O            -2.556642000000     -0.244673000000      0.151391000000
 H            -1.273663000000     -0.694982000000     -2.221826000000
 C            -0.970177000000      1.374746000000      0.536911000000
 H            -0.593324000000      2.387880000000      0.517356000000
 C            -0.825073000000      0.454517000000      1.493386000000
 H            -0.302326000000      0.542292000000      2.435667000000

Refene: Auto
FixBond1: 11 22 2.89 2.74 2.58 2.43 2.28 2.13 1.98 1.82 1.67 1.52
FixBond2: 5 24 2.89 2.74 2.58 2.43 2.28 2.13 1.98 1.82 1.67 1.52

