%mem=8GB
%chk=rxn_0207.chk
%nprocshared=8
#p opt=nomicro nosymm def2svpp external='gaussian_xtb.py' iop(2/9=2000)

Title Card Required

0 1
 C                  0.02224202   -1.82567528    0.28017526
 H                  0.77152074   -1.14660861    0.66844639
 C                 -1.18128601   -1.35714787   -0.06445210
 H                 -1.92430276   -2.03973686   -0.45119441
 C                 -1.54468951    0.02758764    0.05404949
 H                 -2.59530041    0.20865831    0.23240825
 C                 -0.68665345    1.06461402   -0.04053699
 C                  0.77121504    0.86865293   -0.19831772
 O                  1.21982149   -0.08319971   -0.80529327
 C                  1.69888229    1.89162108    0.42013456
 H                  1.51498352    2.87621347   -0.00326767
 H                  1.55123913    1.93645485    1.49657124
 H                  2.72582852    1.60087536    0.21316837
 C                 -1.13934145    2.49529110    0.00615566
 H                 -1.82939532    2.71164418   -0.80796551
 H                 -1.63822670    2.71473805    0.94889057
 H                 -0.27223359    3.14436670   -0.08931452
 C                  0.43766325   -3.24916061    0.17325678
 H                 -0.36518401   -3.86599244   -0.22262155
 H                  1.30724681   -3.33897503   -0.47834382
 H                  0.72705910   -3.63073829    1.15277906

Refene: Auto
FixBond1: 1 9 0.00 0.00 0.00 0.00 2.41 2.27 2.13 1.99 1.85 1.70 1.56 1.42

