%mem=1GB
%nprocs=1
#p opt=(nomicro,gdiis,loose,modredundant,maxstep=20,notrust,gic) def2svpp external='Gaussian_xtb.py' iop(2/9=2000) nosymm

F(9,12); B(1,4); 

0 1
 C             0.034408000000     -2.762913000000      0.172314000000
 H            -0.623734000000     -3.116656000000      0.979307000000
 H            -0.018844000000     -3.525350000000     -0.619365000000
 C             1.471120000000     -2.750214000000      0.715753000000
 H             1.558691000000     -1.991032000000      1.504639000000
 C             2.479266000000     -2.458472000000     -0.360012000000
 H             2.343080000000     -3.013694000000     -1.291069000000
 C            -0.513238000000     -1.461333000000     -0.375325000000
 C             3.515352000000     -1.635535000000     -0.239029000000
 H             3.678925000000     -1.061911000000      0.671349000000
 H             4.230053000000     -1.497993000000     -1.044508000000
 C             0.061714000000     -0.272812000000     -0.118616000000
 H            -0.347608000000      0.665527000000     -0.468352000000
 H             0.997221000000     -0.221826000000      0.419624000000
 C             1.779993000000     -4.121344000000      1.342956000000
 H             2.787552000000     -4.132282000000      1.768179000000
 H             1.063016000000     -4.358712000000      2.137196000000
 H             1.724990000000     -4.914920000000      0.588186000000
 N            -1.634902000000     -1.607851000000     -1.206468000000
 C            -2.195667000000     -0.388348000000     -1.765055000000
 H            -2.984793000000     -0.653218000000     -2.475395000000
 H            -2.628989000000      0.279255000000     -0.997787000000
 H            -1.420516000000      0.165557000000     -2.303918000000
 C            -2.668464000000     -2.555096000000     -0.791416000000
 H            -3.378044000000     -2.690725000000     -1.613799000000
 H            -2.241682000000     -3.533270000000     -0.562472000000
 H            -3.231076000000     -2.206663000000      0.094128000000

Refene: Auto
FixBond1: 9 12 3.19 3.04 2.89 2.74 2.58 2.43 2.28 2.13 1.98 1.82 1.67 1.52 0.00 0.00 0.00 0.00 0.00
FixBond2: 1 4 0.00 0.00 0.00 0.00 0.00 0.00 1.67 1.82 1.98 2.13 2.28 2.43 2.58 2.74 2.89 3.04 3.19

