%mem=1GB
%nprocs=1
#p opt=(nomicro,gdiis,loose,modredundant,maxstep=20,notrust,gic) def2svpp external='Gaussian_xtb.py' iop(2/9=2000) nosymm

F(1,15); B(10,21); 

0 1
 O            -1.421147000000      0.063676000000     -1.025641000000
 C            -3.335157000000     -0.725126000000      0.064484000000
 H            -3.694142000000     -1.373673000000      0.872835000000
 H            -3.639016000000      0.309724000000      0.228937000000
 H            -3.709844000000     -1.061277000000     -0.903454000000
 C            -1.273906000000     -0.253286000000      1.294174000000
 H            -1.604510000000     -0.891209000000      2.122743000000
 H            -0.187619000000     -0.269899000000      1.205578000000
 H            -1.618414000000      0.773253000000      1.425891000000
 C            -1.382197000000     -2.181088000000     -0.261994000000
 H            -1.746929000000     -2.819327000000      0.553940000000
 H            -1.885153000000     -2.452898000000     -1.196889000000
 C             0.094825000000     -2.265296000000     -0.412316000000
 H             0.521634000000     -1.598238000000     -1.159331000000
 C             0.858780000000     -3.105351000000      0.285281000000
 H             0.390013000000     -3.753793000000      1.029370000000
 C             2.338212000000     -3.244426000000      0.123510000000
 H             2.606852000000     -4.264680000000     -0.177335000000
 H             2.723725000000     -2.551209000000     -0.629232000000
 H             2.856190000000     -3.050892000000      1.071046000000
 N            -1.832726000000     -0.731792000000     -0.019925000000

Refene: Auto
FixBond1: 1 15 2.98 2.84 2.70 2.56 2.41 2.27 2.13 1.99 1.85 1.70 1.56 1.42 0.00
FixBond2: 10 21 0.00 0.00 1.62 1.76 1.91 2.06 2.21 2.35 2.50 2.65 2.79 2.94 3.09

